# step Hamiltonian StressXX CellTensor1 CellTensor2 CellTensor3 CellTensor4 
0 5.8861782040e+00 2.0588186272e-01 2.8378601290e+00 -4.9153179282e+00 2.8378601290e+00 4.9153179282e+00 
100 5.9090779464e+00 2.4733518460e-01 2.8378601290e+00 -4.9153179282e+00 2.8378601290e+00 4.9153179282e+00 
200 5.9314041513e+00 2.8550998439e-01 2.8335034698e+00 -4.9077719732e+00 2.8335034698e+00 4.9077719732e+00 
300 5.9538143766e+00 3.2064444083e-01 2.8284668565e+00 -4.8990483031e+00 2.8284668565e+00 4.8990483031e+00 
400 5.9763798718e+00 3.5302151497e-01 2.8228005866e+00 -4.8892340357e+00 2.8228005866e+00 4.8892340357e+00 
500 5.9990807949e+00 3.8283959925e-01 2.8165498636e+00 -4.8784074659e+00 2.8165498636e+00 4.8784074659e+00 
600 6.0217669997e+00 4.1013167744e-01 2.8097563524e+00 -4.8666407592e+00 2.8097563524e+00 4.8666407592e+00 
700 6.0440965082e+00 4.3463072184e-01 2.8024611707e+00 -4.8540051339e+00 2.8024611707e+00 4.8540051339e+00 
800 6.0654473636e+00 4.5557339193e-01 2.7947103099e+00 -4.8405802492e+00 2.7947103099e+00 4.8405802492e+00 
900 6.0848243377e+00 4.7150195065e-01 2.7865636462e+00 -4.8264698138e+00 2.7865636462e+00 4.8264698138e+00 
1000 6.1008549324e+00 4.8031820179e-01 2.7781076643e+00 -4.8118236234e+00 2.7781076643e+00 4.8118236234e+00 
1100 6.1120687309e+00 4.8008294720e-01 2.7694674606e+00 -4.7968583517e+00 2.7694674606e+00 4.7968583517e+00 
1200 6.1175686562e+00 4.7068875268e-01 2.7608045723e+00 -4.7818537889e+00 2.7608045723e+00 4.7818537889e+00 
1300 6.1176754610e+00 4.5496980515e-01 2.7522844875e+00 -4.7670965692e+00 2.7522844875e+00 4.7670965692e+00 
1400 6.1137792668e+00 4.3733822139e-01 2.7440233247e+00 -4.7527878156e+00 2.7440233247e+00 4.7527878156e+00 
1500 6.1074783783e+00 4.2112279207e-01 2.7360582699e+00 -4.7389919359e+00 2.7360582699e+00 4.7389919359e+00 
1600 6.0999261709e+00 4.0749249401e-01 2.7283660942e+00 -4.7256686968e+00 2.7283660942e+00 4.7256686968e+00 
1700 6.0917564130e+00 3.9617299810e-01 2.7209018082e+00 -4.7127401743e+00 2.7209018082e+00 4.7127401743e+00 
1800 6.0832721562e+00 3.8643535577e-01 2.7136248853e+00 -4.7001361741e+00 2.7136248853e+00 4.7001361741e+00 
1900 6.0746161989e+00 3.7761672182e-01 2.7065077278e+00 -4.6878088956e+00 2.7065077278e+00 4.6878088956e+00 
2000 6.0658631841e+00 3.6925763693e-01 2.6995346444e+00 -4.6757311608e+00 2.6995346444e+00 4.6757311608e+00 
2100 6.0570596642e+00 3.6108053117e-01 2.6926982564e+00 -4.6638901896e+00 2.6926982564e+00 4.6638901896e+00 
2200 6.0482398515e+00 3.5293383544e-01 2.6859962372e+00 -4.6522819518e+00 2.6859962372e+00 4.6522819518e+00 
2300 6.0394315968e+00 3.4474397766e-01 2.6794290351e+00 -4.6409072240e+00 2.6794290351e+00 4.6409072240e+00 
2400 6.0306586947e+00 3.3648262280e-01 2.6729984543e+00 -4.6297691315e+00 2.6729984543e+00 4.6297691315e+00 
2500 6.0219418404e+00 3.2814636403e-01 2.6667068260e+00 -4.6188717115e+00 2.6667068260e+00 4.6188717115e+00 
2600 6.0132990910e+00 3.1974474362e-01 2.6605565457e+00 -4.6082191135e+00 2.6605565457e+00 4.6082191135e+00 
2700 6.0047461416e+00 3.1129340495e-01 2.6545498304e+00 -4.5978151775e+00 2.6545498304e+00 4.5978151775e+00 
2800 5.9962965332e+00 3.0281027940e-01 2.6486886002e+00 -4.5876632290e+00 2.6486886002e+00 4.5876632290e+00 
2900 5.9879618326e+00 2.9431352855e-01 2.6429744304e+00 -4.5777659966e+00 2.6429744304e+00 4.5777659966e+00 
3000 5.9797518021e+00 2.8582048677e-01 2.6374085428e+00 -4.5681255965e+00 2.6374085428e+00 4.5681255965e+00 
3100 5.9716745623e+00 2.7734716666e-01 2.6319918163e+00 -4.5587435510e+00 2.6319918163e+00 4.5587435510e+00 
3200 5.9637367511e+00 2.6890807575e-01 2.6267248081e+00 -4.5496208252e+00 2.6267248081e+00 4.5496208252e+00 
3300 5.9559436750e+00 2.6051620123e-01 2.6216077786e+00 -4.5407578701e+00 2.6216077786e+00 4.5407578701e+00 
3400 5.9482994548e+00 2.5218308095e-01 2.6166407169e+00 -4.5321546668e+00 2.6166407169e+00 4.5321546668e+00 
3500 5.9408071632e+00 2.4391891497e-01 2.6118233659e+00 -4.5238107701e+00 2.6118233659e+00 4.5238107701e+00 
3600 5.9334689525e+00 2.3573269191e-01 2.6071552458e+00 -4.5157253489e+00 2.6071552458e+00 4.5157253489e+00 
3700 5.9262861739e+00 2.2763231630e-01 2.6026356751e+00 -4.5078972229e+00 2.6026356751e+00 4.5078972229e+00 
3800 5.9192594869e+00 2.1962472967e-01 2.5982637904e+00 -4.5003248965e+00 2.5982637904e+00 4.5003248965e+00 
3900 5.9123889582e+00 2.1171602185e-01 2.5940385633e+00 -4.4930065885e+00 2.5940385633e+00 4.4930065885e+00 
4000 5.9056741521e+00 2.0391153118e-01 2.5899588163e+00 -4.4859402593e+00 2.5899588163e+00 4.4859402593e+00 
4100 5.8991142106e+00 1.9621593355e-01 2.5860232364e+00 -4.4791236349e+00 2.5860232364e+00 4.4791236349e+00 
4200 5.8927079255e+00 1.8863332061e-01 2.5822303879e+00 -4.4725542286e+00 2.5822303879e+00 4.4725542286e+00 
4300 5.8864538018e+00 1.8116726809e-01 2.5785787232e+00 -4.4662293600e+00 2.5785787232e+00 4.4662293600e+00 
4400 5.8803501131e+00 1.7382089495e-01 2.5750665932e+00 -4.4601461723e+00 2.5750665932e+00 4.4601461723e+00 
4500 5.8743949500e+00 1.6659691457e-01 2.5716922557e+00 -4.4543016483e+00 2.5716922557e+00 4.4543016483e+00 
4600 5.8685862626e+00 1.5949767860e-01 2.5684538842e+00 -4.4486926243e+00 2.5684538842e+00 4.4486926243e+00 
4700 5.8629218955e+00 1.5252521458e-01 2.5653495749e+00 -4.4433158029e+00 2.5653495749e+00 4.4433158029e+00 
4800 5.8573996187e+00 1.4568125799e-01 2.5623773538e+00 -4.4381677650e+00 2.5623773538e+00 4.4381677650e+00 
4900 5.8520171531e+00 1.3896727943e-01 2.5595351828e+00 -4.4332449804e+00 2.5595351828e+00 4.4332449804e+00 
5000 5.8467721911e+00 1.3238450770e-01 2.5568209656e+00 -4.4285438183e+00 2.5568209656e+00 4.4285438183e+00 
5100 5.8416624142e+00 1.2593394926e-01 2.5542325532e+00 -4.4240605565e+00 2.5542325532e+00 4.4240605565e+00 
5200 5.8366855064e+00 1.1961640457e-01 2.5517677488e+00 -4.4197913900e+00 2.5517677488e+00 4.4197913900e+00 
5300 5.8318391648e+00 1.1343248188e-01 2.5494243130e+00 -4.4157324402e+00 2.5494243130e+00 4.4157324402e+00 
5400 5.8271211074e+00 1.0738260881e-01 2.5471999683e+00 -4.4118797621e+00 2.5471999683e+00 4.4118797621e+00 
5500 5.8225290788e+00 1.0146704200e-01 2.5450924034e+00 -4.4082293526e+00 2.5450924034e+00 4.4082293526e+00 
5600 5.8180608535e+00 9.5685875403e-02 2.5430992776e+00 -4.4047771574e+00 2.5430992776e+00 4.4047771574e+00 
5700 5.8137142378e+00 9.0039047179e-02 2.5412182250e+00 -4.4015190788e+00 2.5412182250e+00 4.4015190788e+00 
5800 5.8094870701e+00 8.4526345709e-02 2.5394468585e+00 -4.3984509820e+00 2.5394468585e+00 4.3984509820e+00 
5900 5.8053772203e+00 7.9147414809e-02 2.5377827735e+00 -4.3955687023e+00 2.5377827735e+00 4.3955687023e+00 
6000 5.8013825876e+00 7.3901758370e-02 2.5362235521e+00 -4.3928680516e+00 2.5362235521e+00 4.3928680516e+00 
6100 5.7975010984e+00 6.8788744604e-02 2.5347667665e+00 -4.3903448249e+00 2.5347667665e+00 4.3903448249e+00 
6200 5.7937307027e+00 6.3807610013e-02 2.5334099828e+00 -4.3879948066e+00 2.5334099828e+00 4.3879948066e+00 
6300 5.7900693711e+00 5.8957463235e-02 2.5321507646e+00 -4.3858137766e+00 2.5321507646e+00 4.3858137766e+00 
6400 5.7865150907e+00 5.4237288835e-02 2.5309866762e+00 -4.3837975165e+00 2.5309866762e+00 4.3837975165e+00 
6500 5.7830658613e+00 4.9645951161e-02 2.5299152865e+00 -4.3819418151e+00 2.5299152865e+00 4.3819418151e+00 
6600 5.7797196916e+00 4.5182198302e-02 2.5289341719e+00 -4.3802424746e+00 2.5289341719e+00 4.3802424746e+00 
6700 5.7764745954e+00 4.0844666228e-02 2.5280409193e+00 -4.3786953159e+00 2.5280409193e+00 4.3786953159e+00 
6800 5.7733285881e+00 3.6631883133e-02 2.5272331300e+00 -4.3772961837e+00 2.5272331300e+00 4.3772961837e+00 
6900 5.7702796833e+00 3.2542274019e-02 2.5265084218e+00 -4.3760409522e+00 2.5265084218e+00 4.3760409522e+00 
7000 5.7673258901e+00 2.8574165532e-02 2.5258644324e+00 -4.3749255299e+00 2.5258644324e+00 4.3749255299e+00 
7100 5.7644652104e+00 2.4725791059e-02 2.5252988221e+00 -4.3739458642e+00 2.5252988221e+00 4.3739458642e+00 
7200 5.7616956368e+00 2.0995296078e-02 2.5248092762e+00 -4.3730979459e+00 2.5248092762e+00 4.3730979459e+00 
7300 5.7590151509e+00 1.7380743757e-02 2.5243935078e+00 -4.3723778138e+00 2.5243935078e+00 4.3723778138e+00 
7400 5.7564217223e+00 1.3880120775e-02 2.5240492598e+00 -4.3717815588e+00 2.5240492598e+00 4.3717815588e+00 
7500 5.7539133076e+00 1.0491343347e-02 2.5237743074e+00 -4.3713053272e+00 2.5237743074e+00 4.3713053272e+00 
7600 5.7514878507e+00 7.2122634230e-03 2.5235664600e+00 -4.3709453249e+00 2.5235664600e+00 4.3709453249e+00 
7700 5.7491432823e+00 4.0406750288e-03 2.5234235631e+00 -4.3706978203e+00 2.5234235631e+00 4.3706978203e+00 
7800 5.7468775214e+00 9.7432071054e-04 2.5233435002e+00 -4.3705591472e+00 2.5233435002e+00 4.3705591472e+00 
7900 5.7446884756e+00 -1.9891019513e-03 2.5233241940e+00 -4.3705257080e+00 2.5233241940e+00 4.3705257080e+00 
8000 5.7425740434e+00 -4.8519337985e-03 2.5233636085e+00 -4.3705939758e+00 2.5233636085e+00 4.3705939758e+00 
8100 5.7405321157e+00 -7.6165475599e-03 2.5234597493e+00 -4.3707604966e+00 2.5234597493e+00 4.3707604966e+00 
8200 5.7385605779e+00 -1.0285341365e-02 2.5236106656e+00 -4.3710218913e+00 2.5236106656e+00 4.3710218913e+00 
8300 5.7366573129e+00 -1.2860732339e-02 2.5238144506e+00 -4.3713748572e+00 2.5238144506e+00 4.3713748572e+00 
8400 5.7348202035e+00 -1.5345150322e-02 2.5240692424e+00 -4.3718161697e+00 2.5240692424e+00 4.3718161697e+00 
8500 5.7330471355e+00 -1.7741031743e-02 2.5243732249e+00 -4.3723426829e+00 2.5243732249e+00 4.3723426829e+00 
8600 5.7313360008e+00 -2.0050813673e-02 2.5247246279e+00 -4.3729513306e+00 2.5247246279e+00 4.3729513306e+00 
8700 5.7296847010e+00 -2.2276928096e-02 2.5251217274e+00 -4.3736391272e+00 2.5251217274e+00 4.3736391272e+00 
8800 5.7280911503e+00 -2.4421796427e-02 2.5255628463e+00 -4.3744031675e+00 2.5255628463e+00 4.3744031675e+00 
8900 5.7265532793e+00 -2.6487824277e-02 2.5260463539e+00 -4.3752406272e+00 2.5260463539e+00 4.3752406272e+00 
9000 5.7250690383e+00 -2.8477396515e-02 2.5265706661e+00 -4.3761487626e+00 2.5265706661e+00 4.3761487626e+00 
9100 5.7236364007e+00 -3.0392872613e-02 2.5271342453e+00 -4.3771249104e+00 2.5271342453e+00 4.3771249104e+00 
9200 5.7222533664e+00 -3.2236582315e-02 2.5277356000e+00 -4.3781664872e+00 2.5277356000e+00 4.3781664872e+00 
9300 5.7209179649e+00 -3.4010821615e-02 2.5283732841e+00 -4.3792709885e+00 2.5283732841e+00 4.3792709885e+00 
9400 5.7196282586e+00 -3.5717849064e-02 2.5290458970e+00 -4.3804359882e+00 2.5290458970e+00 4.3804359882e+00 
9500 5.7183823457e+00 -3.7359882407e-02 2.5297520825e+00 -4.3816591374e+00 2.5297520825e+00 4.3816591374e+00 
9600 5.7171783630e+00 -3.8939095548e-02 2.5304905283e+00 -4.3829381631e+00 2.5304905283e+00 4.3829381631e+00 
9700 5.7160144885e+00 -4.0457615850e-02 2.5312599655e+00 -4.3842708674e+00 2.5312599655e+00 4.3842708674e+00 
9800 5.7148889439e+00 -4.1917521741e-02 2.5320591672e+00 -4.3856551253e+00 2.5320591672e+00 4.3856551253e+00 
9900 5.7137999965e+00 -4.3320840658e-02 2.5328869481e+00 -4.3870888839e+00 2.5328869481e+00 4.3870888839e+00 
10000 5.7127459618e+00 -4.4669547287e-02 2.5337421634e+00 -4.3885701604e+00 2.5337421634e+00 4.3885701604e+00 
10100 5.7117252045e+00 -4.5965562103e-02 2.5346237081e+00 -4.3900970405e+00 2.5346237081e+00 4.3900970405e+00 
10200 5.7107361406e+00 -4.7210750197e-02 2.5355305153e+00 -4.3916676767e+00 2.5355305153e+00 4.3916676767e+00 
10300 5.7097772382e+00 -4.8406920384e-02 2.5364615559e+00 -4.3932802863e+00 2.5364615559e+00 4.3932802863e+00 
10400 5.7088470188e+00 -4.9555824561e-02 2.5374158372e+00 -4.3949331499e+00 2.5374158372e+00 4.3949331499e+00 
10500 5.7079440583e+00 -5.0659157322e-02 2.5383924016e+00 -4.3966246092e+00 2.5383924016e+00 4.3966246092e+00 
10600 5.7070669868e+00 -5.1718555794e-02 2.5393903261e+00 -4.3983530650e+00 2.5393903261e+00 4.3983530650e+00 
10700 5.7062144900e+00 -5.2735599699e-02 2.5404087203e+00 -4.4001169756e+00 2.5404087203e+00 4.4001169756e+00 
10800 5.7053853084e+00 -5.3711811608e-02 2.5414467263e+00 -4.4019148547e+00 2.5414467263e+00 4.4019148547e+00 
10900 5.7045782377e+00 -5.4648657388e-02 2.5425035167e+00 -4.4037452694e+00 2.5425035167e+00 4.4037452694e+00 
11000 5.7037921286e+00 -5.5547546809e-02 2.5435782941e+00 -4.4056068385e+00 2.5435782941e+00 4.4056068385e+00 
11100 5.7030258860e+00 -5.6409834315e-02 2.5446702896e+00 -4.4074982301e+00 2.5446702896e+00 4.4074982301e+00 
11200 5.7022784686e+00 -5.7236819922e-02 2.5457787618e+00 -4.4094181603e+00 2.5457787618e+00 4.4094181603e+00 
11300 5.7015488883e+00 -5.8029750254e-02 2.5469029960e+00 -4.4113653911e+00 2.5469029960e+00 4.4113653911e+00 
11400 5.7008362088e+00 -5.8789819678e-02 2.5480423028e+00 -4.4133387282e+00 2.5480423028e+00 4.4133387282e+00 
11500 5.7001395450e+00 -5.9518171538e-02 2.5491960170e+00 -4.4153370199e+00 2.5491960170e+00 4.4153370199e+00 
11600 5.6994580617e+00 -6.0215899479e-02 2.5503634971e+00 -4.4173591547e+00 2.5503634971e+00 4.4173591547e+00 
11700 5.6987909721e+00 -6.0884048831e-02 2.5515441238e+00 -4.4194040601e+00 2.5515441238e+00 4.4194040601e+00 
11800 5.6981375367e+00 -6.1523618059e-02 2.5527372991e+00 -4.4214707005e+00 2.5527372991e+00 4.4214707005e+00 
11900 5.6974970618e+00 -6.2135560263e-02 2.5539424458e+00 -4.4235580757e+00 2.5539424458e+00 4.4235580757e+00 
12000 5.6968688978e+00 -6.2720784709e-02 2.5551590059e+00 -4.4256652196e+00 2.5551590059e+00 4.4256652196e+00 
12100 5.6962524380e+00 -6.3280158393e-02 2.5563864403e+00 -4.4277911984e+00 2.5563864403e+00 4.4277911984e+00 
12200 5.6956471165e+00 -6.3814507624e-02 2.5576242278e+00 -4.4299351092e+00 2.5576242278e+00 4.4299351092e+00 
12300 5.6950524070e+00 -6.4324619616e-02 2.5588718640e+00 -4.4320960786e+00 2.5588718640e+00 4.4320960786e+00 
12400 5.6944678206e+00 -6.4811244082e-02 2.5601288610e+00 -4.4342732612e+00 2.5601288610e+00 4.4342732612e+00 
12500 5.6938929047e+00 -6.5275094831e-02 2.5613947461e+00 -4.4364658386e+00 2.5613947461e+00 4.4364658386e+00 
12600 5.6933272408e+00 -6.5716851344e-02 2.5626690617e+00 -4.4386730179e+00 2.5626690617e+00 4.4386730179e+00 
12700 5.6927704433e+00 -6.6137160347e-02 2.5639513640e+00 -4.4408940306e+00 2.5639513640e+00 4.4408940306e+00 
12800 5.6922221570e+00 -6.6536637354e-02 2.5652412228e+00 -4.4431281315e+00 2.5652412228e+00 4.4431281315e+00 
12900 5.6916820565e+00 -6.6915868187e-02 2.5665382205e+00 -4.4453745975e+00 2.5665382205e+00 4.4453745975e+00 
13000 5.6911498436e+00 -6.7275410469e-02 2.5678419519e+00 -4.4476327265e+00 2.5678419519e+00 4.4476327265e+00 
13100 5.6906252461e+00 -6.7615795084e-02 2.5691520233e+00 -4.4499018368e+00 2.5691520233e+00 4.4499018368e+00 
13200 5.6901080163e+00 -6.7937527597e-02 2.5704680522e+00 -4.4521812657e+00 2.5704680522e+00 4.4521812657e+00 
13300 5.6895979292e+00 -6.8241089639e-02 2.5717896665e+00 -4.4544703687e+00 2.5717896665e+00 4.4544703687e+00 
13400 5.6890947811e+00 -6.8526940253e-02 2.5731165043e+00 -4.4567685192e+00 2.5731165043e+00 4.4567685192e+00 
13500 5.6885983881e+00 -6.8795517197e-02 2.5744482133e+00 -4.4590751068e+00 2.5744482133e+00 4.4590751068e+00 
13600 5.6881085846e+00 -6.9047238199e-02 2.5757844504e+00 -4.4613895374e+00 2.5757844504e+00 4.4613895374e+00 
13700 5.6876252221e+00 -6.9282502171e-02 2.5771248813e+00 -4.4637112319e+00 2.5771248813e+00 4.4637112319e+00 
13800 5.6871481679e+00 -6.9501690380e-02 2.5784691802e+00 -4.4660396258e+00 2.5784691802e+00 4.4660396258e+00 
13900 5.6866773035e+00 -6.9705167565e-02 2.5798170292e+00 -4.4683741688e+00 2.5798170292e+00 4.4683741688e+00 
14000 5.6862125236e+00 -6.9893283018e-02 2.5811681182e+00 -4.4707143236e+00 2.5811681182e+00 4.4707143236e+00 
14100 5.6857537351e+00 -7.0066371609e-02 2.5825221445e+00 -4.4730595659e+00 2.5825221445e+00 4.4730595659e+00 
14200 5.6853008557e+00 -7.0224754770e-02 2.5838788125e+00 -4.4754093838e+00 2.5838788125e+00 4.4754093838e+00 
14300 5.6848538130e+00 -7.0368741432e-02 2.5852378334e+00 -4.4777632771e+00 2.5852378334e+00 4.4777632771e+00 
14400 5.6844125434e+00 -7.0498628918e-02 2.5865989250e+00 -4.4801207569e+00 2.5865989250e+00 4.4801207569e+00 
14500 5.6839769913e+00 -7.0614703787e-02 2.5879618115e+00 -4.4824813456e+00 2.5879618115e+00 4.4824813456e+00 
14600 5.6835471081e+00 -7.0717242641e-02 2.5893262232e+00 -4.4848445759e+00 2.5893262232e+00 4.4848445759e+00 
14700 5.6831228514e+00 -7.0806512879e-02 2.5906918961e+00 -4.4872099909e+00 2.5906918961e+00 4.4872099909e+00 
14800 5.6827041841e+00 -7.0882773421e-02 2.5920585722e+00 -4.4895771433e+00 2.5920585722e+00 4.4895771433e+00 
14900 5.6822910740e+00 -7.0946275381e-02 2.5934259989e+00 -4.4919455958e+00 2.5934259989e+00 4.4919455958e+00 
15000 5.6818834926e+00 -7.0997262704e-02 2.5947939290e+00 -4.4943149202e+00 2.5947939290e+00 4.4943149202e+00 
15100 5.6814814150e+00 -7.1035972766e-02 2.5961621205e+00 -4.4966846974e+00 2.5961621205e+00 4.4966846974e+00 
15200 5.6810848189e+00 -7.1062636931e-02 2.5975303364e+00 -4.4990545169e+00 2.5975303364e+00 4.4990545169e+00 
15300 5.6806936843e+00 -7.1077481077e-02 2.5988983449e+00 -4.5014239771e+00 2.5988983449e+00 4.5014239771e+00 
15400 5.6803079928e+00 -7.1080726087e-02 2.6002659188e+00 -4.5037926846e+00 2.6002659188e+00 4.5037926846e+00 
15500 5.6799277273e+00 -7.1072588301e-02 2.6016328357e+00 -4.5061602541e+00 2.6016328357e+00 4.5061602541e+00 
15600 5.6795528714e+00 -7.1053279940e-02 2.6029988779e+00 -4.5085263086e+00 2.6029988779e+00 4.5085263086e+00 
15700 5.6791834095e+00 -7.1023009499e-02 2.6043638321e+00 -4.5108904787e+00 2.6043638321e+00 4.5108904787e+00 
15800 5.6788193256e+00 -7.0981982107e-02 2.6057274896e+00 -4.5132524027e+00 2.6057274896e+00 4.5132524027e+00 
15900 5.6784606038e+00 -7.0930399863e-02 2.6070896459e+00 -4.5156117266e+00 2.6070896459e+00 4.5156117266e+00 
16000 5.6781072276e+00 -7.0868462138e-02 2.6084501010e+00 -4.5179681039e+00 2.6084501010e+00 4.5179681039e+00 
16100 5.6777591796e+00 -7.0796365861e-02 2.6098086589e+00 -4.5203211952e+00 2.6098086589e+00 4.5203211952e+00 
16200 5.6774164418e+00 -7.0714305768e-02 2.6111651279e+00 -4.5226706686e+00 2.6111651279e+00 4.5226706686e+00 
16300 5.6770789946e+00 -7.0622474640e-02 2.6125193206e+00 -4.5250161991e+00 2.6125193206e+00 4.5250161991e+00 
16400 5.6767468174e+00 -7.0521063507e-02 2.6138710534e+00 -4.5273574690e+00 2.6138710534e+00 4.5273574690e+00 
16500 5.6764198879e+00 -7.0410261842e-02 2.6152201469e+00 -4.5296941674e+00 2.6152201469e+00 4.5296941674e+00 
16600 5.6760981823e+00 -7.0290257724e-02 2.6165664255e+00 -4.5320259903e+00 2.6165664255e+00 4.5320259903e+00 
16700 5.6757816751e+00 -7.0161237992e-02 2.6179097178e+00 -4.5343526408e+00 2.6179097178e+00 4.5343526408e+00 
16800 5.6754703391e+00 -7.0023388373e-02 2.6192498560e+00 -4.5366738284e+00 2.6192498560e+00 4.5366738284e+00 
16900 5.6751641452e+00 -6.9876893599e-02 2.6205866766e+00 -4.5389892695e+00 2.6205866766e+00 4.5389892695e+00 
17000 5.6748630623e+00 -6.9721937506e-02 2.6219200195e+00 -4.5412986872e+00 2.6219200195e+00 4.5412986872e+00 
17100 5.6745670578e+00 -6.9558703119e-02 2.6232497288e+00 -4.5436018113e+00 2.6232497288e+00 4.5436018113e+00 
17200 5.6742760967e+00 -6.9387372718e-02 2.6245756521e+00 -4.5458983778e+00 2.6245756521e+00 4.5458983778e+00 
17300 5.6739901425e+00 -6.9208127902e-02 2.6258976410e+00 -4.5481881296e+00 2.6258976410e+00 4.5481881296e+00 
17400 5.6737091567e+00 -6.9021149628e-02 2.6272155506e+00 -4.5504708160e+00 2.6272155506e+00 4.5504708160e+00 
17500 5.6734330987e+00 -6.8826618251e-02 2.6285292398e+00 -4.5527461926e+00 2.6285292398e+00 4.5527461926e+00 
17600 5.6731619264e+00 -6.8624713543e-02 2.6298385715e+00 -4.5550140215e+00 2.6298385715e+00 4.5550140215e+00 
17700 5.6728955958e+00 -6.8415614707e-02 2.6311434117e+00 -4.5572740711e+00 2.6311434117e+00 4.5572740711e+00 
17800 5.6726340611e+00 -6.8199500387e-02 2.6324436306e+00 -4.5595261163e+00 2.6324436306e+00 4.5595261163e+00 
17900 5.6723772749e+00 -6.7976548659e-02 2.6337391017e+00 -4.5617699380e+00 2.6337391017e+00 4.5617699380e+00 
18000 5.6721251881e+00 -6.7746937022e-02 2.6350297021e+00 -4.5640053235e+00 2.6350297021e+00 4.5640053235e+00 
18100 5.6718777502e+00 -6.7510842384e-02 2.6363153127e+00 -4.5662320664e+00 2.6363153127e+00 4.5662320664e+00 
18200 5.6716349092e+00 -6.7268441030e-02 2.6375958178e+00 -4.5684499663e+00 2.6375958178e+00 4.5684499663e+00 
18300 5.6713966116e+00 -6.7019908602e-02 2.6388711053e+00 -4.5706588290e+00 2.6388711053e+00 4.5706588290e+00 
18400 5.6711628027e+00 -6.6765420057e-02 2.6401410666e+00 -4.5728584664e+00 2.6401410666e+00 4.5728584664e+00 
18500 5.6709334266e+00 -6.6505149628e-02 2.6414055965e+00 -4.5750486965e+00 2.6414055965e+00 4.5750486965e+00 
18600 5.6707084263e+00 -6.6239270786e-02 2.6426645934e+00 -4.5772293431e+00 2.6426645934e+00 4.5772293431e+00 
18700 5.6704877436e+00 -6.5967956186e-02 2.6439179591e+00 -4.5794002362e+00 2.6439179591e+00 4.5794002362e+00 
18800 5.6702713194e+00 -6.5691377621e-02 2.6451655988e+00 -4.5815612116e+00 2.6451655988e+00 4.5815612116e+00 
18900 5.6700590939e+00 -6.5409705967e-02 2.6464074212e+00 -4.5837121110e+00 2.6464074212e+00 4.5837121110e+00 
19000 5.6698510063e+00 -6.5123111129e-02 2.6476433381e+00 -4.5858527819e+00 2.6476433381e+00 4.5858527819e+00 
19100 5.6696469953e+00 -6.4831761982e-02 2.6488732649e+00 -4.5879830776e+00 2.6488732649e+00 4.5879830776e+00 
19200 5.6694469988e+00 -6.4535826312e-02 2.6500971202e+00 -4.5901028572e+00 2.6500971202e+00 4.5901028572e+00 
19300 5.6692509545e+00 -6.4235470756e-02 2.6513148259e+00 -4.5922119853e+00 2.6513148259e+00 4.5922119853e+00 
19400 5.6690587994e+00 -6.3930860745e-02 2.6525263070e+00 -4.5943103322e+00 2.6525263070e+00 4.5943103322e+00 
19500 5.6688704703e+00 -6.3622160434e-02 2.6537314921e+00 -4.5963977739e+00 2.6537314921e+00 4.5963977739e+00 
19600 5.6686859036e+00 -6.3309532646e-02 2.6549303125e+00 -4.5984741917e+00 2.6549303125e+00 4.5984741917e+00 
19700 5.6685050358e+00 -6.2993138808e-02 2.6561227029e+00 -4.6005394725e+00 2.6561227029e+00 4.6005394725e+00 
19800 5.6683278029e+00 -6.2673138891e-02 2.6573086011e+00 -4.6025935085e+00 2.6573086011e+00 4.6025935085e+00 
19900 5.6681541414e+00 -6.2349691344e-02 2.6584879480e+00 -4.6046361972e+00 2.6584879480e+00 4.6046361972e+00 
20000 5.6679839874e+00 -6.2022953037e-02 2.6596606874e+00 -4.6066674415e+00 2.6596606874e+00 4.6066674415e+00 
20100 5.6678172773e+00 -6.1693079200e-02 2.6608267663e+00 -4.6086871493e+00 2.6608267663e+00 4.6086871493e+00 
20200 5.6676539478e+00 -6.1360223362e-02 2.6619861345e+00 -4.6106952339e+00 2.6619861345e+00 4.6106952339e+00 
20300 5.6674939356e+00 -6.1024537296e-02 2.6631387447e+00 -4.6126916134e+00 2.6631387447e+00 4.6126916134e+00 
20400 5.6673371780e+00 -6.0686170962e-02 2.6642845526e+00 -4.6146762110e+00 2.6642845526e+00 4.6146762110e+00 
20500 5.6671836126e+00 -6.0345272449e-02 2.6654235168e+00 -4.6166489548e+00 2.6654235168e+00 4.6166489548e+00 
20600 5.6670331772e+00 -6.0001987925e-02 2.6665555985e+00 -4.6186097778e+00 2.6665555985e+00 4.6186097778e+00 
20700 5.6668858104e+00 -5.9656461585e-02 2.6676807617e+00 -4.6205586176e+00 2.6676807617e+00 4.6205586176e+00 
20800 5.6667414513e+00 -5.9308835600e-02 2.6687989732e+00 -4.6224954168e+00 2.6687989732e+00 4.6224954168e+00 
20900 5.6666000393e+00 -5.8959250071e-02 2.6699102025e+00 -4.6244201223e+00 2.6699102025e+00 4.6244201223e+00 
21000 5.6664615148e+00 -5.8607842981e-02 2.6710144215e+00 -4.6263326857e+00 2.6710144215e+00 4.6263326857e+00 
21100 5.6663258187e+00 -5.8254750153e-02 2.6721116049e+00 -4.6282330631e+00 2.6721116049e+00 4.6282330631e+00 
21200 5.6661928925e+00 -5.7900105210e-02 2.6732017298e+00 -4.6301212149e+00 2.6732017298e+00 4.6301212149e+00 
21300 5.6660626787e+00 -5.7544039533e-02 2.6742847759e+00 -4.6319971057e+00 2.6742847759e+00 4.6319971057e+00 
21400 5.6659351203e+00 -5.7186682229e-02 2.6753607252e+00 -4.6338607046e+00 2.6753607252e+00 4.6338607046e+00 
21500 5.6658101612e+00 -5.6828160091e-02 2.6764295621e+00 -4.6357119845e+00 2.6764295621e+00 4.6357119845e+00 
21600 5.6656877463e+00 -5.6468597570e-02 2.6774912735e+00 -4.6375509226e+00 2.6774912735e+00 4.6375509226e+00 
21700 5.6655678212e+00 -5.6108116745e-02 2.6785458484e+00 -4.6393774999e+00 2.6785458484e+00 4.6393774999e+00 
21800 5.6654503322e+00 -5.5746837297e-02 2.6795932782e+00 -4.6411917014e+00 2.6795932782e+00 4.6411917014e+00 
21900 5.6653352269e+00 -5.5384876482e-02 2.6806335563e+00 -4.6429935159e+00 2.6806335563e+00 4.6429935159e+00 
22000 5.6652224535e+00 -5.5022349112e-02 2.6816666783e+00 -4.6447829358e+00 2.6816666783e+00 4.6447829358e+00 
22100 5.6651119612e+00 -5.4659367532e-02 2.6826926420e+00 -4.6465599571e+00 2.6826926420e+00 4.6465599571e+00 
22200 5.6650037000e+00 -5.4296041607e-02 2.6837114473e+00 -4.6483245795e+00 2.6837114473e+00 4.6483245795e+00 
22300 5.6648976212e+00 -5.3932478706e-02 2.6847230957e+00 -4.6500768061e+00 2.6847230957e+00 4.6500768061e+00 
22400 5.6647936767e+00 -5.3568783689e-02 2.6857275911e+00 -4.6518166432e+00 2.6857275911e+00 4.6518166432e+00 
22500 5.6646918194e+00 -5.3205058898e-02 2.6867249391e+00 -4.6535441005e+00 2.6867249391e+00 4.6535441005e+00 
22600 5.6645920033e+00 -5.2841404153e-02 2.6877151470e+00 -4.6552591909e+00 2.6877151470e+00 4.6552591909e+00 
22700 5.6644941833e+00 -5.2477916740e-02 2.6886982241e+00 -4.6569619304e+00 2.6886982241e+00 4.6569619304e+00 
22800 5.6643983151e+00 -5.2114691416e-02 2.6896741813e+00 -4.6586523379e+00 2.6896741813e+00 4.6586523379e+00 
22900 5.6643043556e+00 -5.1751820405e-02 2.6906430314e+00 -4.6603304354e+00 2.6906430314e+00 4.6603304354e+00 
23000 5.6642122625e+00 -5.1389393401e-02 2.6916047885e+00 -4.6619962476e+00 2.6916047885e+00 4.6619962476e+00 
23100 5.6641219943e+00 -5.1027497572e-02 2.6925594686e+00 -4.6636498020e+00 2.6925594686e+00 4.6636498020e+00 
23200 5.6640335108e+00 -5.0666217568e-02 2.6935070891e+00 -4.6652911288e+00 2.6935070891e+00 4.6652911288e+00 
23300 5.6639467724e+00 -5.0305635529e-02 2.6944476688e+00 -4.6669202607e+00 2.6944476688e+00 4.6669202607e+00 
23400 5.6638617405e+00 -4.9945831092e-02 2.6953812282e+00 -4.6685372331e+00 2.6953812282e+00 4.6685372331e+00 
23500 5.6637783774e+00 -4.9586881411e-02 2.6963077890e+00 -4.6701420834e+00 2.6963077890e+00 4.6701420834e+00 
23600 5.6636966465e+00 -4.9228861165e-02 2.6972273743e+00 -4.6717348519e+00 2.6972273743e+00 4.6717348519e+00 
23700 5.6636165118e+00 -4.8871842579e-02 2.6981400085e+00 -4.6733155806e+00 2.6981400085e+00 4.6733155806e+00 
23800 5.6635379382e+00 -4.8515895440e-02 2.6990457171e+00 -4.6748843140e+00 2.6990457171e+00 4.6748843140e+00 
23900 5.6634608916e+00 -4.8161087118e-02 2.6999445272e+00 -4.6764410986e+00 2.6999445272e+00 4.6764410986e+00 
24000 5.6633853386e+00 -4.7807482585e-02 2.7008364665e+00 -4.6779859830e+00 2.7008364665e+00 4.6779859830e+00 
24100 5.6633112467e+00 -4.7455144444e-02 2.7017215644e+00 -4.6795190175e+00 2.7017215644e+00 4.6795190175e+00 
24200 5.6632385843e+00 -4.7104132951e-02 2.7025998510e+00 -4.6810402544e+00 2.7025998510e+00 4.6810402544e+00 
24300 5.6631673204e+00 -4.6754506038e-02 2.7034713574e+00 -4.6825497479e+00 2.7034713574e+00 4.6825497479e+00 
24400 5.6630974248e+00 -4.6406319347e-02 2.7043361159e+00 -4.6840475536e+00 2.7043361159e+00 4.6840475536e+00 
24500 5.6630288682e+00 -4.6059626255e-02 2.7051941597e+00 -4.6855337289e+00 2.7051941597e+00 4.6855337289e+00 
24600 5.6629616219e+00 -4.5714477906e-02 2.7060455226e+00 -4.6870083328e+00 2.7060455226e+00 4.6870083328e+00 
24700 5.6628956580e+00 -4.5370923243e-02 2.7068902397e+00 -4.6884714256e+00 2.7068902397e+00 4.6884714256e+00 
24800 5.6628309493e+00 -4.5029009040e-02 2.7077283465e+00 -4.6899230692e+00 2.7077283465e+00 4.6899230692e+00 
24900 5.6627674693e+00 -4.4688779933e-02 2.7085598795e+00 -4.6913633267e+00 2.7085598795e+00 4.6913633267e+00 
25000 5.6627051921e+00 -4.4350278461e-02 2.7093848760e+00 -4.6927922625e+00 2.7093848760e+00 4.6927922625e+00 
25100 5.6626440926e+00 -4.4013545098e-02 2.7102033738e+00 -4.6942099423e+00 2.7102033738e+00 4.6942099423e+00 
25200 5.6625841461e+00 -4.3678618289e-02 2.7110154114e+00 -4.6956164327e+00 2.7110154114e+00 4.6956164327e+00 
25300 5.6625253287e+00 -4.3345534487e-02 2.7118210281e+00 -4.6970118016e+00 2.7118210281e+00 4.6970118016e+00 
25400 5.6624676171e+00 -4.3014328195e-02 2.7126202634e+00 -4.6983961178e+00 2.7126202634e+00 4.6983961178e+00 
25500 5.6624109886e+00 -4.2685031998e-02 2.7134131577e+00 -4.6997694510e+00 2.7134131577e+00 4.6997694510e+00 
25600 5.6623554209e+00 -4.2357676610e-02 2.7141997517e+00 -4.7011318719e+00 2.7141997517e+00 4.7011318719e+00 
25700 5.6623008925e+00 -4.2032290907e-02 2.7149800868e+00 -4.7024834519e+00 2.7149800868e+00 4.7024834519e+00 
25800 5.6622473821e+00 -4.1708901971e-02 2.7157542046e+00 -4.7038242632e+00 2.7157542046e+00 4.7038242632e+00 
25900 5.6621948694e+00 -4.1387535129e-02 2.7165221472e+00 -4.7051543789e+00 2.7165221472e+00 4.7051543789e+00 
26000 5.6621433341e+00 -4.1068213994e-02 2.7172839571e+00 -4.7064738723e+00 2.7172839571e+00 4.7064738723e+00 
26100 5.6620927567e+00 -4.0750960507e-02 2.7180396771e+00 -4.7077828177e+00 2.7180396771e+00 4.7077828177e+00 
26200 5.6620431182e+00 -4.0435794977e-02 2.7187893504e+00 -4.7090812899e+00 2.7187893504e+00 4.7090812899e+00 
26300 5.6619943998e+00 -4.0122736123e-02 2.7195330203e+00 -4.7103693640e+00 2.7195330203e+00 4.7103693640e+00 
26400 5.6619465833e+00 -3.9811801117e-02 2.7202707306e+00 -4.7116471157e+00 2.7202707306e+00 4.7116471157e+00 
26500 5.6618996511e+00 -3.9503005622e-02 2.7210025251e+00 -4.7129146210e+00 2.7210025251e+00 4.7129146210e+00 
26600 5.6618535856e+00 -3.9196363837e-02 2.7217284480e+00 -4.7141719564e+00 2.7217284480e+00 4.7141719564e+00 
26700 5.6618083701e+00 -3.8891888538e-02 2.7224485436e+00 -4.7154191985e+00 2.7224485436e+00 4.7154191985e+00 
26800 5.6617639878e+00 -3.8589591118e-02 2.7231628563e+00 -4.7166564243e+00 2.7231628563e+00 4.7166564243e+00 
26900 5.6617204227e+00 -3.8289481628e-02 2.7238714305e+00 -4.7178837110e+00 2.7238714305e+00 4.7178837110e+00 
27000 5.6616776590e+00 -3.7991568820e-02 2.7245743112e+00 -4.7191011359e+00 2.7245743112e+00 4.7191011359e+00 
27100 5.6616356810e+00 -3.7695860187e-02 2.7252715428e+00 -4.7203087766e+00 2.7252715428e+00 4.7203087766e+00 
27200 5.6615944739e+00 -3.7402362002e-02 2.7259631703e+00 -4.7215067105e+00 2.7259631703e+00 4.7215067105e+00 
27300 5.6615540227e+00 -3.7111079361e-02 2.7266492384e+00 -4.7226950154e+00 2.7266492384e+00 4.7226950154e+00 
27400 5.6615143130e+00 -3.6822016220e-02 2.7273297921e+00 -4.7238737689e+00 2.7273297921e+00 4.7238737689e+00 
27500 5.6614753306e+00 -3.6535175436e-02 2.7280048761e+00 -4.7250430487e+00 2.7280048761e+00 4.7250430487e+00 
27600 5.6614370617e+00 -3.6250558806e-02 2.7286745353e+00 -4.7262029324e+00 2.7286745353e+00 4.7262029324e+00 
27700 5.6613994928e+00 -3.5968167106e-02 2.7293388144e+00 -4.7273534976e+00 2.7293388144e+00 4.7273534976e+00 
27800 5.6613626105e+00 -3.5688000126e-02 2.7299977581e+00 -4.7284948216e+00 2.7299977581e+00 4.7284948216e+00 
27900 5.6613264019e+00 -3.5410056712e-02 2.7306514111e+00 -4.7296269818e+00 2.7306514111e+00 4.7296269818e+00 
28000 5.6612908542e+00 -3.5134334800e-02 2.7312998179e+00 -4.7307500553e+00 2.7312998179e+00 4.7307500553e+00 
28100 5.6612559550e+00 -3.4860831454e-02 2.7319430229e+00 -4.7318641190e+00 2.7319430229e+00 4.7318641190e+00 
28200 5.6612216920e+00 -3.4589542899e-02 2.7325810704e+00 -4.7329692497e+00 2.7325810704e+00 4.7329692497e+00 
28300 5.6611880533e+00 -3.4320464562e-02 2.7332140045e+00 -4.7340655238e+00 2.7332140045e+00 4.7340655238e+00 
28400 5.6611550270e+00 -3.4053591101e-02 2.7338418693e+00 -4.7351530176e+00 2.7338418693e+00 4.7351530176e+00 
28500 5.6611226017e+00 -3.3788916440e-02 2.7344647087e+00 -4.7362318069e+00 2.7344647087e+00 4.7362318069e+00 
28600 5.6610907661e+00 -3.3526433806e-02 2.7350825661e+00 -4.7373019674e+00 2.7350825661e+00 4.7373019674e+00 
28700 5.6610595091e+00 -3.3266135756e-02 2.7356954852e+00 -4.7383635744e+00 2.7356954852e+00 4.7383635744e+00 
28800 5.6610288198e+00 -3.3008014216e-02 2.7363035092e+00 -4.7394167028e+00 2.7363035092e+00 4.7394167028e+00 
28900 5.6609986876e+00 -3.2752060505e-02 2.7369066810e+00 -4.7404614271e+00 2.7369066810e+00 4.7404614271e+00 
29000 5.6609691020e+00 -3.2498265370e-02 2.7375050437e+00 -4.7414978216e+00 2.7375050437e+00 4.7414978216e+00 
29100 5.6609400527e+00 -3.2246619015e-02 2.7380986396e+00 -4.7425259600e+00 2.7380986396e+00 4.7425259600e+00 
29200 5.6609115297e+00 -3.1997111130e-02 2.7386875113e+00 -4.7435459156e+00 2.7386875113e+00 4.7435459156e+00 
29300 5.6608835229e+00 -3.1749730918e-02 2.7392717008e+00 -4.7445577615e+00 2.7392717008e+00 4.7445577615e+00 
29400 5.6608560229e+00 -3.1504467126e-02 2.7398512499e+00 -4.7455615700e+00 2.7398512499e+00 4.7455615700e+00 
29500 5.6608290198e+00 -3.1261308068e-02 2.7404262003e+00 -4.7465574132e+00 2.7404262003e+00 4.7465574132e+00 
29600 5.6608025045e+00 -3.1020241656e-02 2.7409965931e+00 -4.7475453627e+00 2.7409965931e+00 4.7475453627e+00 
29700 5.6607764677e+00 -3.0781255420e-02 2.7415624696e+00 -4.7485254895e+00 2.7415624696e+00 4.7485254895e+00 
29800 5.6607509004e+00 -3.0544336536e-02 2.7421238704e+00 -4.7494978641e+00 2.7421238704e+00 4.7494978641e+00 
29900 5.6607257936e+00 -3.0309471851e-02 2.7426808359e+00 -4.7504625568e+00 2.7426808359e+00 4.7504625568e+00 
30000 5.6607011387e+00 -3.0076647903e-02 2.7432334064e+00 -4.7514196369e+00 2.7432334064e+00 4.7514196369e+00 
30100 5.6606769270e+00 -2.9845850947e-02 2.7437816217e+00 -4.7523691736e+00 2.7437816217e+00 4.7523691736e+00 
30200 5.6606531502e+00 -2.9617066973e-02 2.7443255213e+00 -4.7533112354e+00 2.7443255213e+00 4.7533112354e+00 
30300 5.6606298000e+00 -2.9390281732e-02 2.7448651446e+00 -4.7542458903e+00 2.7448651446e+00 4.7542458903e+00 
30400 5.6606068682e+00 -2.9165480751e-02 2.7454005304e+00 -4.7551732058e+00 2.7454005304e+00 4.7551732058e+00 
30500 5.6605843468e+00 -2.8942649358e-02 2.7459317174e+00 -4.7560932486e+00 2.7459317174e+00 4.7560932486e+00 
30600 5.6605622281e+00 -2.8721772697e-02 2.7464587439e+00 -4.7570060853e+00 2.7464587439e+00 4.7570060853e+00 
30700 5.6605405043e+00 -2.8502835748e-02 2.7469816478e+00 -4.7579117815e+00 2.7469816478e+00 4.7579117815e+00 
30800 5.6605191677e+00 -2.8285823344e-02 2.7475004670e+00 -4.7588104026e+00 2.7475004670e+00 4.7588104026e+00 
30900 5.6604982110e+00 -2.8070720190e-02 2.7480152386e+00 -4.7597020133e+00 2.7480152386e+00 4.7597020133e+00 
31000 5.6604776269e+00 -2.7857510876e-02 2.7485259998e+00 -4.7605866775e+00 2.7485259998e+00 4.7605866775e+00 
31100 5.6604574080e+00 -2.7646179895e-02 2.7490327872e+00 -4.7614644591e+00 2.7490327872e+00 4.7614644591e+00 
31200 5.6604375475e+00 -2.7436711657e-02 2.7495356372e+00 -4.7623354208e+00 2.7495356372e+00 4.7623354208e+00 
31300 5.6604180382e+00 -2.7229090505e-02 2.7500345858e+00 -4.7631996252e+00 2.7500345858e+00 4.7631996252e+00 
31400 5.6603988734e+00 -2.7023300725e-02 2.7505296688e+00 -4.7640571341e+00 2.7505296688e+00 4.7640571341e+00 
31500 5.6603800465e+00 -2.6819326566e-02 2.7510209216e+00 -4.7649080088e+00 2.7510209216e+00 4.7649080088e+00 
31600 5.6603615507e+00 -2.6617152243e-02 2.7515083791e+00 -4.7657523101e+00 2.7515083791e+00 4.7657523101e+00 
31700 5.6603433796e+00 -2.6416761958e-02 2.7519920762e+00 -4.7665900980e+00 2.7519920762e+00 4.7665900980e+00 
31800 5.6603255269e+00 -2.6218139906e-02 2.7524720472e+00 -4.7674214322e+00 2.7524720472e+00 4.7674214322e+00 
31900 5.6603079862e+00 -2.6021270288e-02 2.7529483263e+00 -4.7682463718e+00 2.7529483263e+00 4.7682463718e+00 
32000 5.6602907516e+00 -2.5826137321e-02 2.7534209471e+00 -4.7690649750e+00 2.7534209471e+00 4.7690649750e+00 
32100 5.6602738168e+00 -2.5632725248e-02 2.7538899432e+00 -4.7698773000e+00 2.7538899432e+00 4.7698773000e+00 
32200 5.6602571761e+00 -2.5441018345e-02 2.7543553475e+00 -4.7706834040e+00 2.7543553475e+00 4.7706834040e+00 
32300 5.6602408235e+00 -2.5251000933e-02 2.7548171930e+00 -4.7714833438e+00 2.7548171930e+00 4.7714833438e+00 
32400 5.6602247534e+00 -2.5062657386e-02 2.7552755120e+00 -4.7722771755e+00 2.7552755120e+00 4.7722771755e+00 
32500 5.6602089602e+00 -2.4875972135e-02 2.7557303366e+00 -4.7730649550e+00 2.7557303366e+00 4.7730649550e+00 
32600 5.6601934382e+00 -2.4690929681e-02 2.7561816989e+00 -4.7738467373e+00 2.7561816989e+00 4.7738467373e+00 
32700 5.6601781822e+00 -2.4507514597e-02 2.7566296301e+00 -4.7746225770e+00 2.7566296301e+00 4.7746225770e+00 
32800 5.6601631868e+00 -2.4325711538e-02 2.7570741616e+00 -4.7753925281e+00 2.7570741616e+00 4.7753925281e+00 
32900 5.6601484468e+00 -2.4145505243e-02 2.7575153242e+00 -4.7761566442e+00 2.7575153242e+00 4.7761566442e+00 
33000 5.6601339570e+00 -2.3966880546e-02 2.7579531485e+00 -4.7769149781e+00 2.7579531485e+00 4.7769149781e+00 
33100 5.6601197124e+00 -2.3789822377e-02 2.7583876648e+00 -4.7776675823e+00 2.7583876648e+00 4.7776675823e+00 
33200 5.6601057081e+00 -2.3614315768e-02 2.7588189029e+00 -4.7784145088e+00 2.7588189029e+00 4.7784145088e+00 
33300 5.6600919393e+00 -2.3440345858e-02 2.7592468927e+00 -4.7791558088e+00 2.7592468927e+00 4.7791558088e+00 
33400 5.6600784011e+00 -2.3267897898e-02 2.7596716635e+00 -4.7798915333e+00 2.7596716635e+00 4.7798915333e+00 
33500 5.6600650890e+00 -2.3096957252e-02 2.7600932442e+00 -4.7806217327e+00 2.7600932442e+00 4.7806217327e+00 
33600 5.6600519982e+00 -2.2927509404e-02 2.7605116638e+00 -4.7813464566e+00 2.7605116638e+00 4.7813464566e+00 
33700 5.6600391244e+00 -2.2759539956e-02 2.7609269507e+00 -4.7820657546e+00 2.7609269507e+00 4.7820657546e+00 
33800 5.6600264631e+00 -2.2593034639e-02 2.7613391330e+00 -4.7827796753e+00 2.7613391330e+00 4.7827796753e+00 
33900 5.6600140100e+00 -2.2427979307e-02 2.7617482387e+00 -4.7834882672e+00 2.7617482387e+00 4.7834882672e+00 
34000 5.6600017609e+00 -2.2264359946e-02 2.7621542954e+00 -4.7841915781e+00 2.7621542954e+00 4.7841915781e+00 
34100 5.6599897115e+00 -2.2102162670e-02 2.7625573305e+00 -4.7848896553e+00 2.7625573305e+00 4.7848896553e+00 
34200 5.6599778578e+00 -2.1941373728e-02 2.7629573710e+00 -4.7855825457e+00 2.7629573710e+00 4.7855825457e+00 
34300 5.6599661959e+00 -2.1781979504e-02 2.7633544437e+00 -4.7862702958e+00 2.7633544437e+00 4.7862702958e+00 
34400 5.6599547216e+00 -2.1623966515e-02 2.7637485752e+00 -4.7869529515e+00 2.7637485752e+00 4.7869529515e+00 
34500 5.6599434313e+00 -2.1467321419e-02 2.7641397916e+00 -4.7876305582e+00 2.7641397916e+00 4.7876305582e+00 
34600 5.6599323212e+00 -2.1312031008e-02 2.7645281190e+00 -4.7883031610e+00 2.7645281190e+00 4.7883031610e+00 
34700 5.6599213875e+00 -2.1158082214e-02 2.7649135831e+00 -4.7889708044e+00 2.7649135831e+00 4.7889708044e+00 
34800 5.6599106265e+00 -2.1005462108e-02 2.7652962093e+00 -4.7896335325e+00 2.7652962093e+00 4.7896335325e+00 
34900 5.6599000349e+00 -2.0854157900e-02 2.7656760229e+00 -4.7902913890e+00 2.7656760229e+00 4.7902913890e+00 
35000 5.6598896090e+00 -2.0704156940e-02 2.7660530489e+00 -4.7909444170e+00 2.7660530489e+00 4.7909444170e+00 
35100 5.6598793455e+00 -2.0555446715e-02 2.7664273118e+00 -4.7915926595e+00 2.7664273118e+00 4.7915926595e+00 
35200 5.6598692409e+00 -2.0408014855e-02 2.7667988362e+00 -4.7922361587e+00 2.7667988362e+00 4.7922361587e+00 
35300 5.6598592921e+00 -2.0261849126e-02 2.7671676464e+00 -4.7928749566e+00 2.7671676464e+00 4.7928749566e+00 
35400 5.6598494958e+00 -2.0116937434e-02 2.7675337661e+00 -4.7935090946e+00 2.7675337661e+00 4.7935090946e+00 
35500 5.6598398488e+00 -1.9973267821e-02 2.7678972193e+00 -4.7941386139e+00 2.7678972193e+00 4.7941386139e+00 
35600 5.6598303482e+00 -1.9830828468e-02 2.7682580293e+00 -4.7947635552e+00 2.7682580293e+00 4.7947635552e+00 
35700 5.6598209908e+00 -1.9689607692e-02 2.7686162195e+00 -4.7953839588e+00 2.7686162195e+00 4.7953839588e+00 
35800 5.6598117736e+00 -1.9549593944e-02 2.7689718128e+00 -4.7959998645e+00 2.7689718128e+00 4.7959998645e+00 
35900 5.6598026939e+00 -1.9410775813e-02 2.7693248321e+00 -4.7966113119e+00 2.7693248321e+00 4.7966113119e+00 
36000 5.6597937488e+00 -1.9273142018e-02 2.7696752999e+00 -4.7972183400e+00 2.7696752999e+00 4.7972183400e+00 
36100 5.6597849354e+00 -1.9136681412e-02 2.7700232387e+00 -4.7978209875e+00 2.7700232387e+00 4.7978209875e+00 
36200 5.6597762511e+00 -1.9001382978e-02 2.7703686704e+00 -4.7984192928e+00 2.7703686704e+00 4.7984192928e+00 
36300 5.6597676931e+00 -1.8867235830e-02 2.7707116171e+00 -4.7990132939e+00 2.7707116171e+00 4.7990132939e+00 
36400 5.6597592590e+00 -1.8734229210e-02 2.7710521004e+00 -4.7996030283e+00 2.7710521004e+00 4.7996030283e+00 
36500 5.6597509461e+00 -1.8602352487e-02 2.7713901419e+00 -4.8001885333e+00 2.7713901419e+00 4.8001885333e+00 
36600 5.6597427520e+00 -1.8471595155e-02 2.7717257627e+00 -4.8007698457e+00 2.7717257627e+00 4.8007698457e+00 
36700 5.6597346741e+00 -1.8341946833e-02 2.7720589841e+00 -4.8013470021e+00 2.7720589841e+00 4.8013470021e+00 
36800 5.6597267101e+00 -1.8213397261e-02 2.7723898269e+00 -4.8019200385e+00 2.7723898269e+00 4.8019200385e+00 
36900 5.6597188577e+00 -1.8085936302e-02 2.7727183116e+00 -4.8024889908e+00 2.7727183116e+00 4.8024889908e+00 
37000 5.6597111146e+00 -1.7959553937e-02 2.7730444589e+00 -4.8030538945e+00 2.7730444589e+00 4.8030538945e+00 
37100 5.6597034785e+00 -1.7834240264e-02 2.7733682890e+00 -4.8036147846e+00 2.7733682890e+00 4.8036147846e+00 
37200 5.6596959472e+00 -1.7709985498e-02 2.7736898219e+00 -4.8041716960e+00 2.7736898219e+00 4.8041716960e+00 
37300 5.6596885186e+00 -1.7586779969e-02 2.7740090776e+00 -4.8047246631e+00 2.7740090776e+00 4.8047246631e+00 
37400 5.6596811905e+00 -1.7464614118e-02 2.7743260758e+00 -4.8052737200e+00 2.7743260758e+00 4.8052737200e+00 
37500 5.6596739610e+00 -1.7343478498e-02 2.7746408359e+00 -4.8058189005e+00 2.7746408359e+00 4.8058189005e+00 
37600 5.6596668281e+00 -1.7223363771e-02 2.7749533773e+00 -4.8063602381e+00 2.7749533773e+00 4.8063602381e+00 
37700 5.6596597896e+00 -1.7104260706e-02 2.7752637192e+00 -4.8068977660e+00 2.7752637192e+00 4.8068977660e+00 
37800 5.6596528438e+00 -1.6986160177e-02 2.7755718805e+00 -4.8074315170e+00 2.7755718805e+00 4.8074315170e+00 
37900 5.6596459888e+00 -1.6869053165e-02 2.7758778800e+00 -4.8079615237e+00 2.7758778800e+00 4.8079615237e+00 
38000 5.6596392227e+00 -1.6752930750e-02 2.7761817363e+00 -4.8084878183e+00 2.7761817363e+00 4.8084878183e+00 
38100 5.6596325436e+00 -1.6637784114e-02 2.7764834679e+00 -4.8090104327e+00 2.7764834679e+00 4.8090104327e+00 
38200 5.6596259500e+00 -1.6523604540e-02 2.7767830930e+00 -4.8095293987e+00 2.7767830930e+00 4.8095293987e+00 
38300 5.6596194400e+00 -1.6410383403e-02 2.7770806297e+00 -4.8100447474e+00 2.7770806297e+00 4.8100447474e+00 
38400 5.6596130119e+00 -1.6298112179e-02 2.7773760960e+00 -4.8105565100e+00 2.7773760960e+00 4.8105565100e+00 
38500 5.6596066641e+00 -1.6186782435e-02 2.7776695096e+00 -4.8110647173e+00 2.7776695096e+00 4.8110647173e+00 
38600 5.6596003951e+00 -1.6076385830e-02 2.7779608882e+00 -4.8115693997e+00 2.7779608882e+00 4.8115693997e+00 
38700 5.6595942032e+00 -1.5966914115e-02 2.7782502491e+00 -4.8120705875e+00 2.7782502491e+00 4.8120705875e+00 
38800 5.6595880869e+00 -1.5858359130e-02 2.7785376096e+00 -4.8125683105e+00 2.7785376096e+00 4.8125683105e+00 
38900 5.6595820448e+00 -1.5750712801e-02 2.7788229869e+00 -4.8130625985e+00 2.7788229869e+00 4.8130625985e+00 
39000 5.6595760752e+00 -1.5643967141e-02 2.7791063979e+00 -4.8135534808e+00 2.7791063979e+00 4.8135534808e+00 
39100 5.6595701769e+00 -1.5538114246e-02 2.7793878594e+00 -4.8140409865e+00 2.7793878594e+00 4.8140409865e+00 
39200 5.6595643484e+00 -1.5433146297e-02 2.7796673881e+00 -4.8145251444e+00 2.7796673881e+00 4.8145251444e+00 
39300 5.6595585883e+00 -1.5329055555e-02 2.7799450006e+00 -4.8150059832e+00 2.7799450006e+00 4.8150059832e+00 
39400 5.6595528954e+00 -1.5225834360e-02 2.7802207130e+00 -4.8154835312e+00 2.7802207130e+00 4.8154835312e+00 
39500 5.6595472682e+00 -1.5123475131e-02 2.7804945417e+00 -4.8159578164e+00 2.7804945417e+00 4.8159578164e+00 
39600 5.6595417056e+00 -1.5021970366e-02 2.7807665027e+00 -4.8164288667e+00 2.7807665027e+00 4.8164288667e+00 
39700 5.6595362062e+00 -1.4921312635e-02 2.7810366119e+00 -4.8168967096e+00 2.7810366119e+00 4.8168967096e+00 
39800 5.6595307689e+00 -1.4821494584e-02 2.7813048851e+00 -4.8173613724e+00 2.7813048851e+00 4.8173613724e+00 
39900 5.6595253924e+00 -1.4722508933e-02 2.7815713380e+00 -4.8178228822e+00 2.7815713380e+00 4.8178228822e+00 
40000 5.6595200757e+00 -1.4624348471e-02 2.7818359859e+00 -4.8182812659e+00 2.7818359859e+00 4.8182812659e+00 
40100 5.6595148175e+00 -1.4527006059e-02 2.7820988443e+00 -4.8187365500e+00 2.7820988443e+00 4.8187365500e+00 
40200 5.6595096168e+00 -1.4430474628e-02 2.7823599284e+00 -4.8191887609e+00 2.7823599284e+00 4.8191887609e+00 
40300 5.6595044724e+00 -1.4334747174e-02 2.7826192532e+00 -4.8196379246e+00 2.7826192532e+00 4.8196379246e+00 
40400 5.6594993834e+00 -1.4239816762e-02 2.7828768336e+00 -4.8200840671e+00 2.7828768336e+00 4.8200840671e+00 
40500 5.6594943486e+00 -1.4145676522e-02 2.7831326846e+00 -4.8205272140e+00 2.7831326846e+00 4.8205272140e+00 
40600 5.6594893671e+00 -1.4052319647e-02 2.7833868208e+00 -4.8209673907e+00 2.7833868208e+00 4.8209673907e+00 
40700 5.6594844378e+00 -1.3959739395e-02 2.7836392566e+00 -4.8214046224e+00 2.7836392566e+00 4.8214046224e+00 
40800 5.6594795599e+00 -1.3867929085e-02 2.7838900066e+00 -4.8218389340e+00 2.7838900066e+00 4.8218389340e+00 
40900 5.6594747323e+00 -1.3776882099e-02 2.7841390849e+00 -4.8222703504e+00 2.7841390849e+00 4.8222703504e+00 
41000 5.6594699542e+00 -1.3686591876e-02 2.7843865059e+00 -4.8226988961e+00 2.7843865059e+00 4.8226988961e+00 
41100 5.6594652246e+00 -1.3597051916e-02 2.7846322834e+00 -4.8231245953e+00 2.7846322834e+00 4.8231245953e+00 
41200 5.6594605427e+00 -1.3508255777e-02 2.7848764315e+00 -4.8235474721e+00 2.7848764315e+00 4.8235474721e+00 
41300 5.6594559076e+00 -1.3420197076e-02 2.7851189638e+00 -4.8239675504e+00 2.7851189638e+00 4.8239675504e+00 
41400 5.6594513185e+00 -1.3332869482e-02 2.7853598941e+00 -4.8243848539e+00 2.7853598941e+00 4.8243848539e+00 
41500 5.6594467745e+00 -1.3246266722e-02 2.7855992359e+00 -4.8247994061e+00 2.7855992359e+00 4.8247994061e+00 
41600 5.6594422749e+00 -1.3160382580e-02 2.7858370026e+00 -4.8252112301e+00 2.7858370026e+00 4.8252112301e+00 
41700 5.6594378188e+00 -1.3075210888e-02 2.7860732075e+00 -4.8256203490e+00 2.7860732075e+00 4.8256203490e+00 
41800 5.6594334056e+00 -1.2990745537e-02 2.7863078638e+00 -4.8260267857e+00 2.7863078638e+00 4.8260267857e+00 
41900 5.6594290344e+00 -1.2906980465e-02 2.7865409846e+00 -4.8264305628e+00 2.7865409846e+00 4.8264305628e+00 
42000 5.6594247046e+00 -1.2823909664e-02 2.7867725829e+00 -4.8268317027e+00 2.7867725829e+00 4.8268317027e+00 
42100 5.6594204153e+00 -1.2741527177e-02 2.7870026714e+00 -4.8272302276e+00 2.7870026714e+00 4.8272302276e+00 
42200 5.6594161660e+00 -1.2659827096e-02 2.7872312629e+00 -4.8276261597e+00 2.7872312629e+00 4.8276261597e+00 
42300 5.6594119560e+00 -1.2578803562e-02 2.7874583699e+00 -4.8280195207e+00 2.7874583699e+00 4.8280195207e+00 
42400 5.6594077846e+00 -1.2498450764e-02 2.7876840051e+00 -4.8284103323e+00 2.7876840051e+00 4.8284103323e+00 
42500 5.6594036510e+00 -1.2418762942e-02 2.7879081808e+00 -4.8287986159e+00 2.7879081808e+00 4.8287986159e+00 
42600 5.6593995549e+00 -1.2339734380e-02 2.7881309092e+00 -4.8291843929e+00 2.7881309092e+00 4.8291843929e+00 
42700 5.6593954953e+00 -1.2261359410e-02 2.7883522026e+00 -4.8295676843e+00 2.7883522026e+00 4.8295676843e+00 
42800 5.6593914719e+00 -1.2183632409e-02 2.7885720729e+00 -4.8299485109e+00 2.7885720729e+00 4.8299485109e+00 
42900 5.6593874840e+00 -1.2106547802e-02 2.7887905323e+00 -4.8303268936e+00 2.7887905323e+00 4.8303268936e+00 
43000 5.6593835310e+00 -1.2030100056e-02 2.7890075924e+00 -4.8307028527e+00 2.7890075924e+00 4.8307028527e+00 
43100 5.6593796124e+00 -1.1954283685e-02 2.7892232651e+00 -4.8310764088e+00 2.7892232651e+00 4.8310764088e+00 
43200 5.6593757276e+00 -1.1879093244e-02 2.7894375620e+00 -4.8314475819e+00 2.7894375620e+00 4.8314475819e+00 
43300 5.6593718761e+00 -1.1804523335e-02 2.7896504946e+00 -4.8318163920e+00 2.7896504946e+00 4.8318163920e+00 
43400 5.6593680573e+00 -1.1730568600e-02 2.7898620743e+00 -4.8321828589e+00 2.7898620743e+00 4.8321828589e+00 
43500 5.6593642708e+00 -1.1657223724e-02 2.7900723126e+00 -4.8325470023e+00 2.7900723126e+00 4.8325470023e+00 
43600 5.6593605160e+00 -1.1584483436e-02 2.7902812206e+00 -4.8329088415e+00 2.7902812206e+00 4.8329088415e+00 
43700 5.6593567925e+00 -1.1512342504e-02 2.7904888095e+00 -4.8332683960e+00 2.7904888095e+00 4.8332683960e+00 
43800 5.6593530997e+00 -1.1440795738e-02 2.7906950903e+00 -4.8336256848e+00 2.7906950903e+00 4.8336256848e+00 
43900 5.6593494373e+00 -1.1369837990e-02 2.7909000739e+00 -4.8339807269e+00 2.7909000739e+00 4.8339807269e+00 
44000 5.6593458047e+00 -1.1299464150e-02 2.7911037712e+00 -4.8343335410e+00 2.7911037712e+00 4.8343335410e+00 
44100 5.6593422016e+00 -1.1229669150e-02 2.7913061929e+00 -4.8346841457e+00 2.7913061929e+00 4.8346841457e+00 
44200 5.6593386274e+00 -1.1160447961e-02 2.7915073497e+00 -4.8350325594e+00 2.7915073497e+00 4.8350325594e+00 
44300 5.6593350817e+00 -1.1091795593e-02 2.7917072522e+00 -4.8353788006e+00 2.7917072522e+00 4.8353788006e+00 
44400 5.6593315642e+00 -1.1023707095e-02 2.7919059106e+00 -4.8357228872e+00 2.7919059106e+00 4.8357228872e+00 
44500 5.6593280744e+00 -1.0956177553e-02 2.7921033356e+00 -4.8360648372e+00 2.7921033356e+00 4.8360648372e+00 
44600 5.6593246120e+00 -1.0889202095e-02 2.7922995372e+00 -4.8364046684e+00 2.7922995372e+00 4.8364046684e+00 
44700 5.6593211765e+00 -1.0822775882e-02 2.7924945258e+00 -4.8367423985e+00 2.7924945258e+00 4.8367423985e+00 
44800 5.6593177676e+00 -1.0756894117e-02 2.7926883113e+00 -4.8370780449e+00 2.7926883113e+00 4.8370780449e+00 
44900 5.6593143848e+00 -1.0691552037e-02 2.7928809038e+00 -4.8374116250e+00 2.7928809038e+00 4.8374116250e+00 
45000 5.6593110279e+00 -1.0626744918e-02 2.7930723133e+00 -4.8377431558e+00 2.7930723133e+00 4.8377431558e+00 
45100 5.6593076965e+00 -1.0562468072e-02 2.7932625494e+00 -4.8380726544e+00 2.7932625494e+00 4.8380726544e+00 
45200 5.6593043902e+00 -1.0498716847e-02 2.7934516220e+00 -4.8384001378e+00 2.7934516220e+00 4.8384001378e+00 
45300 5.6593011087e+00 -1.0435486627e-02 2.7936395407e+00 -4.8387256225e+00 2.7936395407e+00 4.8387256225e+00 
45400 5.6592978517e+00 -1.0372772834e-02 2.7938263150e+00 -4.8390491251e+00 2.7938263150e+00 4.8390491251e+00 
45500 5.6592946188e+00 -1.0310570923e-02 2.7940119544e+00 -4.8393706620e+00 2.7940119544e+00 4.8393706620e+00 
45600 5.6592914097e+00 -1.0248876386e-02 2.7941964684e+00 -4.8396902496e+00 2.7941964684e+00 4.8396902496e+00 
45700 5.6592882242e+00 -1.0187684748e-02 2.7943798662e+00 -4.8400079039e+00 2.7943798662e+00 4.8400079039e+00 
45800 5.6592850618e+00 -1.0126991572e-02 2.7945621570e+00 -4.8403236408e+00 2.7945621570e+00 4.8403236408e+00 
45900 5.6592819224e+00 -1.0066792453e-02 2.7947433500e+00 -4.8406374763e+00 2.7947433500e+00 4.8406374763e+00 
46000 5.6592788056e+00 -1.0007083022e-02 2.7949234542e+00 -4.8409494259e+00 2.7949234542e+00 4.8409494259e+00 
46100 5.6592757112e+00 -9.9478589437e-03 2.7951024786e+00 -4.8412595053e+00 2.7951024786e+00 4.8412595053e+00 
46200 5.6592726388e+00 -9.8891159168e-03 2.7952804321e+00 -4.8415677297e+00 2.7952804321e+00 4.8415677297e+00 
46300 5.6592695882e+00 -9.8308496735e-03 2.7954573234e+00 -4.8418741146e+00 2.7954573234e+00 4.8418741146e+00 
46400 5.6592665591e+00 -9.7730559800e-03 2.7956331614e+00 -4.8421786749e+00 2.7956331614e+00 4.8421786749e+00 
46500 5.6592635513e+00 -9.7157306355e-03 2.7958079547e+00 -4.8424814258e+00 2.7958079547e+00 4.8424814258e+00 
46600 5.6592605645e+00 -9.6588694727e-03 2.7959817119e+00 -4.8427823820e+00 2.7959817119e+00 4.8427823820e+00 
46700 5.6592575985e+00 -9.6024683569e-03 2.7961544413e+00 -4.8430815582e+00 2.7961544413e+00 4.8430815582e+00 
46800 5.6592546530e+00 -9.5465231865e-03 2.7963261516e+00 -4.8433789690e+00 2.7963261516e+00 4.8433789690e+00 
46900 5.6592517278e+00 -9.4910298920e-03 2.7964968509e+00 -4.8436746290e+00 2.7964968509e+00 4.8436746290e+00 
47000 5.6592488227e+00 -9.4359844369e-03 2.7966665476e+00 -4.8439685523e+00 2.7966665476e+00 4.8439685523e+00 
47100 5.6592459374e+00 -9.3813828162e-03 2.7968352499e+00 -4.8442607531e+00 2.7968352499e+00 4.8442607531e+00 
47200 5.6592430716e+00 -9.3272210575e-03 2.7970029658e+00 -4.8445512457e+00 2.7970029658e+00 4.8445512457e+00 
47300 5.6592402253e+00 -9.2734952199e-03 2.7971697034e+00 -4.8448400437e+00 2.7971697034e+00 4.8448400437e+00 
47400 5.6592373981e+00 -9.2202013941e-03 2.7973354708e+00 -4.8451271612e+00 2.7973354708e+00 4.8451271612e+00 
47500 5.6592345899e+00 -9.1673357023e-03 2.7975002757e+00 -4.8454126116e+00 2.7975002757e+00 4.8454126116e+00 
47600 5.6592318005e+00 -9.1148942981e-03 2.7976641260e+00 -4.8456964087e+00 2.7976641260e+00 4.8456964087e+00 
47700 5.6592290295e+00 -9.0628733661e-03 2.7978270294e+00 -4.8459785657e+00 2.7978270294e+00 4.8459785657e+00 
47800 5.6592262770e+00 -9.0112691217e-03 2.7979889937e+00 -4.8462590961e+00 2.7979889937e+00 4.8462590961e+00 
47900 5.6592235426e+00 -8.9600778113e-03 2.7981500264e+00 -4.8465380129e+00 2.7981500264e+00 4.8465380129e+00 
48000 5.6592208262e+00 -8.9092957117e-03 2.7983101351e+00 -4.8468153293e+00 2.7983101351e+00 4.8468153293e+00 
48100 5.6592181275e+00 -8.8589191301e-03 2.7984693273e+00 -4.8470910582e+00 2.7984693273e+00 4.8470910582e+00 
48200 5.6592154465e+00 -8.8089444040e-03 2.7986276103e+00 -4.8473652124e+00 2.7986276103e+00 4.8473652124e+00 
48300 5.6592127829e+00 -8.7593679008e-03 2.7987849915e+00 -4.8476378047e+00 2.7987849915e+00 4.8476378047e+00 
48400 5.6592101365e+00 -8.7101860180e-03 2.7989414781e+00 -4.8479088475e+00 2.7989414781e+00 4.8479088475e+00 
48500 5.6592075072e+00 -8.6613951828e-03 2.7990970774e+00 -4.8481783534e+00 2.7990970774e+00 4.8481783534e+00 
48600 5.6592048948e+00 -8.6129918517e-03 2.7992517965e+00 -4.8484463347e+00 2.7992517965e+00 4.8484463347e+00 
48700 5.6592022992e+00 -8.5649725110e-03 2.7994056424e+00 -4.8487128037e+00 2.7994056424e+00 4.8487128037e+00 
48800 5.6591997201e+00 -8.5173336758e-03 2.7995586222e+00 -4.8489777725e+00 2.7995586222e+00 4.8489777725e+00 
48900 5.6591971575e+00 -8.4700718904e-03 2.7997107428e+00 -4.8492412531e+00 2.7997107428e+00 4.8492412531e+00 
49000 5.6591946111e+00 -8.4231837282e-03 2.7998620111e+00 -4.8495032574e+00 2.7998620111e+00 4.8495032574e+00 
49100 5.6591920808e+00 -8.3766657909e-03 2.8000124339e+00 -4.8497637973e+00 2.8000124339e+00 4.8497637973e+00 
49200 5.6591895665e+00 -8.3305147092e-03 2.8001620178e+00 -4.8500228843e+00 2.8001620178e+00 4.8500228843e+00 
49300 5.6591870680e+00 -8.2847271419e-03 2.8003107698e+00 -4.8502805302e+00 2.8003107698e+00 4.8502805302e+00 
49400 5.6591845852e+00 -8.2392997760e-03 2.8004586962e+00 -4.8505367463e+00 2.8004586962e+00 4.8505367463e+00 
49500 5.6591821179e+00 -8.1942293267e-03 2.8006058037e+00 -4.8507915440e+00 2.8006058037e+00 4.8507915440e+00 
49600 5.6591796661e+00 -8.1495125370e-03 2.8007520989e+00 -4.8510449347e+00 2.8007520989e+00 4.8510449347e+00 
49700 5.6591772294e+00 -8.1051461778e-03 2.8008975881e+00 -4.8512969293e+00 2.8008975881e+00 4.8512969293e+00 
49800 5.6591748079e+00 -8.0611270472e-03 2.8010422777e+00 -4.8515475391e+00 2.8010422777e+00 4.8515475391e+00 
49900 5.6591724013e+00 -8.0174519711e-03 2.8011861740e+00 -4.8517967749e+00 2.8011861740e+00 4.8517967749e+00 
50000 5.6591700097e+00 -7.9741178023e-03 2.8013292834e+00 -4.8520446476e+00 2.8013292834e+00 4.8520446476e+00 
50100 5.6591676327e+00 -7.9311214209e-03 2.8014716120e+00 -4.8522911680e+00 2.8014716120e+00 4.8522911680e+00 
50200 5.6591652704e+00 -7.8884597337e-03 2.8016131660e+00 -4.8525363466e+00 2.8016131660e+00 4.8525363466e+00 
50300 5.6591629225e+00 -7.8461296744e-03 2.8017539514e+00 -4.8527801941e+00 2.8017539514e+00 4.8527801941e+00 
50400 5.6591605890e+00 -7.8041282032e-03 2.8018939743e+00 -4.8530227209e+00 2.8018939743e+00 4.8530227209e+00 
50500 5.6591582697e+00 -7.7624523067e-03 2.8020332407e+00 -4.8532639374e+00 2.8020332407e+00 4.8532639374e+00 
50600 5.6591559645e+00 -7.7210989978e-03 2.8021717565e+00 -4.8535038538e+00 2.8021717565e+00 4.8535038538e+00 
50700 5.6591536734e+00 -7.6800653153e-03 2.8023095275e+00 -4.8537424802e+00 2.8023095275e+00 4.8537424802e+00 
50800 5.6591513961e+00 -7.6393483240e-03 2.8024465596e+00 -4.8539798268e+00 2.8024465596e+00 4.8539798268e+00 
50900 5.6591491327e+00 -7.5989451146e-03 2.8025828586e+00 -4.8542159035e+00 2.8025828586e+00 4.8542159035e+00 
51000 5.6591468829e+00 -7.5588528031e-03 2.8027184301e+00 -4.8544507202e+00 2.8027184301e+00 4.8544507202e+00 
51100 5.6591446466e+00 -7.5190685311e-03 2.8028532797e+00 -4.8546842867e+00 2.8028532797e+00 4.8546842867e+00 
51200 5.6591424239e+00 -7.4795894654e-03 2.8029874132e+00 -4.8549166127e+00 2.8029874132e+00 4.8549166127e+00 
51300 5.6591402144e+00 -7.4404127979e-03 2.8031208360e+00 -4.8551477077e+00 2.8031208360e+00 4.8551477077e+00 
51400 5.6591380183e+00 -7.4015357452e-03 2.8032535536e+00 -4.8553775814e+00 2.8032535536e+00 4.8553775814e+00 
51500 5.6591358352e+00 -7.3629555490e-03 2.8033855716e+00 -4.8556062432e+00 2.8033855716e+00 4.8556062432e+00 
51600 5.6591336652e+00 -7.3246694753e-03 2.8035168952e+00 -4.8558337023e+00 2.8035168952e+00 4.8558337023e+00 
51700 5.6591315082e+00 -7.2866748147e-03 2.8036475298e+00 -4.8560599681e+00 2.8036475298e+00 4.8560599681e+00 
51800 5.6591293640e+00 -7.2489688819e-03 2.8037774807e+00 -4.8562850496e+00 2.8037774807e+00 4.8562850496e+00 
51900 5.6591272326e+00 -7.2115490158e-03 2.8039067531e+00 -4.8565089561e+00 2.8039067531e+00 4.8565089561e+00 
52000 5.6591251139e+00 -7.1744125791e-03 2.8040353524e+00 -4.8567316965e+00 2.8040353524e+00 4.8567316965e+00 
52100 5.6591230077e+00 -7.1375569583e-03 2.8041632835e+00 -4.8569532797e+00 2.8041632835e+00 4.8569532797e+00 
52200 5.6591209140e+00 -7.1009795636e-03 2.8042905516e+00 -4.8571737145e+00 2.8042905516e+00 4.8571737145e+00 
52300 5.6591188327e+00 -7.0646778284e-03 2.8044171617e+00 -4.8573930097e+00 2.8044171617e+00 4.8573930097e+00 
52400 5.6591167637e+00 -7.0286492096e-03 2.8045431189e+00 -4.8576111740e+00 2.8045431189e+00 4.8576111740e+00 
52500 5.6591147069e+00 -6.9928911870e-03 2.8046684281e+00 -4.8578282159e+00 2.8046684281e+00 4.8578282159e+00 
52600 5.6591126622e+00 -6.9574012635e-03 2.8047930943e+00 -4.8580441440e+00 2.8047930943e+00 4.8580441440e+00 
52700 5.6591106296e+00 -6.9221769645e-03 2.8049171222e+00 -4.8582589666e+00 2.8049171222e+00 4.8582589666e+00 
52800 5.6591086089e+00 -6.8872158382e-03 2.8050405167e+00 -4.8584726922e+00 2.8050405167e+00 4.8584726922e+00 
52900 5.6591066001e+00 -6.8525154552e-03 2.8051632826e+00 -4.8586853289e+00 2.8051632826e+00 4.8586853289e+00 
53000 5.6591046031e+00 -6.8180734084e-03 2.8052854246e+00 -4.8588968851e+00 2.8052854246e+00 4.8588968851e+00 
53100 5.6591026178e+00 -6.7838873128e-03 2.8054069474e+00 -4.8591073687e+00 2.8054069474e+00 4.8591073687e+00 
53200 5.6591006441e+00 -6.7499548051e-03 2.8055278556e+00 -4.8593167880e+00 2.8055278556e+00 4.8593167880e+00 
53300 5.6590986820e+00 -6.7162735441e-03 2.8056481539e+00 -4.8595251507e+00 2.8056481539e+00 4.8595251507e+00 
53400 5.6590967314e+00 -6.6828412102e-03 2.8057678467e+00 -4.8597324648e+00 2.8057678467e+00 4.8597324648e+00 
53500 5.6590947922e+00 -6.6496555049e-03 2.8058869387e+00 -4.8599387381e+00 2.8058869387e+00 4.8599387381e+00 
53600 5.6590928643e+00 -6.6167141514e-03 2.8060054343e+00 -4.8601439785e+00 2.8060054343e+00 4.8601439785e+00 
53700 5.6590909476e+00 -6.5840148939e-03 2.8061233378e+00 -4.8603481934e+00 2.8061233378e+00 4.8603481934e+00 
53800 5.6590890421e+00 -6.5515554973e-03 2.8062406538e+00 -4.8605513906e+00 2.8062406538e+00 4.8605513906e+00 
53900 5.6590871477e+00 -6.5193337477e-03 2.8063573865e+00 -4.8607535776e+00 2.8063573865e+00 4.8607535776e+00 
54000 5.6590852644e+00 -6.4873474517e-03 2.8064735402e+00 -4.8609547618e+00 2.8064735402e+00 4.8609547618e+00 
54100 5.6590833920e+00 -6.4555944363e-03 2.8065891193e+00 -4.8611549506e+00 2.8065891193e+00 4.8611549506e+00 
54200 5.6590815305e+00 -6.4240725488e-03 2.8067041279e+00 -4.8613541513e+00 2.8067041279e+00 4.8613541513e+00 
54300 5.6590796798e+00 -6.3927796569e-03 2.8068185703e+00 -4.8615523713e+00 2.8068185703e+00 4.8615523713e+00 
54400 5.6590778398e+00 -6.3617136480e-03 2.8069324505e+00 -4.8617496177e+00 2.8069324505e+00 4.8617496177e+00 
54500 5.6590760106e+00 -6.3308724296e-03 2.8070457727e+00 -4.8619458975e+00 2.8070457727e+00 4.8619458975e+00 
54600 5.6590741919e+00 -6.3002539288e-03 2.8071585410e+00 -4.8621412179e+00 2.8071585410e+00 4.8621412179e+00 
54700 5.6590723838e+00 -6.2698560922e-03 2.8072707594e+00 -4.8623355858e+00 2.8072707594e+00 4.8623355858e+00 
54800 5.6590705862e+00 -6.2396768857e-03 2.8073824319e+00 -4.8625290082e+00 2.8073824319e+00 4.8625290082e+00 
54900 5.6590687990e+00 -6.2097142947e-03 2.8074935624e+00 -4.8627214920e+00 2.8074935624e+00 4.8627214920e+00 
55000 5.6590670221e+00 -6.1799663233e-03 2.8076041549e+00 -4.8629130438e+00 2.8076041549e+00 4.8629130438e+00 
55100 5.6590652555e+00 -6.1504309948e-03 2.8077142133e+00 -4.8631036705e+00 2.8077142133e+00 4.8631036705e+00 
55200 5.6590634992e+00 -6.1211063511e-03 2.8078237413e+00 -4.8632933787e+00 2.8078237413e+00 4.8632933787e+00 
55300 5.6590617530e+00 -6.0919904527e-03 2.8079327430e+00 -4.8634821750e+00 2.8079327430e+00 4.8634821750e+00 
55400 5.6590600169e+00 -6.0630813787e-03 2.8080412219e+00 -4.8636700660e+00 2.8080412219e+00 4.8636700660e+00 
55500 5.6590582908e+00 -6.0343772264e-03 2.8081491818e+00 -4.8638570581e+00 2.8081491818e+00 4.8638570581e+00 
55600 5.6590565747e+00 -6.0058761111e-03 2.8082566265e+00 -4.8640431578e+00 2.8082566265e+00 4.8640431578e+00 
55700 5.6590548686e+00 -5.9775761663e-03 2.8083635597e+00 -4.8642283715e+00 2.8083635597e+00 4.8642283715e+00 
55800 5.6590531722e+00 -5.9494755433e-03 2.8084699849e+00 -4.8644127054e+00 2.8084699849e+00 4.8644127054e+00 
55900 5.6590514857e+00 -5.9215724111e-03 2.8085759058e+00 -4.8645961657e+00 2.8085759058e+00 4.8645961657e+00 
56000 5.6590498089e+00 -5.8938649561e-03 2.8086813259e+00 -4.8647787588e+00 2.8086813259e+00 4.8647787588e+00 
56100 5.6590481418e+00 -5.8663513822e-03 2.8087862489e+00 -4.8649604906e+00 2.8087862489e+00 4.8649604906e+00 
56200 5.6590464843e+00 -5.8390299106e-03 2.8088906781e+00 -4.8651413674e+00 2.8088906781e+00 4.8651413674e+00 
56300 5.6590448364e+00 -5.8118987796e-03 2.8089946171e+00 -4.8653213950e+00 2.8089946171e+00 4.8653213950e+00 
56400 5.6590431980e+00 -5.7849562443e-03 2.8090980693e+00 -4.8655005795e+00 2.8090980693e+00 4.8655005795e+00 
56500 5.6590415690e+00 -5.7582005768e-03 2.8092010382e+00 -4.8656789268e+00 2.8092010382e+00 4.8656789268e+00 
56600 5.6590399495e+00 -5.7316300658e-03 2.8093035270e+00 -4.8658564427e+00 2.8093035270e+00 4.8658564427e+00 
56700 5.6590383393e+00 -5.7052430164e-03 2.8094055392e+00 -4.8660331330e+00 2.8094055392e+00 4.8660331330e+00 
56800 5.6590367383e+00 -5.6790377503e-03 2.8095070781e+00 -4.8662090035e+00 2.8095070781e+00 4.8662090035e+00 
56900 5.6590351466e+00 -5.6530126053e-03 2.8096081469e+00 -4.8663840598e+00 2.8096081469e+00 4.8663840598e+00 
57000 5.6590335641e+00 -5.6271659353e-03 2.8097087489e+00 -4.8665583076e+00 2.8097087489e+00 4.8665583076e+00 
57100 5.6590319907e+00 -5.6014961102e-03 2.8098088874e+00 -4.8667317526e+00 2.8098088874e+00 4.8667317526e+00 
57200 5.6590304264e+00 -5.5760015157e-03 2.8099085655e+00 -4.8669044001e+00 2.8099085655e+00 4.8669044001e+00 
57300 5.6590288711e+00 -5.5506805531e-03 2.8100077865e+00 -4.8670762558e+00 2.8100077865e+00 4.8670762558e+00 
57400 5.6590273248e+00 -5.5255316394e-03 2.8101065533e+00 -4.8672473251e+00 2.8101065533e+00 4.8672473251e+00 
57500 5.6590257874e+00 -5.5005532069e-03 2.8102048692e+00 -4.8674176132e+00 2.8102048692e+00 4.8674176132e+00 
57600 5.6590242588e+00 -5.4757437031e-03 2.8103027373e+00 -4.8675871256e+00 2.8103027373e+00 4.8675871256e+00 
57700 5.6590227391e+00 -5.4511015909e-03 2.8104001605e+00 -4.8677558676e+00 2.8104001605e+00 4.8677558676e+00 
57800 5.6590212281e+00 -5.4266253478e-03 2.8104971420e+00 -4.8679238444e+00 2.8104971420e+00 4.8679238444e+00 
57900 5.6590197259e+00 -5.4023134664e-03 2.8105936846e+00 -4.8680910612e+00 2.8105936846e+00 4.8680910612e+00 
58000 5.6590182323e+00 -5.3781644542e-03 2.8106897914e+00 -4.8682575230e+00 2.8106897914e+00 4.8682575230e+00 
58100 5.6590167473e+00 -5.3541768329e-03 2.8107854653e+00 -4.8684232352e+00 2.8107854653e+00 4.8684232352e+00 
58200 5.6590152709e+00 -5.3303491389e-03 2.8108807093e+00 -4.8685882025e+00 2.8108807093e+00 4.8685882025e+00 
58300 5.6590138031e+00 -5.3066799229e-03 2.8109755262e+00 -4.8687524302e+00 2.8109755262e+00 4.8687524302e+00 
58400 5.6590123437e+00 -5.2831677498e-03 2.8110699189e+00 -4.8689159231e+00 2.8110699189e+00 4.8689159231e+00 
58500 5.6590108927e+00 -5.2598111987e-03 2.8111638902e+00 -4.8690786862e+00 2.8111638902e+00 4.8690786862e+00 
58600 5.6590094501e+00 -5.2366088624e-03 2.8112574429e+00 -4.8692407242e+00 2.8112574429e+00 4.8692407242e+00 
58700 5.6590080158e+00 -5.2135593477e-03 2.8113505798e+00 -4.8694020421e+00 2.8113505798e+00 4.8694020421e+00 
58800 5.6590065898e+00 -5.1906612751e-03 2.8114433037e+00 -4.8695626446e+00 2.8114433037e+00 4.8695626446e+00 
58900 5.6590051720e+00 -5.1679132786e-03 2.8115356173e+00 -4.8697225365e+00 2.8115356173e+00 4.8697225365e+00 
59000 5.6590037625e+00 -5.1453140056e-03 2.8116275233e+00 -4.8698817224e+00 2.8116275233e+00 4.8698817224e+00 
59100 5.6590023610e+00 -5.1228621170e-03 2.8117190245e+00 -4.8700402070e+00 2.8117190245e+00 4.8700402070e+00 
59200 5.6590009677e+00 -5.1005562868e-03 2.8118101234e+00 -4.8701979949e+00 2.8118101234e+00 4.8701979949e+00 
59300 5.6589995824e+00 -5.0783952020e-03 2.8119008227e+00 -4.8703550907e+00 2.8119008227e+00 4.8703550907e+00 
59400 5.6589982052e+00 -5.0563775627e-03 2.8119911250e+00 -4.8705114989e+00 2.8119911250e+00 4.8705114989e+00 
59500 5.6589968359e+00 -5.0345020818e-03 2.8120810329e+00 -4.8706672239e+00 2.8120810329e+00 4.8706672239e+00 
59600 5.6589954745e+00 -5.0127674849e-03 2.8121705489e+00 -4.8708222703e+00 2.8121705489e+00 4.8708222703e+00 
59700 5.6589941210e+00 -4.9911725102e-03 2.8122596757e+00 -4.8709766424e+00 2.8122596757e+00 4.8709766424e+00 
59800 5.6589927753e+00 -4.9697159083e-03 2.8123484157e+00 -4.8711303446e+00 2.8123484157e+00 4.8711303446e+00 
59900 5.6589914374e+00 -4.9483964424e-03 2.8124367714e+00 -4.8712833812e+00 2.8124367714e+00 4.8712833812e+00 
60000 5.6589901073e+00 -4.9272128878e-03 2.8125247454e+00 -4.8714357565e+00 2.8125247454e+00 4.8714357565e+00 
60100 5.6589887849e+00 -4.9061640318e-03 2.8126123400e+00 -4.8715874748e+00 2.8126123400e+00 4.8715874748e+00 
60200 5.6589874701e+00 -4.8852486741e-03 2.8126995576e+00 -4.8717385402e+00 2.8126995576e+00 4.8717385402e+00 
60300 5.6589861629e+00 -4.8644656259e-03 2.8127864008e+00 -4.8718889570e+00 2.8127864008e+00 4.8718889570e+00 
60400 5.6589848633e+00 -4.8438137105e-03 2.8128728718e+00 -4.8720387292e+00 2.8128728718e+00 4.8720387292e+00 
60500 5.6589835713e+00 -4.8232917627e-03 2.8129589731e+00 -4.8721878609e+00 2.8129589731e+00 4.8721878609e+00 
60600 5.6589822867e+00 -4.8028986291e-03 2.8130447069e+00 -4.8723363563e+00 2.8130447069e+00 4.8723363563e+00 
60700 5.6589810096e+00 -4.7826331675e-03 2.8131300757e+00 -4.8724842194e+00 2.8131300757e+00 4.8724842194e+00 
60800 5.6589797399e+00 -4.7624942472e-03 2.8132150817e+00 -4.8726314540e+00 2.8132150817e+00 4.8726314540e+00 
60900 5.6589784775e+00 -4.7424807488e-03 2.8132997271e+00 -4.8727780643e+00 2.8132997271e+00 4.8727780643e+00 
61000 5.6589772225e+00 -4.7225915640e-03 2.8133840143e+00 -4.8729240540e+00 2.8133840143e+00 4.8729240540e+00 
61100 5.6589759748e+00 -4.7028255955e-03 2.8134679456e+00 -4.8730694272e+00 2.8134679456e+00 4.8730694272e+00 
61200 5.6589747343e+00 -4.6831817569e-03 2.8135515230e+00 -4.8732141875e+00 2.8135515230e+00 4.8732141875e+00 
61300 5.6589735010e+00 -4.6636589727e-03 2.8136347489e+00 -4.8733583390e+00 2.8136347489e+00 4.8733583390e+00 
61400 5.6589722749e+00 -4.6442561782e-03 2.8137176253e+00 -4.8735018852e+00 2.8137176253e+00 4.8735018852e+00 
61500 5.6589710559e+00 -4.6249723192e-03 2.8138001545e+00 -4.8736448300e+00 2.8138001545e+00 4.8736448300e+00 
61600 5.6589698441e+00 -4.6058063521e-03 2.8138823387e+00 -4.8737871771e+00 2.8138823387e+00 4.8737871771e+00 
61700 5.6589686392e+00 -4.5867572436e-03 2.8139641799e+00 -4.8739289302e+00 2.8139641799e+00 4.8739289302e+00 
61800 5.6589674414e+00 -4.5678239709e-03 2.8140456802e+00 -4.8740700929e+00 2.8140456802e+00 4.8740700929e+00 
61900 5.6589662505e+00 -4.5490055212e-03 2.8141268417e+00 -4.8742106688e+00 2.8141268417e+00 4.8742106688e+00 
62000 5.6589650666e+00 -4.5303008921e-03 2.8142076666e+00 -4.8743506615e+00 2.8142076666e+00 4.8743506615e+00 
62100 5.6589638895e+00 -4.5117090910e-03 2.8142881568e+00 -4.8744900747e+00 2.8142881568e+00 4.8744900747e+00 
62200 5.6589627194e+00 -4.4932291354e-03 2.8143683143e+00 -4.8746289117e+00 2.8143683143e+00 4.8746289117e+00 
62300 5.6589615560e+00 -4.4748600523e-03 2.8144481413e+00 -4.8747671760e+00 2.8144481413e+00 4.8747671760e+00 
62400 5.6589603994e+00 -4.4566008789e-03 2.8145276397e+00 -4.8749048713e+00 2.8145276397e+00 4.8749048713e+00 
62500 5.6589592496e+00 -4.4384506617e-03 2.8146068114e+00 -4.8750420008e+00 2.8146068114e+00 4.8750420008e+00 
62600 5.6589581065e+00 -4.4204084568e-03 2.8146856585e+00 -4.8751785679e+00 2.8146856585e+00 4.8751785679e+00 
62700 5.6589569700e+00 -4.4024733300e-03 2.8147641829e+00 -4.8753145762e+00 2.8147641829e+00 4.8753145762e+00 
62800 5.6589558402e+00 -4.3846443561e-03 2.8148423865e+00 -4.8754500288e+00 2.8148423865e+00 4.8754500288e+00 
62900 5.6589547170e+00 -4.3669206195e-03 2.8149202712e+00 -4.8755849291e+00 2.8149202712e+00 4.8755849291e+00 
63000 5.6589536003e+00 -4.3493012135e-03 2.8149978390e+00 -4.8757192803e+00 2.8149978390e+00 4.8757192803e+00 
63100 5.6589524902e+00 -4.3317852406e-03 2.8150750917e+00 -4.8758530859e+00 2.8150750917e+00 4.8758530859e+00 
63200 5.6589513865e+00 -4.3143718125e-03 2.8151520311e+00 -4.8759863489e+00 2.8151520311e+00 4.8759863489e+00 
63300 5.6589502893e+00 -4.2970600494e-03 2.8152286591e+00 -4.8761190725e+00 2.8152286591e+00 4.8761190725e+00 
63400 5.6589491985e+00 -4.2798490807e-03 2.8153049776e+00 -4.8762512600e+00 2.8153049776e+00 4.8762512600e+00 
63500 5.6589481142e+00 -4.2627380444e-03 2.8153809883e+00 -4.8763829145e+00 2.8153809883e+00 4.8763829145e+00 
63600 5.6589470361e+00 -4.2457260871e-03 2.8154566931e+00 -4.8765140390e+00 2.8154566931e+00 4.8765140390e+00 
63700 5.6589459644e+00 -4.2288123640e-03 2.8155320938e+00 -4.8766446368e+00 2.8155320938e+00 4.8766446368e+00 
63800 5.6589448989e+00 -4.2119960388e-03 2.8156071920e+00 -4.8767747108e+00 2.8156071920e+00 4.8767747108e+00 
63900 5.6589438397e+00 -4.1952762836e-03 2.8156819897e+00 -4.8769042641e+00 2.8156819897e+00 4.8769042641e+00 
64000 5.6589427867e+00 -4.1786522788e-03 2.8157564884e+00 -4.8770332996e+00 2.8157564884e+00 4.8770332996e+00 
64100 5.6589417398e+00 -4.1621232131e-03 2.8158306900e+00 -4.8771618205e+00 2.8158306900e+00 4.8771618205e+00 
64200 5.6589406991e+00 -4.1456882833e-03 2.8159045961e+00 -4.8772898296e+00 2.8159045961e+00 4.8772898296e+00 
64300 5.6589396645e+00 -4.1293466942e-03 2.8159782084e+00 -4.8774173300e+00 2.8159782084e+00 4.8774173300e+00 
64400 5.6589386360e+00 -4.1130976587e-03 2.8160515286e+00 -4.8775443244e+00 2.8160515286e+00 4.8775443244e+00 
64500 5.6589376135e+00 -4.0969403974e-03 2.8161245585e+00 -4.8776708157e+00 2.8161245585e+00 4.8776708157e+00 
64600 5.6589365970e+00 -4.0808741392e-03 2.8161972995e+00 -4.8777968070e+00 2.8161972995e+00 4.8777968070e+00 
64700 5.6589355865e+00 -4.0648981202e-03 2.8162697535e+00 -4.8779223009e+00 2.8162697535e+00 4.8779223009e+00 
64800 5.6589345820e+00 -4.0490115845e-03 2.8163419219e+00 -4.8780473002e+00 2.8163419219e+00 4.8780473002e+00 
64900 5.6589335833e+00 -4.0332137837e-03 2.8164138065e+00 -4.8781718079e+00 2.8164138065e+00 4.8781718079e+00 
65000 5.6589325905e+00 -4.0175039770e-03 2.8164854087e+00 -4.8782958266e+00 2.8164854087e+00 4.8782958266e+00 
65100 5.6589316035e+00 -4.0018814309e-03 2.8165567302e+00 -4.8784193592e+00 2.8165567302e+00 4.8784193592e+00 
65200 5.6589306224e+00 -3.9863454195e-03 2.8166277726e+00 -4.8785424082e+00 2.8166277726e+00 4.8785424082e+00 
65300 5.6589296470e+00 -3.9708952239e-03 2.8166985374e+00 -4.8786649764e+00 2.8166985374e+00 4.8786649764e+00 
65400 5.6589286774e+00 -3.9555301328e-03 2.8167690262e+00 -4.8787870665e+00 2.8167690262e+00 4.8787870665e+00 
65500 5.6589277135e+00 -3.9402494416e-03 2.8168392404e+00 -4.8789086812e+00 2.8168392404e+00 4.8789086812e+00 
65600 5.6589267553e+00 -3.9250524532e-03 2.8169091817e+00 -4.8790298230e+00 2.8169091817e+00 4.8790298230e+00 
65700 5.6589258027e+00 -3.9099384773e-03 2.8169788515e+00 -4.8791504946e+00 2.8169788515e+00 4.8791504946e+00 
65800 5.6589248557e+00 -3.8949068304e-03 2.8170482512e+00 -4.8792706985e+00 2.8170482512e+00 4.8792706985e+00 
65900 5.6589239143e+00 -3.8799568363e-03 2.8171173825e+00 -4.8793904374e+00 2.8171173825e+00 4.8793904374e+00 
66000 5.6589229785e+00 -3.8650878251e-03 2.8171862468e+00 -4.8795097138e+00 2.8171862468e+00 4.8795097138e+00 
66100 5.6589220482e+00 -3.8502991341e-03 2.8172548454e+00 -4.8796285301e+00 2.8172548454e+00 4.8796285301e+00 
66200 5.6589211234e+00 -3.8355901068e-03 2.8173231799e+00 -4.8797468890e+00 2.8173231799e+00 4.8797468890e+00 
66300 5.6589202040e+00 -3.8209600936e-03 2.8173912517e+00 -4.8798647928e+00 2.8173912517e+00 4.8798647928e+00 
66400 5.6589192901e+00 -3.8064084514e-03 2.8174590623e+00 -4.8799822441e+00 2.8174590623e+00 4.8799822441e+00 
66500 5.6589183816e+00 -3.7919345435e-03 2.8175266129e+00 -4.8800992452e+00 2.8175266129e+00 4.8800992452e+00 
66600 5.6589174785e+00 -3.7775377396e-03 2.8175939051e+00 -4.8802157987e+00 2.8175939051e+00 4.8802157987e+00 
66700 5.6589165807e+00 -3.7632174156e-03 2.8176609401e+00 -4.8803319068e+00 2.8176609401e+00 4.8803319068e+00 
66800 5.6589156882e+00 -3.7489729539e-03 2.8177277195e+00 -4.8804475721e+00 2.8177277195e+00 4.8804475721e+00 
66900 5.6589148010e+00 -3.7348037431e-03 2.8177942445e+00 -4.8805627968e+00 2.8177942445e+00 4.8805627968e+00 
67000 5.6589139190e+00 -3.7207091776e-03 2.8178605166e+00 -4.8806775833e+00 2.8178605166e+00 4.8806775833e+00 
67100 5.6589130423e+00 -3.7066886584e-03 2.8179265369e+00 -4.8807919339e+00 2.8179265369e+00 4.8807919339e+00 
67200 5.6589121708e+00 -3.6927415919e-03 2.8179923070e+00 -4.8809058510e+00 2.8179923070e+00 4.8809058510e+00 
67300 5.6589113044e+00 -3.6788673911e-03 2.8180578280e+00 -4.8810193368e+00 2.8180578280e+00 4.8810193368e+00 
67400 5.6589104431e+00 -3.6650654743e-03 2.8181231014e+00 -4.8811323935e+00 2.8181231014e+00 4.8811323935e+00 
67500 5.6589095870e+00 -3.6513352660e-03 2.8181881283e+00 -4.8812450235e+00 2.8181881283e+00 4.8812450235e+00 
67600 5.6589087360e+00 -3.6376761964e-03 2.8182529102e+00 -4.8813572290e+00 2.8182529102e+00 4.8813572290e+00 
67700 5.6589078900e+00 -3.6240877014e-03 2.8183174482e+00 -4.8814690122e+00 2.8183174482e+00 4.8814690122e+00 
67800 5.6589070490e+00 -3.6105692224e-03 2.8183817437e+00 -4.8815803752e+00 2.8183817437e+00 4.8815803752e+00 
67900 5.6589062130e+00 -3.5971202067e-03 2.8184457979e+00 -4.8816913203e+00 2.8184457979e+00 4.8816913203e+00 
68000 5.6589053820e+00 -3.5837401067e-03 2.8185096120e+00 -4.8818018496e+00 2.8185096120e+00 4.8818018496e+00 
68100 5.6589045559e+00 -3.5704283808e-03 2.8185731873e+00 -4.8819119653e+00 2.8185731873e+00 4.8819119653e+00 
68200 5.6589037347e+00 -3.5571844925e-03 2.8186365251e+00 -4.8820216695e+00 2.8186365251e+00 4.8820216695e+00 
68300 5.6589029184e+00 -3.5440079106e-03 2.8186996265e+00 -4.8821309644e+00 2.8186996265e+00 4.8821309644e+00 
68400 5.6589021070e+00 -3.5308981094e-03 2.8187624927e+00 -4.8822398519e+00 2.8187624927e+00 4.8822398519e+00 
68500 5.6589013004e+00 -3.5178545685e-03 2.8188251250e+00 -4.8823483342e+00 2.8188251250e+00 4.8823483342e+00 
68600 5.6589004986e+00 -3.5048767725e-03 2.8188875246e+00 -4.8824564134e+00 2.8188875246e+00 4.8824564134e+00 
68700 5.6588997015e+00 -3.4919642112e-03 2.8189496925e+00 -4.8825640914e+00 2.8189496925e+00 4.8825640914e+00 
68800 5.6588989092e+00 -3.4791163797e-03 2.8190116301e+00 -4.8826713704e+00 2.8190116301e+00 4.8826713704e+00 
68900 5.6588981217e+00 -3.4663327778e-03 2.8190733384e+00 -4.8827782523e+00 2.8190733384e+00 4.8827782523e+00 
69000 5.6588973388e+00 -3.4536129106e-03 2.8191348186e+00 -4.8828847392e+00 2.8191348186e+00 4.8828847392e+00 
69100 5.6588965606e+00 -3.4409562879e-03 2.8191960719e+00 -4.8829908330e+00 2.8191960719e+00 4.8829908330e+00 
69200 5.6588957870e+00 -3.4283624246e-03 2.8192570994e+00 -4.8830965357e+00 2.8192570994e+00 4.8830965357e+00 
69300 5.6588950180e+00 -3.4158308403e-03 2.8193179022e+00 -4.8832018493e+00 2.8193179022e+00 4.8832018493e+00 
69400 5.6588942537e+00 -3.4033610594e-03 2.8193784814e+00 -4.8833067756e+00 2.8193784814e+00 4.8833067756e+00 
69500 5.6588934938e+00 -3.3909526110e-03 2.8194388382e+00 -4.8834113166e+00 2.8194388382e+00 4.8834113166e+00 
69600 5.6588927386e+00 -3.3786050290e-03 2.8194989737e+00 -4.8835154743e+00 2.8194989737e+00 4.8835154743e+00 
69700 5.6588919878e+00 -3.3663178519e-03 2.8195588889e+00 -4.8836192505e+00 2.8195588889e+00 4.8836192505e+00 
69800 5.6588912415e+00 -3.3540906228e-03 2.8196185849e+00 -4.8837226470e+00 2.8196185849e+00 4.8837226470e+00 
69900 5.6588904997e+00 -3.3419228891e-03 2.8196780629e+00 -4.8838256659e+00 2.8196780629e+00 4.8838256659e+00 
70000 5.6588897623e+00 -3.3298142030e-03 2.8197373238e+00 -4.8839283088e+00 2.8197373238e+00 4.8839283088e+00 
70100 5.6588890293e+00 -3.3177641212e-03 2.8197963688e+00 -4.8840305777e+00 2.8197963688e+00 4.8840305777e+00 
70200 5.6588883007e+00 -3.3057722044e-03 2.8198551988e+00 -4.8841324743e+00 2.8198551988e+00 4.8841324743e+00 
70300 5.6588875764e+00 -3.2938380180e-03 2.8199138150e+00 -4.8842340006e+00 2.8199138150e+00 4.8842340006e+00 
70400 5.6588868565e+00 -3.2819611316e-03 2.8199722184e+00 -4.8843351582e+00 2.8199722184e+00 4.8843351582e+00 
70500 5.6588861409e+00 -3.2701411191e-03 2.8200304100e+00 -4.8844359489e+00 2.8200304100e+00 4.8844359489e+00 
70600 5.6588854296e+00 -3.2583775586e-03 2.8200883908e+00 -4.8845363746e+00 2.8200883908e+00 4.8845363746e+00 
70700 5.6588847225e+00 -3.2466700322e-03 2.8201461618e+00 -4.8846364370e+00 2.8201461618e+00 4.8846364370e+00 
70800 5.6588840197e+00 -3.2350181264e-03 2.8202037241e+00 -4.8847361378e+00 2.8202037241e+00 4.8847361378e+00 
70900 5.6588833211e+00 -3.2234214317e-03 2.8202610786e+00 -4.8848354787e+00 2.8202610786e+00 4.8848354787e+00 
71000 5.6588826266e+00 -3.2118795425e-03 2.8203182264e+00 -4.8849344616e+00 2.8203182264e+00 4.8849344616e+00 
71100 5.6588819364e+00 -3.2003920575e-03 2.8203751684e+00 -4.8850330880e+00 2.8203751684e+00 4.8850330880e+00 
71200 5.6588812502e+00 -3.1889585789e-03 2.8204319055e+00 -4.8851313597e+00 2.8204319055e+00 4.8851313597e+00 
71300 5.6588805682e+00 -3.1775787134e-03 2.8204884389e+00 -4.8852292783e+00 2.8204884389e+00 4.8852292783e+00 
71400 5.6588798903e+00 -3.1662520711e-03 2.8205447694e+00 -4.8853268456e+00 2.8205447694e+00 4.8853268456e+00 
71500 5.6588792164e+00 -3.1549782660e-03 2.8206008979e+00 -4.8854240631e+00 2.8206008979e+00 4.8854240631e+00 
71600 5.6588785466e+00 -3.1437569162e-03 2.8206568255e+00 -4.8855209325e+00 2.8206568255e+00 4.8855209325e+00 
71700 5.6588778808e+00 -3.1325876433e-03 2.8207125531e+00 -4.8856174555e+00 2.8207125531e+00 4.8856174555e+00 
71800 5.6588772190e+00 -3.1214700726e-03 2.8207680816e+00 -4.8857136337e+00 2.8207680816e+00 4.8857136337e+00 
71900 5.6588765612e+00 -3.1104038331e-03 2.8208234119e+00 -4.8858094686e+00 2.8208234119e+00 4.8858094686e+00 
72000 5.6588759073e+00 -3.0993885575e-03 2.8208785450e+00 -4.8859049619e+00 2.8208785450e+00 4.8859049619e+00 
72100 5.6588752574e+00 -3.0884238822e-03 2.8209334818e+00 -4.8860001152e+00 2.8209334818e+00 4.8860001152e+00 
72200 5.6588746114e+00 -3.0775094469e-03 2.8209882231e+00 -4.8860949300e+00 2.8209882231e+00 4.8860949300e+00 
72300 5.6588739692e+00 -3.0666448950e-03 2.8210427699e+00 -4.8861894078e+00 2.8210427699e+00 4.8861894078e+00 
72400 5.6588733310e+00 -3.0558298733e-03 2.8210971231e+00 -4.8862835504e+00 2.8210971231e+00 4.8862835504e+00 
72500 5.6588726965e+00 -3.0450640321e-03 2.8211512836e+00 -4.8863773591e+00 2.8211512836e+00 4.8863773591e+00 
72600 5.6588720659e+00 -3.0343470251e-03 2.8212052523e+00 -4.8864708355e+00 2.8212052523e+00 4.8864708355e+00 
72700 5.6588714391e+00 -3.0236785094e-03 2.8212590299e+00 -4.8865639811e+00 2.8212590299e+00 4.8865639811e+00 
72800 5.6588708160e+00 -3.0130581453e-03 2.8213126175e+00 -4.8866567975e+00 2.8213126175e+00 4.8866567975e+00 
72900 5.6588701967e+00 -3.0024855966e-03 2.8213660158e+00 -4.8867492862e+00 2.8213660158e+00 4.8867492862e+00 
73000 5.6588695811e+00 -2.9919605303e-03 2.8214192258e+00 -4.8868414485e+00 2.8214192258e+00 4.8868414485e+00 
73100 5.6588689693e+00 -2.9814826165e-03 2.8214722482e+00 -4.8869332860e+00 2.8214722482e+00 4.8869332860e+00 
73200 5.6588683611e+00 -2.9710515288e-03 2.8215250840e+00 -4.8870248002e+00 2.8215250840e+00 4.8870248002e+00 
73300 5.6588677566e+00 -2.9606669436e-03 2.8215777339e+00 -4.8871159926e+00 2.8215777339e+00 4.8871159926e+00 
73400 5.6588671557e+00 -2.9503285406e-03 2.8216301988e+00 -4.8872068644e+00 2.8216301988e+00 4.8872068644e+00 
73500 5.6588665585e+00 -2.9400360027e-03 2.8216824795e+00 -4.8872974173e+00 2.8216824795e+00 4.8872974173e+00 
73600 5.6588659649e+00 -2.9297890158e-03 2.8217345769e+00 -4.8873876526e+00 2.8217345769e+00 4.8873876526e+00 
73700 5.6588653748e+00 -2.9195872687e-03 2.8217864917e+00 -4.8874775718e+00 2.8217864917e+00 4.8874775718e+00 
73800 5.6588647883e+00 -2.9094304533e-03 2.8218382248e+00 -4.8875671761e+00 2.8218382248e+00 4.8875671761e+00 
73900 5.6588642054e+00 -2.8993182645e-03 2.8218897770e+00 -4.8876564672e+00 2.8218897770e+00 4.8876564672e+00 
74000 5.6588636259e+00 -2.8892504001e-03 2.8219411491e+00 -4.8877454462e+00 2.8219411491e+00 4.8877454462e+00 
74100 5.6588630500e+00 -2.8792265608e-03 2.8219923419e+00 -4.8878341147e+00 2.8219923419e+00 4.8878341147e+00 
74200 5.6588624775e+00 -2.8692464502e-03 2.8220433561e+00 -4.8879224739e+00 2.8220433561e+00 4.8879224739e+00 
74300 5.6588619085e+00 -2.8593097747e-03 2.8220941926e+00 -4.8880105253e+00 2.8220941926e+00 4.8880105253e+00 
74400 5.6588613430e+00 -2.8494162436e-03 2.8221448521e+00 -4.8880982701e+00 2.8221448521e+00 4.8880982701e+00 
74500 5.6588607808e+00 -2.8395655688e-03 2.8221953354e+00 -4.8881857098e+00 2.8221953354e+00 4.8881857098e+00 
74600 5.6588602221e+00 -2.8297574651e-03 2.8222456433e+00 -4.8882728456e+00 2.8222456433e+00 4.8882728456e+00 
74700 5.6588596667e+00 -2.8199916501e-03 2.8222957765e+00 -4.8883596789e+00 2.8222957765e+00 4.8883596789e+00 
74800 5.6588591147e+00 -2.8102678439e-03 2.8223457359e+00 -4.8884462110e+00 2.8223457359e+00 4.8884462110e+00 
74900 5.6588585661e+00 -2.8005857693e-03 2.8223955220e+00 -4.8885324432e+00 2.8223955220e+00 4.8885324432e+00 
75000 5.6588580207e+00 -2.7909451519e-03 2.8224451358e+00 -4.8886183768e+00 2.8224451358e+00 4.8886183768e+00 
75100 5.6588574787e+00 -2.7813457197e-03 2.8224945779e+00 -4.8887040131e+00 2.8224945779e+00 4.8887040131e+00 
75200 5.6588569399e+00 -2.7717872034e-03 2.8225438491e+00 -4.8887893533e+00 2.8225438491e+00 4.8887893533e+00 
75300 5.6588564045e+00 -2.7622693363e-03 2.8225929501e+00 -4.8888743987e+00 2.8225929501e+00 4.8888743987e+00 
75400 5.6588558722e+00 -2.7527918541e-03 2.8226418817e+00 -4.8889591507e+00 2.8226418817e+00 4.8889591507e+00 
75500 5.6588553432e+00 -2.7433544950e-03 2.8226906445e+00 -4.8890436104e+00 2.8226906445e+00 4.8890436104e+00 
75600 5.6588548174e+00 -2.7339569997e-03 2.8227392393e+00 -4.8891277790e+00 2.8227392393e+00 4.8891277790e+00 
75700 5.6588542947e+00 -2.7245991115e-03 2.8227876668e+00 -4.8892116580e+00 2.8227876668e+00 4.8892116580e+00 
75800 5.6588537753e+00 -2.7152805759e-03 2.8228359278e+00 -4.8892952483e+00 2.8228359278e+00 4.8892952483e+00 
75900 5.6588532589e+00 -2.7060011409e-03 2.8228840228e+00 -4.8893785514e+00 2.8228840228e+00 4.8893785514e+00 
76000 5.6588527458e+00 -2.6967605568e-03 2.8229319527e+00 -4.8894615683e+00 2.8229319527e+00 4.8894615683e+00 
76100 5.6588522357e+00 -2.6875585764e-03 2.8229797181e+00 -4.8895443004e+00 2.8229797181e+00 4.8895443004e+00 
76200 5.6588517287e+00 -2.6783949545e-03 2.8230273196e+00 -4.8896267488e+00 2.8230273196e+00 4.8896267488e+00 
76300 5.6588512248e+00 -2.6692694485e-03 2.8230747581e+00 -4.8897089146e+00 2.8230747581e+00 4.8897089146e+00 
76400 5.6588507240e+00 -2.6601818180e-03 2.8231220342e+00 -4.8897907992e+00 2.8231220342e+00 4.8897907992e+00 
76500 5.6588502262e+00 -2.6511318247e-03 2.8231691485e+00 -4.8898724035e+00 2.8231691485e+00 4.8898724035e+00 
76600 5.6588497314e+00 -2.6421192327e-03 2.8232161017e+00 -4.8899537290e+00 2.8232161017e+00 4.8899537290e+00 
76700 5.6588492396e+00 -2.6331438081e-03 2.8232628946e+00 -4.8900347765e+00 2.8232628946e+00 4.8900347765e+00 
76800 5.6588487508e+00 -2.6242053194e-03 2.8233095277e+00 -4.8901155475e+00 2.8233095277e+00 4.8901155475e+00 
76900 5.6588482650e+00 -2.6153035371e-03 2.8233560018e+00 -4.8901960429e+00 2.8233560018e+00 4.8901960429e+00 
77000 5.6588477821e+00 -2.6064382338e-03 2.8234023174e+00 -4.8902762639e+00 2.8234023174e+00 4.8902762639e+00 
77100 5.6588473022e+00 -2.5976091843e-03 2.8234484753e+00 -4.8903562117e+00 2.8234484753e+00 4.8903562117e+00 
77200 5.6588468252e+00 -2.5888161654e-03 2.8234944760e+00 -4.8904358874e+00 2.8234944760e+00 4.8904358874e+00 
77300 5.6588463511e+00 -2.5800589560e-03 2.8235403204e+00 -4.8905152921e+00 2.8235403204e+00 4.8905152921e+00 
77400 5.6588458798e+00 -2.5713373370e-03 2.8235860088e+00 -4.8905944269e+00 2.8235860088e+00 4.8905944269e+00 
77500 5.6588454115e+00 -2.5626510913e-03 2.8236315422e+00 -4.8906732929e+00 2.8236315422e+00 4.8906732929e+00 
77600 5.6588449460e+00 -2.5540000039e-03 2.8236769209e+00 -4.8907518912e+00 2.8236769209e+00 4.8907518912e+00 
77700 5.6588444833e+00 -2.5453838617e-03 2.8237221458e+00 -4.8908302229e+00 2.8237221458e+00 4.8908302229e+00 
77800 5.6588440234e+00 -2.5368024534e-03 2.8237672173e+00 -4.8909082891e+00 2.8237672173e+00 4.8909082891e+00 
77900 5.6588435663e+00 -2.5282555699e-03 2.8238121362e+00 -4.8909860909e+00 2.8238121362e+00 4.8909860909e+00 
78000 5.6588431121e+00 -2.5197430038e-03 2.8238569030e+00 -4.8910636293e+00 2.8238569030e+00 4.8910636293e+00 
78100 5.6588426605e+00 -2.5112645496e-03 2.8239015184e+00 -4.8911409054e+00 2.8239015184e+00 4.8911409054e+00 
78200 5.6588422118e+00 -2.5028200039e-03 2.8239459830e+00 -4.8912179203e+00 2.8239459830e+00 4.8912179203e+00 
78300 5.6588417657e+00 -2.4944091648e-03 2.8239902973e+00 -4.8912946750e+00 2.8239902973e+00 4.8912946750e+00 
78400 5.6588413224e+00 -2.4860318324e-03 2.8240344621e+00 -4.8913711706e+00 2.8240344621e+00 4.8913711706e+00 
78500 5.6588408818e+00 -2.4776878087e-03 2.8240784778e+00 -4.8914474081e+00 2.8240784778e+00 4.8914474081e+00 
78600 5.6588404439e+00 -2.4693768973e-03 2.8241223451e+00 -4.8915233885e+00 2.8241223451e+00 4.8915233885e+00 
78700 5.6588400086e+00 -2.4610989036e-03 2.8241660646e+00 -4.8915991128e+00 2.8241660646e+00 4.8915991128e+00 
78800 5.6588395760e+00 -2.4528536349e-03 2.8242096368e+00 -4.8916745822e+00 2.8242096368e+00 4.8916745822e+00 
78900 5.6588391460e+00 -2.4446409001e-03 2.8242530624e+00 -4.8917497975e+00 2.8242530624e+00 4.8917497975e+00 
79000 5.6588387187e+00 -2.4364605097e-03 2.8242963419e+00 -4.8918247599e+00 2.8242963419e+00 4.8918247599e+00 
79100 5.6588382939e+00 -2.4283122762e-03 2.8243394760e+00 -4.8918994702e+00 2.8243394760e+00 4.8918994702e+00 
79200 5.6588378718e+00 -2.4201960135e-03 2.8243824651e+00 -4.8919739296e+00 2.8243824651e+00 4.8919739296e+00 
79300 5.6588374522e+00 -2.4121115373e-03 2.8244253099e+00 -4.8920481390e+00 2.8244253099e+00 4.8920481390e+00 
79400 5.6588370352e+00 -2.4040586648e-03 2.8244680110e+00 -4.8921220993e+00 2.8244680110e+00 4.8921220993e+00 
79500 5.6588366207e+00 -2.3960372150e-03 2.8245105688e+00 -4.8921958117e+00 2.8245105688e+00 4.8921958117e+00 
79600 5.6588362088e+00 -2.3880470083e-03 2.8245529840e+00 -4.8922692769e+00 2.8245529840e+00 4.8922692769e+00 
79700 5.6588357994e+00 -2.3800878669e-03 2.8245952571e+00 -4.8923424961e+00 2.8245952571e+00 4.8923424961e+00 
79800 5.6588353925e+00 -2.3721596144e-03 2.8246373887e+00 -4.8924154702e+00 2.8246373887e+00 4.8924154702e+00 
79900 5.6588349880e+00 -2.3642620761e-03 2.8246793793e+00 -4.8924882001e+00 2.8246793793e+00 4.8924882001e+00 
80000 5.6588345861e+00 -2.3563950787e-03 2.8247212295e+00 -4.8925606867e+00 2.8247212295e+00 4.8925606867e+00 
80100 5.6588341865e+00 -2.3485584504e-03 2.8247629398e+00 -4.8926329311e+00 2.8247629398e+00 4.8926329311e+00 
80200 5.6588337895e+00 -2.3407520210e-03 2.8248045108e+00 -4.8927049342e+00 2.8248045108e+00 4.8927049342e+00 
80300 5.6588333948e+00 -2.3329756218e-03 2.8248459430e+00 -4.8927766969e+00 2.8248459430e+00 4.8927766969e+00 
80400 5.6588330026e+00 -2.3252290855e-03 2.8248872370e+00 -4.8928482201e+00 2.8248872370e+00 4.8928482201e+00 
80500 5.6588326128e+00 -2.3175122463e-03 2.8249283932e+00 -4.8929195048e+00 2.8249283932e+00 4.8929195048e+00 
80600 5.6588322253e+00 -2.3098249397e-03 2.8249694123e+00 -4.8929905519e+00 2.8249694123e+00 4.8929905519e+00 
80700 5.6588318402e+00 -2.3021670029e-03 2.8250102947e+00 -4.8930613623e+00 2.8250102947e+00 4.8930613623e+00 
80800 5.6588314575e+00 -2.2945382742e-03 2.8250510410e+00 -4.8931319369e+00 2.8250510410e+00 4.8931319369e+00 
80900 5.6588310771e+00 -2.2869385935e-03 2.8250916516e+00 -4.8932022766e+00 2.8250916516e+00 4.8932022766e+00 
81000 5.6588306991e+00 -2.2793678020e-03 2.8251321272e+00 -4.8932723824e+00 2.8251321272e+00 4.8932723824e+00 
81100 5.6588303233e+00 -2.2718257422e-03 2.8251724682e+00 -4.8933422551e+00 2.8251724682e+00 4.8933422551e+00 
81200 5.6588299499e+00 -2.2643122581e-03 2.8252126751e+00 -4.8934118955e+00 2.8252126751e+00 4.8934118955e+00 
81300 5.6588295787e+00 -2.2568271950e-03 2.8252527485e+00 -4.8934813047e+00 2.8252527485e+00 4.8934813047e+00 
81400 5.6588292098e+00 -2.2493703994e-03 2.8252926889e+00 -4.8935504834e+00 2.8252926889e+00 4.8935504834e+00 
81500 5.6588288432e+00 -2.2419417192e-03 2.8253324967e+00 -4.8936194326e+00 2.8253324967e+00 4.8936194326e+00 
81600 5.6588284788e+00 -2.2345410035e-03 2.8253721725e+00 -4.8936881531e+00 2.8253721725e+00 4.8936881531e+00 
81700 5.6588281167e+00 -2.2271681028e-03 2.8254117168e+00 -4.8937566458e+00 2.8254117168e+00 4.8937566458e+00 
81800 5.6588277567e+00 -2.2198228688e-03 2.8254511301e+00 -4.8938249116e+00 2.8254511301e+00 4.8938249116e+00 
81900 5.6588273990e+00 -2.2125051544e-03 2.8254904128e+00 -4.8938929513e+00 2.8254904128e+00 4.8938929513e+00 
82000 5.6588270435e+00 -2.2052148139e-03 2.8255295655e+00 -4.8939607657e+00 2.8255295655e+00 4.8939607657e+00 
82100 5.6588266901e+00 -2.1979517027e-03 2.8255685886e+00 -4.8940283557e+00 2.8255685886e+00 4.8940283557e+00 
82200 5.6588263389e+00 -2.1907156773e-03 2.8256074827e+00 -4.8940957222e+00 2.8256074827e+00 4.8940957222e+00 
82300 5.6588259899e+00 -2.1835065956e-03 2.8256462481e+00 -4.8941628660e+00 2.8256462481e+00 4.8941628660e+00 
82400 5.6588256430e+00 -2.1763243166e-03 2.8256848855e+00 -4.8942297879e+00 2.8256848855e+00 4.8942297879e+00 
82500 5.6588252982e+00 -2.1691687005e-03 2.8257233953e+00 -4.8942964888e+00 2.8257233953e+00 4.8942964888e+00 
82600 5.6588249556e+00 -2.1620396086e-03 2.8257617779e+00 -4.8943629694e+00 2.8257617779e+00 4.8943629694e+00 
82700 5.6588246150e+00 -2.1549369034e-03 2.8258000339e+00 -4.8944292307e+00 2.8258000339e+00 4.8944292307e+00 
82800 5.6588242765e+00 -2.1478604484e-03 2.8258381636e+00 -4.8944952734e+00 2.8258381636e+00 4.8944952734e+00 
82900 5.6588239401e+00 -2.1408101085e-03 2.8258761677e+00 -4.8945610983e+00 2.8258761677e+00 4.8945610983e+00 
83000 5.6588236058e+00 -2.1337857495e-03 2.8259140465e+00 -4.8946267063e+00 2.8259140465e+00 4.8946267063e+00 
83100 5.6588232735e+00 -2.1267872383e-03 2.8259518004e+00 -4.8946920981e+00 2.8259518004e+00 4.8946920981e+00 
83200 5.6588229433e+00 -2.1198144429e-03 2.8259894301e+00 -4.8947572746e+00 2.8259894301e+00 4.8947572746e+00 
83300 5.6588226151e+00 -2.1128672325e-03 2.8260269359e+00 -4.8948222365e+00 2.8260269359e+00 4.8948222365e+00 
83400 5.6588222889e+00 -2.1059454772e-03 2.8260643183e+00 -4.8948869847e+00 2.8260643183e+00 4.8948869847e+00 
83500 5.6588219647e+00 -2.0990490483e-03 2.8261015777e+00 -4.8949515199e+00 2.8261015777e+00 4.8949515199e+00 
83600 5.6588216425e+00 -2.0921778179e-03 2.8261387146e+00 -4.8950158429e+00 2.8261387146e+00 4.8950158429e+00 
83700 5.6588213223e+00 -2.0853316595e-03 2.8261757294e+00 -4.8950799545e+00 2.8261757294e+00 4.8950799545e+00 
83800 5.6588210040e+00 -2.0785104472e-03 2.8262126227e+00 -4.8951438555e+00 2.8262126227e+00 4.8951438555e+00 
83900 5.6588206877e+00 -2.0717140564e-03 2.8262493948e+00 -4.8952075466e+00 2.8262493948e+00 4.8952075466e+00 
84000 5.6588203734e+00 -2.0649423635e-03 2.8262860462e+00 -4.8952710287e+00 2.8262860462e+00 4.8952710287e+00 
84100 5.6588200609e+00 -2.0581952456e-03 2.8263225773e+00 -4.8953343024e+00 2.8263225773e+00 4.8953343024e+00 
84200 5.6588197504e+00 -2.0514725812e-03 2.8263589885e+00 -4.8953973686e+00 2.8263589885e+00 4.8953973686e+00 
84300 5.6588194418e+00 -2.0447742494e-03 2.8263952804e+00 -4.8954602279e+00 2.8263952804e+00 4.8954602279e+00 
84400 5.6588191351e+00 -2.0381001304e-03 2.8264314533e+00 -4.8955228812e+00 2.8264314533e+00 4.8955228812e+00 
84500 5.6588188303e+00 -2.0314501054e-03 2.8264675077e+00 -4.8955853293e+00 2.8264675077e+00 4.8955853293e+00 
84600 5.6588185273e+00 -2.0248240565e-03 2.8265034440e+00 -4.8956475727e+00 2.8265034440e+00 4.8956475727e+00 
84700 5.6588182263e+00 -2.0182218666e-03 2.8265392626e+00 -4.8957096124e+00 2.8265392626e+00 4.8957096124e+00 
84800 5.6588179270e+00 -2.0116434197e-03 2.8265749639e+00 -4.8957714489e+00 2.8265749639e+00 4.8957714489e+00 
84900 5.6588176296e+00 -2.0050886006e-03 2.8266105485e+00 -4.8958330832e+00 2.8266105485e+00 4.8958330832e+00 
85000 5.6588173341e+00 -1.9985572950e-03 2.8266460166e+00 -4.8958945158e+00 2.8266460166e+00 4.8958945158e+00 
85100 5.6588170403e+00 -1.9920493895e-03 2.8266813688e+00 -4.8959557476e+00 2.8266813688e+00 4.8959557476e+00 
85200 5.6588167484e+00 -1.9855647717e-03 2.8267166054e+00 -4.8960167792e+00 2.8267166054e+00 4.8960167792e+00 
85300 5.6588164583e+00 -1.9791033298e-03 2.8267517269e+00 -4.8960776113e+00 2.8267517269e+00 4.8960776113e+00 
85400 5.6588161699e+00 -1.9726649531e-03 2.8267867336e+00 -4.8961382448e+00 2.8267867336e+00 4.8961382448e+00 
85500 5.6588158833e+00 -1.9662495316e-03 2.8268216260e+00 -4.8961986802e+00 2.8268216260e+00 4.8961986802e+00 
85600 5.6588155985e+00 -1.9598569563e-03 2.8268564046e+00 -4.8962589184e+00 2.8268564046e+00 4.8962589184e+00 
85700 5.6588153154e+00 -1.9534871189e-03 2.8268910696e+00 -4.8963189600e+00 2.8268910696e+00 4.8963189600e+00 
85800 5.6588150341e+00 -1.9471399119e-03 2.8269256215e+00 -4.8963788057e+00 2.8269256215e+00 4.8963788057e+00 
85900 5.6588147545e+00 -1.9408152287e-03 2.8269600608e+00 -4.8964384562e+00 2.8269600608e+00 4.8964384562e+00 
86000 5.6588144767e+00 -1.9345129635e-03 2.8269943877e+00 -4.8964979123e+00 2.8269943877e+00 4.8964979123e+00 
86100 5.6588142005e+00 -1.9282330114e-03 2.8270286028e+00 -4.8965571745e+00 2.8270286028e+00 4.8965571745e+00 
86200 5.6588139260e+00 -1.9219752679e-03 2.8270627064e+00 -4.8966162437e+00 2.8270627064e+00 4.8966162437e+00 
86300 5.6588136533e+00 -1.9157396298e-03 2.8270966989e+00 -4.8966751205e+00 2.8270966989e+00 4.8966751205e+00 
86400 5.6588133822e+00 -1.9095259943e-03 2.8271305807e+00 -4.8967338055e+00 2.8271305807e+00 4.8967338055e+00 
86500 5.6588131128e+00 -1.9033342596e-03 2.8271643523e+00 -4.8967922995e+00 2.8271643523e+00 4.8967922995e+00 
86600 5.6588128450e+00 -1.8971643244e-03 2.8271980139e+00 -4.8968506031e+00 2.8271980139e+00 4.8968506031e+00 
86700 5.6588125789e+00 -1.8910160883e-03 2.8272315660e+00 -4.8969087170e+00 2.8272315660e+00 4.8969087170e+00 
86800 5.6588123144e+00 -1.8848894518e-03 2.8272650089e+00 -4.8969666419e+00 2.8272650089e+00 4.8969666419e+00 
86900 5.6588120516e+00 -1.8787843158e-03 2.8272983431e+00 -4.8970243785e+00 2.8272983431e+00 4.8970243785e+00 
87000 5.6588117904e+00 -1.8727005823e-03 2.8273315690e+00 -4.8970819273e+00 2.8273315690e+00 4.8970819273e+00 
87100 5.6588115308e+00 -1.8666381536e-03 2.8273646869e+00 -4.8971392892e+00 2.8273646869e+00 4.8971392892e+00 
87200 5.6588112728e+00 -1.8605969330e-03 2.8273976971e+00 -4.8971964647e+00 2.8273976971e+00 4.8971964647e+00 
87300 5.6588110164e+00 -1.8545768245e-03 2.8274306002e+00 -4.8972534544e+00 2.8274306002e+00 4.8972534544e+00 
87400 5.6588107615e+00 -1.8485777327e-03 2.8274633964e+00 -4.8973102591e+00 2.8274633964e+00 4.8973102591e+00 
87500 5.6588105083e+00 -1.8425995628e-03 2.8274960862e+00 -4.8973668794e+00 2.8274960862e+00 4.8973668794e+00 
87600 5.6588102566e+00 -1.8366422210e-03 2.8275286698e+00 -4.8974233160e+00 2.8275286698e+00 4.8974233160e+00 
87700 5.6588100064e+00 -1.8307056139e-03 2.8275611477e+00 -4.8974795694e+00 2.8275611477e+00 4.8974795694e+00 
87800 5.6588097578e+00 -1.8247896488e-03 2.8275935203e+00 -4.8975356404e+00 2.8275935203e+00 4.8975356404e+00 
87900 5.6588095107e+00 -1.8188942337e-03 2.8276257879e+00 -4.8975915295e+00 2.8276257879e+00 4.8975915295e+00 
88000 5.6588092652e+00 -1.8130192773e-03 2.8276579509e+00 -4.8976472374e+00 2.8276579509e+00 4.8976472374e+00 
88100 5.6588090212e+00 -1.8071646889e-03 2.8276900096e+00 -4.8977027648e+00 2.8276900096e+00 4.8977027648e+00 
88200 5.6588087786e+00 -1.8013303785e-03 2.8277219645e+00 -4.8977581122e+00 2.8277219645e+00 4.8977581122e+00 
88300 5.6588085376e+00 -1.7955162566e-03 2.8277538158e+00 -4.8978132803e+00 2.8277538158e+00 4.8978132803e+00 
88400 5.6588082981e+00 -1.7897222344e-03 2.8277855640e+00 -4.8978682697e+00 2.8277855640e+00 4.8978682697e+00 
88500 5.6588080600e+00 -1.7839482239e-03 2.8278172093e+00 -4.8979230811e+00 2.8278172093e+00 4.8979230811e+00 
88600 5.6588078234e+00 -1.7781941373e-03 2.8278487522e+00 -4.8979777150e+00 2.8278487522e+00 4.8979777150e+00 
88700 5.6588075883e+00 -1.7724598879e-03 2.8278801931e+00 -4.8980321721e+00 2.8278801931e+00 4.8980321721e+00 
88800 5.6588073546e+00 -1.7667453892e-03 2.8279115321e+00 -4.8980864530e+00 2.8279115321e+00 4.8980864530e+00 
88900 5.6588071223e+00 -1.7610505556e-03 2.8279427698e+00 -4.8981405582e+00 2.8279427698e+00 4.8981405582e+00 
89000 5.6588068915e+00 -1.7553753018e-03 2.8279739065e+00 -4.8981944885e+00 2.8279739065e+00 4.8981944885e+00 
89100 5.6588066622e+00 -1.7497195434e-03 2.8280049425e+00 -4.8982482444e+00 2.8280049425e+00 4.8982482444e+00 
89200 5.6588064342e+00 -1.7440831962e-03 2.8280358781e+00 -4.8983018265e+00 2.8280358781e+00 4.8983018265e+00 
89300 5.6588062076e+00 -1.7384661770e-03 2.8280667137e+00 -4.8983552354e+00 2.8280667137e+00 4.8983552354e+00 
89400 5.6588059825e+00 -1.7328684028e-03 2.8280974498e+00 -4.8984084717e+00 2.8280974498e+00 4.8984084717e+00 
89500 5.6588057587e+00 -1.7272897915e-03 2.8281280865e+00 -4.8984615361e+00 2.8281280865e+00 4.8984615361e+00 
89600 5.6588055363e+00 -1.7217302611e-03 2.8281586242e+00 -4.8985144290e+00 2.8281586242e+00 4.8985144290e+00 
89700 5.6588053153e+00 -1.7161897307e-03 2.8281890633e+00 -4.8985671511e+00 2.8281890633e+00 4.8985671511e+00 
89800 5.6588050957e+00 -1.7106681195e-03 2.8282194042e+00 -4.8986197030e+00 2.8282194042e+00 4.8986197030e+00 
89900 5.6588048774e+00 -1.7051653475e-03 2.8282496471e+00 -4.8986720852e+00 2.8282496471e+00 4.8986720852e+00 
90000 5.6588046605e+00 -1.6996813351e-03 2.8282797924e+00 -4.8987242984e+00 2.8282797924e+00 4.8987242984e+00 
90100 5.6588044449e+00 -1.6942160032e-03 2.8283098404e+00 -4.8987763431e+00 2.8283098404e+00 4.8987763431e+00 
90200 5.6588042306e+00 -1.6887692734e-03 2.8283397915e+00 -4.8988282199e+00 2.8283397915e+00 4.8988282199e+00 
90300 5.6588040177e+00 -1.6833410677e-03 2.8283696459e+00 -4.8988799294e+00 2.8283696459e+00 4.8988799294e+00 
90400 5.6588038061e+00 -1.6779313085e-03 2.8283994041e+00 -4.8989314721e+00 2.8283994041e+00 4.8989314721e+00 
90500 5.6588035958e+00 -1.6725399190e-03 2.8284290664e+00 -4.8989828486e+00 2.8284290664e+00 4.8989828486e+00 
90600 5.6588033867e+00 -1.6671668227e-03 2.8284586330e+00 -4.8990340595e+00 2.8284586330e+00 4.8990340595e+00 
90700 5.6588031790e+00 -1.6618119436e-03 2.8284881044e+00 -4.8990851054e+00 2.8284881044e+00 4.8990851054e+00 
90800 5.6588029726e+00 -1.6564752062e-03 2.8285174808e+00 -4.8991359868e+00 2.8285174808e+00 4.8991359868e+00 
90900 5.6588027674e+00 -1.6511565355e-03 2.8285467625e+00 -4.8991867042e+00 2.8285467625e+00 4.8991867042e+00 
91000 5.6588025635e+00 -1.6458558571e-03 2.8285759499e+00 -4.8992372583e+00 2.8285759499e+00 4.8992372583e+00 
91100 5.6588023609e+00 -1.6405730969e-03 2.8286050433e+00 -4.8992876496e+00 2.8286050433e+00 4.8992876496e+00 
91200 5.6588021595e+00 -1.6353081814e-03 2.8286340431e+00 -4.8993378786e+00 2.8286340431e+00 4.8993378786e+00 
91300 5.6588019594e+00 -1.6300610375e-03 2.8286629494e+00 -4.8993879459e+00 2.8286629494e+00 4.8993879459e+00 
91400 5.6588017605e+00 -1.6248315925e-03 2.8286917628e+00 -4.8994378521e+00 2.8286917628e+00 4.8994378521e+00 
91500 5.6588015629e+00 -1.6196197743e-03 2.8287204834e+00 -4.8994875976e+00 2.8287204834e+00 4.8994875976e+00 
91600 5.6588013664e+00 -1.6144255113e-03 2.8287491116e+00 -4.8995371831e+00 2.8287491116e+00 4.8995371831e+00 
91700 5.6588011712e+00 -1.6092487321e-03 2.8287776476e+00 -4.8995866090e+00 2.8287776476e+00 4.8995866090e+00 
91800 5.6588009772e+00 -1.6040893660e-03 2.8288060919e+00 -4.8996358760e+00 2.8288060919e+00 4.8996358760e+00 
91900 5.6588007844e+00 -1.5989473426e-03 2.8288344447e+00 -4.8996849845e+00 2.8288344447e+00 4.8996849845e+00 
92000 5.6588005928e+00 -1.5938225920e-03 2.8288627064e+00 -4.8997339351e+00 2.8288627064e+00 4.8997339351e+00 
92100 5.6588004024e+00 -1.5887150447e-03 2.8288908771e+00 -4.8997827283e+00 2.8288908771e+00 4.8997827283e+00 
92200 5.6588002131e+00 -1.5836246316e-03 2.8289189574e+00 -4.8998313647e+00 2.8289189574e+00 4.8998313647e+00 
92300 5.6588000250e+00 -1.5785512841e-03 2.8289469473e+00 -4.8998798447e+00 2.8289469473e+00 4.8998798447e+00 
92400 5.6587998381e+00 -1.5734949340e-03 2.8289748474e+00 -4.8999281690e+00 2.8289748474e+00 4.8999281690e+00 
92500 5.6587996524e+00 -1.5684555135e-03 2.8290026578e+00 -4.8999763380e+00 2.8290026578e+00 4.8999763380e+00 
92600 5.6587994678e+00 -1.5634329552e-03 2.8290303788e+00 -4.9000243522e+00 2.8290303788e+00 4.9000243522e+00 
92700 5.6587992843e+00 -1.5584271922e-03 2.8290580108e+00 -4.9000722123e+00 2.8290580108e+00 4.9000722123e+00 
92800 5.6587991020e+00 -1.5534381578e-03 2.8290855541e+00 -4.9001199186e+00 2.8290855541e+00 4.9001199186e+00 
92900 5.6587989208e+00 -1.5484657860e-03 2.8291130089e+00 -4.9001674717e+00 2.8291130089e+00 4.9001674717e+00 
93000 5.6587987407e+00 -1.5435100109e-03 2.8291403756e+00 -4.9002148722e+00 2.8291403756e+00 4.9002148722e+00 
93100 5.6587985617e+00 -1.5385707672e-03 2.8291676544e+00 -4.9002621205e+00 2.8291676544e+00 4.9002621205e+00 
93200 5.6587983839e+00 -1.5336479899e-03 2.8291948456e+00 -4.9003092172e+00 2.8291948456e+00 4.9003092172e+00 
93300 5.6587982071e+00 -1.5287416144e-03 2.8292219497e+00 -4.9003561627e+00 2.8292219497e+00 4.9003561627e+00 
93400 5.6587980315e+00 -1.5238515765e-03 2.8292489667e+00 -4.9004029576e+00 2.8292489667e+00 4.9004029576e+00 
93500 5.6587978569e+00 -1.5189778123e-03 2.8292758971e+00 -4.9004496023e+00 2.8292758971e+00 4.9004496023e+00 
93600 5.6587976834e+00 -1.5141202585e-03 2.8293027410e+00 -4.9004960975e+00 2.8293027410e+00 4.9004960975e+00 
93700 5.6587975110e+00 -1.5092788519e-03 2.8293294989e+00 -4.9005424435e+00 2.8293294989e+00 4.9005424435e+00 
93800 5.6587973397e+00 -1.5044535297e-03 2.8293561710e+00 -4.9005886408e+00 2.8293561710e+00 4.9005886408e+00 
93900 5.6587971694e+00 -1.4996442298e-03 2.8293827575e+00 -4.9006346901e+00 2.8293827575e+00 4.9006346901e+00 
94000 5.6587970002e+00 -1.4948508899e-03 2.8294092588e+00 -4.9006805917e+00 2.8294092588e+00 4.9006805917e+00 
94100 5.6587968320e+00 -1.4900734487e-03 2.8294356752e+00 -4.9007263461e+00 2.8294356752e+00 4.9007263461e+00 
94200 5.6587966649e+00 -1.4853118447e-03 2.8294620068e+00 -4.9007719539e+00 2.8294620068e+00 4.9007719539e+00 
94300 5.6587964988e+00 -1.4805660170e-03 2.8294882541e+00 -4.9008174156e+00 2.8294882541e+00 4.9008174156e+00 
94400 5.6587963338e+00 -1.4758359051e-03 2.8295144173e+00 -4.9008627315e+00 2.8295144173e+00 4.9008627315e+00 
94500 5.6587961697e+00 -1.4711214487e-03 2.8295404967e+00 -4.9009079023e+00 2.8295404967e+00 4.9009079023e+00 
94600 5.6587960067e+00 -1.4664225880e-03 2.8295664925e+00 -4.9009529284e+00 2.8295664925e+00 4.9009529284e+00 
94700 5.6587958447e+00 -1.4617392634e-03 2.8295924050e+00 -4.9009978102e+00 2.8295924050e+00 4.9009978102e+00 
94800 5.6587956837e+00 -1.4570714157e-03 2.8296182346e+00 -4.9010425483e+00 2.8296182346e+00 4.9010425483e+00 
94900 5.6587955237e+00 -1.4524189860e-03 2.8296439814e+00 -4.9010871431e+00 2.8296439814e+00 4.9010871431e+00 
95000 5.6587953647e+00 -1.4477819158e-03 2.8296696458e+00 -4.9011315951e+00 2.8296696458e+00 4.9011315951e+00 
95100 5.6587952066e+00 -1.4431601469e-03 2.8296952280e+00 -4.9011759048e+00 2.8296952280e+00 4.9011759048e+00 
95200 5.6587950496e+00 -1.4385536213e-03 2.8297207283e+00 -4.9012200726e+00 2.8297207283e+00 4.9012200726e+00 
95300 5.6587948935e+00 -1.4339622815e-03 2.8297461470e+00 -4.9012640991e+00 2.8297461470e+00 4.9012640991e+00 
95400 5.6587947384e+00 -1.4293860702e-03 2.8297714843e+00 -4.9013079846e+00 2.8297714843e+00 4.9013079846e+00 
95500 5.6587945843e+00 -1.4248249305e-03 2.8297967406e+00 -4.9013517297e+00 2.8297967406e+00 4.9013517297e+00 
95600 5.6587944311e+00 -1.4202788057e-03 2.8298219160e+00 -4.9013953349e+00 2.8298219160e+00 4.9013953349e+00 
95700 5.6587942789e+00 -1.4157476396e-03 2.8298470109e+00 -4.9014388005e+00 2.8298470109e+00 4.9014388005e+00 
95800 5.6587941276e+00 -1.4112313762e-03 2.8298720255e+00 -4.9014821270e+00 2.8298720255e+00 4.9014821270e+00 
95900 5.6587939772e+00 -1.4067299596e-03 2.8298969600e+00 -4.9015253150e+00 2.8298969600e+00 4.9015253150e+00 
96000 5.6587938278e+00 -1.4022433346e-03 2.8299218149e+00 -4.9015683648e+00 2.8299218149e+00 4.9015683648e+00 
96100 5.6587936793e+00 -1.3977714459e-03 2.8299465902e+00 -4.9016112769e+00 2.8299465902e+00 4.9016112769e+00 
96200 5.6587935317e+00 -1.3933142389e-03 2.8299712863e+00 -4.9016540519e+00 2.8299712863e+00 4.9016540519e+00 
96300 5.6587933851e+00 -1.3888716589e-03 2.8299959035e+00 -4.9016966900e+00 2.8299959035e+00 4.9016966900e+00 
96400 5.6587932393e+00 -1.3844436518e-03 2.8300204419e+00 -4.9017391918e+00 2.8300204419e+00 4.9017391918e+00 
96500 5.6587930945e+00 -1.3800301636e-03 2.8300449019e+00 -4.9017815578e+00 2.8300449019e+00 4.9017815578e+00 
96600 5.6587929506e+00 -1.3756311407e-03 2.8300692837e+00 -4.9018237883e+00 2.8300692837e+00 4.9018237883e+00 
96700 5.6587928075e+00 -1.3712465297e-03 2.8300935876e+00 -4.9018658839e+00 2.8300935876e+00 4.9018658839e+00 
96800 5.6587926654e+00 -1.3668762774e-03 2.8301178138e+00 -4.9019078449e+00 2.8301178138e+00 4.9019078449e+00 
96900 5.6587925241e+00 -1.3625203312e-03 2.8301419626e+00 -4.9019496718e+00 2.8301419626e+00 4.9019496718e+00 
97000 5.6587923837e+00 -1.3581786384e-03 2.8301660342e+00 -4.9019913651e+00 2.8301660342e+00 4.9019913651e+00 
97100 5.6587922442e+00 -1.3538511469e-03 2.8301900289e+00 -4.9020329251e+00 2.8301900289e+00 4.9020329251e+00 
97200 5.6587921055e+00 -1.3495378045e-03 2.8302139470e+00 -4.9020743524e+00 2.8302139470e+00 4.9020743524e+00 
97300 5.6587919677e+00 -1.3452385597e-03 2.8302377886e+00 -4.9021156474e+00 2.8302377886e+00 4.9021156474e+00 
97400 5.6587918308e+00 -1.3409533609e-03 2.8302615541e+00 -4.9021568105e+00 2.8302615541e+00 4.9021568105e+00 
97500 5.6587916947e+00 -1.3366821569e-03 2.8302852437e+00 -4.9021978420e+00 2.8302852437e+00 4.9021978420e+00 
97600 5.6587915595e+00 -1.3324248969e-03 2.8303088577e+00 -4.9022387426e+00 2.8303088577e+00 4.9022387426e+00 
97700 5.6587914251e+00 -1.3281815302e-03 2.8303323962e+00 -4.9022795125e+00 2.8303323962e+00 4.9022795125e+00 
97800 5.6587912915e+00 -1.3239520063e-03 2.8303558596e+00 -4.9023201523e+00 2.8303558596e+00 4.9023201523e+00 
97900 5.6587911588e+00 -1.3197362751e-03 2.8303792481e+00 -4.9023606623e+00 2.8303792481e+00 4.9023606623e+00 
98000 5.6587910269e+00 -1.3155342868e-03 2.8304025619e+00 -4.9024010430e+00 2.8304025619e+00 4.9024010430e+00 
98100 5.6587908958e+00 -1.3113459916e-03 2.8304258012e+00 -4.9024412948e+00 2.8304258012e+00 4.9024412948e+00 
98200 5.6587907655e+00 -1.3071713402e-03 2.8304489664e+00 -4.9024814181e+00 2.8304489664e+00 4.9024814181e+00 
98300 5.6587906360e+00 -1.3030102833e-03 2.8304720577e+00 -4.9025214134e+00 2.8304720577e+00 4.9025214134e+00 
98400 5.6587905074e+00 -1.2988627722e-03 2.8304950753e+00 -4.9025612810e+00 2.8304950753e+00 4.9025612810e+00 
98500 5.6587903795e+00 -1.2947287582e-03 2.8305180194e+00 -4.9026010214e+00 2.8305180194e+00 4.9026010214e+00 
98600 5.6587902524e+00 -1.2906081928e-03 2.8305408903e+00 -4.9026406349e+00 2.8305408903e+00 4.9026406349e+00 
98700 5.6587901261e+00 -1.2865010278e-03 2.8305636883e+00 -4.9026801221e+00 2.8305636883e+00 4.9026801221e+00 
98800 5.6587900007e+00 -1.2824072153e-03 2.8305864135e+00 -4.9027194833e+00 2.8305864135e+00 4.9027194833e+00 
98900 5.6587898759e+00 -1.2783267076e-03 2.8306090662e+00 -4.9027587190e+00 2.8306090662e+00 4.9027587190e+00 
99000 5.6587897520e+00 -1.2742594572e-03 2.8306316466e+00 -4.9027978295e+00 2.8306316466e+00 4.9027978295e+00 
99100 5.6587896288e+00 -1.2702054168e-03 2.8306541550e+00 -4.9028368152e+00 2.8306541550e+00 4.9028368152e+00 
99200 5.6587895064e+00 -1.2661645395e-03 2.8306765917e+00 -4.9028756766e+00 2.8306765917e+00 4.9028756766e+00 
99300 5.6587893848e+00 -1.2621367785e-03 2.8306989568e+00 -4.9029144140e+00 2.8306989568e+00 4.9029144140e+00 
99400 5.6587892639e+00 -1.2581220872e-03 2.8307212505e+00 -4.9029530280e+00 2.8307212505e+00 4.9029530280e+00 
99500 5.6587891438e+00 -1.2541204192e-03 2.8307434732e+00 -4.9029915188e+00 2.8307434732e+00 4.9029915188e+00 
99600 5.6587890244e+00 -1.2501317284e-03 2.8307656250e+00 -4.9030298868e+00 2.8307656250e+00 4.9030298868e+00 
99700 5.6587889058e+00 -1.2461559690e-03 2.8307877062e+00 -4.9030681326e+00 2.8307877062e+00 4.9030681326e+00 
99800 5.6587887878e+00 -1.2421930953e-03 2.8308097170e+00 -4.9031062564e+00 2.8308097170e+00 4.9031062564e+00 
99900 5.6587886707e+00 -1.2382430618e-03 2.8308316576e+00 -4.9031442587e+00 2.8308316576e+00 4.9031442587e+00 
100000 5.6587885542e+00 -1.2343058232e-03 2.8308535283e+00 -4.9031821398e+00 2.8308535283e+00 4.9031821398e+00 
100100 5.6587884385e+00 -1.2303813345e-03 2.8308753293e+00 -4.9032199002e+00 2.8308753293e+00 4.9032199002e+00 
100200 5.6587883235e+00 -1.2264695509e-03 2.8308970608e+00 -4.9032575402e+00 2.8308970608e+00 4.9032575402e+00 
100300 5.6587882092e+00 -1.2225704279e-03 2.8309187230e+00 -4.9032950603e+00 2.8309187230e+00 4.9032950603e+00 
100400 5.6587880957e+00 -1.2186839209e-03 2.8309403162e+00 -4.9033324609e+00 2.8309403162e+00 4.9033324609e+00 
100500 5.6587879828e+00 -1.2148099858e-03 2.8309618406e+00 -4.9033697422e+00 2.8309618406e+00 4.9033697422e+00 
100600 5.6587878706e+00 -1.2109485786e-03 2.8309832964e+00 -4.9034069048e+00 2.8309832964e+00 4.9034069048e+00 
100700 5.6587877592e+00 -1.2070996555e-03 2.8310046839e+00 -4.9034439489e+00 2.8310046839e+00 4.9034439489e+00 
100800 5.6587876484e+00 -1.2032631730e-03 2.8310260032e+00 -4.9034808750e+00 2.8310260032e+00 4.9034808750e+00 
100900 5.6587875383e+00 -1.1994390876e-03 2.8310472545e+00 -4.9035176835e+00 2.8310472545e+00 4.9035176835e+00 
101000 5.6587874289e+00 -1.1956273562e-03 2.8310684382e+00 -4.9035543747e+00 2.8310684382e+00 4.9035543747e+00 
101100 5.6587873202e+00 -1.1918279357e-03 2.8310895545e+00 -4.9035909491e+00 2.8310895545e+00 4.9035909491e+00 
101200 5.6587872122e+00 -1.1880407834e-03 2.8311106034e+00 -4.9036274069e+00 2.8311106034e+00 4.9036274069e+00 
101300 5.6587871048e+00 -1.1842658567e-03 2.8311315853e+00 -4.9036637487e+00 2.8311315853e+00 4.9036637487e+00 
101400 5.6587869981e+00 -1.1805031132e-03 2.8311525004e+00 -4.9036999747e+00 2.8311525004e+00 4.9036999747e+00 
101500 5.6587868921e+00 -1.1767525106e-03 2.8311733489e+00 -4.9037360853e+00 2.8311733489e+00 4.9037360853e+00 
101600 5.6587867867e+00 -1.1730140070e-03 2.8311941310e+00 -4.9037720809e+00 2.8311941310e+00 4.9037720809e+00 
101700 5.6587866820e+00 -1.1692875605e-03 2.8312148469e+00 -4.9038079619e+00 2.8312148469e+00 4.9038079619e+00 
101800 5.6587865779e+00 -1.1655731294e-03 2.8312354968e+00 -4.9038437287e+00 2.8312354968e+00 4.9038437287e+00 
101900 5.6587864745e+00 -1.1618706724e-03 2.8312560810e+00 -4.9038793816e+00 2.8312560810e+00 4.9038793816e+00 
102000 5.6587863717e+00 -1.1581801480e-03 2.8312765997e+00 -4.9039149210e+00 2.8312765997e+00 4.9039149210e+00 
102100 5.6587862696e+00 -1.1545015153e-03 2.8312970531e+00 -4.9039503472e+00 2.8312970531e+00 4.9039503472e+00 
102200 5.6587861681e+00 -1.1508347334e-03 2.8313174413e+00 -4.9039856607e+00 2.8313174413e+00 4.9039856607e+00 
102300 5.6587860672e+00 -1.1471797614e-03 2.8313377646e+00 -4.9040208617e+00 2.8313377646e+00 4.9040208617e+00 
102400 5.6587859670e+00 -1.1435365588e-03 2.8313580233e+00 -4.9040559507e+00 2.8313580233e+00 4.9040559507e+00 
102500 5.6587858674e+00 -1.1399050853e-03 2.8313782174e+00 -4.9040909280e+00 2.8313782174e+00 4.9040909280e+00 
102600 5.6587857684e+00 -1.1362853006e-03 2.8313983473e+00 -4.9041257940e+00 2.8313983473e+00 4.9041257940e+00 
102700 5.6587856700e+00 -1.1326771648e-03 2.8314184131e+00 -4.9041605490e+00 2.8314184131e+00 4.9041605490e+00 
102800 5.6587855722e+00 -1.1290806380e-03 2.8314384151e+00 -4.9041951934e+00 2.8314384151e+00 4.9041951934e+00 
102900 5.6587854751e+00 -1.1254956805e-03 2.8314583534e+00 -4.9042297276e+00 2.8314583534e+00 4.9042297276e+00 
103000 5.6587853785e+00 -1.1219222528e-03 2.8314782283e+00 -4.9042641519e+00 2.8314782283e+00 4.9042641519e+00 
103100 5.6587852826e+00 -1.1183603156e-03 2.8314980399e+00 -4.9042984666e+00 2.8314980399e+00 4.9042984666e+00 
103200 5.6587851872e+00 -1.1148098297e-03 2.8315177885e+00 -4.9043326722e+00 2.8315177885e+00 4.9043326722e+00 
103300 5.6587850925e+00 -1.1112707561e-03 2.8315374742e+00 -4.9043667689e+00 2.8315374742e+00 4.9043667689e+00 
103400 5.6587849983e+00 -1.1077430560e-03 2.8315570973e+00 -4.9044007571e+00 2.8315570973e+00 4.9044007571e+00 
103500 5.6587849047e+00 -1.1042266907e-03 2.8315766580e+00 -4.9044346372e+00 2.8315766580e+00 4.9044346372e+00 
103600 5.6587848117e+00 -1.1007216217e-03 2.8315961565e+00 -4.9044684096e+00 2.8315961565e+00 4.9044684096e+00 
103700 5.6587847193e+00 -1.0972278107e-03 2.8316155929e+00 -4.9045020745e+00 2.8316155929e+00 4.9045020745e+00 
103800 5.6587846275e+00 -1.0937452195e-03 2.8316349676e+00 -4.9045356323e+00 2.8316349676e+00 4.9045356323e+00 
103900 5.6587845362e+00 -1.0902738101e-03 2.8316542805e+00 -4.9045690834e+00 2.8316542805e+00 4.9045690834e+00 
104000 5.6587844455e+00 -1.0868135447e-03 2.8316735321e+00 -4.9046024280e+00 2.8316735321e+00 4.9046024280e+00 
104100 5.6587843553e+00 -1.0833643854e-03 2.8316927224e+00 -4.9046356667e+00 2.8316927224e+00 4.9046356667e+00 
104200 5.6587842658e+00 -1.0799262949e-03 2.8317118517e+00 -4.9046687996e+00 2.8317118517e+00 4.9046687996e+00 
104300 5.6587841768e+00 -1.0764992357e-03 2.8317309202e+00 -4.9047018271e+00 2.8317309202e+00 4.9047018271e+00 
104400 5.6587840883e+00 -1.0730831706e-03 2.8317499280e+00 -4.9047347496e+00 2.8317499280e+00 4.9047347496e+00 
104500 5.6587840004e+00 -1.0696780626e-03 2.8317688754e+00 -4.9047675674e+00 2.8317688754e+00 4.9047675674e+00 
104600 5.6587839130e+00 -1.0662838746e-03 2.8317877625e+00 -4.9048002809e+00 2.8317877625e+00 4.9048002809e+00 
104700 5.6587838262e+00 -1.0629005700e-03 2.8318065895e+00 -4.9048328903e+00 2.8318065895e+00 4.9048328903e+00 
104800 5.6587837399e+00 -1.0595281121e-03 2.8318253567e+00 -4.9048653960e+00 2.8318253567e+00 4.9048653960e+00 
104900 5.6587836542e+00 -1.0561664645e-03 2.8318440643e+00 -4.9048977984e+00 2.8318440643e+00 4.9048977984e+00 
105000 5.6587835690e+00 -1.0528155908e-03 2.8318627123e+00 -4.9049300978e+00 2.8318627123e+00 4.9049300978e+00 
105100 5.6587834843e+00 -1.0494754549e-03 2.8318813011e+00 -4.9049622945e+00 2.8318813011e+00 4.9049622945e+00 
105200 5.6587834002e+00 -1.0461460208e-03 2.8318998308e+00 -4.9049943888e+00 2.8318998308e+00 4.9049943888e+00 
105300 5.6587833165e+00 -1.0428272526e-03 2.8319183015e+00 -4.9050263811e+00 2.8319183015e+00 4.9050263811e+00 
105400 5.6587832334e+00 -1.0395191145e-03 2.8319367136e+00 -4.9050582718e+00 2.8319367136e+00 4.9050582718e+00 
105500 5.6587831509e+00 -1.0362215711e-03 2.8319550671e+00 -4.9050900610e+00 2.8319550671e+00 4.9050900610e+00 
105600 5.6587830688e+00 -1.0329345868e-03 2.8319733623e+00 -4.9051217492e+00 2.8319733623e+00 4.9051217492e+00 
105700 5.6587829872e+00 -1.0296581263e-03 2.8319915993e+00 -4.9051533366e+00 2.8319915993e+00 4.9051533366e+00 
105800 5.6587829062e+00 -1.0263921546e-03 2.8320097784e+00 -4.9051848237e+00 2.8320097784e+00 4.9051848237e+00 
105900 5.6587828257e+00 -1.0231366365e-03 2.8320278997e+00 -4.9052162107e+00 2.8320278997e+00 4.9052162107e+00 
106000 5.6587827456e+00 -1.0198915373e-03 2.8320459634e+00 -4.9052474979e+00 2.8320459634e+00 4.9052474979e+00 
106100 5.6587826661e+00 -1.0166568222e-03 2.8320639697e+00 -4.9052786857e+00 2.8320639697e+00 4.9052786857e+00 
106200 5.6587825870e+00 -1.0134324565e-03 2.8320819187e+00 -4.9053097744e+00 2.8320819187e+00 4.9053097744e+00 
106300 5.6587825085e+00 -1.0102184059e-03 2.8320998107e+00 -4.9053407643e+00 2.8320998107e+00 4.9053407643e+00 
106400 5.6587824304e+00 -1.0070146360e-03 2.8321176459e+00 -4.9053716557e+00 2.8321176459e+00 4.9053716557e+00 
106500 5.6587823528e+00 -1.0038211126e-03 2.8321354244e+00 -4.9054024490e+00 2.8321354244e+00 4.9054024490e+00 
106600 5.6587822758e+00 -1.0006378017e-03 2.8321531464e+00 -4.9054331444e+00 2.8321531464e+00 4.9054331444e+00 
106700 5.6587821991e+00 -9.9746466935e-04 2.8321708121e+00 -4.9054637423e+00 2.8321708121e+00 4.9054637423e+00 
106800 5.6587821230e+00 -9.9430168178e-04 2.8321884217e+00 -4.9054942429e+00 2.8321884217e+00 4.9054942429e+00 
106900 5.6587820474e+00 -9.9114880534e-04 2.8322059753e+00 -4.9055246467e+00 2.8322059753e+00 4.9055246467e+00 
107000 5.6587819722e+00 -9.8800600650e-04 2.8322234731e+00 -4.9055549538e+00 2.8322234731e+00 4.9055549538e+00 
107100 5.6587818975e+00 -9.8487325188e-04 2.8322409154e+00 -4.9055851647e+00 2.8322409154e+00 4.9055851647e+00 
107200 5.6587818232e+00 -9.8175050821e-04 2.8322583022e+00 -4.9056152796e+00 2.8322583022e+00 4.9056152796e+00 
107300 5.6587817494e+00 -9.7863774237e-04 2.8322756338e+00 -4.9056452988e+00 2.8322756338e+00 4.9056452988e+00 
107400 5.6587816761e+00 -9.7553492135e-04 2.8322929103e+00 -4.9056752226e+00 2.8322929103e+00 4.9056752226e+00 
107500 5.6587816032e+00 -9.7244201229e-04 2.8323101320e+00 -4.9057050514e+00 2.8323101320e+00 4.9057050514e+00 
107600 5.6587815308e+00 -9.6935898242e-04 2.8323272990e+00 -4.9057347855e+00 2.8323272990e+00 4.9057347855e+00 
107700 5.6587814588e+00 -9.6628579915e-04 2.8323444114e+00 -4.9057644251e+00 2.8323444114e+00 4.9057644251e+00 
107800 5.6587813873e+00 -9.6322242995e-04 2.8323614695e+00 -4.9057939705e+00 2.8323614695e+00 4.9057939705e+00 
107900 5.6587813163e+00 -9.6016884248e-04 2.8323784734e+00 -4.9058234221e+00 2.8323784734e+00 4.9058234221e+00 
108000 5.6587812456e+00 -9.5712500447e-04 2.8323954232e+00 -4.9058527802e+00 2.8323954232e+00 4.9058527802e+00 
108100 5.6587811755e+00 -9.5409088380e-04 2.8324123193e+00 -4.9058820450e+00 2.8324123193e+00 4.9058820450e+00 
108200 5.6587811057e+00 -9.5106644847e-04 2.8324291617e+00 -4.9059112169e+00 2.8324291617e+00 4.9059112169e+00 
108300 5.6587810364e+00 -9.4805166661e-04 2.8324459506e+00 -4.9059402961e+00 2.8324459506e+00 4.9059402961e+00 
108400 5.6587809675e+00 -9.4504650644e-04 2.8324626862e+00 -4.9059692830e+00 2.8324626862e+00 4.9059692830e+00 
108500 5.6587808991e+00 -9.4205093634e-04 2.8324793686e+00 -4.9059981778e+00 2.8324793686e+00 4.9059981778e+00 
108600 5.6587808311e+00 -9.3906492478e-04 2.8324959981e+00 -4.9060269809e+00 2.8324959981e+00 4.9060269809e+00 
108700 5.6587807635e+00 -9.3608844036e-04 2.8325125747e+00 -4.9060556925e+00 2.8325125747e+00 4.9060556925e+00 
108800 5.6587806963e+00 -9.3312145180e-04 2.8325290987e+00 -4.9060843129e+00 2.8325290987e+00 4.9060843129e+00 
108900 5.6587806295e+00 -9.3016392793e-04 2.8325455703e+00 -4.9061128424e+00 2.8325455703e+00 4.9061128424e+00 
109000 5.6587805632e+00 -9.2721583771e-04 2.8325619895e+00 -4.9061412814e+00 2.8325619895e+00 4.9061412814e+00 
109100 5.6587804973e+00 -9.2427715021e-04 2.8325783566e+00 -4.9061696301e+00 2.8325783566e+00 4.9061696301e+00 
109200 5.6587804318e+00 -9.2134783460e-04 2.8325946717e+00 -4.9061978887e+00 2.8325946717e+00 4.9061978887e+00 
109300 5.6587803666e+00 -9.1842786019e-04 2.8326109351e+00 -4.9062260576e+00 2.8326109351e+00 4.9062260576e+00 
109400 5.6587803020e+00 -9.1551719639e-04 2.8326271468e+00 -4.9062541371e+00 2.8326271468e+00 4.9062541371e+00 
109500 5.6587802377e+00 -9.1261581272e-04 2.8326433070e+00 -4.9062821274e+00 2.8326433070e+00 4.9062821274e+00 
109600 5.6587801738e+00 -9.0972367883e-04 2.8326594159e+00 -4.9063100289e+00 2.8326594159e+00 4.9063100289e+00 
109700 5.6587801103e+00 -9.0684076446e-04 2.8326754737e+00 -4.9063378418e+00 2.8326754737e+00 4.9063378418e+00 
109800 5.6587800472e+00 -9.0396703949e-04 2.8326914805e+00 -4.9063655664e+00 2.8326914805e+00 4.9063655664e+00 
109900 5.6587799845e+00 -9.0110247388e-04 2.8327074365e+00 -4.9063932030e+00 2.8327074365e+00 4.9063932030e+00 
110000 5.6587799222e+00 -8.9824703772e-04 2.8327233418e+00 -4.9064207518e+00 2.8327233418e+00 4.9064207518e+00 
110100 5.6587798602e+00 -8.9540070121e-04 2.8327391967e+00 -4.9064482132e+00 2.8327391967e+00 4.9064482132e+00 
110200 5.6587797987e+00 -8.9256343465e-04 2.8327550012e+00 -4.9064755875e+00 2.8327550012e+00 4.9064755875e+00 
110300 5.6587797376e+00 -8.8973520846e-04 2.8327707555e+00 -4.9065028748e+00 2.8327707555e+00 4.9065028748e+00 
110400 5.6587796768e+00 -8.8691599315e-04 2.8327864599e+00 -4.9065300755e+00 2.8327864599e+00 4.9065300755e+00 
110500 5.6587796164e+00 -8.8410575935e-04 2.8328021144e+00 -4.9065571899e+00 2.8328021144e+00 4.9065571899e+00 
110600 5.6587795564e+00 -8.8130447781e-04 2.8328177192e+00 -4.9065842182e+00 2.8328177192e+00 4.9065842182e+00 
110700 5.6587794967e+00 -8.7851211936e-04 2.8328332745e+00 -4.9066111608e+00 2.8328332745e+00 4.9066111608e+00 
110800 5.6587794375e+00 -8.7572865496e-04 2.8328487804e+00 -4.9066380178e+00 2.8328487804e+00 4.9066380178e+00 
110900 5.6587793786e+00 -8.7295405565e-04 2.8328642371e+00 -4.9066647895e+00 2.8328642371e+00 4.9066647895e+00 
111000 5.6587793201e+00 -8.7018829260e-04 2.8328796447e+00 -4.9066914764e+00 2.8328796447e+00 4.9066914764e+00 
111100 5.6587792619e+00 -8.6743133707e-04 2.8328950034e+00 -4.9067180785e+00 2.8328950034e+00 4.9067180785e+00 
111200 5.6587792041e+00 -8.6468316043e-04 2.8329103134e+00 -4.9067445962e+00 2.8329103134e+00 4.9067445962e+00 
111300 5.6587791467e+00 -8.6194373414e-04 2.8329255748e+00 -4.9067710297e+00 2.8329255748e+00 4.9067710297e+00 
111400 5.6587790896e+00 -8.5921302978e-04 2.8329407878e+00 -4.9067973793e+00 2.8329407878e+00 4.9067973793e+00 
111500 5.6587790328e+00 -8.5649101902e-04 2.8329559525e+00 -4.9068236454e+00 2.8329559525e+00 4.9068236454e+00 
111600 5.6587789765e+00 -8.5377767364e-04 2.8329710691e+00 -4.9068498280e+00 2.8329710691e+00 4.9068498280e+00 
111700 5.6587789205e+00 -8.5107296553e-04 2.8329861377e+00 -4.9068759276e+00 2.8329861377e+00 4.9068759276e+00 
111800 5.6587788648e+00 -8.4837686664e-04 2.8330011585e+00 -4.9069019444e+00 2.8330011585e+00 4.9069019444e+00 
111900 5.6587788095e+00 -8.4568934908e-04 2.8330161316e+00 -4.9069278786e+00 2.8330161316e+00 4.9069278786e+00 
112000 5.6587787545e+00 -8.4301038500e-04 2.8330310572e+00 -4.9069537305e+00 2.8330310572e+00 4.9069537305e+00 
112100 5.6587786999e+00 -8.4033994669e-04 2.8330459355e+00 -4.9069795004e+00 2.8330459355e+00 4.9069795004e+00 
112200 5.6587786456e+00 -8.3767800652e-04 2.8330607665e+00 -4.9070051885e+00 2.8330607665e+00 4.9070051885e+00 
112300 5.6587785916e+00 -8.3502453697e-04 2.8330755505e+00 -4.9070307952e+00 2.8330755505e+00 4.9070307952e+00 
112400 5.6587785380e+00 -8.3237951061e-04 2.8330902876e+00 -4.9070563205e+00 2.8330902876e+00 4.9070563205e+00 
112500 5.6587784847e+00 -8.2974290010e-04 2.8331049779e+00 -4.9070817649e+00 2.8331049779e+00 4.9070817649e+00 
112600 5.6587784318e+00 -8.2711467822e-04 2.8331196216e+00 -4.9071071286e+00 2.8331196216e+00 4.9071071286e+00 
112700 5.6587783792e+00 -8.2449481781e-04 2.8331342189e+00 -4.9071324118e+00 2.8331342189e+00 4.9071324118e+00 
112800 5.6587783269e+00 -8.2188329185e-04 2.8331487698e+00 -4.9071576147e+00 2.8331487698e+00 4.9071576147e+00 
112900 5.6587782749e+00 -8.1928007337e-04 2.8331632746e+00 -4.9071827378e+00 2.8331632746e+00 4.9071827378e+00 
113000 5.6587782233e+00 -8.1668513553e-04 2.8331777334e+00 -4.9072077811e+00 2.8331777334e+00 4.9072077811e+00 
113100 5.6587781720e+00 -8.1409845156e-04 2.8331921463e+00 -4.9072327449e+00 2.8331921463e+00 4.9072327449e+00 
113200 5.6587781210e+00 -8.1151999481e-04 2.8332065134e+00 -4.9072576296e+00 2.8332065134e+00 4.9072576296e+00 
113300 5.6587780703e+00 -8.0894973870e-04 2.8332208350e+00 -4.9072824353e+00 2.8332208350e+00 4.9072824353e+00 
113400 5.6587780200e+00 -8.0638765674e-04 2.8332351112e+00 -4.9073071624e+00 2.8332351112e+00 4.9073071624e+00 
113500 5.6587779699e+00 -8.0383372256e-04 2.8332493421e+00 -4.9073318110e+00 2.8332493421e+00 4.9073318110e+00 
113600 5.6587779202e+00 -8.0128790986e-04 2.8332635278e+00 -4.9073563814e+00 2.8332635278e+00 4.9073563814e+00 
113700 5.6587778708e+00 -7.9875019243e-04 2.8332776685e+00 -4.9073808739e+00 2.8332776685e+00 4.9073808739e+00 
113800 5.6587778217e+00 -7.9622054417e-04 2.8332917644e+00 -4.9074052886e+00 2.8332917644e+00 4.9074052886e+00 
113900 5.6587777729e+00 -7.9369893905e-04 2.8333058156e+00 -4.9074296260e+00 2.8333058156e+00 4.9074296260e+00 
114000 5.6587777244e+00 -7.9118535115e-04 2.8333198222e+00 -4.9074538861e+00 2.8333198222e+00 4.9074538861e+00 
114100 5.6587776762e+00 -7.8867975461e-04 2.8333337844e+00 -4.9074780693e+00 2.8333337844e+00 4.9074780693e+00 
114200 5.6587776283e+00 -7.8618212370e-04 2.8333477022e+00 -4.9075021758e+00 2.8333477022e+00 4.9075021758e+00 
114300 5.6587775807e+00 -7.8369243275e-04 2.8333615760e+00 -4.9075262058e+00 2.8333615760e+00 4.9075262058e+00 
114400 5.6587775334e+00 -7.8121065618e-04 2.8333754057e+00 -4.9075501596e+00 2.8333754057e+00 4.9075501596e+00 
114500 5.6587774864e+00 -7.7873676851e-04 2.8333891916e+00 -4.9075740375e+00 2.8333891916e+00 4.9075740375e+00 
114600 5.6587774397e+00 -7.7627074434e-04 2.8334029338e+00 -4.9075978396e+00 2.8334029338e+00 4.9075978396e+00 
114700 5.6587773933e+00 -7.7381255837e-04 2.8334166323e+00 -4.9076215662e+00 2.8334166323e+00 4.9076215662e+00 
114800 5.6587773472e+00 -7.7136218536e-04 2.8334302875e+00 -4.9076452176e+00 2.8334302875e+00 4.9076452176e+00 
114900 5.6587773013e+00 -7.6891960019e-04 2.8334438993e+00 -4.9076687939e+00 2.8334438993e+00 4.9076687939e+00 
115000 5.6587772558e+00 -7.6648477780e-04 2.8334574679e+00 -4.9076922955e+00 2.8334574679e+00 4.9076922955e+00 
115100 5.6587772105e+00 -7.6405769324e-04 2.8334709935e+00 -4.9077157226e+00 2.8334709935e+00 4.9077157226e+00 
115200 5.6587771655e+00 -7.6163832161e-04 2.8334844763e+00 -4.9077390754e+00 2.8334844763e+00 4.9077390754e+00 
115300 5.6587771208e+00 -7.5922663813e-04 2.8334979162e+00 -4.9077623541e+00 2.8334979162e+00 4.9077623541e+00 
115400 5.6587770764e+00 -7.5682261810e-04 2.8335113136e+00 -4.9077855590e+00 2.8335113136e+00 4.9077855590e+00 
115500 5.6587770323e+00 -7.5442623687e-04 2.8335246685e+00 -4.9078086903e+00 2.8335246685e+00 4.9078086903e+00 
115600 5.6587769884e+00 -7.5203746993e-04 2.8335379810e+00 -4.9078317482e+00 2.8335379810e+00 4.9078317482e+00 
115700 5.6587769448e+00 -7.4965629280e-04 2.8335512513e+00 -4.9078547331e+00 2.8335512513e+00 4.9078547331e+00 
115800 5.6587769015e+00 -7.4728268111e-04 2.8335644795e+00 -4.9078776450e+00 2.8335644795e+00 4.9078776450e+00 
115900 5.6587768584e+00 -7.4491661058e-04 2.8335776658e+00 -4.9079004843e+00 2.8335776658e+00 4.9079004843e+00 
116000 5.6587768157e+00 -7.4255805699e-04 2.8335908102e+00 -4.9079232512e+00 2.8335908102e+00 4.9079232512e+00 
116100 5.6587767731e+00 -7.4020699623e-04 2.8336039130e+00 -4.9079459459e+00 2.8336039130e+00 4.9079459459e+00 
116200 5.6587767309e+00 -7.3786340424e-04 2.8336169743e+00 -4.9079685686e+00 2.8336169743e+00 4.9079685686e+00 
116300 5.6587766889e+00 -7.3552725707e-04 2.8336299941e+00 -4.9079911196e+00 2.8336299941e+00 4.9079911196e+00 
116400 5.6587766472e+00 -7.3319853082e-04 2.8336429726e+00 -4.9080135991e+00 2.8336429726e+00 4.9080135991e+00 
116500 5.6587766057e+00 -7.3087720171e-04 2.8336559100e+00 -4.9080360073e+00 2.8336559100e+00 4.9080360073e+00 
116600 5.6587765645e+00 -7.2856324601e-04 2.8336688064e+00 -4.9080583445e+00 2.8336688064e+00 4.9080583445e+00 
116700 5.6587765236e+00 -7.2625664008e-04 2.8336816619e+00 -4.9080806109e+00 2.8336816619e+00 4.9080806109e+00 
116800 5.6587764829e+00 -7.2395736036e-04 2.8336944766e+00 -4.9081028066e+00 2.8336944766e+00 4.9081028066e+00 
116900 5.6587764425e+00 -7.2166538337e-04 2.8337072507e+00 -4.9081249320e+00 2.8337072507e+00 4.9081249320e+00 
117000 5.6587764023e+00 -7.1938068570e-04 2.8337199843e+00 -4.9081469872e+00 2.8337199843e+00 4.9081469872e+00 
117100 5.6587763624e+00 -7.1710324404e-04 2.8337326775e+00 -4.9081689726e+00 2.8337326775e+00 4.9081689726e+00 
117200 5.6587763227e+00 -7.1483303514e-04 2.8337453305e+00 -4.9081908882e+00 2.8337453305e+00 4.9081908882e+00 
117300 5.6587762833e+00 -7.1257003583e-04 2.8337579434e+00 -4.9082127343e+00 2.8337579434e+00 4.9082127343e+00 
117400 5.6587762441e+00 -7.1031422302e-04 2.8337705163e+00 -4.9082345112e+00 2.8337705163e+00 4.9082345112e+00 
117500 5.6587762051e+00 -7.0806557370e-04 2.8337830493e+00 -4.9082562191e+00 2.8337830493e+00 4.9082562191e+00 
117600 5.6587761664e+00 -7.0582406493e-04 2.8337955426e+00 -4.9082778581e+00 2.8337955426e+00 4.9082778581e+00 
117700 5.6587761280e+00 -7.0358967386e-04 2.8338079963e+00 -4.9082994285e+00 2.8338079963e+00 4.9082994285e+00 
117800 5.6587760898e+00 -7.0136237771e-04 2.8338204105e+00 -4.9083209306e+00 2.8338204105e+00 4.9083209306e+00 
117900 5.6587760518e+00 -6.9914215376e-04 2.8338327854e+00 -4.9083423645e+00 2.8338327854e+00 4.9083423645e+00 
118000 5.6587760141e+00 -6.9692897940e-04 2.8338451210e+00 -4.9083637304e+00 2.8338451210e+00 4.9083637304e+00 
118100 5.6587759766e+00 -6.9472283206e-04 2.8338574176e+00 -4.9083850286e+00 2.8338574176e+00 4.9083850286e+00 
118200 5.6587759393e+00 -6.9252368927e-04 2.8338696751e+00 -4.9084062594e+00 2.8338696751e+00 4.9084062594e+00 
118300 5.6587759023e+00 -6.9033152862e-04 2.8338818938e+00 -4.9084274228e+00 2.8338818938e+00 4.9084274228e+00 
118400 5.6587758655e+00 -6.8814632778e-04 2.8338940738e+00 -4.9084485191e+00 2.8338940738e+00 4.9084485191e+00 
118500 5.6587758289e+00 -6.8596806450e-04 2.8339062152e+00 -4.9084695486e+00 2.8339062152e+00 4.9084695486e+00 
118600 5.6587757926e+00 -6.8379671660e-04 2.8339183181e+00 -4.9084905114e+00 2.8339183181e+00 4.9084905114e+00 
118700 5.6587757564e+00 -6.8163226197e-04 2.8339303826e+00 -4.9085114077e+00 2.8339303826e+00 4.9085114077e+00 
118800 5.6587757205e+00 -6.7947467857e-04 2.8339424088e+00 -4.9085322379e+00 2.8339424088e+00 4.9085322379e+00 
118900 5.6587756849e+00 -6.7732394444e-04 2.8339543970e+00 -4.9085530020e+00 2.8339543970e+00 4.9085530020e+00 
119000 5.6587756494e+00 -6.7518003770e-04 2.8339663472e+00 -4.9085737002e+00 2.8339663472e+00 4.9085737002e+00 
119100 5.6587756142e+00 -6.7304293652e-04 2.8339782595e+00 -4.9085943329e+00 2.8339782595e+00 4.9085943329e+00 
119200 5.6587755792e+00 -6.7091261917e-04 2.8339901340e+00 -4.9086149002e+00 2.8339901340e+00 4.9086149002e+00 
119300 5.6587755444e+00 -6.6878906398e-04 2.8340019709e+00 -4.9086354023e+00 2.8340019709e+00 4.9086354023e+00 
119400 5.6587755099e+00 -6.6667224933e-04 2.8340137703e+00 -4.9086558395e+00 2.8340137703e+00 4.9086558395e+00 
119500 5.6587754755e+00 -6.6456215372e-04 2.8340255323e+00 -4.9086762118e+00 2.8340255323e+00 4.9086762118e+00 
119600 5.6587754414e+00 -6.6245875567e-04 2.8340372570e+00 -4.9086965196e+00 2.8340372570e+00 4.9086965196e+00 
119700 5.6587754075e+00 -6.6036203379e-04 2.8340489445e+00 -4.9087167631e+00 2.8340489445e+00 4.9087167631e+00 
119800 5.6587753738e+00 -6.5827196679e-04 2.8340605950e+00 -4.9087369423e+00 2.8340605950e+00 4.9087369423e+00 
119900 5.6587753403e+00 -6.5618853340e-04 2.8340722086e+00 -4.9087570577e+00 2.8340722086e+00 4.9087570577e+00 
120000 5.6587753070e+00 -6.5411171245e-04 2.8340837854e+00 -4.9087771093e+00 2.8340837854e+00 4.9087771093e+00 
120100 5.6587752739e+00 -6.5204148283e-04 2.8340953255e+00 -4.9087970973e+00 2.8340953255e+00 4.9087970973e+00 
120200 5.6587752411e+00 -6.4997782352e-04 2.8341068290e+00 -4.9088170220e+00 2.8341068290e+00 4.9088170220e+00 
120300 5.6587752084e+00 -6.4792071353e-04 2.8341182961e+00 -4.9088368835e+00 2.8341182961e+00 4.9088368835e+00 
120400 5.6587751759e+00 -6.4587013197e-04 2.8341297269e+00 -4.9088566822e+00 2.8341297269e+00 4.9088566822e+00 
120500 5.6587751437e+00 -6.4382605802e-04 2.8341411214e+00 -4.9088764180e+00 2.8341411214e+00 4.9088764180e+00 
120600 5.6587751116e+00 -6.4178847090e-04 2.8341524798e+00 -4.9088960914e+00 2.8341524798e+00 4.9088960914e+00 
120700 5.6587750798e+00 -6.3975734993e-04 2.8341638022e+00 -4.9089157024e+00 2.8341638022e+00 4.9089157024e+00 
120800 5.6587750481e+00 -6.3773267448e-04 2.8341750887e+00 -4.9089352512e+00 2.8341750887e+00 4.9089352512e+00 
120900 5.6587750167e+00 -6.3571442399e-04 2.8341863395e+00 -4.9089547381e+00 2.8341863395e+00 4.9089547381e+00 
121000 5.6587749854e+00 -6.3370257797e-04 2.8341975546e+00 -4.9089741633e+00 2.8341975546e+00 4.9089741633e+00 
121100 5.6587749543e+00 -6.3169711599e-04 2.8342087342e+00 -4.9089935269e+00 2.8342087342e+00 4.9089935269e+00 
121200 5.6587749235e+00 -6.2969801770e-04 2.8342198784e+00 -4.9090128291e+00 2.8342198784e+00 4.9090128291e+00 
121300 5.6587748928e+00 -6.2770526281e-04 2.8342309872e+00 -4.9090320702e+00 2.8342309872e+00 4.9090320702e+00 
121400 5.6587748623e+00 -6.2571883110e-04 2.8342420609e+00 -4.9090512504e+00 2.8342420609e+00 4.9090512504e+00 
121500 5.6587748320e+00 -6.2373870239e-04 2.8342530994e+00 -4.9090703697e+00 2.8342530994e+00 4.9090703697e+00 
121600 5.6587748019e+00 -6.2176485661e-04 2.8342641030e+00 -4.9090894285e+00 2.8342641030e+00 4.9090894285e+00 
121700 5.6587747720e+00 -6.1979727373e-04 2.8342750717e+00 -4.9091084269e+00 2.8342750717e+00 4.9091084269e+00 
121800 5.6587747423e+00 -6.1783593378e-04 2.8342860057e+00 -4.9091273651e+00 2.8342860057e+00 4.9091273651e+00 
121900 5.6587747127e+00 -6.1588081687e-04 2.8342969050e+00 -4.9091462433e+00 2.8342969050e+00 4.9091462433e+00 
122000 5.6587746834e+00 -6.1393190317e-04 2.8343077698e+00 -4.9091650616e+00 2.8343077698e+00 4.9091650616e+00 
122100 5.6587746542e+00 -6.1198917291e-04 2.8343186002e+00 -4.9091838204e+00 2.8343186002e+00 4.9091838204e+00 
122200 5.6587746252e+00 -6.1005260638e-04 2.8343293963e+00 -4.9092025197e+00 2.8343293963e+00 4.9092025197e+00 
122300 5.6587745964e+00 -6.0812218395e-04 2.8343401581e+00 -4.9092211598e+00 2.8343401581e+00 4.9092211598e+00 
122400 5.6587745678e+00 -6.0619788605e-04 2.8343508859e+00 -4.9092397408e+00 2.8343508859e+00 4.9092397408e+00 
122500 5.6587745393e+00 -6.0427969316e-04 2.8343615797e+00 -4.9092582630e+00 2.8343615797e+00 4.9092582630e+00 
122600 5.6587745110e+00 -6.0236758583e-04 2.8343722396e+00 -4.9092767265e+00 2.8343722396e+00 4.9092767265e+00 
122700 5.6587744829e+00 -6.0046154468e-04 2.8343828657e+00 -4.9092951315e+00 2.8343828657e+00 4.9092951315e+00 
122800 5.6587744550e+00 -5.9856155040e-04 2.8343934582e+00 -4.9093134782e+00 2.8343934582e+00 4.9093134782e+00 
122900 5.6587744273e+00 -5.9666758371e-04 2.8344040171e+00 -4.9093317667e+00 2.8344040171e+00 4.9093317667e+00 
123000 5.6587743997e+00 -5.9477962543e-04 2.8344145425e+00 -4.9093499974e+00 2.8344145425e+00 4.9093499974e+00 
123100 5.6587743723e+00 -5.9289765642e-04 2.8344250346e+00 -4.9093681702e+00 2.8344250346e+00 4.9093681702e+00 
123200 5.6587743451e+00 -5.9102165761e-04 2.8344354935e+00 -4.9093862855e+00 2.8344354935e+00 4.9093862855e+00 
123300 5.6587743180e+00 -5.8915160999e-04 2.8344459193e+00 -4.9094043435e+00 2.8344459193e+00 4.9094043435e+00 
123400 5.6587742911e+00 -5.8728749461e-04 2.8344563120e+00 -4.9094223442e+00 2.8344563120e+00 4.9094223442e+00 
123500 5.6587742644e+00 -5.8542929258e-04 2.8344666718e+00 -4.9094402879e+00 2.8344666718e+00 4.9094402879e+00 
123600 5.6587742379e+00 -5.8357698508e-04 2.8344769988e+00 -4.9094581747e+00 2.8344769988e+00 4.9094581747e+00 
123700 5.6587742115e+00 -5.8173055334e-04 2.8344872930e+00 -4.9094760049e+00 2.8344872930e+00 4.9094760049e+00 
123800 5.6587741853e+00 -5.7988997866e-04 2.8344975547e+00 -4.9094937786e+00 2.8344975547e+00 4.9094937786e+00 
123900 5.6587741592e+00 -5.7805524240e-04 2.8345077838e+00 -4.9095114961e+00 2.8345077838e+00 4.9095114961e+00 
124000 5.6587741333e+00 -5.7622632596e-04 2.8345179806e+00 -4.9095291573e+00 2.8345179806e+00 4.9095291573e+00 
124100 5.6587741076e+00 -5.7440321084e-04 2.8345281450e+00 -4.9095467627e+00 2.8345281450e+00 4.9095467627e+00 
124200 5.6587740820e+00 -5.7258587855e-04 2.8345382773e+00 -4.9095643123e+00 2.8345382773e+00 4.9095643123e+00 
124300 5.6587740566e+00 -5.7077431071e-04 2.8345483775e+00 -4.9095818063e+00 2.8345483775e+00 4.9095818063e+00 
124400 5.6587740314e+00 -5.6896848896e-04 2.8345584457e+00 -4.9095992449e+00 2.8345584457e+00 4.9095992449e+00 
124500 5.6587740063e+00 -5.6716839502e-04 2.8345684819e+00 -4.9096166282e+00 2.8345684819e+00 4.9096166282e+00 
124600 5.6587739813e+00 -5.6537401067e-04 2.8345784864e+00 -4.9096339565e+00 2.8345784864e+00 4.9096339565e+00 
124700 5.6587739566e+00 -5.6358531773e-04 2.8345884592e+00 -4.9096512300e+00 2.8345884592e+00 4.9096512300e+00 
124800 5.6587739319e+00 -5.6180229810e-04 2.8345984005e+00 -4.9096684487e+00 2.8345984005e+00 4.9096684487e+00 
124900 5.6587739075e+00 -5.6002493373e-04 2.8346083102e+00 -4.9096856128e+00 2.8346083102e+00 4.9096856128e+00 
125000 5.6587738831e+00 -5.5825320661e-04 2.8346181886e+00 -4.9097027227e+00 2.8346181886e+00 4.9097027227e+00 
125100 5.6587738590e+00 -5.5648709883e-04 2.8346280356e+00 -4.9097197783e+00 2.8346280356e+00 4.9097197783e+00 
125200 5.6587738350e+00 -5.5472659251e-04 2.8346378515e+00 -4.9097367799e+00 2.8346378515e+00 4.9097367799e+00 
125300 5.6587738111e+00 -5.5297166981e-04 2.8346476363e+00 -4.9097537276e+00 2.8346476363e+00 4.9097537276e+00 
125400 5.6587737874e+00 -5.5122231299e-04 2.8346573901e+00 -4.9097706217e+00 2.8346573901e+00 4.9097706217e+00 
125500 5.6587737638e+00 -5.4947850434e-04 2.8346671130e+00 -4.9097874623e+00 2.8346671130e+00 4.9097874623e+00 
125600 5.6587737404e+00 -5.4774022620e-04 2.8346768051e+00 -4.9098042496e+00 2.8346768051e+00 4.9098042496e+00 
125700 5.6587737171e+00 -5.4600746099e-04 2.8346864666e+00 -4.9098209836e+00 2.8346864666e+00 4.9098209836e+00 
125800 5.6587736940e+00 -5.4428019118e-04 2.8346960974e+00 -4.9098376647e+00 2.8346960974e+00 4.9098376647e+00 
125900 5.6587736710e+00 -5.4255839929e-04 2.8347056977e+00 -4.9098542930e+00 2.8347056977e+00 4.9098542930e+00 
126000 5.6587736482e+00 -5.4084206789e-04 2.8347152677e+00 -4.9098708686e+00 2.8347152677e+00 4.9098708686e+00 
126100 5.6587736255e+00 -5.3913117962e-04 2.8347248073e+00 -4.9098873917e+00 2.8347248073e+00 4.9098873917e+00 
126200 5.6587736030e+00 -5.3742571717e-04 2.8347343167e+00 -4.9099038625e+00 2.8347343167e+00 4.9099038625e+00 
126300 5.6587735806e+00 -5.3572566329e-04 2.8347437960e+00 -4.9099202811e+00 2.8347437960e+00 4.9099202811e+00 
126400 5.6587735583e+00 -5.3403100077e-04 2.8347532453e+00 -4.9099366478e+00 2.8347532453e+00 4.9099366478e+00 
126500 5.6587735362e+00 -5.3234171247e-04 2.8347626647e+00 -4.9099529626e+00 2.8347626647e+00 4.9099529626e+00 
126600 5.6587735142e+00 -5.3065778131e-04 2.8347720542e+00 -4.9099692257e+00 2.8347720542e+00 4.9099692257e+00 
126700 5.6587734923e+00 -5.2897919024e-04 2.8347814140e+00 -4.9099854374e+00 2.8347814140e+00 4.9099854374e+00 
126800 5.6587734706e+00 -5.2730592230e-04 2.8347907442e+00 -4.9100015977e+00 2.8347907442e+00 4.9100015977e+00 
126900 5.6587734490e+00 -5.2563796055e-04 2.8348000448e+00 -4.9100177068e+00 2.8348000448e+00 4.9100177068e+00 
127000 5.6587734276e+00 -5.2397528813e-04 2.8348093159e+00 -4.9100337650e+00 2.8348093159e+00 4.9100337650e+00 
127100 5.6587734063e+00 -5.2231788822e-04 2.8348185578e+00 -4.9100497723e+00 2.8348185578e+00 4.9100497723e+00 
127200 5.6587733851e+00 -5.2066574405e-04 2.8348277703e+00 -4.9100657289e+00 2.8348277703e+00 4.9100657289e+00 
127300 5.6587733640e+00 -5.1901883892e-04 2.8348369537e+00 -4.9100816350e+00 2.8348369537e+00 4.9100816350e+00 
127400 5.6587733431e+00 -5.1737715617e-04 2.8348461080e+00 -4.9100974907e+00 2.8348461080e+00 4.9100974907e+00 
127500 5.6587733223e+00 -5.1574067920e-04 2.8348552333e+00 -4.9101132962e+00 2.8348552333e+00 4.9101132962e+00 
127600 5.6587733017e+00 -5.1410939146e-04 2.8348643297e+00 -4.9101290517e+00 2.8348643297e+00 4.9101290517e+00 
127700 5.6587732812e+00 -5.1248327645e-04 2.8348733974e+00 -4.9101447572e+00 2.8348733974e+00 4.9101447572e+00 
127800 5.6587732608e+00 -5.1086231774e-04 2.8348824363e+00 -4.9101604131e+00 2.8348824363e+00 4.9101604131e+00 
127900 5.6587732405e+00 -5.0924649893e-04 2.8348914466e+00 -4.9101760194e+00 2.8348914466e+00 4.9101760194e+00 
128000 5.6587732204e+00 -5.0763580369e-04 2.8349004283e+00 -4.9101915763e+00 2.8349004283e+00 4.9101915763e+00 
128100 5.6587732004e+00 -5.0603021572e-04 2.8349093817e+00 -4.9102070839e+00 2.8349093817e+00 4.9102070839e+00 
128200 5.6587731805e+00 -5.0442971880e-04 2.8349183067e+00 -4.9102225424e+00 2.8349183067e+00 4.9102225424e+00 
128300 5.6587731607e+00 -5.0283429674e-04 2.8349272034e+00 -4.9102379520e+00 2.8349272034e+00 4.9102379520e+00 
128400 5.6587731411e+00 -5.0124393341e-04 2.8349360719e+00 -4.9102533128e+00 2.8349360719e+00 4.9102533128e+00 
128500 5.6587731216e+00 -4.9965861274e-04 2.8349449124e+00 -4.9102686250e+00 2.8349449124e+00 4.9102686250e+00 
128600 5.6587731022e+00 -4.9807831870e-04 2.8349537249e+00 -4.9102838887e+00 2.8349537249e+00 4.9102838887e+00 
128700 5.6587730829e+00 -4.9650303531e-04 2.8349625095e+00 -4.9102991040e+00 2.8349625095e+00 4.9102991040e+00 
128800 5.6587730637e+00 -4.9493274665e-04 2.8349712663e+00 -4.9103142712e+00 2.8349712663e+00 4.9103142712e+00 
128900 5.6587730447e+00 -4.9336743684e-04 2.8349799954e+00 -4.9103293904e+00 2.8349799954e+00 4.9103293904e+00 
129000 5.6587730258e+00 -4.9180709007e-04 2.8349886968e+00 -4.9103444618e+00 2.8349886968e+00 4.9103444618e+00 
129100 5.6587730070e+00 -4.9025169055e-04 2.8349973707e+00 -4.9103594854e+00 2.8349973707e+00 4.9103594854e+00 
129200 5.6587729883e+00 -4.8870122257e-04 2.8350060171e+00 -4.9103744614e+00 2.8350060171e+00 4.9103744614e+00 
129300 5.6587729698e+00 -4.8715567046e-04 2.8350146362e+00 -4.9103893901e+00 2.8350146362e+00 4.9103893901e+00 
129400 5.6587729513e+00 -4.8561501859e-04 2.8350232279e+00 -4.9104042714e+00 2.8350232279e+00 4.9104042714e+00 
129500 5.6587729330e+00 -4.8407925139e-04 2.8350317925e+00 -4.9104191057e+00 2.8350317925e+00 4.9104191057e+00 
129600 5.6587729148e+00 -4.8254835334e-04 2.8350403300e+00 -4.9104338930e+00 2.8350403300e+00 4.9104338930e+00 
129700 5.6587728967e+00 -4.8102230897e-04 2.8350488404e+00 -4.9104486335e+00 2.8350488404e+00 4.9104486335e+00 
129800 5.6587728787e+00 -4.7950110285e-04 2.8350573239e+00 -4.9104633274e+00 2.8350573239e+00 4.9104633274e+00 
129900 5.6587728608e+00 -4.7798471961e-04 2.8350657806e+00 -4.9104779747e+00 2.8350657806e+00 4.9104779747e+00 
130000 5.6587728431e+00 -4.7647314393e-04 2.8350742104e+00 -4.9104925757e+00 2.8350742104e+00 4.9104925757e+00 
130100 5.6587728254e+00 -4.7496636052e-04 2.8350826136e+00 -4.9105071304e+00 2.8350826136e+00 4.9105071304e+00 
130200 5.6587728079e+00 -4.7346435417e-04 2.8350909902e+00 -4.9105216391e+00 2.8350909902e+00 4.9105216391e+00 
130300 5.6587727904e+00 -4.7196710969e-04 2.8350993403e+00 -4.9105361019e+00 2.8350993403e+00 4.9105361019e+00 
130400 5.6587727731e+00 -4.7047461195e-04 2.8351076639e+00 -4.9105505189e+00 2.8351076639e+00 4.9105505189e+00 
130500 5.6587727559e+00 -4.6898684587e-04 2.8351159612e+00 -4.9105648902e+00 2.8351159612e+00 4.9105648902e+00 
130600 5.6587727388e+00 -4.6750379641e-04 2.8351242323e+00 -4.9105792161e+00 2.8351242323e+00 4.9105792161e+00 
130700 5.6587727218e+00 -4.6602544859e-04 2.8351324771e+00 -4.9105934966e+00 2.8351324771e+00 4.9105934966e+00 
130800 5.6587727049e+00 -4.6455178748e-04 2.8351406959e+00 -4.9106077319e+00 2.8351406959e+00 4.9106077319e+00 
130900 5.6587726881e+00 -4.6308279818e-04 2.8351488887e+00 -4.9106219222e+00 2.8351488887e+00 4.9106219222e+00 
131000 5.6587726715e+00 -4.6161846584e-04 2.8351570555e+00 -4.9106360675e+00 2.8351570555e+00 4.9106360675e+00 
131100 5.6587726549e+00 -4.6015877568e-04 2.8351651964e+00 -4.9106501681e+00 2.8351651964e+00 4.9106501681e+00 
131200 5.6587726384e+00 -4.5870371294e-04 2.8351733116e+00 -4.9106642240e+00 2.8351733116e+00 4.9106642240e+00 
131300 5.6587726221e+00 -4.5725326292e-04 2.8351814012e+00 -4.9106782355e+00 2.8351814012e+00 4.9106782355e+00 
131400 5.6587726058e+00 -4.5580741096e-04 2.8351894651e+00 -4.9106922026e+00 2.8351894651e+00 4.9106922026e+00 
131500 5.6587725896e+00 -4.5436614247e-04 2.8351975035e+00 -4.9107061255e+00 2.8351975035e+00 4.9107061255e+00 
131600 5.6587725736e+00 -4.5292944286e-04 2.8352055164e+00 -4.9107200044e+00 2.8352055164e+00 4.9107200044e+00 
131700 5.6587725576e+00 -4.5149729765e-04 2.8352135040e+00 -4.9107338393e+00 2.8352135040e+00 4.9107338393e+00 
131800 5.6587725417e+00 -4.5006969233e-04 2.8352214664e+00 -4.9107476305e+00 2.8352214664e+00 4.9107476305e+00 
131900 5.6587725260e+00 -4.4864661252e-04 2.8352294035e+00 -4.9107613779e+00 2.8352294035e+00 4.9107613779e+00 
132000 5.6587725103e+00 -4.4722804381e-04 2.8352373155e+00 -4.9107750819e+00 2.8352373155e+00 4.9107750819e+00 
132100 5.6587724948e+00 -4.4581397188e-04 2.8352452025e+00 -4.9107887426e+00 2.8352452025e+00 4.9107887426e+00 
132200 5.6587724793e+00 -4.4440438244e-04 2.8352530645e+00 -4.9108023600e+00 2.8352530645e+00 4.9108023600e+00 
132300 5.6587724639e+00 -4.4299926126e-04 2.8352609016e+00 -4.9108159342e+00 2.8352609016e+00 4.9108159342e+00 
132400 5.6587724487e+00 -4.4159859414e-04 2.8352687139e+00 -4.9108294656e+00 2.8352687139e+00 4.9108294656e+00 
132500 5.6587724335e+00 -4.4020236693e-04 2.8352765015e+00 -4.9108429541e+00 2.8352765015e+00 4.9108429541e+00 
132600 5.6587724184e+00 -4.3881056553e-04 2.8352842645e+00 -4.9108563999e+00 2.8352842645e+00 4.9108563999e+00 
132700 5.6587724034e+00 -4.3742317587e-04 2.8352920028e+00 -4.9108698032e+00 2.8352920028e+00 4.9108698032e+00 
132800 5.6587723885e+00 -4.3604018394e-04 2.8352997168e+00 -4.9108831641e+00 2.8352997168e+00 4.9108831641e+00 
132900 5.6587723737e+00 -4.3466157576e-04 2.8353074062e+00 -4.9108964827e+00 2.8353074062e+00 4.9108964827e+00 
133000 5.6587723590e+00 -4.3328733743e-04 2.8353150714e+00 -4.9109097591e+00 2.8353150714e+00 4.9109097591e+00 
133100 5.6587723444e+00 -4.3191745504e-04 2.8353227123e+00 -4.9109229936e+00 2.8353227123e+00 4.9109229936e+00 
133200 5.6587723299e+00 -4.3055191477e-04 2.8353303290e+00 -4.9109361861e+00 2.8353303290e+00 4.9109361861e+00 
133300 5.6587723154e+00 -4.2919070282e-04 2.8353379217e+00 -4.9109493370e+00 2.8353379217e+00 4.9109493370e+00 
133400 5.6587723011e+00 -4.2783380545e-04 2.8353454903e+00 -4.9109624462e+00 2.8353454903e+00 4.9109624462e+00 
133500 5.6587722868e+00 -4.2648120894e-04 2.8353530349e+00 -4.9109755139e+00 2.8353530349e+00 4.9109755139e+00 
133600 5.6587722727e+00 -4.2513289963e-04 2.8353605557e+00 -4.9109885403e+00 2.8353605557e+00 4.9109885403e+00 
133700 5.6587722586e+00 -4.2378886391e-04 2.8353680527e+00 -4.9110015254e+00 2.8353680527e+00 4.9110015254e+00 
133800 5.6587722446e+00 -4.2244908819e-04 2.8353755260e+00 -4.9110144695e+00 2.8353755260e+00 4.9110144695e+00 
133900 5.6587722307e+00 -4.2111355896e-04 2.8353829756e+00 -4.9110273726e+00 2.8353829756e+00 4.9110273726e+00 
134000 5.6587722169e+00 -4.1978226271e-04 2.8353904016e+00 -4.9110402349e+00 2.8353904016e+00 4.9110402349e+00 
134100 5.6587722032e+00 -4.1845518600e-04 2.8353978042e+00 -4.9110530565e+00 2.8353978042e+00 4.9110530565e+00 
134200 5.6587721895e+00 -4.1713231544e-04 2.8354051833e+00 -4.9110658375e+00 2.8354051833e+00 4.9110658375e+00 
134300 5.6587721760e+00 -4.1581363765e-04 2.8354125391e+00 -4.9110785781e+00 2.8354125391e+00 4.9110785781e+00 
134400 5.6587721625e+00 -4.1449913931e-04 2.8354198716e+00 -4.9110912784e+00 2.8354198716e+00 4.9110912784e+00 
134500 5.6587721491e+00 -4.1318880716e-04 2.8354271809e+00 -4.9111039385e+00 2.8354271809e+00 4.9111039385e+00 
134600 5.6587721358e+00 -4.1188262796e-04 2.8354344671e+00 -4.9111165585e+00 2.8354344671e+00 4.9111165585e+00 
134700 5.6587721226e+00 -4.1058058852e-04 2.8354417302e+00 -4.9111291386e+00 2.8354417302e+00 4.9111291386e+00 
134800 5.6587721095e+00 -4.0928267568e-04 2.8354489704e+00 -4.9111416790e+00 2.8354489704e+00 4.9111416790e+00 
134900 5.6587720964e+00 -4.0798887635e-04 2.8354561876e+00 -4.9111541796e+00 2.8354561876e+00 4.9111541796e+00 
135000 5.6587720835e+00 -4.0669917744e-04 2.8354633820e+00 -4.9111666407e+00 2.8354633820e+00 4.9111666407e+00 
135100 5.6587720706e+00 -4.0541356595e-04 2.8354705537e+00 -4.9111790624e+00 2.8354705537e+00 4.9111790624e+00 
135200 5.6587720578e+00 -4.0413202888e-04 2.8354777027e+00 -4.9111914447e+00 2.8354777027e+00 4.9111914447e+00 
135300 5.6587720450e+00 -4.0285455329e-04 2.8354848290e+00 -4.9112037880e+00 2.8354848290e+00 4.9112037880e+00 
135400 5.6587720324e+00 -4.0158112628e-04 2.8354919328e+00 -4.9112160921e+00 2.8354919328e+00 4.9112160921e+00 
135500 5.6587720198e+00 -4.0031173499e-04 2.8354990142e+00 -4.9112283573e+00 2.8354990142e+00 4.9112283573e+00 
135600 5.6587720073e+00 -3.9904636660e-04 2.8355060731e+00 -4.9112405838e+00 2.8355060731e+00 4.9112405838e+00 
135700 5.6587719949e+00 -3.9778500834e-04 2.8355131097e+00 -4.9112527715e+00 2.8355131097e+00 4.9112527715e+00 
135800 5.6587719826e+00 -3.9652764747e-04 2.8355201240e+00 -4.9112649207e+00 2.8355201240e+00 4.9112649207e+00 
135900 5.6587719703e+00 -3.9527427128e-04 2.8355271162e+00 -4.9112770315e+00 2.8355271162e+00 4.9112770315e+00 
136000 5.6587719582e+00 -3.9402486712e-04 2.8355340862e+00 -4.9112891039e+00 2.8355340862e+00 4.9112891039e+00 
136100 5.6587719460e+00 -3.9277942239e-04 2.8355410342e+00 -4.9113011382e+00 2.8355410342e+00 4.9113011382e+00 
136200 5.6587719340e+00 -3.9153792448e-04 2.8355479602e+00 -4.9113131344e+00 2.8355479602e+00 4.9113131344e+00 
136300 5.6587719221e+00 -3.9030036088e-04 2.8355548643e+00 -4.9113250926e+00 2.8355548643e+00 4.9113250926e+00 
136400 5.6587719102e+00 -3.8906671909e-04 2.8355617466e+00 -4.9113370131e+00 2.8355617466e+00 4.9113370131e+00 
136500 5.6587718984e+00 -3.8783698664e-04 2.8355686071e+00 -4.9113488958e+00 2.8355686071e+00 4.9113488958e+00 
136600 5.6587718867e+00 -3.8661115112e-04 2.8355754459e+00 -4.9113607409e+00 2.8355754459e+00 4.9113607409e+00 
136700 5.6587718750e+00 -3.8538920016e-04 2.8355822630e+00 -4.9113725486e+00 2.8355822630e+00 4.9113725486e+00 
136800 5.6587718634e+00 -3.8417112141e-04 2.8355890586e+00 -4.9113843189e+00 2.8355890586e+00 4.9113843189e+00 
136900 5.6587718519e+00 -3.8295690257e-04 2.8355958327e+00 -4.9113960520e+00 2.8355958327e+00 4.9113960520e+00 
137000 5.6587718405e+00 -3.8174653138e-04 2.8356025854e+00 -4.9114077480e+00 2.8356025854e+00 4.9114077480e+00 
137100 5.6587718291e+00 -3.8053999563e-04 2.8356093167e+00 -4.9114194069e+00 2.8356093167e+00 4.9114194069e+00 
137200 5.6587718178e+00 -3.7933728313e-04 2.8356160267e+00 -4.9114310290e+00 2.8356160267e+00 4.9114310290e+00 
137300 5.6587718066e+00 -3.7813838174e-04 2.8356227155e+00 -4.9114426144e+00 2.8356227155e+00 4.9114426144e+00 
137400 5.6587717954e+00 -3.7694327934e-04 2.8356293832e+00 -4.9114541631e+00 2.8356293832e+00 4.9114541631e+00 
137500 5.6587717844e+00 -3.7575196388e-04 2.8356360297e+00 -4.9114656753e+00 2.8356360297e+00 4.9114656753e+00 
137600 5.6587717733e+00 -3.7456442332e-04 2.8356426553e+00 -4.9114771510e+00 2.8356426553e+00 4.9114771510e+00 
137700 5.6587717624e+00 -3.7338064568e-04 2.8356492598e+00 -4.9114885905e+00 2.8356492598e+00 4.9114885905e+00 
137800 5.6587717515e+00 -3.7220061900e-04 2.8356558435e+00 -4.9114999938e+00 2.8356558435e+00 4.9114999938e+00 
137900 5.6587717407e+00 -3.7102433137e-04 2.8356624064e+00 -4.9115113610e+00 2.8356624064e+00 4.9115113610e+00 
138000 5.6587717300e+00 -3.6985177091e-04 2.8356689485e+00 -4.9115226923e+00 2.8356689485e+00 4.9115226923e+00 
138100 5.6587717193e+00 -3.6868292578e-04 2.8356754699e+00 -4.9115339877e+00 2.8356754699e+00 4.9115339877e+00 
138200 5.6587717087e+00 -3.6751778419e-04 2.8356819707e+00 -4.9115452474e+00 2.8356819707e+00 4.9115452474e+00 
138300 5.6587716982e+00 -3.6635633437e-04 2.8356884510e+00 -4.9115564715e+00 2.8356884510e+00 4.9115564715e+00 
138400 5.6587716877e+00 -3.6519856458e-04 2.8356949107e+00 -4.9115676601e+00 2.8356949107e+00 4.9115676601e+00 
138500 5.6587716773e+00 -3.6404446316e-04 2.8357013500e+00 -4.9115788133e+00 2.8357013500e+00 4.9115788133e+00 
138600 5.6587716669e+00 -3.6289401843e-04 2.8357077690e+00 -4.9115899313e+00 2.8357077690e+00 4.9115899313e+00 
138700 5.6587716567e+00 -3.6174721879e-04 2.8357141676e+00 -4.9116010141e+00 2.8357141676e+00 4.9116010141e+00 
138800 5.6587716465e+00 -3.6060405266e-04 2.8357205461e+00 -4.9116120618e+00 2.8357205461e+00 4.9116120618e+00 
138900 5.6587716363e+00 -3.5946450850e-04 2.8357269043e+00 -4.9116230746e+00 2.8357269043e+00 4.9116230746e+00 
139000 5.6587716262e+00 -3.5832857480e-04 2.8357332424e+00 -4.9116340526e+00 2.8357332424e+00 4.9116340526e+00 
139100 5.6587716162e+00 -3.5719624010e-04 2.8357395605e+00 -4.9116449959e+00 2.8357395605e+00 4.9116449959e+00 
139200 5.6587716062e+00 -3.5606749297e-04 2.8357458587e+00 -4.9116559045e+00 2.8357458587e+00 4.9116559045e+00 
139300 5.6587715963e+00 -3.5494232200e-04 2.8357521369e+00 -4.9116667787e+00 2.8357521369e+00 4.9116667787e+00 
139400 5.6587715865e+00 -3.5382071585e-04 2.8357583952e+00 -4.9116776185e+00 2.8357583952e+00 4.9116776185e+00 
139500 5.6587715767e+00 -3.5270266318e-04 2.8357646338e+00 -4.9116884240e+00 2.8357646338e+00 4.9116884240e+00 
139600 5.6587715670e+00 -3.5158815272e-04 2.8357708526e+00 -4.9116991953e+00 2.8357708526e+00 4.9116991953e+00 
139700 5.6587715574e+00 -3.5047717320e-04 2.8357770518e+00 -4.9117099326e+00 2.8357770518e+00 4.9117099326e+00 
139800 5.6587715478e+00 -3.4936971342e-04 2.8357832313e+00 -4.9117206359e+00 2.8357832313e+00 4.9117206359e+00 
139900 5.6587715383e+00 -3.4826576220e-04 2.8357893913e+00 -4.9117313054e+00 2.8357893913e+00 4.9117313054e+00 
140000 5.6587715288e+00 -3.4716530839e-04 2.8357955319e+00 -4.9117419411e+00 2.8357955319e+00 4.9117419411e+00 
140100 5.6587715194e+00 -3.4606834088e-04 2.8358016530e+00 -4.9117525432e+00 2.8358016530e+00 4.9117525432e+00 
140200 5.6587715100e+00 -3.4497484860e-04 2.8358077548e+00 -4.9117631118e+00 2.8358077548e+00 4.9117631118e+00 
140300 5.6587715007e+00 -3.4388482051e-04 2.8358138373e+00 -4.9117736470e+00 2.8358138373e+00 4.9117736470e+00 
140400 5.6587714915e+00 -3.4279824561e-04 2.8358199005e+00 -4.9117841488e+00 2.8358199005e+00 4.9117841488e+00 
140500 5.6587714823e+00 -3.4171511293e-04 2.8358259446e+00 -4.9117946175e+00 2.8358259446e+00 4.9117946175e+00 
140600 5.6587714732e+00 -3.4063541154e-04 2.8358319696e+00 -4.9118050530e+00 2.8358319696e+00 4.9118050530e+00 
140700 5.6587714641e+00 -3.3955913053e-04 2.8358379755e+00 -4.9118154556e+00 2.8358379755e+00 4.9118154556e+00 
140800 5.6587714551e+00 -3.3848625905e-04 2.8358439624e+00 -4.9118258252e+00 2.8358439624e+00 4.9118258252e+00 
140900 5.6587714462e+00 -3.3741678627e-04 2.8358499304e+00 -4.9118361621e+00 2.8358499304e+00 4.9118361621e+00 
141000 5.6587714373e+00 -3.3635070139e-04 2.8358558795e+00 -4.9118464663e+00 2.8358558795e+00 4.9118464663e+00 
141100 5.6587714285e+00 -3.3528799364e-04 2.8358618099e+00 -4.9118567379e+00 2.8358618099e+00 4.9118567379e+00 
141200 5.6587714197e+00 -3.3422865231e-04 2.8358677214e+00 -4.9118669771e+00 2.8358677214e+00 4.9118669771e+00 
141300 5.6587714109e+00 -3.3317266670e-04 2.8358736143e+00 -4.9118771839e+00 2.8358736143e+00 4.9118771839e+00 
141400 5.6587714023e+00 -3.3212002616e-04 2.8358794886e+00 -4.9118873584e+00 2.8358794886e+00 4.9118873584e+00 
141500 5.6587713937e+00 -3.3107072005e-04 2.8358853443e+00 -4.9118975007e+00 2.8358853443e+00 4.9118975007e+00 
141600 5.6587713851e+00 -3.3002473778e-04 2.8358911814e+00 -4.9119076110e+00 2.8358911814e+00 4.9119076110e+00 
141700 5.6587713766e+00 -3.2898206881e-04 2.8358970001e+00 -4.9119176893e+00 2.8358970001e+00 4.9119176893e+00 
141800 5.6587713681e+00 -3.2794270260e-04 2.8359028005e+00 -4.9119277357e+00 2.8359028005e+00 4.9119277357e+00 
141900 5.6587713597e+00 -3.2690662867e-04 2.8359085825e+00 -4.9119377504e+00 2.8359085825e+00 4.9119377504e+00 
142000 5.6587713514e+00 -3.2587383656e-04 2.8359143462e+00 -4.9119477335e+00 2.8359143462e+00 4.9119477335e+00 
142100 5.6587713431e+00 -3.2484431584e-04 2.8359200916e+00 -4.9119576849e+00 2.8359200916e+00 4.9119576849e+00 
142200 5.6587713348e+00 -3.2381805613e-04 2.8359258190e+00 -4.9119676049e+00 2.8359258190e+00 4.9119676049e+00 
142300 5.6587713266e+00 -3.2279504707e-04 2.8359315282e+00 -4.9119774936e+00 2.8359315282e+00 4.9119774936e+00 
142400 5.6587713185e+00 -3.2177527833e-04 2.8359372193e+00 -4.9119873510e+00 2.8359372193e+00 4.9119873510e+00 
142500 5.6587713104e+00 -3.2075873962e-04 2.8359428925e+00 -4.9119971772e+00 2.8359428925e+00 4.9119971772e+00 
142600 5.6587713024e+00 -3.1974542068e-04 2.8359485478e+00 -4.9120069724e+00 2.8359485478e+00 4.9120069724e+00 
142700 5.6587712944e+00 -3.1873531129e-04 2.8359541851e+00 -4.9120167366e+00 2.8359541851e+00 4.9120167366e+00 
142800 5.6587712864e+00 -3.1772840125e-04 2.8359598047e+00 -4.9120264699e+00 2.8359598047e+00 4.9120264699e+00 
142900 5.6587712785e+00 -3.1672468041e-04 2.8359654064e+00 -4.9120361725e+00 2.8359654064e+00 4.9120361725e+00 
143000 5.6587712707e+00 -3.1572413862e-04 2.8359709905e+00 -4.9120458444e+00 2.8359709905e+00 4.9120458444e+00 
143100 5.6587712629e+00 -3.1472676580e-04 2.8359765569e+00 -4.9120554857e+00 2.8359765569e+00 4.9120554857e+00 
143200 5.6587712552e+00 -3.1373255188e-04 2.8359821058e+00 -4.9120650965e+00 2.8359821058e+00 4.9120650965e+00 
143300 5.6587712475e+00 -3.1274148682e-04 2.8359876371e+00 -4.9120746770e+00 2.8359876371e+00 4.9120746770e+00 
143400 5.6587712398e+00 -3.1175356063e-04 2.8359931509e+00 -4.9120842272e+00 2.8359931509e+00 4.9120842272e+00 
143500 5.6587712322e+00 -3.1076876333e-04 2.8359986472e+00 -4.9120937472e+00 2.8359986472e+00 4.9120937472e+00 
143600 5.6587712247e+00 -3.0978708500e-04 2.8360041262e+00 -4.9121032371e+00 2.8360041262e+00 4.9121032371e+00 
143700 5.6587712172e+00 -3.0880851571e-04 2.8360095879e+00 -4.9121126970e+00 2.8360095879e+00 4.9121126970e+00 
143800 5.6587712097e+00 -3.0783304561e-04 2.8360150323e+00 -4.9121221270e+00 2.8360150323e+00 4.9121221270e+00 
143900 5.6587712023e+00 -3.0686066484e-04 2.8360204596e+00 -4.9121315273e+00 2.8360204596e+00 4.9121315273e+00 
144000 5.6587711949e+00 -3.0589136359e-04 2.8360258696e+00 -4.9121408978e+00 2.8360258696e+00 4.9121408978e+00 
144100 5.6587711876e+00 -3.0492513208e-04 2.8360312626e+00 -4.9121502386e+00 2.8360312626e+00 4.9121502386e+00 
144200 5.6587711803e+00 -3.0396196057e-04 2.8360366385e+00 -4.9121595500e+00 2.8360366385e+00 4.9121595500e+00 
144300 5.6587711731e+00 -3.0300183933e-04 2.8360419974e+00 -4.9121688319e+00 2.8360419974e+00 4.9121688319e+00 
144400 5.6587711659e+00 -3.0204475868e-04 2.8360473394e+00 -4.9121780845e+00 2.8360473394e+00 4.9121780845e+00 
144500 5.6587711588e+00 -3.0109070895e-04 2.8360526645e+00 -4.9121873079e+00 2.8360526645e+00 4.9121873079e+00 
144600 5.6587711517e+00 -3.0013968053e-04 2.8360579728e+00 -4.9121965021e+00 2.8360579728e+00 4.9121965021e+00 
144700 5.6587711447e+00 -2.9919166382e-04 2.8360632643e+00 -4.9122056672e+00 2.8360632643e+00 4.9122056672e+00 
144800 5.6587711377e+00 -2.9824664925e-04 2.8360685390e+00 -4.9122148034e+00 2.8360685390e+00 4.9122148034e+00 
144900 5.6587711307e+00 -2.9730462728e-04 2.8360737971e+00 -4.9122239107e+00 2.8360737971e+00 4.9122239107e+00 
145000 5.6587711238e+00 -2.9636558842e-04 2.8360790386e+00 -4.9122329892e+00 2.8360790386e+00 4.9122329892e+00 
145100 5.6587711169e+00 -2.9542952319e-04 2.8360842635e+00 -4.9122420390e+00 2.8360842635e+00 4.9122420390e+00 
145200 5.6587711101e+00 -2.9449642215e-04 2.8360894720e+00 -4.9122510602e+00 2.8360894720e+00 4.9122510602e+00 
145300 5.6587711033e+00 -2.9356627588e-04 2.8360946639e+00 -4.9122600529e+00 2.8360946639e+00 4.9122600529e+00 
145400 5.6587710966e+00 -2.9263907499e-04 2.8360998394e+00 -4.9122690172e+00 2.8360998394e+00 4.9122690172e+00 
145500 5.6587710899e+00 -2.9171481013e-04 2.8361049986e+00 -4.9122779532e+00 2.8361049986e+00 4.9122779532e+00 
145600 5.6587710832e+00 -2.9079347199e-04 2.8361101415e+00 -4.9122868609e+00 2.8361101415e+00 4.9122868609e+00 
145700 5.6587710766e+00 -2.8987505126e-04 2.8361152681e+00 -4.9122957405e+00 2.8361152681e+00 4.9122957405e+00 
145800 5.6587710700e+00 -2.8895953867e-04 2.8361203786e+00 -4.9123045920e+00 2.8361203786e+00 4.9123045920e+00 
145900 5.6587710635e+00 -2.8804692500e-04 2.8361254728e+00 -4.9123134156e+00 2.8361254728e+00 4.9123134156e+00 
146000 5.6587710570e+00 -2.8713720103e-04 2.8361305510e+00 -4.9123222112e+00 2.8361305510e+00 4.9123222112e+00 
146100 5.6587710505e+00 -2.8623035759e-04 2.8361356131e+00 -4.9123309791e+00 2.8361356131e+00 4.9123309791e+00 
146200 5.6587710441e+00 -2.8532638554e-04 2.8361406593e+00 -4.9123397193e+00 2.8361406593e+00 4.9123397193e+00 
146300 5.6587710378e+00 -2.8442527574e-04 2.8361456895e+00 -4.9123484318e+00 2.8361456895e+00 4.9123484318e+00 
146400 5.6587710314e+00 -2.8352701912e-04 2.8361507038e+00 -4.9123571168e+00 2.8361507038e+00 4.9123571168e+00 
146500 5.6587710251e+00 -2.8263160660e-04 2.8361557022e+00 -4.9123657744e+00 2.8361557022e+00 4.9123657744e+00 
146600 5.6587710189e+00 -2.8173902917e-04 2.8361606849e+00 -4.9123744046e+00 2.8361606849e+00 4.9123744046e+00 
146700 5.6587710127e+00 -2.8084927780e-04 2.8361656518e+00 -4.9123830075e+00 2.8361656518e+00 4.9123830075e+00 
146800 5.6587710065e+00 -2.7996234354e-04 2.8361706030e+00 -4.9123915833e+00 2.8361706030e+00 4.9123915833e+00 
146900 5.6587710004e+00 -2.7907821743e-04 2.8361755386e+00 -4.9124001320e+00 2.8361755386e+00 4.9124001320e+00 
147000 5.6587709943e+00 -2.7819689056e-04 2.8361804585e+00 -4.9124086536e+00 2.8361804585e+00 4.9124086536e+00 
147100 5.6587709882e+00 -2.7731835403e-04 2.8361853630e+00 -4.9124171483e+00 2.8361853630e+00 4.9124171483e+00 
147200 5.6587709822e+00 -2.7644259899e-04 2.8361902519e+00 -4.9124256162e+00 2.8361902519e+00 4.9124256162e+00 
147300 5.6587709762e+00 -2.7556961659e-04 2.8361951254e+00 -4.9124340573e+00 2.8361951254e+00 4.9124340573e+00 
147400 5.6587709703e+00 -2.7469939805e-04 2.8361999835e+00 -4.9124424718e+00 2.8361999835e+00 4.9124424718e+00 
147500 5.6587709644e+00 -2.7383193457e-04 2.8362048262e+00 -4.9124508597e+00 2.8362048262e+00 4.9124508597e+00 
147600 5.6587709585e+00 -2.7296721741e-04 2.8362096536e+00 -4.9124592210e+00 2.8362096536e+00 4.9124592210e+00 
147700 5.6587709527e+00 -2.7210523786e-04 2.8362144658e+00 -4.9124675560e+00 2.8362144658e+00 4.9124675560e+00 
147800 5.6587709469e+00 -2.7124598721e-04 2.8362192628e+00 -4.9124758646e+00 2.8362192628e+00 4.9124758646e+00 
147900 5.6587709411e+00 -2.7038945679e-04 2.8362240446e+00 -4.9124841470e+00 2.8362240446e+00 4.9124841470e+00 
148000 5.6587709354e+00 -2.6953563798e-04 2.8362288114e+00 -4.9124924032e+00 2.8362288114e+00 4.9124924032e+00 
148100 5.6587709297e+00 -2.6868452216e-04 2.8362335630e+00 -4.9125006333e+00 2.8362335630e+00 4.9125006333e+00 
148200 5.6587709240e+00 -2.6783610075e-04 2.8362382997e+00 -4.9125088374e+00 2.8362382997e+00 4.9125088374e+00 
148300 5.6587709184e+00 -2.6699036518e-04 2.8362430213e+00 -4.9125170156e+00 2.8362430213e+00 4.9125170156e+00 
148400 5.6587709128e+00 -2.6614730694e-04 2.8362477281e+00 -4.9125251679e+00 2.8362477281e+00 4.9125251679e+00 
148500 5.6587709073e+00 -2.6530691752e-04 2.8362524200e+00 -4.9125332945e+00 2.8362524200e+00 4.9125332945e+00 
148600 5.6587709018e+00 -2.6446918844e-04 2.8362570971e+00 -4.9125413954e+00 2.8362570971e+00 4.9125413954e+00 
148700 5.6587708963e+00 -2.6363411126e-04 2.8362617593e+00 -4.9125494708e+00 2.8362617593e+00 4.9125494708e+00 
148800 5.6587708909e+00 -2.6280167756e-04 2.8362664069e+00 -4.9125575206e+00 2.8362664069e+00 4.9125575206e+00 
148900 5.6587708854e+00 -2.6197187894e-04 2.8362710398e+00 -4.9125655450e+00 2.8362710398e+00 4.9125655450e+00 
149000 5.6587708801e+00 -2.6114470703e-04 2.8362756580e+00 -4.9125735440e+00 2.8362756580e+00 4.9125735440e+00 
149100 5.6587708747e+00 -2.6032015350e-04 2.8362802617e+00 -4.9125815178e+00 2.8362802617e+00 4.9125815178e+00 
149200 5.6587708694e+00 -2.5949821002e-04 2.8362848508e+00 -4.9125894663e+00 2.8362848508e+00 4.9125894663e+00 
149300 5.6587708641e+00 -2.5867886832e-04 2.8362894254e+00 -4.9125973898e+00 2.8362894254e+00 4.9125973898e+00 
149400 5.6587708589e+00 -2.5786212013e-04 2.8362939856e+00 -4.9126052882e+00 2.8362939856e+00 4.9126052882e+00 
149500 5.6587708537e+00 -2.5704795721e-04 2.8362985314e+00 -4.9126131617e+00 2.8362985314e+00 4.9126131617e+00 
149600 5.6587708485e+00 -2.5623637136e-04 2.8363030628e+00 -4.9126210103e+00 2.8363030628e+00 4.9126210103e+00 
149700 5.6587708434e+00 -2.5542735439e-04 2.8363075798e+00 -4.9126288342e+00 2.8363075798e+00 4.9126288342e+00 
149800 5.6587708383e+00 -2.5462089814e-04 2.8363120827e+00 -4.9126366333e+00 2.8363120827e+00 4.9126366333e+00 
149900 5.6587708332e+00 -2.5381699450e-04 2.8363165712e+00 -4.9126444077e+00 2.8363165712e+00 4.9126444077e+00 
150000 5.6587708281e+00 -2.5301563534e-04 2.8363210457e+00 -4.9126521577e+00 2.8363210457e+00 4.9126521577e+00 
150100 5.6587708231e+00 -2.5221681259e-04 2.8363255059e+00 -4.9126598831e+00 2.8363255059e+00 4.9126598831e+00 
150200 5.6587708181e+00 -2.5142051820e-04 2.8363299521e+00 -4.9126675841e+00 2.8363299521e+00 4.9126675841e+00 
150300 5.6587708132e+00 -2.5062674414e-04 2.8363343843e+00 -4.9126752608e+00 2.8363343843e+00 4.9126752608e+00 
150400 5.6587708083e+00 -2.4983548240e-04 2.8363388024e+00 -4.9126829133e+00 2.8363388024e+00 4.9126829133e+00 
150500 5.6587708034e+00 -2.4904672502e-04 2.8363432066e+00 -4.9126905416e+00 2.8363432066e+00 4.9126905416e+00 
150600 5.6587707985e+00 -2.4826046403e-04 2.8363475969e+00 -4.9126981457e+00 2.8363475969e+00 4.9126981457e+00 
150700 5.6587707937e+00 -2.4747669152e-04 2.8363519733e+00 -4.9127057259e+00 2.8363519733e+00 4.9127057259e+00 
150800 5.6587707889e+00 -2.4669539957e-04 2.8363563359e+00 -4.9127132821e+00 2.8363563359e+00 4.9127132821e+00 
150900 5.6587707841e+00 -2.4591658032e-04 2.8363606847e+00 -4.9127208145e+00 2.8363606847e+00 4.9127208145e+00 
151000 5.6587707794e+00 -2.4514022591e-04 2.8363650198e+00 -4.9127283231e+00 2.8363650198e+00 4.9127283231e+00 
151100 5.6587707747e+00 -2.4436632853e-04 2.8363693412e+00 -4.9127358079e+00 2.8363693412e+00 4.9127358079e+00 
151200 5.6587707700e+00 -2.4359488036e-04 2.8363736489e+00 -4.9127432691e+00 2.8363736489e+00 4.9127432691e+00 
151300 5.6587707653e+00 -2.4282587363e-04 2.8363779430e+00 -4.9127507068e+00 2.8363779430e+00 4.9127507068e+00 
151400 5.6587707607e+00 -2.4205930059e-04 2.8363822236e+00 -4.9127581209e+00 2.8363822236e+00 4.9127581209e+00 
151500 5.6587707561e+00 -2.4129515351e-04 2.8363864906e+00 -4.9127655117e+00 2.8363864906e+00 4.9127655117e+00 
151600 5.6587707516e+00 -2.4053342469e-04 2.8363907442e+00 -4.9127728791e+00 2.8363907442e+00 4.9127728791e+00 
151700 5.6587707470e+00 -2.3977410646e-04 2.8363949843e+00 -4.9127802232e+00 2.8363949843e+00 4.9127802232e+00 
151800 5.6587707425e+00 -2.3901719115e-04 2.8363992111e+00 -4.9127875441e+00 2.8363992111e+00 4.9127875441e+00 
151900 5.6587707380e+00 -2.3826267115e-04 2.8364034245e+00 -4.9127948419e+00 2.8364034245e+00 4.9127948419e+00 
152000 5.6587707336e+00 -2.3751053884e-04 2.8364076245e+00 -4.9128021167e+00 2.8364076245e+00 4.9128021167e+00 
152100 5.6587707292e+00 -2.3676078665e-04 2.8364118114e+00 -4.9128093685e+00 2.8364118114e+00 4.9128093685e+00 
152200 5.6587707248e+00 -2.3601340702e-04 2.8364159850e+00 -4.9128165974e+00 2.8364159850e+00 4.9128165974e+00 
152300 5.6587707204e+00 -2.3526839241e-04 2.8364201454e+00 -4.9128238034e+00 2.8364201454e+00 4.9128238034e+00 
152400 5.6587707161e+00 -2.3452573533e-04 2.8364242927e+00 -4.9128309867e+00 2.8364242927e+00 4.9128309867e+00 
152500 5.6587707117e+00 -2.3378542828e-04 2.8364284268e+00 -4.9128381473e+00 2.8364284268e+00 4.9128381473e+00 
152600 5.6587707075e+00 -2.3304746380e-04 2.8364325480e+00 -4.9128452853e+00 2.8364325480e+00 4.9128452853e+00 
152700 5.6587707032e+00 -2.3231183446e-04 2.8364366561e+00 -4.9128524008e+00 2.8364366561e+00 4.9128524008e+00 
152800 5.6587706990e+00 -2.3157853285e-04 2.8364407512e+00 -4.9128594937e+00 2.8364407512e+00 4.9128594937e+00 
152900 5.6587706948e+00 -2.3084755157e-04 2.8364448334e+00 -4.9128665643e+00 2.8364448334e+00 4.9128665643e+00 
153000 5.6587706906e+00 -2.3011888326e-04 2.8364489027e+00 -4.9128736126e+00 2.8364489027e+00 4.9128736126e+00 
153100 5.6587706864e+00 -2.2939252058e-04 2.8364529592e+00 -4.9128806386e+00 2.8364529592e+00 4.9128806386e+00 
153200 5.6587706823e+00 -2.2866845620e-04 2.8364570028e+00 -4.9128876424e+00 2.8364570028e+00 4.9128876424e+00 
153300 5.6587706782e+00 -2.2794668283e-04 2.8364610337e+00 -4.9128946241e+00 2.8364610337e+00 4.9128946241e+00 
153400 5.6587706741e+00 -2.2722719320e-04 2.8364650519e+00 -4.9129015837e+00 2.8364650519e+00 4.9129015837e+00 
153500 5.6587706701e+00 -2.2650998006e-04 2.8364690573e+00 -4.9129085214e+00 2.8364690573e+00 4.9129085214e+00 
153600 5.6587706661e+00 -2.2579503619e-04 2.8364730502e+00 -4.9129154372e+00 2.8364730502e+00 4.9129154372e+00 
153700 5.6587706621e+00 -2.2508235437e-04 2.8364770304e+00 -4.9129223311e+00 2.8364770304e+00 4.9129223311e+00 
153800 5.6587706581e+00 -2.2437192743e-04 2.8364809980e+00 -4.9129292032e+00 2.8364809980e+00 4.9129292032e+00 
153900 5.6587706541e+00 -2.2366374821e-04 2.8364849531e+00 -4.9129360537e+00 2.8364849531e+00 4.9129360537e+00 
154000 5.6587706502e+00 -2.2295780957e-04 2.8364888957e+00 -4.9129428825e+00 2.8364888957e+00 4.9129428825e+00 
154100 5.6587706463e+00 -2.2225410441e-04 2.8364928259e+00 -4.9129496898e+00 2.8364928259e+00 4.9129496898e+00 
154200 5.6587706424e+00 -2.2155262564e-04 2.8364967437e+00 -4.9129564755e+00 2.8364967437e+00 4.9129564755e+00 
154300 5.6587706386e+00 -2.2085336618e-04 2.8365006491e+00 -4.9129632399e+00 2.8365006491e+00 4.9129632399e+00 
154400 5.6587706348e+00 -2.2015631899e-04 2.8365045421e+00 -4.9129699829e+00 2.8365045421e+00 4.9129699829e+00 
154500 5.6587706310e+00 -2.1946147706e-04 2.8365084229e+00 -4.9129767046e+00 2.8365084229e+00 4.9129767046e+00 
154600 5.6587706272e+00 -2.1876883337e-04 2.8365122914e+00 -4.9129834050e+00 2.8365122914e+00 4.9129834050e+00 
154700 5.6587706234e+00 -2.1807838096e-04 2.8365161477e+00 -4.9129900843e+00 2.8365161477e+00 4.9129900843e+00 
154800 5.6587706197e+00 -2.1739011286e-04 2.8365199918e+00 -4.9129967425e+00 2.8365199918e+00 4.9129967425e+00 
154900 5.6587706160e+00 -2.1670402215e-04 2.8365238238e+00 -4.9130033797e+00 2.8365238238e+00 4.9130033797e+00 
155000 5.6587706123e+00 -2.1602010191e-04 2.8365276437e+00 -4.9130099960e+00 2.8365276437e+00 4.9130099960e+00 
155100 5.6587706086e+00 -2.1533834526e-04 2.8365314515e+00 -4.9130165913e+00 2.8365314515e+00 4.9130165913e+00 
155200 5.6587706050e+00 -2.1465874533e-04 2.8365352473e+00 -4.9130231659e+00 2.8365352473e+00 4.9130231659e+00 
155300 5.6587706014e+00 -2.1398129527e-04 2.8365390312e+00 -4.9130297196e+00 2.8365390312e+00 4.9130297196e+00 
155400 5.6587705978e+00 -2.1330598825e-04 2.8365428030e+00 -4.9130362527e+00 2.8365428030e+00 4.9130362527e+00 
155500 5.6587705942e+00 -2.1263281749e-04 2.8365465630e+00 -4.9130427652e+00 2.8365465630e+00 4.9130427652e+00 
155600 5.6587705907e+00 -2.1196177619e-04 2.8365503111e+00 -4.9130492570e+00 2.8365503111e+00 4.9130492570e+00 
155700 5.6587705872e+00 -2.1129285760e-04 2.8365540474e+00 -4.9130557284e+00 2.8365540474e+00 4.9130557284e+00 
155800 5.6587705837e+00 -2.1062605498e-04 2.8365577718e+00 -4.9130621794e+00 2.8365577718e+00 4.9130621794e+00 
155900 5.6587705802e+00 -2.0996136162e-04 2.8365614845e+00 -4.9130686100e+00 2.8365614845e+00 4.9130686100e+00 
156000 5.6587705767e+00 -2.0929877082e-04 2.8365651855e+00 -4.9130750203e+00 2.8365651855e+00 4.9130750203e+00 
156100 5.6587705733e+00 -2.0863827591e-04 2.8365688748e+00 -4.9130814103e+00 2.8365688748e+00 4.9130814103e+00 
156200 5.6587705699e+00 -2.0797987024e-04 2.8365725525e+00 -4.9130877802e+00 2.8365725525e+00 4.9130877802e+00 
156300 5.6587705665e+00 -2.0732354717e-04 2.8365762185e+00 -4.9130941300e+00 2.8365762185e+00 4.9130941300e+00 
156400 5.6587705631e+00 -2.0666930010e-04 2.8365798730e+00 -4.9131004597e+00 2.8365798730e+00 4.9131004597e+00 
156500 5.6587705597e+00 -2.0601712244e-04 2.8365835159e+00 -4.9131067695e+00 2.8365835159e+00 4.9131067695e+00 
156600 5.6587705564e+00 -2.0536700763e-04 2.8365871473e+00 -4.9131130593e+00 2.8365871473e+00 4.9131130593e+00 
156700 5.6587705531e+00 -2.0471894910e-04 2.8365907673e+00 -4.9131193293e+00 2.8365907673e+00 4.9131193293e+00 
156800 5.6587705498e+00 -2.0407294035e-04 2.8365943758e+00 -4.9131255794e+00 2.8365943758e+00 4.9131255794e+00 
156900 5.6587705465e+00 -2.0342897487e-04 2.8365979730e+00 -4.9131318099e+00 2.8365979730e+00 4.9131318099e+00 
157000 5.6587705433e+00 -2.0278704616e-04 2.8366015588e+00 -4.9131380207e+00 2.8366015588e+00 4.9131380207e+00 
157100 5.6587705401e+00 -2.0214714777e-04 2.8366051333e+00 -4.9131442118e+00 2.8366051333e+00 4.9131442118e+00 
157200 5.6587705369e+00 -2.0150927326e-04 2.8366086965e+00 -4.9131503834e+00 2.8366086965e+00 4.9131503834e+00 
157300 5.6587705337e+00 -2.0087341620e-04 2.8366122484e+00 -4.9131565356e+00 2.8366122484e+00 4.9131565356e+00 
157400 5.6587705305e+00 -2.0023957019e-04 2.8366157891e+00 -4.9131626683e+00 2.8366157891e+00 4.9131626683e+00 
157500 5.6587705273e+00 -1.9960772885e-04 2.8366193187e+00 -4.9131687817e+00 2.8366193187e+00 4.9131687817e+00 
157600 5.6587705242e+00 -1.9897788582e-04 2.8366228371e+00 -4.9131748757e+00 2.8366228371e+00 4.9131748757e+00 
157700 5.6587705211e+00 -1.9835003476e-04 2.8366263444e+00 -4.9131809506e+00 2.8366263444e+00 4.9131809506e+00 
157800 5.6587705180e+00 -1.9772416934e-04 2.8366298406e+00 -4.9131870062e+00 2.8366298406e+00 4.9131870062e+00 
157900 5.6587705150e+00 -1.9710028327e-04 2.8366333258e+00 -4.9131930427e+00 2.8366333258e+00 4.9131930427e+00 
158000 5.6587705119e+00 -1.9647837026e-04 2.8366368000e+00 -4.9131990602e+00 2.8366368000e+00 4.9131990602e+00 
158100 5.6587705089e+00 -1.9585842405e-04 2.8366402632e+00 -4.9132050587e+00 2.8366402632e+00 4.9132050587e+00 
158200 5.6587705059e+00 -1.9524043841e-04 2.8366437155e+00 -4.9132110383e+00 2.8366437155e+00 4.9132110383e+00 
158300 5.6587705029e+00 -1.9462440712e-04 2.8366471569e+00 -4.9132169989e+00 2.8366471569e+00 4.9132169989e+00 
158400 5.6587704999e+00 -1.9401032396e-04 2.8366505875e+00 -4.9132229408e+00 2.8366505875e+00 4.9132229408e+00 
158500 5.6587704969e+00 -1.9339818277e-04 2.8366540072e+00 -4.9132288639e+00 2.8366540072e+00 4.9132288639e+00 
158600 5.6587704940e+00 -1.9278797737e-04 2.8366574161e+00 -4.9132347683e+00 2.8366574161e+00 4.9132347683e+00 
158700 5.6587704911e+00 -1.9217970163e-04 2.8366608142e+00 -4.9132406541e+00 2.8366608142e+00 4.9132406541e+00 
158800 5.6587704882e+00 -1.9157334943e-04 2.8366642017e+00 -4.9132465213e+00 2.8366642017e+00 4.9132465213e+00 
158900 5.6587704853e+00 -1.9096891466e-04 2.8366675784e+00 -4.9132523700e+00 2.8366675784e+00 4.9132523700e+00 
159000 5.6587704824e+00 -1.9036639124e-04 2.8366709445e+00 -4.9132582002e+00 2.8366709445e+00 4.9132582002e+00 
159100 5.6587704796e+00 -1.8976577310e-04 2.8366742999e+00 -4.9132640120e+00 2.8366742999e+00 4.9132640120e+00 
159200 5.6587704768e+00 -1.8916705420e-04 2.8366776448e+00 -4.9132698055e+00 2.8366776448e+00 4.9132698055e+00 
159300 5.6587704739e+00 -1.8857022851e-04 2.8366809791e+00 -4.9132755807e+00 2.8366809791e+00 4.9132755807e+00 
159400 5.6587704712e+00 -1.8797529004e-04 2.8366843029e+00 -4.9132813377e+00 2.8366843029e+00 4.9132813377e+00 
159500 5.6587704684e+00 -1.8738223278e-04 2.8366876162e+00 -4.9132870764e+00 2.8366876162e+00 4.9132870764e+00 
159600 5.6587704656e+00 -1.8679105077e-04 2.8366909190e+00 -4.9132927971e+00 2.8366909190e+00 4.9132927971e+00 
159700 5.6587704629e+00 -1.8620173807e-04 2.8366942114e+00 -4.9132984998e+00 2.8366942114e+00 4.9132984998e+00 
159800 5.6587704602e+00 -1.8561428874e-04 2.8366974935e+00 -4.9133041844e+00 2.8366974935e+00 4.9133041844e+00 
159900 5.6587704575e+00 -1.8502869687e-04 2.8367007651e+00 -4.9133098511e+00 2.8367007651e+00 4.9133098511e+00 
160000 5.6587704548e+00 -1.8444495657e-04 2.8367040265e+00 -4.9133154999e+00 2.8367040265e+00 4.9133154999e+00 
160100 5.6587704521e+00 -1.8386306197e-04 2.8367072775e+00 -4.9133211308e+00 2.8367072775e+00 4.9133211308e+00 
160200 5.6587704494e+00 -1.8328300720e-04 2.8367105183e+00 -4.9133267440e+00 2.8367105183e+00 4.9133267440e+00 
160300 5.6587704468e+00 -1.8270478644e-04 2.8367137488e+00 -4.9133323395e+00 2.8367137488e+00 4.9133323395e+00 
160400 5.6587704442e+00 -1.8212839387e-04 2.8367169692e+00 -4.9133379174e+00 2.8367169692e+00 4.9133379174e+00 
160500 5.6587704416e+00 -1.8155382367e-04 2.8367201794e+00 -4.9133434776e+00 2.8367201794e+00 4.9133434776e+00 
160600 5.6587704390e+00 -1.8098107009e-04 2.8367233795e+00 -4.9133490203e+00 2.8367233795e+00 4.9133490203e+00 
160700 5.6587704364e+00 -1.8041012735e-04 2.8367265694e+00 -4.9133545454e+00 2.8367265694e+00 4.9133545454e+00 
160800 5.6587704338e+00 -1.7984098971e-04 2.8367297493e+00 -4.9133600532e+00 2.8367297493e+00 4.9133600532e+00 
160900 5.6587704313e+00 -1.7927365144e-04 2.8367329192e+00 -4.9133655436e+00 2.8367329192e+00 4.9133655436e+00 
161000 5.6587704288e+00 -1.7870810683e-04 2.8367360791e+00 -4.9133710166e+00 2.8367360791e+00 4.9133710166e+00 
161100 5.6587704263e+00 -1.7814435020e-04 2.8367392290e+00 -4.9133764724e+00 2.8367392290e+00 4.9133764724e+00 
161200 5.6587704238e+00 -1.7758237588e-04 2.8367423689e+00 -4.9133819109e+00 2.8367423689e+00 4.9133819109e+00 
161300 5.6587704213e+00 -1.7702217821e-04 2.8367454989e+00 -4.9133873323e+00 2.8367454989e+00 4.9133873323e+00 
161400 5.6587704188e+00 -1.7646375155e-04 2.8367486191e+00 -4.9133927366e+00 2.8367486191e+00 4.9133927366e+00 
161500 5.6587704164e+00 -1.7590709029e-04 2.8367517294e+00 -4.9133981238e+00 2.8367517294e+00 4.9133981238e+00 
161600 5.6587704140e+00 -1.7535218884e-04 2.8367548299e+00 -4.9134034941e+00 2.8367548299e+00 4.9134034941e+00 
161700 5.6587704115e+00 -1.7479904159e-04 2.8367579206e+00 -4.9134088473e+00 2.8367579206e+00 4.9134088473e+00 
161800 5.6587704091e+00 -1.7424764301e-04 2.8367610016e+00 -4.9134141837e+00 2.8367610016e+00 4.9134141837e+00 
161900 5.6587704068e+00 -1.7369798753e-04 2.8367640729e+00 -4.9134195033e+00 2.8367640729e+00 4.9134195033e+00 
162000 5.6587704044e+00 -1.7315006963e-04 2.8367671344e+00 -4.9134248060e+00 2.8367671344e+00 4.9134248060e+00 
162100 5.6587704020e+00 -1.7260388380e-04 2.8367701863e+00 -4.9134300921e+00 2.8367701863e+00 4.9134300921e+00 
162200 5.6587703997e+00 -1.7205942454e-04 2.8367732286e+00 -4.9134353614e+00 2.8367732286e+00 4.9134353614e+00 
162300 5.6587703974e+00 -1.7151668638e-04 2.8367762612e+00 -4.9134406141e+00 2.8367762612e+00 4.9134406141e+00 
162400 5.6587703950e+00 -1.7097566387e-04 2.8367792843e+00 -4.9134458503e+00 2.8367792843e+00 4.9134458503e+00 
162500 5.6587703927e+00 -1.7043635155e-04 2.8367822979e+00 -4.9134510699e+00 2.8367822979e+00 4.9134510699e+00 
162600 5.6587703905e+00 -1.6989874401e-04 2.8367853019e+00 -4.9134562731e+00 2.8367853019e+00 4.9134562731e+00 
162700 5.6587703882e+00 -1.6936283584e-04 2.8367882965e+00 -4.9134614598e+00 2.8367882965e+00 4.9134614598e+00 
162800 5.6587703859e+00 -1.6882862165e-04 2.8367912816e+00 -4.9134666302e+00 2.8367912816e+00 4.9134666302e+00 
162900 5.6587703837e+00 -1.6829609606e-04 2.8367942573e+00 -4.9134717842e+00 2.8367942573e+00 4.9134717842e+00 
163000 5.6587703815e+00 -1.6776525373e-04 2.8367972236e+00 -4.9134769220e+00 2.8367972236e+00 4.9134769220e+00 
163100 5.6587703793e+00 -1.6723608932e-04 2.8368001805e+00 -4.9134820436e+00 2.8368001805e+00 4.9134820436e+00 
163200 5.6587703771e+00 -1.6670859750e-04 2.8368031282e+00 -4.9134871491e+00 2.8368031282e+00 4.9134871491e+00 
163300 5.6587703749e+00 -1.6618277297e-04 2.8368060665e+00 -4.9134922384e+00 2.8368060665e+00 4.9134922384e+00 
163400 5.6587703727e+00 -1.6565861045e-04 2.8368089955e+00 -4.9134973116e+00 2.8368089955e+00 4.9134973116e+00 
163500 5.6587703706e+00 -1.6513610465e-04 2.8368119153e+00 -4.9135023689e+00 2.8368119153e+00 4.9135023689e+00 
163600 5.6587703684e+00 -1.6461525034e-04 2.8368148259e+00 -4.9135074102e+00 2.8368148259e+00 4.9135074102e+00 
163700 5.6587703663e+00 -1.6409604227e-04 2.8368177273e+00 -4.9135124356e+00 2.8368177273e+00 4.9135124356e+00 
163800 5.6587703642e+00 -1.6357847522e-04 2.8368206196e+00 -4.9135174451e+00 2.8368206196e+00 4.9135174451e+00 
163900 5.6587703621e+00 -1.6306254400e-04 2.8368235027e+00 -4.9135224388e+00 2.8368235027e+00 4.9135224388e+00 
164000 5.6587703600e+00 -1.6254824340e-04 2.8368263768e+00 -4.9135274168e+00 2.8368263768e+00 4.9135274168e+00 
164100 5.6587703579e+00 -1.6203556827e-04 2.8368292417e+00 -4.9135323791e+00 2.8368292417e+00 4.9135323791e+00 
164200 5.6587703558e+00 -1.6152451344e-04 2.8368320977e+00 -4.9135373257e+00 2.8368320977e+00 4.9135373257e+00 
164300 5.6587703538e+00 -1.6101507379e-04 2.8368349446e+00 -4.9135422567e+00 2.8368349446e+00 4.9135422567e+00 
164400 5.6587703517e+00 -1.6050724418e-04 2.8368377825e+00 -4.9135471721e+00 2.8368377825e+00 4.9135471721e+00 
164500 5.6587703497e+00 -1.6000101952e-04 2.8368406115e+00 -4.9135520721e+00 2.8368406115e+00 4.9135520721e+00 
164600 5.6587703477e+00 -1.5949639472e-04 2.8368434316e+00 -4.9135569566e+00 2.8368434316e+00 4.9135569566e+00 
164700 5.6587703457e+00 -1.5899336470e-04 2.8368462427e+00 -4.9135618256e+00 2.8368462427e+00 4.9135618256e+00 
164800 5.6587703437e+00 -1.5849192440e-04 2.8368490450e+00 -4.9135666793e+00 2.8368490450e+00 4.9135666793e+00 
164900 5.6587703417e+00 -1.5799206880e-04 2.8368518385e+00 -4.9135715177e+00 2.8368518385e+00 4.9135715177e+00 
165000 5.6587703398e+00 -1.5749379285e-04 2.8368546231e+00 -4.9135763409e+00 2.8368546231e+00 4.9135763409e+00 
165100 5.6587703378e+00 -1.5699709156e-04 2.8368573989e+00 -4.9135811488e+00 2.8368573989e+00 4.9135811488e+00 
165200 5.6587703359e+00 -1.5650195993e-04 2.8368601660e+00 -4.9135859415e+00 2.8368601660e+00 4.9135859415e+00 
165300 5.6587703340e+00 -1.5600839299e-04 2.8368629244e+00 -4.9135907192e+00 2.8368629244e+00 4.9135907192e+00 
165400 5.6587703320e+00 -1.5551638578e-04 2.8368656741e+00 -4.9135954817e+00 2.8368656741e+00 4.9135954817e+00 
165500 5.6587703301e+00 -1.5502593334e-04 2.8368684151e+00 -4.9136002293e+00 2.8368684151e+00 4.9136002293e+00 
165600 5.6587703282e+00 -1.5453703076e-04 2.8368711474e+00 -4.9136049618e+00 2.8368711474e+00 4.9136049618e+00 
165700 5.6587703264e+00 -1.5404967311e-04 2.8368738711e+00 -4.9136096795e+00 2.8368738711e+00 4.9136096795e+00 
165800 5.6587703245e+00 -1.5356385551e-04 2.8368765863e+00 -4.9136143822e+00 2.8368765863e+00 4.9136143822e+00 
165900 5.6587703226e+00 -1.5307957307e-04 2.8368792928e+00 -4.9136190701e+00 2.8368792928e+00 4.9136190701e+00 
166000 5.6587703208e+00 -1.5259682092e-04 2.8368819909e+00 -4.9136237432e+00 2.8368819909e+00 4.9136237432e+00 
166100 5.6587703190e+00 -1.5211559421e-04 2.8368846804e+00 -4.9136284016e+00 2.8368846804e+00 4.9136284016e+00 
166200 5.6587703172e+00 -1.5163588810e-04 2.8368873614e+00 -4.9136330453e+00 2.8368873614e+00 4.9136330453e+00 
166300 5.6587703153e+00 -1.5115769779e-04 2.8368900340e+00 -4.9136376743e+00 2.8368900340e+00 4.9136376743e+00 
166400 5.6587703135e+00 -1.5068101845e-04 2.8368926981e+00 -4.9136422888e+00 2.8368926981e+00 4.9136422888e+00 
166500 5.6587703118e+00 -1.5020584530e-04 2.8368953539e+00 -4.9136468886e+00 2.8368953539e+00 4.9136468886e+00 
166600 5.6587703100e+00 -1.4973217358e-04 2.8368980012e+00 -4.9136514740e+00 2.8368980012e+00 4.9136514740e+00 
166700 5.6587703082e+00 -1.4925999851e-04 2.8369006402e+00 -4.9136560449e+00 2.8369006402e+00 4.9136560449e+00 
166800 5.6587703065e+00 -1.4878931535e-04 2.8369032709e+00 -4.9136606014e+00 2.8369032709e+00 4.9136606014e+00 
166900 5.6587703047e+00 -1.4832011938e-04 2.8369058933e+00 -4.9136651435e+00 2.8369058933e+00 4.9136651435e+00 
167000 5.6587703030e+00 -1.4785240589e-04 2.8369085074e+00 -4.9136696713e+00 2.8369085074e+00 4.9136696713e+00 
167100 5.6587703013e+00 -1.4738617016e-04 2.8369111133e+00 -4.9136741848e+00 2.8369111133e+00 4.9136741848e+00 
167200 5.6587702996e+00 -1.4692140752e-04 2.8369137110e+00 -4.9136786841e+00 2.8369137110e+00 4.9136786841e+00 
167300 5.6587702979e+00 -1.4645811331e-04 2.8369163004e+00 -4.9136831691e+00 2.8369163004e+00 4.9136831691e+00 
167400 5.6587702962e+00 -1.4599628286e-04 2.8369188817e+00 -4.9136876401e+00 2.8369188817e+00 4.9136876401e+00 
167500 5.6587702945e+00 -1.4553591154e-04 2.8369214549e+00 -4.9136920969e+00 2.8369214549e+00 4.9136920969e+00 
167600 5.6587702928e+00 -1.4507699471e-04 2.8369240199e+00 -4.9136965397e+00 2.8369240199e+00 4.9136965397e+00 
167700 5.6587702912e+00 -1.4461952779e-04 2.8369265768e+00 -4.9137009684e+00 2.8369265768e+00 4.9137009684e+00 
167800 5.6587702895e+00 -1.4416350616e-04 2.8369291257e+00 -4.9137053832e+00 2.8369291257e+00 4.9137053832e+00 
167900 5.6587702879e+00 -1.4370892524e-04 2.8369316665e+00 -4.9137097841e+00 2.8369316665e+00 4.9137097841e+00 
168000 5.6587702863e+00 -1.4325578048e-04 2.8369341994e+00 -4.9137141710e+00 2.8369341994e+00 4.9137141710e+00 
168100 5.6587702847e+00 -1.4280406731e-04 2.8369367242e+00 -4.9137185442e+00 2.8369367242e+00 4.9137185442e+00 
168200 5.6587702831e+00 -1.4235378121e-04 2.8369392411e+00 -4.9137229035e+00 2.8369392411e+00 4.9137229035e+00 
168300 5.6587702815e+00 -1.4190491765e-04 2.8369417500e+00 -4.9137272491e+00 2.8369417500e+00 4.9137272491e+00 
168400 5.6587702799e+00 -1.4145747213e-04 2.8369442510e+00 -4.9137315810e+00 2.8369442510e+00 4.9137315810e+00 
168500 5.6587702783e+00 -1.4101144014e-04 2.8369467442e+00 -4.9137358993e+00 2.8369467442e+00 4.9137358993e+00 
168600 5.6587702767e+00 -1.4056681721e-04 2.8369492294e+00 -4.9137402039e+00 2.8369492294e+00 4.9137402039e+00 
168700 5.6587702752e+00 -1.4012359887e-04 2.8369517069e+00 -4.9137444949e+00 2.8369517069e+00 4.9137444949e+00 
168800 5.6587702736e+00 -1.3968178068e-04 2.8369541765e+00 -4.9137487724e+00 2.8369541765e+00 4.9137487724e+00 
168900 5.6587702721e+00 -1.3924135819e-04 2.8369566383e+00 -4.9137530364e+00 2.8369566383e+00 4.9137530364e+00 
169000 5.6587702706e+00 -1.3880232699e-04 2.8369590924e+00 -4.9137572870e+00 2.8369590924e+00 4.9137572870e+00 
169100 5.6587702691e+00 -1.3836468266e-04 2.8369615387e+00 -4.9137615241e+00 2.8369615387e+00 4.9137615241e+00 
169200 5.6587702676e+00 -1.3792842081e-04 2.8369639773e+00 -4.9137657479e+00 2.8369639773e+00 4.9137657479e+00 
169300 5.6587702661e+00 -1.3749353707e-04 2.8369664082e+00 -4.9137699584e+00 2.8369664082e+00 4.9137699584e+00 
169400 5.6587702646e+00 -1.3706002705e-04 2.8369688315e+00 -4.9137741556e+00 2.8369688315e+00 4.9137741556e+00 
169500 5.6587702631e+00 -1.3662788642e-04 2.8369712471e+00 -4.9137783395e+00 2.8369712471e+00 4.9137783395e+00 
169600 5.6587702616e+00 -1.3619711083e-04 2.8369736551e+00 -4.9137825103e+00 2.8369736551e+00 4.9137825103e+00 
169700 5.6587702602e+00 -1.3576769595e-04 2.8369760555e+00 -4.9137866679e+00 2.8369760555e+00 4.9137866679e+00 
169800 5.6587702587e+00 -1.3533963748e-04 2.8369784483e+00 -4.9137908124e+00 2.8369784483e+00 4.9137908124e+00 
169900 5.6587702573e+00 -1.3491293112e-04 2.8369808336e+00 -4.9137949438e+00 2.8369808336e+00 4.9137949438e+00 
170000 5.6587702558e+00 -1.3448757258e-04 2.8369832113e+00 -4.9137990622e+00 2.8369832113e+00 4.9137990622e+00 
170100 5.6587702544e+00 -1.3406355760e-04 2.8369855816e+00 -4.9138031676e+00 2.8369855816e+00 4.9138031676e+00 
170200 5.6587702530e+00 -1.3364088191e-04 2.8369879444e+00 -4.9138072601e+00 2.8369879444e+00 4.9138072601e+00 
170300 5.6587702516e+00 -1.3321954127e-04 2.8369902997e+00 -4.9138113396e+00 2.8369902997e+00 4.9138113396e+00 
170400 5.6587702502e+00 -1.3279953146e-04 2.8369926476e+00 -4.9138154063e+00 2.8369926476e+00 4.9138154063e+00 
170500 5.6587702488e+00 -1.3238084826e-04 2.8369949881e+00 -4.9138194602e+00 2.8369949881e+00 4.9138194602e+00 
170600 5.6587702474e+00 -1.3196348746e-04 2.8369973212e+00 -4.9138235013e+00 2.8369973212e+00 4.9138235013e+00 
170700 5.6587702461e+00 -1.3154744488e-04 2.8369996470e+00 -4.9138275296e+00 2.8369996470e+00 4.9138275296e+00 
170800 5.6587702447e+00 -1.3113271634e-04 2.8370019654e+00 -4.9138315452e+00 2.8370019654e+00 4.9138315452e+00 
170900 5.6587702433e+00 -1.3071929767e-04 2.8370042765e+00 -4.9138355482e+00 2.8370042765e+00 4.9138355482e+00 
171000 5.6587702420e+00 -1.3030718473e-04 2.8370065803e+00 -4.9138395385e+00 2.8370065803e+00 4.9138395385e+00 
171100 5.6587702407e+00 -1.2989637338e-04 2.8370088769e+00 -4.9138435163e+00 2.8370088769e+00 4.9138435163e+00 
171200 5.6587702393e+00 -1.2948685950e-04 2.8370111662e+00 -4.9138474815e+00 2.8370111662e+00 4.9138474815e+00 
171300 5.6587702380e+00 -1.2907863898e-04 2.8370134483e+00 -4.9138514342e+00 2.8370134483e+00 4.9138514342e+00 
171400 5.6587702367e+00 -1.2867170771e-04 2.8370157232e+00 -4.9138553745e+00 2.8370157232e+00 4.9138553745e+00 
171500 5.6587702354e+00 -1.2826606162e-04 2.8370179909e+00 -4.9138593023e+00 2.8370179909e+00 4.9138593023e+00 
171600 5.6587702341e+00 -1.2786169664e-04 2.8370202515e+00 -4.9138632177e+00 2.8370202515e+00 4.9138632177e+00 
171700 5.6587702328e+00 -1.2745860871e-04 2.8370225050e+00 -4.9138671208e+00 2.8370225050e+00 4.9138671208e+00 
171800 5.6587702315e+00 -1.2705679378e-04 2.8370247513e+00 -4.9138710116e+00 2.8370247513e+00 4.9138710116e+00 
171900 5.6587702303e+00 -1.2665624781e-04 2.8370269906e+00 -4.9138748901e+00 2.8370269906e+00 4.9138748901e+00 
172000 5.6587702290e+00 -1.2625696680e-04 2.8370292228e+00 -4.9138787564e+00 2.8370292228e+00 4.9138787564e+00 
172100 5.6587702277e+00 -1.2585894674e-04 2.8370314479e+00 -4.9138826105e+00 2.8370314479e+00 4.9138826105e+00 
172200 5.6587702265e+00 -1.2546218362e-04 2.8370336661e+00 -4.9138864524e+00 2.8370336661e+00 4.9138864524e+00 
172300 5.6587702253e+00 -1.2506667347e-04 2.8370358772e+00 -4.9138902823e+00 2.8370358772e+00 4.9138902823e+00 
172400 5.6587702240e+00 -1.2467241232e-04 2.8370380814e+00 -4.9138941000e+00 2.8370380814e+00 4.9138941000e+00 
172500 5.6587702228e+00 -1.2427939622e-04 2.8370402786e+00 -4.9138979057e+00 2.8370402786e+00 4.9138979057e+00 
172600 5.6587702216e+00 -1.2388762121e-04 2.8370424689e+00 -4.9139016994e+00 2.8370424689e+00 4.9139016994e+00 
172700 5.6587702204e+00 -1.2349708338e-04 2.8370446523e+00 -4.9139054812e+00 2.8370446523e+00 4.9139054812e+00 
172800 5.6587702192e+00 -1.2310777880e-04 2.8370468288e+00 -4.9139092510e+00 2.8370468288e+00 4.9139092510e+00 
172900 5.6587702180e+00 -1.2271970356e-04 2.8370489985e+00 -4.9139130090e+00 2.8370489985e+00 4.9139130090e+00 
173000 5.6587702168e+00 -1.2233285378e-04 2.8370511613e+00 -4.9139167550e+00 2.8370511613e+00 4.9139167550e+00 
173100 5.6587702156e+00 -1.2194722557e-04 2.8370533173e+00 -4.9139204893e+00 2.8370533173e+00 4.9139204893e+00 
173200 5.6587702144e+00 -1.2156281506e-04 2.8370554665e+00 -4.9139242118e+00 2.8370554665e+00 4.9139242118e+00 
173300 5.6587702133e+00 -1.2117961840e-04 2.8370576089e+00 -4.9139279226e+00 2.8370576089e+00 4.9139279226e+00 
173400 5.6587702121e+00 -1.2079763175e-04 2.8370597445e+00 -4.9139316217e+00 2.8370597445e+00 4.9139316217e+00 
173500 5.6587702110e+00 -1.2041685126e-04 2.8370618735e+00 -4.9139353091e+00 2.8370618735e+00 4.9139353091e+00 
173600 5.6587702098e+00 -1.2003727312e-04 2.8370639957e+00 -4.9139389848e+00 2.8370639957e+00 4.9139389848e+00 
173700 5.6587702087e+00 -1.1965889353e-04 2.8370661112e+00 -4.9139426490e+00 2.8370661112e+00 4.9139426490e+00 
173800 5.6587702076e+00 -1.1928170869e-04 2.8370682200e+00 -4.9139463017e+00 2.8370682200e+00 4.9139463017e+00 
173900 5.6587702065e+00 -1.1890571481e-04 2.8370703222e+00 -4.9139499428e+00 2.8370703222e+00 4.9139499428e+00 
174000 5.6587702053e+00 -1.1853090812e-04 2.8370724178e+00 -4.9139535724e+00 2.8370724178e+00 4.9139535724e+00 
174100 5.6587702042e+00 -1.1815728487e-04 2.8370745068e+00 -4.9139571906e+00 2.8370745068e+00 4.9139571906e+00 
174200 5.6587702031e+00 -1.1778484131e-04 2.8370765892e+00 -4.9139607974e+00 2.8370765892e+00 4.9139607974e+00 
174300 5.6587702020e+00 -1.1741357369e-04 2.8370786650e+00 -4.9139643928e+00 2.8370786650e+00 4.9139643928e+00 
174400 5.6587702010e+00 -1.1704347831e-04 2.8370807342e+00 -4.9139679769e+00 2.8370807342e+00 4.9139679769e+00 
174500 5.6587701999e+00 -1.1667455144e-04 2.8370827970e+00 -4.9139715497e+00 2.8370827970e+00 4.9139715497e+00 
174600 5.6587701988e+00 -1.1630678939e-04 2.8370848532e+00 -4.9139751112e+00 2.8370848532e+00 4.9139751112e+00 
174700 5.6587701977e+00 -1.1594018846e-04 2.8370869030e+00 -4.9139786615e+00 2.8370869030e+00 4.9139786615e+00 
174800 5.6587701967e+00 -1.1557474499e-04 2.8370889463e+00 -4.9139822006e+00 2.8370889463e+00 4.9139822006e+00 
174900 5.6587701956e+00 -1.1521045530e-04 2.8370909831e+00 -4.9139857285e+00 2.8370909831e+00 4.9139857285e+00 
175000 5.6587701946e+00 -1.1484731574e-04 2.8370930136e+00 -4.9139892453e+00 2.8370930136e+00 4.9139892453e+00 
175100 5.6587701935e+00 -1.1448532268e-04 2.8370950376e+00 -4.9139927510e+00 2.8370950376e+00 4.9139927510e+00 
175200 5.6587701925e+00 -1.1412447249e-04 2.8370970553e+00 -4.9139962457e+00 2.8370970553e+00 4.9139962457e+00 
175300 5.6587701915e+00 -1.1376476153e-04 2.8370990666e+00 -4.9139997294e+00 2.8370990666e+00 4.9139997294e+00 
175400 5.6587701905e+00 -1.1340618621e-04 2.8371010715e+00 -4.9140032020e+00 2.8371010715e+00 4.9140032020e+00 
175500 5.6587701894e+00 -1.1304874293e-04 2.8371030701e+00 -4.9140066638e+00 2.8371030701e+00 4.9140066638e+00 
175600 5.6587701884e+00 -1.1269242812e-04 2.8371050625e+00 -4.9140101146e+00 2.8371050625e+00 4.9140101146e+00 
175700 5.6587701874e+00 -1.1233723818e-04 2.8371070485e+00 -4.9140135545e+00 2.8371070485e+00 4.9140135545e+00 
175800 5.6587701864e+00 -1.1198316957e-04 2.8371090283e+00 -4.9140169836e+00 2.8371090283e+00 4.9140169836e+00 
175900 5.6587701855e+00 -1.1163021873e-04 2.8371110018e+00 -4.9140204019e+00 2.8371110018e+00 4.9140204019e+00 
176000 5.6587701845e+00 -1.1127838213e-04 2.8371129692e+00 -4.9140238094e+00 2.8371129692e+00 4.9140238094e+00 
176100 5.6587701835e+00 -1.1092765624e-04 2.8371149303e+00 -4.9140272061e+00 2.8371149303e+00 4.9140272061e+00 
176200 5.6587701825e+00 -1.1057803754e-04 2.8371168852e+00 -4.9140305922e+00 2.8371168852e+00 4.9140305922e+00 
176300 5.6587701816e+00 -1.1022952253e-04 2.8371188340e+00 -4.9140339676e+00 2.8371188340e+00 4.9140339676e+00 
176400 5.6587701806e+00 -1.0988210771e-04 2.8371207766e+00 -4.9140373323e+00 2.8371207766e+00 4.9140373323e+00 
176500 5.6587701797e+00 -1.0953578960e-04 2.8371227131e+00 -4.9140406864e+00 2.8371227131e+00 4.9140406864e+00 
176600 5.6587701787e+00 -1.0919056473e-04 2.8371246435e+00 -4.9140440300e+00 2.8371246435e+00 4.9140440300e+00 
176700 5.6587701778e+00 -1.0884642963e-04 2.8371265678e+00 -4.9140473630e+00 2.8371265678e+00 4.9140473630e+00 
176800 5.6587701768e+00 -1.0850338087e-04 2.8371284861e+00 -4.9140506855e+00 2.8371284861e+00 4.9140506855e+00 
176900 5.6587701759e+00 -1.0816141500e-04 2.8371303983e+00 -4.9140539976e+00 2.8371303983e+00 4.9140539976e+00 
177000 5.6587701750e+00 -1.0782052858e-04 2.8371323045e+00 -4.9140572992e+00 2.8371323045e+00 4.9140572992e+00 
177100 5.6587701741e+00 -1.0748071822e-04 2.8371342046e+00 -4.9140605903e+00 2.8371342046e+00 4.9140605903e+00 
177200 5.6587701732e+00 -1.0714198049e-04 2.8371360988e+00 -4.9140638712e+00 2.8371360988e+00 4.9140638712e+00 
177300 5.6587701723e+00 -1.0680431201e-04 2.8371379870e+00 -4.9140671416e+00 2.8371379870e+00 4.9140671416e+00 
177400 5.6587701714e+00 -1.0646770939e-04 2.8371398693e+00 -4.9140704018e+00 2.8371398693e+00 4.9140704018e+00 
177500 5.6587701705e+00 -1.0613216925e-04 2.8371417456e+00 -4.9140736517e+00 2.8371417456e+00 4.9140736517e+00 
177600 5.6587701696e+00 -1.0579768824e-04 2.8371436160e+00 -4.9140768913e+00 2.8371436160e+00 4.9140768913e+00 
177700 5.6587701687e+00 -1.0546426300e-04 2.8371454805e+00 -4.9140801207e+00 2.8371454805e+00 4.9140801207e+00 
177800 5.6587701678e+00 -1.0513189018e-04 2.8371473392e+00 -4.9140833400e+00 2.8371473392e+00 4.9140833400e+00 
177900 5.6587701670e+00 -1.0480056647e-04 2.8371491919e+00 -4.9140865491e+00 2.8371491919e+00 4.9140865491e+00 
178000 5.6587701661e+00 -1.0447028854e-04 2.8371510389e+00 -4.9140897481e+00 2.8371510389e+00 4.9140897481e+00 
178100 5.6587701652e+00 -1.0414105308e-04 2.8371528800e+00 -4.9140929370e+00 2.8371528800e+00 4.9140929370e+00 
178200 5.6587701644e+00 -1.0381285678e-04 2.8371547153e+00 -4.9140961158e+00 2.8371547153e+00 4.9140961158e+00 
178300 5.6587701635e+00 -1.0348569637e-04 2.8371565448e+00 -4.9140992846e+00 2.8371565448e+00 4.9140992846e+00 
178400 5.6587701627e+00 -1.0315956856e-04 2.8371583686e+00 -4.9141024435e+00 2.8371583686e+00 4.9141024435e+00 
178500 5.6587701618e+00 -1.0283447009e-04 2.8371601866e+00 -4.9141055924e+00 2.8371601866e+00 4.9141055924e+00 
178600 5.6587701610e+00 -1.0251039769e-04 2.8371619989e+00 -4.9141087313e+00 2.8371619989e+00 4.9141087313e+00 
178700 5.6587701602e+00 -1.0218734813e-04 2.8371638054e+00 -4.9141118604e+00 2.8371638054e+00 4.9141118604e+00 
178800 5.6587701594e+00 -1.0186531815e-04 2.8371656063e+00 -4.9141149796e+00 2.8371656063e+00 4.9141149796e+00 
178900 5.6587701585e+00 -1.0154430455e-04 2.8371674015e+00 -4.9141180890e+00 2.8371674015e+00 4.9141180890e+00 
179000 5.6587701577e+00 -1.0122430409e-04 2.8371691910e+00 -4.9141211885e+00 2.8371691910e+00 4.9141211885e+00 
179100 5.6587701569e+00 -1.0090531358e-04 2.8371709749e+00 -4.9141242783e+00 2.8371709749e+00 4.9141242783e+00 
179200 5.6587701561e+00 -1.0058732982e-04 2.8371727532e+00 -4.9141273584e+00 2.8371727532e+00 4.9141273584e+00 
179300 5.6587701553e+00 -1.0027034962e-04 2.8371745259e+00 -4.9141304287e+00 2.8371745259e+00 4.9141304287e+00 
179400 5.6587701545e+00 -9.9954369810e-05 2.8371762929e+00 -4.9141334894e+00 2.8371762929e+00 4.9141334894e+00 
179500 5.6587701537e+00 -9.9639387222e-05 2.8371780545e+00 -4.9141365404e+00 2.8371780545e+00 4.9141365404e+00 
179600 5.6587701530e+00 -9.9325398700e-05 2.8371798104e+00 -4.9141395819e+00 2.8371798104e+00 4.9141395819e+00 
179700 5.6587701522e+00 -9.9012401099e-05 2.8371815608e+00 -4.9141426137e+00 2.8371815608e+00 4.9141426137e+00 
179800 5.6587701514e+00 -9.8700391283e-05 2.8371833058e+00 -4.9141456360e+00 2.8371833058e+00 4.9141456360e+00 
179900 5.6587701506e+00 -9.8389366129e-05 2.8371850452e+00 -4.9141486487e+00 2.8371850452e+00 4.9141486487e+00 
180000 5.6587701499e+00 -9.8079322519e-05 2.8371867791e+00 -4.9141516519e+00 2.8371867791e+00 4.9141516519e+00 
180100 5.6587701491e+00 -9.7770257350e-05 2.8371885075e+00 -4.9141546457e+00 2.8371885075e+00 4.9141546457e+00 
180200 5.6587701484e+00 -9.7462167522e-05 2.8371902306e+00 -4.9141576301e+00 2.8371902306e+00 4.9141576301e+00 
180300 5.6587701476e+00 -9.7155049952e-05 2.8371919481e+00 -4.9141606050e+00 2.8371919481e+00 4.9141606050e+00 
180400 5.6587701469e+00 -9.6848901564e-05 2.8371936603e+00 -4.9141635706e+00 2.8371936603e+00 4.9141635706e+00 
180500 5.6587701461e+00 -9.6543719291e-05 2.8371953671e+00 -4.9141665268e+00 2.8371953671e+00 4.9141665268e+00 
180600 5.6587701454e+00 -9.6239500075e-05 2.8371970685e+00 -4.9141694737e+00 2.8371970685e+00 4.9141694737e+00 
180700 5.6587701447e+00 -9.5936240872e-05 2.8371987645e+00 -4.9141724113e+00 2.8371987645e+00 4.9141724113e+00 
180800 5.6587701439e+00 -9.5633938644e-05 2.8372004552e+00 -4.9141753397e+00 2.8372004552e+00 4.9141753397e+00 
180900 5.6587701432e+00 -9.5332590360e-05 2.8372021406e+00 -4.9141782588e+00 2.8372021406e+00 4.9141782588e+00 
181000 5.6587701425e+00 -9.5032193006e-05 2.8372038206e+00 -4.9141811687e+00 2.8372038206e+00 4.9141811687e+00 
181100 5.6587701418e+00 -9.4732743574e-05 2.8372054954e+00 -4.9141840695e+00 2.8372054954e+00 4.9141840695e+00 
181200 5.6587701411e+00 -9.4434239062e-05 2.8372071648e+00 -4.9141869611e+00 2.8372071648e+00 4.9141869611e+00 
181300 5.6587701404e+00 -9.4136676484e-05 2.8372088290e+00 -4.9141898436e+00 2.8372088290e+00 4.9141898436e+00 
181400 5.6587701397e+00 -9.3840052857e-05 2.8372104880e+00 -4.9141927170e+00 2.8372104880e+00 4.9141927170e+00 
181500 5.6587701390e+00 -9.3544365213e-05 2.8372121417e+00 -4.9141955813e+00 2.8372121417e+00 4.9141955813e+00 
181600 5.6587701383e+00 -9.3249610589e-05 2.8372137903e+00 -4.9141984367e+00 2.8372137903e+00 4.9141984367e+00 
181700 5.6587701376e+00 -9.2955786036e-05 2.8372154336e+00 -4.9142012830e+00 2.8372154336e+00 4.9142012830e+00 
181800 5.6587701369e+00 -9.2662888610e-05 2.8372170718e+00 -4.9142041204e+00 2.8372170718e+00 4.9142041204e+00 
181900 5.6587701362e+00 -9.2370915380e-05 2.8372187047e+00 -4.9142069488e+00 2.8372187047e+00 4.9142069488e+00 
182000 5.6587701356e+00 -9.2079863421e-05 2.8372203326e+00 -4.9142097683e+00 2.8372203326e+00 4.9142097683e+00 
182100 5.6587701349e+00 -9.1789729819e-05 2.8372219553e+00 -4.9142125789e+00 2.8372219553e+00 4.9142125789e+00 
182200 5.6587701342e+00 -9.1500511670e-05 2.8372235729e+00 -4.9142153807e+00 2.8372235729e+00 4.9142153807e+00 
182300 5.6587701336e+00 -9.1212206078e-05 2.8372251854e+00 -4.9142181736e+00 2.8372251854e+00 4.9142181736e+00 
182400 5.6587701329e+00 -9.0924810155e-05 2.8372267928e+00 -4.9142209578e+00 2.8372267928e+00 4.9142209578e+00 
182500 5.6587701323e+00 -9.0638321027e-05 2.8372283952e+00 -4.9142237331e+00 2.8372283952e+00 4.9142237331e+00 
182600 5.6587701316e+00 -9.0352735822e-05 2.8372299925e+00 -4.9142264997e+00 2.8372299925e+00 4.9142264997e+00 
182700 5.6587701310e+00 -9.0068051685e-05 2.8372315847e+00 -4.9142292576e+00 2.8372315847e+00 4.9142292576e+00 
182800 5.6587701303e+00 -8.9784265762e-05 2.8372331720e+00 -4.9142320068e+00 2.8372331720e+00 4.9142320068e+00 
182900 5.6587701297e+00 -8.9501375214e-05 2.8372347542e+00 -4.9142347474e+00 2.8372347542e+00 4.9142347474e+00 
183000 5.6587701291e+00 -8.9219377210e-05 2.8372363315e+00 -4.9142374793e+00 2.8372363315e+00 4.9142374793e+00 
183100 5.6587701284e+00 -8.8938268925e-05 2.8372379038e+00 -4.9142402025e+00 2.8372379038e+00 4.9142402025e+00 
183200 5.6587701278e+00 -8.8658047545e-05 2.8372394711e+00 -4.9142429173e+00 2.8372394711e+00 4.9142429173e+00 
183300 5.6587701272e+00 -8.8378710268e-05 2.8372410335e+00 -4.9142456234e+00 2.8372410335e+00 4.9142456234e+00 
183400 5.6587701266e+00 -8.8100254294e-05 2.8372425910e+00 -4.9142483210e+00 2.8372425910e+00 4.9142483210e+00 
183500 5.6587701260e+00 -8.7822676838e-05 2.8372441436e+00 -4.9142510102e+00 2.8372441436e+00 4.9142510102e+00 
183600 5.6587701254e+00 -8.7545975121e-05 2.8372456913e+00 -4.9142536908e+00 2.8372456913e+00 4.9142536908e+00 
183700 5.6587701248e+00 -8.7270146374e-05 2.8372472341e+00 -4.9142563630e+00 2.8372472341e+00 4.9142563630e+00 
183800 5.6587701242e+00 -8.6995187837e-05 2.8372487720e+00 -4.9142590268e+00 2.8372487720e+00 4.9142590268e+00 
183900 5.6587701236e+00 -8.6721096755e-05 2.8372503051e+00 -4.9142616822e+00 2.8372503051e+00 4.9142616822e+00 
184000 5.6587701230e+00 -8.6447870388e-05 2.8372518333e+00 -4.9142643292e+00 2.8372518333e+00 4.9142643292e+00 
184100 5.6587701224e+00 -8.6175506000e-05 2.8372533568e+00 -4.9142669679e+00 2.8372533568e+00 4.9142669679e+00 
184200 5.6587701218e+00 -8.5904000864e-05 2.8372548754e+00 -4.9142695983e+00 2.8372548754e+00 4.9142695983e+00 
184300 5.6587701212e+00 -8.5633352266e-05 2.8372563893e+00 -4.9142722204e+00 2.8372563893e+00 4.9142722204e+00 
184400 5.6587701206e+00 -8.5363557492e-05 2.8372578984e+00 -4.9142748342e+00 2.8372578984e+00 4.9142748342e+00 
184500 5.6587701201e+00 -8.5094613848e-05 2.8372594027e+00 -4.9142774398e+00 2.8372594027e+00 4.9142774398e+00 
184600 5.6587701195e+00 -8.4826518640e-05 2.8372609023e+00 -4.9142800371e+00 2.8372609023e+00 4.9142800371e+00 
184700 5.6587701189e+00 -8.4559269184e-05 2.8372623972e+00 -4.9142826263e+00 2.8372623972e+00 4.9142826263e+00 
184800 5.6587701184e+00 -8.4292862806e-05 2.8372638873e+00 -4.9142852073e+00 2.8372638873e+00 4.9142852073e+00 
184900 5.6587701178e+00 -8.4027296842e-05 2.8372653728e+00 -4.9142877802e+00 2.8372653728e+00 4.9142877802e+00 
185000 5.6587701172e+00 -8.3762568632e-05 2.8372668536e+00 -4.9142903450e+00 2.8372668536e+00 4.9142903450e+00 
185100 5.6587701167e+00 -8.3498675529e-05 2.8372683297e+00 -4.9142929017e+00 2.8372683297e+00 4.9142929017e+00 
185200 5.6587701161e+00 -8.3235614891e-05 2.8372698011e+00 -4.9142954504e+00 2.8372698011e+00 4.9142954504e+00 
185300 5.6587701156e+00 -8.2973384089e-05 2.8372712680e+00 -4.9142979910e+00 2.8372712680e+00 4.9142979910e+00 
185400 5.6587701151e+00 -8.2711980494e-05 2.8372727302e+00 -4.9143005236e+00 2.8372727302e+00 4.9143005236e+00 
185500 5.6587701145e+00 -8.2451401495e-05 2.8372741878e+00 -4.9143030482e+00 2.8372741878e+00 4.9143030482e+00 
185600 5.6587701140e+00 -8.2191644483e-05 2.8372756408e+00 -4.9143055649e+00 2.8372756408e+00 4.9143055649e+00 
185700 5.6587701134e+00 -8.1932706858e-05 2.8372770892e+00 -4.9143080736e+00 2.8372770892e+00 4.9143080736e+00 
185800 5.6587701129e+00 -8.1674586032e-05 2.8372785331e+00 -4.9143105745e+00 2.8372785331e+00 4.9143105745e+00 
185900 5.6587701124e+00 -8.1417279419e-05 2.8372799724e+00 -4.9143130675e+00 2.8372799724e+00 4.9143130675e+00 
186000 5.6587701119e+00 -8.1160784447e-05 2.8372814072e+00 -4.9143155526e+00 2.8372814072e+00 4.9143155526e+00 
186100 5.6587701113e+00 -8.0905098551e-05 2.8372828374e+00 -4.9143180298e+00 2.8372828374e+00 4.9143180298e+00 
186200 5.6587701108e+00 -8.0650219172e-05 2.8372842632e+00 -4.9143204993e+00 2.8372842632e+00 4.9143204993e+00 
186300 5.6587701103e+00 -8.0396143759e-05 2.8372856844e+00 -4.9143229610e+00 2.8372856844e+00 4.9143229610e+00 
186400 5.6587701098e+00 -8.0142869771e-05 2.8372871012e+00 -4.9143254149e+00 2.8372871012e+00 4.9143254149e+00 
186500 5.6587701093e+00 -7.9890394676e-05 2.8372885135e+00 -4.9143278611e+00 2.8372885135e+00 4.9143278611e+00 
186600 5.6587701088e+00 -7.9638715945e-05 2.8372899214e+00 -4.9143302996e+00 2.8372899214e+00 4.9143302996e+00 
186700 5.6587701083e+00 -7.9387831062e-05 2.8372913248e+00 -4.9143327304e+00 2.8372913248e+00 4.9143327304e+00 
186800 5.6587701078e+00 -7.9137737519e-05 2.8372927238e+00 -4.9143351536e+00 2.8372927238e+00 4.9143351536e+00 
186900 5.6587701073e+00 -7.8888432811e-05 2.8372941184e+00 -4.9143375691e+00 2.8372941184e+00 4.9143375691e+00 
187000 5.6587701068e+00 -7.8639914448e-05 2.8372955086e+00 -4.9143399770e+00 2.8372955086e+00 4.9143399770e+00 
187100 5.6587701063e+00 -7.8392179943e-05 2.8372968944e+00 -4.9143423773e+00 2.8372968944e+00 4.9143423773e+00 
187200 5.6587701058e+00 -7.8145226815e-05 2.8372982759e+00 -4.9143447701e+00 2.8372982759e+00 4.9143447701e+00 
187300 5.6587701054e+00 -7.7899052599e-05 2.8372996530e+00 -4.9143471553e+00 2.8372996530e+00 4.9143471553e+00 
187400 5.6587701049e+00 -7.7653654829e-05 2.8373010258e+00 -4.9143495330e+00 2.8373010258e+00 4.9143495330e+00 
187500 5.6587701044e+00 -7.7409031053e-05 2.8373023942e+00 -4.9143519032e+00 2.8373023942e+00 4.9143519032e+00 
187600 5.6587701039e+00 -7.7165178822e-05 2.8373037583e+00 -4.9143542660e+00 2.8373037583e+00 4.9143542660e+00 
187700 5.6587701035e+00 -7.6922095697e-05 2.8373051182e+00 -4.9143566213e+00 2.8373051182e+00 4.9143566213e+00 
187800 5.6587701030e+00 -7.6679779251e-05 2.8373064737e+00 -4.9143589691e+00 2.8373064737e+00 4.9143589691e+00 
187900 5.6587701025e+00 -7.6438227056e-05 2.8373078250e+00 -4.9143613096e+00 2.8373078250e+00 4.9143613096e+00 
188000 5.6587701021e+00 -7.6197436699e-05 2.8373091720e+00 -4.9143636427e+00 2.8373091720e+00 4.9143636427e+00 
188100 5.6587701016e+00 -7.5957405771e-05 2.8373105148e+00 -4.9143659685e+00 2.8373105148e+00 4.9143659685e+00 
188200 5.6587701012e+00 -7.5718131872e-05 2.8373118534e+00 -4.9143682869e+00 2.8373118534e+00 4.9143682869e+00 
188300 5.6587701007e+00 -7.5479612609e-05 2.8373131877e+00 -4.9143705980e+00 2.8373131877e+00 4.9143705980e+00 
188400 5.6587701003e+00 -7.5241845596e-05 2.8373145178e+00 -4.9143729019e+00 2.8373145178e+00 4.9143729019e+00 
188500 5.6587700998e+00 -7.5004828457e-05 2.8373158437e+00 -4.9143751985e+00 2.8373158437e+00 4.9143751985e+00 
188600 5.6587700994e+00 -7.4768558820e-05 2.8373171655e+00 -4.9143774878e+00 2.8373171655e+00 4.9143774878e+00 
188700 5.6587700989e+00 -7.4533034324e-05 2.8373184831e+00 -4.9143797700e+00 2.8373184831e+00 4.9143797700e+00 
188800 5.6587700985e+00 -7.4298252612e-05 2.8373197965e+00 -4.9143820449e+00 2.8373197965e+00 4.9143820449e+00 
188900 5.6587700980e+00 -7.4064211339e-05 2.8373211058e+00 -4.9143843127e+00 2.8373211058e+00 4.9143843127e+00 
189000 5.6587700976e+00 -7.3830908165e-05 2.8373224110e+00 -4.9143865733e+00 2.8373224110e+00 4.9143865733e+00 
189100 5.6587700972e+00 -7.3598340753e-05 2.8373237121e+00 -4.9143888268e+00 2.8373237121e+00 4.9143888268e+00 
189200 5.6587700968e+00 -7.3366506782e-05 2.8373250090e+00 -4.9143910733e+00 2.8373250090e+00 4.9143910733e+00 
189300 5.6587700963e+00 -7.3135403931e-05 2.8373263019e+00 -4.9143933126e+00 2.8373263019e+00 4.9143933126e+00 
189400 5.6587700959e+00 -7.2905029892e-05 2.8373275907e+00 -4.9143955449e+00 2.8373275907e+00 4.9143955449e+00 
189500 5.6587700955e+00 -7.2675382360e-05 2.8373288755e+00 -4.9143977701e+00 2.8373288755e+00 4.9143977701e+00 
189600 5.6587700951e+00 -7.2446459041e-05 2.8373301562e+00 -4.9143999884e+00 2.8373301562e+00 4.9143999884e+00 
189700 5.6587700947e+00 -7.2218257645e-05 2.8373314329e+00 -4.9144021996e+00 2.8373314329e+00 4.9144021996e+00 
189800 5.6587700942e+00 -7.1990775889e-05 2.8373327055e+00 -4.9144044039e+00 2.8373327055e+00 4.9144044039e+00 
189900 5.6587700938e+00 -7.1764011502e-05 2.8373339741e+00 -4.9144066012e+00 2.8373339741e+00 4.9144066012e+00 
190000 5.6587700934e+00 -7.1537962214e-05 2.8373352388e+00 -4.9144087917e+00 2.8373352388e+00 4.9144087917e+00 
190100 5.6587700930e+00 -7.1312625767e-05 2.8373364994e+00 -4.9144109752e+00 2.8373364994e+00 4.9144109752e+00 
190200 5.6587700926e+00 -7.1087999908e-05 2.8373377561e+00 -4.9144131518e+00 2.8373377561e+00 4.9144131518e+00 
190300 5.6587700922e+00 -7.0864082391e-05 2.8373390088e+00 -4.9144153216e+00 2.8373390088e+00 4.9144153216e+00 
190400 5.6587700918e+00 -7.0640870979e-05 2.8373402576e+00 -4.9144174845e+00 2.8373402576e+00 4.9144174845e+00 
190500 5.6587700915e+00 -7.1140279426e-05 2.8373402576e+00 -4.9144174845e+00 2.8373402576e+00 4.9144174845e+00 
190600 5.6587700911e+00 -7.0916924348e-05 2.8373415113e+00 -4.9144196559e+00 2.8373415113e+00 4.9144196559e+00 
190700 5.6587700907e+00 -7.0693758280e-05 2.8373427610e+00 -4.9144218205e+00 2.8373427610e+00 4.9144218205e+00 
190800 5.6587700904e+00 -7.1193320994e-05 2.8373427610e+00 -4.9144218205e+00 2.8373427610e+00 4.9144218205e+00 
190900 5.6587700900e+00 -7.0969215456e-05 2.8373440155e+00 -4.9144239935e+00 2.8373440155e+00 4.9144239935e+00 
191000 5.6587700896e+00 -7.0744990695e-05 2.8373452662e+00 -4.9144261596e+00 2.8373452662e+00 4.9144261596e+00 
191100 5.6587700892e+00 -7.0520775007e-05 2.8373465128e+00 -4.9144283189e+00 2.8373465128e+00 4.9144283189e+00 
191200 5.6587700889e+00 -7.1017359381e-05 2.8373465128e+00 -4.9144283189e+00 2.8373465128e+00 4.9144283189e+00 
191300 5.6587700886e+00 -7.0791904043e-05 2.8373477643e+00 -4.9144304865e+00 2.8373477643e+00 4.9144304865e+00 
191400 5.6587700882e+00 -7.0566201799e-05 2.8373490118e+00 -4.9144326473e+00 2.8373490118e+00 4.9144326473e+00 
191500 5.6587700879e+00 -7.1061545252e-05 2.8373490118e+00 -4.9144326473e+00 2.8373490118e+00 4.9144326473e+00 
191600 5.6587700875e+00 -7.0834195538e-05 2.8373502641e+00 -4.9144348162e+00 2.8373502641e+00 4.9144348162e+00 
191700 5.6587700871e+00 -7.0606434715e-05 2.8373515123e+00 -4.9144369783e+00 2.8373515123e+00 4.9144369783e+00 
191800 5.6587700868e+00 -7.1099986323e-05 2.8373515123e+00 -4.9144369783e+00 2.8373515123e+00 4.9144369783e+00 
191900 5.6587700865e+00 -7.0870305066e-05 2.8373527652e+00 -4.9144391484e+00 2.8373527652e+00 4.9144391484e+00 
192000 5.6587700861e+00 -7.0640098226e-05 2.8373540141e+00 -4.9144413115e+00 2.8373540141e+00 4.9144413115e+00 
192100 5.6587700858e+00 -7.1131444466e-05 2.8373540141e+00 -4.9144413115e+00 2.8373540141e+00 4.9144413115e+00 
192200 5.6587700855e+00 -7.0899119628e-05 2.8373552676e+00 -4.9144434826e+00 2.8373552676e+00 4.9144434826e+00 
192300 5.6587700851e+00 -7.0666183355e-05 2.8373565170e+00 -4.9144456466e+00 2.8373565170e+00 4.9144456466e+00 
192400 5.6587700848e+00 -7.1154987400e-05 2.8373565170e+00 -4.9144456466e+00 2.8373565170e+00 4.9144456466e+00 
192500 5.6587700845e+00 -7.0919780214e-05 2.8373577709e+00 -4.9144478184e+00 2.8373577709e+00 4.9144478184e+00 
192600 5.6587700841e+00 -7.0683893202e-05 2.8373590206e+00 -4.9144499831e+00 2.8373590206e+00 4.9144499831e+00 
192700 5.6587700838e+00 -7.1169863155e-05 2.8373590206e+00 -4.9144499831e+00 2.8373590206e+00 4.9144499831e+00 
192800 5.6587700835e+00 -7.0931580609e-05 2.8373602748e+00 -4.9144521553e+00 2.8373602748e+00 4.9144521553e+00 
192900 5.6587700832e+00 -7.0692561386e-05 2.8373615248e+00 -4.9144543203e+00 2.8373615248e+00 4.9144543203e+00 
193000 5.6587700829e+00 -7.1175433588e-05 2.8373615248e+00 -4.9144543203e+00 2.8373615248e+00 4.9144543203e+00 
193100 5.6587700825e+00 -7.0933913876e-05 2.8373627790e+00 -4.9144564927e+00 2.8373627790e+00 4.9144564927e+00 
193200 5.6587700822e+00 -7.0691609106e-05 2.8373640290e+00 -4.9144586578e+00 2.8373640290e+00 4.9144586578e+00 
193300 5.6587700819e+00 -7.1171139682e-05 2.8373640290e+00 -4.9144586578e+00 2.8373640290e+00 4.9144586578e+00 
193400 5.6587700816e+00 -7.0926244797e-05 2.8373652832e+00 -4.9144608301e+00 2.8373652832e+00 4.9144608301e+00 
193500 5.6587700813e+00 -7.0680523446e-05 2.8373665330e+00 -4.9144629949e+00 2.8373665330e+00 4.9144629949e+00 
193600 5.6587700810e+00 -7.1156484436e-05 2.8373665330e+00 -4.9144629949e+00 2.8373665330e+00 4.9144629949e+00 
193700 5.6587700807e+00 -7.0908096659e-05 2.8373677870e+00 -4.9144651668e+00 2.8373677870e+00 4.9144651668e+00 
193800 5.6587700804e+00 -7.0658847336e-05 2.8373690365e+00 -4.9144673310e+00 2.8373690365e+00 4.9144673310e+00 
193900 5.6587700801e+00 -7.1131025286e-05 2.8373690365e+00 -4.9144673310e+00 2.8373690365e+00 4.9144673310e+00 
194000 5.6587700798e+00 -7.0879045755e-05 2.8373702900e+00 -4.9144695021e+00 2.8373702900e+00 4.9144695021e+00 
194100 5.6587700795e+00 -7.0626175713e-05 2.8373715390e+00 -4.9144716655e+00 2.8373715390e+00 4.9144716655e+00 
194200 5.6587700792e+00 -7.1094371543e-05 2.8373715390e+00 -4.9144716655e+00 2.8373715390e+00 4.9144716655e+00 
194300 5.6587700789e+00 -7.0838719844e-05 2.8373727918e+00 -4.9144738354e+00 2.8373727918e+00 4.9144738354e+00 
194400 5.6587700786e+00 -7.0582154759e-05 2.8373740401e+00 -4.9144759976e+00 2.8373740401e+00 4.9144759976e+00 
194500 5.6587700783e+00 -7.1046184200e-05 2.8373740401e+00 -4.9144759976e+00 2.8373740401e+00 4.9144759976e+00 
194600 5.6587700780e+00 -7.0786798373e-05 2.8373752921e+00 -4.9144781661e+00 2.8373752921e+00 4.9144781661e+00 
194700 5.6587700777e+00 -7.0526482403e-05 2.8373765395e+00 -4.9144803266e+00 2.8373765395e+00 4.9144803266e+00 
194800 5.6587700775e+00 -7.0986176616e-05 2.8373765395e+00 -4.9144803266e+00 2.8373765395e+00 4.9144803266e+00 
194900 5.6587700772e+00 -7.0723013248e-05 2.8373777904e+00 -4.9144824933e+00 2.8373777904e+00 4.9144824933e+00 
195000 5.6587700769e+00 -7.0458909110e-05 2.8373790367e+00 -4.9144846519e+00 2.8373790367e+00 4.9144846519e+00 
195100 5.6587700766e+00 -7.0914115266e-05 2.8373790367e+00 -4.9144846519e+00 2.8373790367e+00 4.9144846519e+00 
195200 5.6587700763e+00 -7.0647149478e-05 2.8373802863e+00 -4.9144868163e+00 2.8373802863e+00 4.9144868163e+00 
195300 5.6587700761e+00 -7.1101212854e-05 2.8373802863e+00 -4.9144868163e+00 2.8373802863e+00 4.9144868163e+00 
195400 5.6587700758e+00 -7.0831007979e-05 2.8373815393e+00 -4.9144889865e+00 2.8373815393e+00 4.9144889865e+00 
195500 5.6587700755e+00 -7.0559717098e-05 2.8373827874e+00 -4.9144911484e+00 2.8373827874e+00 4.9144911484e+00 
195600 5.6587700753e+00 -7.1008646380e-05 2.8373827874e+00 -4.9144911484e+00 2.8373827874e+00 4.9144911484e+00 
195700 5.6587700750e+00 -7.0734273362e-05 2.8373840388e+00 -4.9144933157e+00 2.8373840388e+00 4.9144933157e+00 
195800 5.6587700747e+00 -7.0458873687e-05 2.8373852852e+00 -4.9144954747e+00 2.8373852852e+00 4.9144954747e+00 
195900 5.6587700745e+00 -7.0902713814e-05 2.8373852852e+00 -4.9144954747e+00 2.8373852852e+00 4.9144954747e+00 
196000 5.6587700742e+00 -7.0624329418e-05 2.8373865347e+00 -4.9144976387e+00 2.8373865347e+00 4.9144976387e+00 
196100 5.6587700740e+00 -7.1066698700e-05 2.8373865347e+00 -4.9144976387e+00 2.8373865347e+00 4.9144976387e+00 
196200 5.6587700737e+00 -7.0785005178e-05 2.8373877870e+00 -4.9144998078e+00 2.8373877870e+00 4.9144998078e+00 
196300 5.6587700734e+00 -7.0502206791e-05 2.8373890343e+00 -4.9145019683e+00 2.8373890343e+00 4.9145019683e+00 
196400 5.6587700732e+00 -7.0939029934e-05 2.8373890343e+00 -4.9145019683e+00 2.8373890343e+00 4.9145019683e+00 
196500 5.6587700729e+00 -7.0653139859e-05 2.8373902844e+00 -4.9145041335e+00 2.8373902844e+00 4.9145041335e+00 
196600 5.6587700727e+00 -7.1088263825e-05 2.8373902844e+00 -4.9145041335e+00 2.8373902844e+00 4.9145041335e+00 
196700 5.6587700724e+00 -7.0799008011e-05 2.8373915371e+00 -4.9145063033e+00 2.8373915371e+00 4.9145063033e+00 
196800 5.6587700721e+00 -7.0508633795e-05 2.8373927847e+00 -4.9145084642e+00 2.8373927847e+00 4.9145084642e+00 
196900 5.6587700719e+00 -7.0937940523e-05 2.8373927847e+00 -4.9145084642e+00 2.8373927847e+00 4.9145084642e+00 
197000 5.6587700717e+00 -7.0644470490e-05 2.8373940348e+00 -4.9145106294e+00 2.8373940348e+00 4.9145106294e+00 
197100 5.6587700714e+00 -7.1071932876e-05 2.8373940348e+00 -4.9145106294e+00 2.8373940348e+00 4.9145106294e+00 
197200 5.6587700712e+00 -7.0775118329e-05 2.8373952872e+00 -4.9145127986e+00 2.8373952872e+00 4.9145127986e+00 
197300 5.6587700709e+00 -7.0477203787e-05 2.8373965344e+00 -4.9145149588e+00 2.8373965344e+00 4.9145149588e+00 
197400 5.6587700707e+00 -7.0898671044e-05 2.8373965344e+00 -4.9145149588e+00 2.8373965344e+00 4.9145149588e+00 
197500 5.6587700704e+00 -7.0597711148e-05 2.8373977838e+00 -4.9145171227e+00 2.8373977838e+00 4.9145171227e+00 
197600 5.6587700702e+00 -7.1017235904e-05 2.8373977838e+00 -4.9145171227e+00 2.8373977838e+00 4.9145171227e+00 
197700 5.6587700700e+00 -7.0712997723e-05 2.8373990352e+00 -4.9145192903e+00 2.8373990352e+00 4.9145192903e+00 
197800 5.6587700697e+00 -7.0407697400e-05 2.8374002813e+00 -4.9145214486e+00 2.8374002813e+00 4.9145214486e+00 
197900 5.6587700695e+00 -7.0821108407e-05 2.8374002813e+00 -4.9145214486e+00 2.8374002813e+00 4.9145214486e+00 
198000 5.6587700693e+00 -7.0512848327e-05 2.8374015293e+00 -4.9145236102e+00 2.8374015293e+00 4.9145236102e+00 
198100 5.6587700691e+00 -7.0924251245e-05 2.8374015293e+00 -4.9145236102e+00 2.8374015293e+00 4.9145236102e+00 
198200 5.6587700688e+00 -7.0612809963e-05 2.8374027791e+00 -4.9145257749e+00 2.8374027791e+00 4.9145257749e+00 
198300 5.6587700686e+00 -7.1021976909e-05 2.8374027791e+00 -4.9145257749e+00 2.8374027791e+00 4.9145257749e+00 
198400 5.6587700684e+00 -7.0707216799e-05 2.8374040306e+00 -4.9145279426e+00 2.8374040306e+00 4.9145279426e+00 
198500 5.6587700682e+00 -7.1113983291e-05 2.8374040306e+00 -4.9145279426e+00 2.8374040306e+00 4.9145279426e+00 
198600 5.6587700680e+00 -7.0795821120e-05 2.8374052838e+00 -4.9145301132e+00 2.8374052838e+00 4.9145301132e+00 
198700 5.6587700677e+00 -7.0476576014e-05 2.8374065313e+00 -4.9145322740e+00 2.8374065313e+00 4.9145322740e+00 
198800 5.6587700675e+00 -7.0876745261e-05 2.8374065313e+00 -4.9145322740e+00 2.8374065313e+00 4.9145322740e+00 
198900 5.6587700673e+00 -7.0554557393e-05 2.8374077803e+00 -4.9145344373e+00 2.8374077803e+00 4.9145344373e+00 
199000 5.6587700671e+00 -7.0952490329e-05 2.8374077803e+00 -4.9145344373e+00 2.8374077803e+00 4.9145344373e+00 
199100 5.6587700669e+00 -7.0627198927e-05 2.8374090306e+00 -4.9145366029e+00 2.8374090306e+00 4.9145366029e+00 
199200 5.6587700667e+00 -7.1022718135e-05 2.8374090306e+00 -4.9145366029e+00 2.8374090306e+00 4.9145366029e+00 
199300 5.6587700664e+00 -7.0694230457e-05 2.8374102821e+00 -4.9145387706e+00 2.8374102821e+00 4.9145387706e+00 
199400 5.6587700663e+00 -7.1087209883e-05 2.8374102821e+00 -4.9145387706e+00 2.8374102821e+00 4.9145387706e+00 
199500 5.6587700660e+00 -7.0755476793e-05 2.8374115348e+00 -4.9145409403e+00 2.8374115348e+00 4.9145409403e+00 
199600 5.6587700658e+00 -7.0422749205e-05 2.8374127817e+00 -4.9145430999e+00 2.8374127817e+00 4.9145430999e+00 
199700 5.6587700656e+00 -7.0808978530e-05 2.8374127817e+00 -4.9145430999e+00 2.8374127817e+00 4.9145430999e+00 
199800 5.6587700654e+00 -7.0473502339e-05 2.8374140294e+00 -4.9145452611e+00 2.8374140294e+00 4.9145452611e+00 
199900 5.6587700652e+00 -7.0857421096e-05 2.8374140294e+00 -4.9145452611e+00 2.8374140294e+00 4.9145452611e+00 
200000 5.6587700650e+00 -7.0519054803e-05 2.8374152781e+00 -4.9145474238e+00 2.8374152781e+00 4.9145474238e+00 
200100 5.6587700648e+00 -7.0900504499e-05 2.8374152781e+00 -4.9145474238e+00 2.8374152781e+00 4.9145474238e+00 
200200 5.6587700646e+00 -7.0559171347e-05 2.8374165274e+00 -4.9145495878e+00 2.8374165274e+00 4.9145495878e+00 
200300 5.6587700644e+00 -7.0938042399e-05 2.8374165274e+00 -4.9145495878e+00 2.8374165274e+00 4.9145495878e+00 
200400 5.6587700642e+00 -7.0593706813e-05 2.8374177775e+00 -4.9145517529e+00 2.8374177775e+00 4.9145517529e+00 
200500 5.6587700640e+00 -7.0969921560e-05 2.8374177775e+00 -4.9145517529e+00 2.8374177775e+00 4.9145517529e+00 
200600 5.6587700638e+00 -7.0622575310e-05 2.8374190281e+00 -4.9145539190e+00 2.8374190281e+00 4.9145539190e+00 
200700 5.6587700637e+00 -7.0996077756e-05 2.8374190281e+00 -4.9145539190e+00 2.8374190281e+00 4.9145539190e+00 
200800 5.6587700634e+00 -7.0645731320e-05 2.8374202792e+00 -4.9145560859e+00 2.8374202792e+00 4.9145560859e+00 
200900 5.6587700633e+00 -7.1016480625e-05 2.8374202792e+00 -4.9145560859e+00 2.8374202792e+00 4.9145560859e+00 
201000 5.6587700631e+00 -7.0663157571e-05 2.8374215306e+00 -4.9145582535e+00 2.8374215306e+00 4.9145582535e+00 
201100 5.6587700629e+00 -7.1031123730e-05 2.8374215306e+00 -4.9145582535e+00 2.8374215306e+00 4.9145582535e+00 
201200 5.6587700627e+00 -7.0674856942e-05 2.8374227823e+00 -4.9145604214e+00 2.8374227823e+00 4.9145604214e+00 
201300 5.6587700625e+00 -7.1040017893e-05 2.8374227823e+00 -4.9145604214e+00 2.8374227823e+00 4.9145604214e+00 
201400 5.6587700623e+00 -7.0680846998e-05 2.8374240341e+00 -4.9145625897e+00 2.8374240341e+00 4.9145625897e+00 
201500 5.6587700622e+00 -7.1043186627e-05 2.8374240341e+00 -4.9145625897e+00 2.8374240341e+00 4.9145625897e+00 
201600 5.6587700620e+00 -7.0681156215e-05 2.8374252860e+00 -4.9145647580e+00 2.8374252860e+00 4.9145647580e+00 
201700 5.6587700618e+00 -7.1040662989e-05 2.8374252860e+00 -4.9145647580e+00 2.8374252860e+00 4.9145647580e+00 
201800 5.6587700616e+00 -7.0675821372e-05 2.8374265379e+00 -4.9145669263e+00 2.8374265379e+00 4.9145669263e+00 
201900 5.6587700615e+00 -7.1032487396e-05 2.8374265379e+00 -4.9145669263e+00 2.8374265379e+00 4.9145669263e+00 
202000 5.6587700613e+00 -7.0664885756e-05 2.8374277896e+00 -4.9145690943e+00 2.8374277896e+00 4.9145690943e+00 
202100 5.6587700611e+00 -7.1018706113e-05 2.8374277896e+00 -4.9145690943e+00 2.8374277896e+00 4.9145690943e+00 
202200 5.6587700609e+00 -7.0648397895e-05 2.8374290410e+00 -4.9145712619e+00 2.8374290410e+00 4.9145712619e+00 
202300 5.6587700608e+00 -7.0999370194e-05 2.8374290410e+00 -4.9145712619e+00 2.8374290410e+00 4.9145712619e+00 
202400 5.6587700606e+00 -7.0626410676e-05 2.8374302921e+00 -4.9145734289e+00 2.8374302921e+00 4.9145734289e+00 
202500 5.6587700604e+00 -7.0974534738e-05 2.8374302921e+00 -4.9145734289e+00 2.8374302921e+00 4.9145734289e+00 
202600 5.6587700602e+00 -7.0598980726e-05 2.8374315428e+00 -4.9145755952e+00 2.8374315428e+00 4.9145755952e+00 
202700 5.6587700601e+00 -7.0944258363e-05 2.8374315428e+00 -4.9145755952e+00 2.8374315428e+00 4.9145755952e+00 
202800 5.6587700599e+00 -7.0566167974e-05 2.8374327930e+00 -4.9145777605e+00 2.8374327930e+00 4.9145777605e+00 
202900 5.6587700597e+00 -7.0908602831e-05 2.8374327930e+00 -4.9145777605e+00 2.8374327930e+00 4.9145777605e+00 
203000 5.6587700595e+00 -7.0528035323e-05 2.8374340425e+00 -4.9145799247e+00 2.8374340425e+00 4.9145799247e+00 
203100 5.6587700594e+00 -7.0867632758e-05 2.8374340425e+00 -4.9145799247e+00 2.8374340425e+00 4.9145799247e+00 
203200 5.6587700592e+00 -7.0484648400e-05 2.8374352913e+00 -4.9145820877e+00 2.8374352913e+00 4.9145820877e+00 
203300 5.6587700591e+00 -7.0821415401e-05 2.8374352913e+00 -4.9145820877e+00 2.8374352913e+00 4.9145820877e+00 
203400 5.6587700589e+00 -7.0436075367e-05 2.8374365393e+00 -4.9145842493e+00 2.8374365393e+00 4.9145842493e+00 
203500 5.6587700588e+00 -7.0770020478e-05 2.8374365393e+00 -4.9145842493e+00 2.8374365393e+00 4.9145842493e+00 
203600 5.6587700586e+00 -7.0382386757e-05 2.8374377864e+00 -4.9145864093e+00 2.8374377864e+00 4.9145864093e+00 
203700 5.6587700584e+00 -7.0713520017e-05 2.8374377864e+00 -4.9145864093e+00 2.8374377864e+00 4.9145864093e+00 
203800 5.6587700582e+00 -7.0323655328e-05 2.8374390324e+00 -4.9145885676e+00 2.8374390324e+00 4.9145885676e+00 
203900 5.6587700581e+00 -7.0651988212e-05 2.8374390324e+00 -4.9145885676e+00 2.8374390324e+00 4.9145885676e+00 
204000 5.6587700580e+00 -7.0981967138e-05 2.8374390324e+00 -4.9145885676e+00 2.8374390324e+00 4.9145885676e+00 
204100 5.6587700578e+00 -7.0587956021e-05 2.8374402833e+00 -4.9145907340e+00 2.8374402833e+00 4.9145907340e+00 
204200 5.6587700577e+00 -7.0914657903e-05 2.8374402833e+00 -4.9145907340e+00 2.8374402833e+00 4.9145907340e+00 
204300 5.6587700575e+00 -7.0518140170e-05 2.8374415329e+00 -4.9145928984e+00 2.8374415329e+00 4.9145928984e+00 
204400 5.6587700574e+00 -7.0841719534e-05 2.8374415329e+00 -4.9145928984e+00 2.8374415329e+00 4.9145928984e+00 
204500 5.6587700572e+00 -7.0442879423e-05 2.8374427812e+00 -4.9145950606e+00 2.8374427812e+00 4.9145950606e+00 
204600 5.6587700571e+00 -7.0763442042e-05 2.8374427812e+00 -4.9145950606e+00 2.8374427812e+00 4.9145950606e+00 
204700 5.6587700569e+00 -7.0362423170e-05 2.8374440282e+00 -4.9145972204e+00 2.8374440282e+00 4.9145972204e+00 
204800 5.6587700568e+00 -7.0680045367e-05 2.8374440282e+00 -4.9145972204e+00 2.8374440282e+00 4.9145972204e+00 
204900 5.6587700566e+00 -7.0999262760e-05 2.8374440282e+00 -4.9145972204e+00 2.8374440282e+00 4.9145972204e+00 
205000 5.6587700565e+00 -7.0594272330e-05 2.8374452793e+00 -4.9145993874e+00 2.8374452793e+00 4.9145993874e+00 
205100 5.6587700564e+00 -7.0910134604e-05 2.8374452793e+00 -4.9145993874e+00 2.8374452793e+00 4.9145993874e+00 
205200 5.6587700562e+00 -7.0502796124e-05 2.8374465288e+00 -4.9146015517e+00 2.8374465288e+00 4.9146015517e+00 
205300 5.6587700561e+00 -7.0815484757e-05 2.8374465288e+00 -4.9146015517e+00 2.8374465288e+00 4.9146015517e+00 
205400 5.6587700559e+00 -7.0406004281e-05 2.8374477767e+00 -4.9146037131e+00 2.8374477767e+00 4.9146037131e+00 
205500 5.6587700558e+00 -7.0715644633e-05 2.8374477767e+00 -4.9146037131e+00 2.8374477767e+00 4.9146037131e+00 
205600 5.6587700556e+00 -7.0304181100e-05 2.8374490228e+00 -4.9146058714e+00 2.8374490228e+00 4.9146058714e+00 
205700 5.6587700555e+00 -7.0610864050e-05 2.8374490228e+00 -4.9146058714e+00 2.8374490228e+00 4.9146058714e+00 
205800 5.6587700554e+00 -7.0919135229e-05 2.8374490228e+00 -4.9146058714e+00 2.8374490228e+00 4.9146058714e+00 
205900 5.6587700552e+00 -7.0504013843e-05 2.8374502725e+00 -4.9146080359e+00 2.8374502725e+00 4.9146080359e+00 
206000 5.6587700551e+00 -7.0808929165e-05 2.8374502725e+00 -4.9146080359e+00 2.8374502725e+00 4.9146080359e+00 
206100 5.6587700549e+00 -7.0391677598e-05 2.8374515203e+00 -4.9146101971e+00 2.8374515203e+00 4.9146101971e+00 
206200 5.6587700548e+00 -7.0693426363e-05 2.8374515203e+00 -4.9146101971e+00 2.8374515203e+00 4.9146101971e+00 
206300 5.6587700547e+00 -7.0996687584e-05 2.8374515203e+00 -4.9146101971e+00 2.8374515203e+00 4.9146101971e+00 
206400 5.6587700545e+00 -7.0575700479e-05 2.8374527713e+00 -4.9146123640e+00 2.8374527713e+00 4.9146123640e+00 
206500 5.6587700544e+00 -7.0875482056e-05 2.8374527713e+00 -4.9146123640e+00 2.8374527713e+00 4.9146123640e+00 
206600 5.6587700543e+00 -7.0452371909e-05 2.8374540203e+00 -4.9146145272e+00 2.8374540203e+00 4.9146145272e+00 
206700 5.6587700542e+00 -7.0748897803e-05 2.8374540203e+00 -4.9146145272e+00 2.8374540203e+00 4.9146145272e+00 
206800 5.6587700540e+00 -7.0323905070e-05 2.8374552670e+00 -4.9146166866e+00 2.8374552670e+00 4.9146166866e+00 
206900 5.6587700539e+00 -7.0617331136e-05 2.8374552670e+00 -4.9146166866e+00 2.8374552670e+00 4.9146166866e+00 
207000 5.6587700538e+00 -7.0912292325e-05 2.8374552670e+00 -4.9146166866e+00 2.8374552670e+00 4.9146166866e+00 
207100 5.6587700536e+00 -7.0483887728e-05 2.8374565165e+00 -4.9146188509e+00 2.8374565165e+00 4.9146188509e+00 
207200 5.6587700535e+00 -7.0775412092e-05 2.8374565165e+00 -4.9146188509e+00 2.8374565165e+00 4.9146188509e+00 
207300 5.6587700534e+00 -7.0345082252e-05 2.8374577637e+00 -4.9146210111e+00 2.8374577637e+00 4.9146210111e+00 
207400 5.6587700533e+00 -7.0633385852e-05 2.8374577637e+00 -4.9146210111e+00 2.8374577637e+00 4.9146210111e+00 
207500 5.6587700532e+00 -7.0923180161e-05 2.8374577637e+00 -4.9146210111e+00 2.8374577637e+00 4.9146210111e+00 
207600 5.6587700530e+00 -7.0489460896e-05 2.8374590135e+00 -4.9146231757e+00 2.8374590135e+00 4.9146231757e+00 
207700 5.6587700529e+00 -7.0775749521e-05 2.8374590135e+00 -4.9146231757e+00 2.8374590135e+00 4.9146231757e+00 
207800 5.6587700528e+00 -7.0340155063e-05 2.8374602606e+00 -4.9146253359e+00 2.8374602606e+00 4.9146253359e+00 
207900 5.6587700527e+00 -7.0623175193e-05 2.8374602606e+00 -4.9146253359e+00 2.8374602606e+00 4.9146253359e+00 
208000 5.6587700526e+00 -7.0907667658e-05 2.8374602606e+00 -4.9146253359e+00 2.8374602606e+00 4.9146253359e+00 
208100 5.6587700524e+00 -7.0468790164e-05 2.8374615101e+00 -4.9146275001e+00 2.8374615101e+00 4.9146275001e+00 
208200 5.6587700523e+00 -7.0749749870e-05 2.8374615101e+00 -4.9146275001e+00 2.8374615101e+00 4.9146275001e+00 
208300 5.6587700522e+00 -7.0309081768e-05 2.8374627568e+00 -4.9146296594e+00 2.8374627568e+00 4.9146296594e+00 
208400 5.6587700521e+00 -7.0586755084e-05 2.8374627568e+00 -4.9146296594e+00 2.8374627568e+00 4.9146296594e+00 
208500 5.6587700520e+00 -7.0865893008e-05 2.8374627568e+00 -4.9146296594e+00 2.8374627568e+00 4.9146296594e+00 
208600 5.6587700518e+00 -7.0422082137e-05 2.8374640056e+00 -4.9146318223e+00 2.8374640056e+00 4.9146318223e+00 
208700 5.6587700517e+00 -7.0697679449e-05 2.8374640056e+00 -4.9146318223e+00 2.8374640056e+00 4.9146318223e+00 
208800 5.6587700516e+00 -7.0974650308e-05 2.8374640056e+00 -4.9146318223e+00 2.8374640056e+00 4.9146318223e+00 
208900 5.6587700515e+00 -7.0527484736e-05 2.8374652563e+00 -4.9146339885e+00 2.8374652563e+00 4.9146339885e+00 
209000 5.6587700514e+00 -7.0800765109e-05 2.8374652563e+00 -4.9146339885e+00 2.8374652563e+00 4.9146339885e+00 
209100 5.6587700513e+00 -7.0351838507e-05 2.8374665039e+00 -4.9146361495e+00 2.8374665039e+00 4.9146361495e+00 
209200 5.6587700512e+00 -7.0621719956e-05 2.8374665039e+00 -4.9146361495e+00 2.8374665039e+00 4.9146361495e+00 
209300 5.6587700511e+00 -7.0893023664e-05 2.8374665039e+00 -4.9146361495e+00 2.8374665039e+00 4.9146361495e+00 
209400 5.6587700509e+00 -7.0441065709e-05 2.8374677531e+00 -4.9146383132e+00 2.8374677531e+00 4.9146383132e+00 
209500 5.6587700509e+00 -7.0708758933e-05 2.8374677531e+00 -4.9146383132e+00 2.8374677531e+00 4.9146383132e+00 
209600 5.6587700508e+00 -7.0977798727e-05 2.8374677531e+00 -4.9146383132e+00 2.8374677531e+00 4.9146383132e+00 
209700 5.6587700506e+00 -7.0522647309e-05 2.8374690038e+00 -4.9146404795e+00 2.8374690038e+00 4.9146404795e+00 
209800 5.6587700505e+00 -7.0787952726e-05 2.8374690038e+00 -4.9146404795e+00 2.8374690038e+00 4.9146404795e+00 
209900 5.6587700504e+00 -7.0331165208e-05 2.8374702512e+00 -4.9146426400e+00 2.8374702512e+00 4.9146426400e+00 
210000 5.6587700503e+00 -7.0593039756e-05 2.8374702512e+00 -4.9146426400e+00 2.8374702512e+00 4.9146426400e+00 
210100 5.6587700502e+00 -7.0856323057e-05 2.8374702512e+00 -4.9146426400e+00 2.8374702512e+00 4.9146426400e+00 
210200 5.6587700501e+00 -7.0396708870e-05 2.8374714998e+00 -4.9146448026e+00 2.8374714998e+00 4.9146448026e+00 
210300 5.6587700500e+00 -7.0656362998e-05 2.8374714998e+00 -4.9146448026e+00 2.8374714998e+00 4.9146448026e+00 
210400 5.6587700499e+00 -7.0917354771e-05 2.8374714998e+00 -4.9146448026e+00 2.8374714998e+00 4.9146448026e+00 
210500 5.6587700498e+00 -7.0454766312e-05 2.8374727494e+00 -4.9146469671e+00 2.8374727494e+00 4.9146469671e+00 
210600 5.6587700497e+00 -7.0712014918e-05 2.8374727494e+00 -4.9146469671e+00 2.8374727494e+00 4.9146469671e+00 
210700 5.6587700496e+00 -7.0247941912e-05 2.8374739955e+00 -4.9146491253e+00 2.8374739955e+00 4.9146491253e+00 
210800 5.6587700495e+00 -7.0501756033e-05 2.8374739955e+00 -4.9146491253e+00 2.8374739955e+00 4.9146491253e+00 
210900 5.6587700494e+00 -7.0756975059e-05 2.8374739955e+00 -4.9146491253e+00 2.8374739955e+00 4.9146491253e+00 
211000 5.6587700493e+00 -7.0290310009e-05 2.8374752423e+00 -4.9146512849e+00 2.8374752423e+00 4.9146512849e+00 
211100 5.6587700492e+00 -7.0541903747e-05 2.8374752423e+00 -4.9146512849e+00 2.8374752423e+00 4.9146512849e+00 
211200 5.6587700491e+00 -7.0794833781e-05 2.8374752423e+00 -4.9146512849e+00 2.8374752423e+00 4.9146512849e+00 
211300 5.6587700490e+00 -7.0325436288e-05 2.8374764898e+00 -4.9146534456e+00 2.8374764898e+00 4.9146534456e+00 
211400 5.6587700489e+00 -7.0574633847e-05 2.8374764898e+00 -4.9146534456e+00 2.8374764898e+00 4.9146534456e+00 
211500 5.6587700488e+00 -7.0825128255e-05 2.8374764898e+00 -4.9146534456e+00 2.8374764898e+00 4.9146534456e+00 
211600 5.6587700487e+00 -7.0352952517e-05 2.8374777378e+00 -4.9146556073e+00 2.8374777378e+00 4.9146556073e+00 
211700 5.6587700486e+00 -7.0599650532e-05 2.8374777378e+00 -4.9146556073e+00 2.8374777378e+00 4.9146556073e+00 
211800 5.6587700486e+00 -7.0847621576e-05 2.8374777378e+00 -4.9146556073e+00 2.8374777378e+00 4.9146556073e+00 
211900 5.6587700484e+00 -7.0372672463e-05 2.8374789863e+00 -4.9146577696e+00 2.8374789863e+00 4.9146577696e+00 
212000 5.6587700484e+00 -7.0616807386e-05 2.8374789863e+00 -4.9146577696e+00 2.8374789863e+00 4.9146577696e+00 
212100 5.6587700483e+00 -7.0862200344e-05 2.8374789863e+00 -4.9146577696e+00 2.8374789863e+00 4.9146577696e+00 
212200 5.6587700481e+00 -7.0384511402e-05 2.8374802349e+00 -4.9146599324e+00 2.8374802349e+00 4.9146599324e+00 
212300 5.6587700481e+00 -7.0626042728e-05 2.8374802349e+00 -4.9146599324e+00 2.8374802349e+00 4.9146599324e+00 
212400 5.6587700480e+00 -7.0868822255e-05 2.8374802349e+00 -4.9146599324e+00 2.8374802349e+00 4.9146599324e+00 
212500 5.6587700479e+00 -7.0388443824e-05 2.8374814837e+00 -4.9146620954e+00 2.8374814837e+00 4.9146620954e+00 
212600 5.6587700478e+00 -7.0627344939e-05 2.8374814837e+00 -4.9146620954e+00 2.8374814837e+00 4.9146620954e+00 
212700 5.6587700477e+00 -7.0867487542e-05 2.8374814837e+00 -4.9146620954e+00 2.8374814837e+00 4.9146620954e+00 
212800 5.6587700476e+00 -7.0384480137e-05 2.8374827325e+00 -4.9146642583e+00 2.8374827325e+00 4.9146642583e+00 
212900 5.6587700475e+00 -7.0620733218e-05 2.8374827325e+00 -4.9146642583e+00 2.8374827325e+00 4.9146642583e+00 
213000 5.6587700475e+00 -7.0858223057e-05 2.8374827325e+00 -4.9146642583e+00 2.8374827325e+00 4.9146642583e+00 
213100 5.6587700474e+00 -7.0372653628e-05 2.8374839811e+00 -4.9146664210e+00 2.8374839811e+00 4.9146664210e+00 
213200 5.6587700473e+00 -7.0606246802e-05 2.8374839811e+00 -4.9146664210e+00 2.8374839811e+00 4.9146664210e+00 
213300 5.6587700472e+00 -7.0841073359e-05 2.8374839811e+00 -4.9146664210e+00 2.8374839811e+00 4.9146664210e+00 
213400 5.6587700471e+00 -7.0353013221e-05 2.8374852294e+00 -4.9146685831e+00 2.8374852294e+00 4.9146685831e+00 
213500 5.6587700470e+00 -7.0583939010e-05 2.8374852294e+00 -4.9146685831e+00 2.8374852294e+00 4.9146685831e+00 
213600 5.6587700470e+00 -7.0816095832e-05 2.8374852294e+00 -4.9146685831e+00 2.8374852294e+00 4.9146685831e+00 
213700 5.6587700468e+00 -7.0325619504e-05 2.8374864773e+00 -4.9146707445e+00 2.8374864773e+00 4.9146707445e+00 
213800 5.6587700468e+00 -7.0553874002e-05 2.8374864773e+00 -4.9146707445e+00 2.8374864773e+00 4.9146707445e+00 
213900 5.6587700467e+00 -7.0783358034e-05 2.8374864773e+00 -4.9146707445e+00 2.8374864773e+00 4.9146707445e+00 
214000 5.6587700466e+00 -7.0290542607e-05 2.8374877246e+00 -4.9146729048e+00 2.8374877246e+00 4.9146729048e+00 
214100 5.6587700465e+00 -7.0516125065e-05 2.8374877246e+00 -4.9146729048e+00 2.8374877246e+00 4.9146729048e+00 
214200 5.6587700465e+00 -7.0742936323e-05 2.8374877246e+00 -4.9146729048e+00 2.8374877246e+00 4.9146729048e+00 
214300 5.6587700464e+00 -7.0247861114e-05 2.8374889712e+00 -4.9146750640e+00 2.8374889712e+00 4.9146750640e+00 
214400 5.6587700463e+00 -7.0470773725e-05 2.8374889712e+00 -4.9146750640e+00 2.8374889712e+00 4.9146750640e+00 
214500 5.6587700462e+00 -7.0694915131e-05 2.8374889712e+00 -4.9146750640e+00 2.8374889712e+00 4.9146750640e+00 
214600 5.6587700462e+00 -7.0920100841e-05 2.8374889712e+00 -4.9146750640e+00 2.8374889712e+00 4.9146750640e+00 
214700 5.6587700461e+00 -7.0421436987e-05 2.8374902209e+00 -4.9146772285e+00 2.8374902209e+00 4.9146772285e+00 
214800 5.6587700460e+00 -7.0642429207e-05 2.8374902209e+00 -4.9146772285e+00 2.8374902209e+00 4.9146772285e+00 
214900 5.6587700459e+00 -7.0864543827e-05 2.8374902209e+00 -4.9146772285e+00 2.8374902209e+00 4.9146772285e+00 
215000 5.6587700458e+00 -7.0363439562e-05 2.8374914696e+00 -4.9146793914e+00 2.8374914696e+00 4.9146793914e+00 
215100 5.6587700458e+00 -7.0581478693e-05 2.8374914696e+00 -4.9146793914e+00 2.8374914696e+00 4.9146793914e+00 
215200 5.6587700457e+00 -7.0800681485e-05 2.8374914696e+00 -4.9146793914e+00 2.8374914696e+00 4.9146793914e+00 
215300 5.6587700456e+00 -7.0297352502e-05 2.8374927172e+00 -4.9146815523e+00 2.8374927172e+00 4.9146815523e+00 
215400 5.6587700455e+00 -7.0512547812e-05 2.8374927172e+00 -4.9146815523e+00 2.8374927172e+00 4.9146815523e+00 
215500 5.6587700455e+00 -7.0728930442e-05 2.8374927172e+00 -4.9146815523e+00 2.8374927172e+00 4.9146815523e+00 
215600 5.6587700454e+00 -7.0223535029e-05 2.8374939635e+00 -4.9146837110e+00 2.8374939635e+00 4.9146837110e+00 
215700 5.6587700453e+00 -7.0435953643e-05 2.8374939635e+00 -4.9146837110e+00 2.8374939635e+00 4.9146837110e+00 
215800 5.6587700452e+00 -7.0649574215e-05 2.8374939635e+00 -4.9146837110e+00 2.8374939635e+00 4.9146837110e+00 
215900 5.6587700452e+00 -7.0864215891e-05 2.8374939635e+00 -4.9146837110e+00 2.8374939635e+00 4.9146837110e+00 
216000 5.6587700451e+00 -7.0355560179e-05 2.8374952122e+00 -4.9146858738e+00 2.8374952122e+00 4.9146858738e+00 
216100 5.6587700450e+00 -7.0565975841e-05 2.8374952122e+00 -4.9146858738e+00 2.8374952122e+00 4.9146858738e+00 
216200 5.6587700450e+00 -7.0777498730e-05 2.8374952122e+00 -4.9146858738e+00 2.8374952122e+00 4.9146858738e+00 
216300 5.6587700449e+00 -7.0266680496e-05 2.8374964594e+00 -4.9146880340e+00 2.8374964594e+00 4.9146880340e+00 
216400 5.6587700448e+00 -7.0474111458e-05 2.8374964594e+00 -4.9146880340e+00 2.8374964594e+00 4.9146880340e+00 
216500 5.6587700448e+00 -7.0682696486e-05 2.8374964594e+00 -4.9146880340e+00 2.8374964594e+00 4.9146880340e+00 
216600 5.6587700447e+00 -7.0892261742e-05 2.8374964594e+00 -4.9146880340e+00 2.8374964594e+00 4.9146880340e+00 
216700 5.6587700446e+00 -7.0378208456e-05 2.8374977086e+00 -4.9146901977e+00 2.8374977086e+00 4.9146901977e+00 
216800 5.6587700445e+00 -7.0583480235e-05 2.8374977086e+00 -4.9146901977e+00 2.8374977086e+00 4.9146901977e+00 
216900 5.6587700445e+00 -7.0789833312e-05 2.8374977086e+00 -4.9146901977e+00 2.8374977086e+00 4.9146901977e+00 
217000 5.6587700444e+00 -7.0273697220e-05 2.8374989560e+00 -4.9146923582e+00 2.8374989560e+00 4.9146923582e+00 
217100 5.6587700443e+00 -7.0475915296e-05 2.8374989560e+00 -4.9146923582e+00 2.8374989560e+00 4.9146923582e+00 
217200 5.6587700443e+00 -7.0679270358e-05 2.8374989560e+00 -4.9146923582e+00 2.8374989560e+00 4.9146923582e+00 
217300 5.6587700442e+00 -7.0883590667e-05 2.8374989560e+00 -4.9146923582e+00 2.8374989560e+00 4.9146923582e+00 
217400 5.6587700441e+00 -7.0364368428e-05 2.8375002051e+00 -4.9146945216e+00 2.8375002051e+00 4.9146945216e+00 
217500 5.6587700441e+00 -7.0564371320e-05 2.8375002051e+00 -4.9146945216e+00 2.8375002051e+00 4.9146945216e+00 
217600 5.6587700440e+00 -7.0765445257e-05 2.8375002051e+00 -4.9146945216e+00 2.8375002051e+00 4.9146945216e+00 
217700 5.6587700439e+00 -7.0244270790e-05 2.8375014520e+00 -4.9146966815e+00 2.8375014520e+00 4.9146966815e+00 
217800 5.6587700439e+00 -7.0441194894e-05 2.8375014520e+00 -4.9146966815e+00 2.8375014520e+00 4.9146966815e+00 
217900 5.6587700438e+00 -7.0639248905e-05 2.8375014520e+00 -4.9146966815e+00 2.8375014520e+00 4.9146966815e+00 
218000 5.6587700438e+00 -7.0838262027e-05 2.8375014520e+00 -4.9146966815e+00 2.8375014520e+00 4.9146966815e+00 
218100 5.6587700437e+00 -7.0314191117e-05 2.8375027003e+00 -4.9146988435e+00 2.8375027003e+00 4.9146988435e+00 
218200 5.6587700436e+00 -7.0508880881e-05 2.8375027003e+00 -4.9146988435e+00 2.8375027003e+00 4.9146988435e+00 
218300 5.6587700436e+00 -7.0704637656e-05 2.8375027003e+00 -4.9146988435e+00 2.8375027003e+00 4.9146988435e+00 
218400 5.6587700435e+00 -7.0901300576e-05 2.8375027003e+00 -4.9146988435e+00 2.8375027003e+00 4.9146988435e+00 
218500 5.6587700434e+00 -7.0374190534e-05 2.8375039496e+00 -4.9147010074e+00 2.8375039496e+00 4.9147010074e+00 
218600 5.6587700434e+00 -7.0566441622e-05 2.8375039496e+00 -4.9147010074e+00 2.8375039496e+00 4.9147010074e+00 
218700 5.6587700433e+00 -7.0759727106e-05 2.8375039496e+00 -4.9147010074e+00 2.8375039496e+00 4.9147010074e+00 
218800 5.6587700432e+00 -7.0230791892e-05 2.8375051965e+00 -4.9147031671e+00 2.8375051965e+00 4.9147031671e+00 
218900 5.6587700432e+00 -7.0419869406e-05 2.8375051965e+00 -4.9147031671e+00 2.8375051965e+00 4.9147031671e+00 
219000 5.6587700431e+00 -7.0610053269e-05 2.8375051965e+00 -4.9147031671e+00 2.8375051965e+00 4.9147031671e+00 
219100 5.6587700431e+00 -7.0801175865e-05 2.8375051965e+00 -4.9147031671e+00 2.8375051965e+00 4.9147031671e+00 
219200 5.6587700430e+00 -7.0269576627e-05 2.8375064441e+00 -4.9147053280e+00 2.8375064441e+00 4.9147053280e+00 
219300 5.6587700430e+00 -7.0456346200e-05 2.8375064441e+00 -4.9147053280e+00 2.8375064441e+00 4.9147053280e+00 
219400 5.6587700429e+00 -7.0644169424e-05 2.8375064441e+00 -4.9147053280e+00 2.8375064441e+00 4.9147053280e+00 
219500 5.6587700429e+00 -7.0832887358e-05 2.8375064441e+00 -4.9147053280e+00 2.8375064441e+00 4.9147053280e+00 
219600 5.6587700428e+00 -7.0298522599e-05 2.8375076922e+00 -4.9147074898e+00 2.8375076922e+00 4.9147074898e+00 
219700 5.6587700427e+00 -7.0482816584e-05 2.8375076922e+00 -4.9147074898e+00 2.8375076922e+00 4.9147074898e+00 
219800 5.6587700427e+00 -7.0668137761e-05 2.8375076922e+00 -4.9147074898e+00 2.8375076922e+00 4.9147074898e+00 
219900 5.6587700426e+00 -7.0854331012e-05 2.8375076922e+00 -4.9147074898e+00 2.8375076922e+00 4.9147074898e+00 
220000 5.6587700425e+00 -7.0317203214e-05 2.8375089408e+00 -4.9147096524e+00 2.8375089408e+00 4.9147096524e+00 
220100 5.6587700425e+00 -7.0498934509e-05 2.8375089408e+00 -4.9147096524e+00 2.8375089408e+00 4.9147096524e+00 
220200 5.6587700425e+00 -7.0681678536e-05 2.8375089408e+00 -4.9147096524e+00 2.8375089408e+00 4.9147096524e+00 
220300 5.6587700424e+00 -7.0865282019e-05 2.8375089408e+00 -4.9147096524e+00 2.8375089408e+00 4.9147096524e+00 
220400 5.6587700423e+00 -7.0325441750e-05 2.8375101895e+00 -4.9147118152e+00 2.8375101895e+00 4.9147118152e+00 
220500 5.6587700423e+00 -7.0504561640e-05 2.8375101895e+00 -4.9147118152e+00 2.8375101895e+00 4.9147118152e+00 
220600 5.6587700422e+00 -7.0684685745e-05 2.8375101895e+00 -4.9147118152e+00 2.8375101895e+00 4.9147118152e+00 
220700 5.6587700422e+00 -7.0865661756e-05 2.8375101895e+00 -4.9147118152e+00 2.8375101895e+00 4.9147118152e+00 
220800 5.6587700421e+00 -7.0323183691e-05 2.8375114382e+00 -4.9147139781e+00 2.8375114382e+00 4.9147139781e+00 
220900 5.6587700421e+00 -7.0499663433e-05 2.8375114382e+00 -4.9147139781e+00 2.8375114382e+00 4.9147139781e+00 
221000 5.6587700420e+00 -7.0677142061e-05 2.8375114382e+00 -4.9147139781e+00 2.8375114382e+00 4.9147139781e+00 
221100 5.6587700420e+00 -7.0855467844e-05 2.8375114382e+00 -4.9147139781e+00 2.8375114382e+00 4.9147139781e+00 
221200 5.6587700419e+00 -7.0310439769e-05 2.8375126868e+00 -4.9147161406e+00 2.8375126868e+00 4.9147161406e+00 
221300 5.6587700419e+00 -7.0484262173e-05 2.8375126868e+00 -4.9147161406e+00 2.8375126868e+00 4.9147161406e+00 
221400 5.6587700418e+00 -7.0659080067e-05 2.8375126868e+00 -4.9147161406e+00 2.8375126868e+00 4.9147161406e+00 
221500 5.6587700418e+00 -7.0834742136e-05 2.8375126868e+00 -4.9147161406e+00 2.8375126868e+00 4.9147161406e+00 
221600 5.6587700417e+00 -7.0287259840e-05 2.8375139350e+00 -4.9147183025e+00 2.8375139350e+00 4.9147183025e+00 
221700 5.6587700417e+00 -7.0458415459e-05 2.8375139350e+00 -4.9147183025e+00 2.8375139350e+00 4.9147183025e+00 
221800 5.6587700416e+00 -7.0630564549e-05 2.8375139350e+00 -4.9147183025e+00 2.8375139350e+00 4.9147183025e+00 
221900 5.6587700416e+00 -7.0803556155e-05 2.8375139350e+00 -4.9147183025e+00 2.8375139350e+00 4.9147183025e+00 
222000 5.6587700415e+00 -7.0253721070e-05 2.8375151826e+00 -4.9147204635e+00 2.8375151826e+00 4.9147204635e+00 
222100 5.6587700415e+00 -7.0422206536e-05 2.8375151826e+00 -4.9147204635e+00 2.8375151826e+00 4.9147204635e+00 
222200 5.6587700414e+00 -7.0506831598e-05 2.8375151826e+00 -4.9147204635e+00 2.8375151826e+00 4.9147204635e+00 
222200 5.6587700414e+00 -7.0506831597e-05 2.8375151826e+00 -4.9147204635e+00 2.8375151826e+00 4.9147204635e+00 
