# step Hamiltonian StressXX CellTensor1 CellTensor2 CellTensor3 CellTensor4 
0 5.5736411445e+00 1.3372249094e-01 2.8237630504e+00 -4.8909010719e+00 2.8237630504e+00 4.8909010719e+00 
100 5.4358893017e+00 1.3276671494e-01 2.8237630504e+00 -4.8909010719e+00 2.8237630504e+00 4.8909010719e+00 
200 5.3152072441e+00 1.3407065317e-01 2.8214124942e+00 -4.8868297890e+00 2.8214124942e+00 4.8868297890e+00 
300 5.2099349567e+00 1.3728975965e-01 2.8190368788e+00 -4.8827151024e+00 2.8190368788e+00 4.8827151024e+00 
400 5.1183578933e+00 1.4221268227e-01 2.8166021824e+00 -4.8784980846e+00 2.8166021824e+00 4.8784980846e+00 
500 5.0389114935e+00 1.4864828884e-01 2.8140780166e+00 -4.8741261012e+00 2.8140780166e+00 4.8741261012e+00 
600 4.9701650176e+00 1.5642209318e-01 2.8114372757e+00 -4.8695522039e+00 2.8114372757e+00 4.8695522039e+00 
700 4.9108064526e+00 1.6537143296e-01 2.8086558466e+00 -4.8647346273e+00 2.8086558466e+00 4.8647346273e+00 
800 4.8596282286e+00 1.7533900206e-01 2.8057124010e+00 -4.8596364300e+00 2.8057124010e+00 4.8596364300e+00 
900 4.8155135125e+00 1.8616418208e-01 2.8025883028e+00 -4.8542253332e+00 2.8025883028e+00 4.8542253332e+00 
1000 4.7774229765e+00 1.9767156938e-01 2.7992676694e+00 -4.8484738274e+00 2.7992676694e+00 4.8484738274e+00 
1100 4.7443822896e+00 2.0965637101e-01 2.7957376397e+00 -4.8423596365e+00 2.7957376397e+00 4.8423596365e+00 
1200 4.7154712727e+00 2.2186731575e-01 2.7919889073e+00 -4.8358666416e+00 2.7919889073e+00 4.8358666416e+00 
1300 4.6898167999e+00 2.3398988607e-01 2.7880165667e+00 -4.8289863459e+00 2.7880165667e+00 4.8289863459e+00 
1400 4.6665930149e+00 2.4563633932e-01 2.7838212706e+00 -4.8217198799e+00 2.7838212706e+00 4.8217198799e+00 
1500 4.6450335912e+00 2.5635344220e-01 2.7794105824e+00 -4.8140803438e+00 2.7794105824e+00 4.8140803438e+00 
1600 4.6244599990e+00 2.6566096439e-01 2.7748002086e+00 -4.8060949421e+00 2.7748002086e+00 4.8060949421e+00 
1700 4.6043247544e+00 2.7312770628e-01 2.7700145587e+00 -4.7978059534e+00 2.7700145587e+00 4.7978059534e+00 
1800 4.5842586353e+00 2.7847218227e-01 2.7650859466e+00 -4.7892693469e+00 2.7650859466e+00 4.7892693469e+00 
1900 4.5641003882e+00 2.8164842701e-01 2.7600519710e+00 -4.7805502453e+00 2.7600519710e+00 4.7805502453e+00 
2000 4.5438870191e+00 2.8286729157e-01 2.7549513154e+00 -4.7717156506e+00 2.7549513154e+00 4.7717156506e+00 
2100 4.5237994147e+00 2.8253178440e-01 2.7498191144e+00 -4.7628264178e+00 2.7498191144e+00 4.7628264178e+00 
2200 4.5040827089e+00 2.8111716825e-01 2.7446834376e+00 -4.7539311646e+00 2.7446834376e+00 4.7539311646e+00 
2300 4.4849729838e+00 2.7905650001e-01 2.7395639112e+00 -4.7450638848e+00 2.7395639112e+00 4.7450638848e+00 
2400 4.4666524319e+00 2.7667563573e-01 2.7344724097e+00 -4.7362451455e+00 2.7344724097e+00 4.7362451455e+00 
2500 4.4492356876e+00 2.7418246254e-01 2.7294149412e+00 -4.7274853530e+00 2.7294149412e+00 4.7274853530e+00 
2600 4.4327769070e+00 2.7168923341e-01 2.7243937513e+00 -4.7187883970e+00 2.7243937513e+00 4.7187883970e+00 
2700 4.4172851664e+00 2.6924445179e-01 2.7194090422e+00 -4.7101546276e+00 2.7194090422e+00 4.7101546276e+00 
2800 4.4027399575e+00 2.6686039485e-01 2.7144601248e+00 -4.7015828512e+00 2.7144601248e+00 4.7015828512e+00 
2900 4.3891033453e+00 2.6453195373e-01 2.7095460775e+00 -4.6930714717e+00 2.7095460775e+00 4.6930714717e+00 
3000 4.3763283115e+00 2.6224765134e-01 2.7046660649e+00 -4.6846190419e+00 2.7046660649e+00 4.6846190419e+00 
3100 4.3643640193e+00 2.5999524899e-01 2.6998194561e+00 -4.6762244693e+00 2.6998194561e+00 4.6762244693e+00 
3200 4.3531589434e+00 2.5776415052e-01 2.6950058411e+00 -4.6678870435e+00 2.6950058411e+00 4.6678870435e+00 
3300 4.3426626435e+00 2.5554612919e-01 2.6902250021e+00 -4.6596063874e+00 2.6902250021e+00 4.6596063874e+00 
3400 4.3328267190e+00 2.5333528165e-01 2.6854768713e+00 -4.6513823837e+00 2.6854768713e+00 4.6513823837e+00 
3500 4.3236052844e+00 2.5112768959e-01 2.6807614892e+00 -4.6432151023e+00 2.6807614892e+00 4.6432151023e+00 
3600 4.3149551704e+00 2.4892101889e-01 2.6760789684e+00 -4.6351047383e+00 2.6760789684e+00 4.6351047383e+00 
3700 4.3068359677e+00 2.4671415222e-01 2.6714294645e+00 -4.6270515613e+00 2.6714294645e+00 4.6270515613e+00 
3800 4.2992099840e+00 2.4450688522e-01 2.6668131540e+00 -4.6190558771e+00 2.6668131540e+00 4.6190558771e+00 
3900 4.2920421498e+00 2.4229968754e-01 2.6622302174e+00 -4.6111179980e+00 2.6622302174e+00 4.6111179980e+00 
4000 4.2852998982e+00 2.4009351941e-01 2.6576808261e+00 -4.6032382211e+00 2.6576808261e+00 4.6032382211e+00 
4100 4.2789530298e+00 2.3788969188e-01 2.6531651335e+00 -4.5954168121e+00 2.6531651335e+00 4.5954168121e+00 
4200 4.2729735717e+00 2.3568976033e-01 2.6486832680e+00 -4.5876539934e+00 2.6486832680e+00 4.5876539934e+00 
4300 4.2673356346e+00 2.3349544253e-01 2.6442353284e+00 -4.5799499360e+00 2.6442353284e+00 4.5799499360e+00 
4400 4.2620152725e+00 2.3130855503e-01 2.6398213802e+00 -4.5723047535e+00 2.6398213802e+00 4.5723047535e+00 
4500 4.2569903458e+00 2.2913096319e-01 2.6354414538e+00 -4.5647184984e+00 2.6354414538e+00 4.5647184984e+00 
4600 4.2522403897e+00 2.2696454147e-01 2.6310955430e+00 -4.5571911601e+00 2.6310955430e+00 4.5571911601e+00 
4700 4.2477464894e+00 2.2481114188e-01 2.6267836048e+00 -4.5497226640e+00 2.6267836048e+00 4.5497226640e+00 
4800 4.2434911618e+00 2.2267256874e-01 2.6225055592e+00 -4.5423128716e+00 2.6225055592e+00 4.5423128716e+00 
4900 4.2394582450e+00 2.2055055870e-01 2.6182612899e+00 -4.5349615816e+00 2.6182612899e+00 4.5349615816e+00 
5000 4.2356327940e+00 2.1844676515e-01 2.6140506457e+00 -4.5276685320e+00 2.6140506457e+00 4.5276685320e+00 
5100 4.2320009849e+00 2.1636274628e-01 2.6098734413e+00 -4.5204334017e+00 2.6098734413e+00 4.5204334017e+00 
5200 4.2285500254e+00 2.1429995628e-01 2.6057294591e+00 -4.5132558140e+00 2.6057294591e+00 4.5132558140e+00 
5300 4.2252680723e+00 2.1225973928e-01 2.6016184509e+00 -4.5061353389e+00 2.6016184509e+00 4.5061353389e+00 
5400 4.2221441558e+00 2.1024332560e-01 2.5975401400e+00 -4.4990714971e+00 2.5975401400e+00 4.4990714971e+00 
5500 4.2191681095e+00 2.0825182991e-01 2.5934942228e+00 -4.4920637630e+00 2.5934942228e+00 4.4920637630e+00 
5600 4.2163305063e+00 2.0628625111e-01 2.5894803712e+00 -4.4851115682e+00 2.5894803712e+00 4.4851115682e+00 
5700 4.2136225995e+00 2.0434747358e-01 2.5854982347e+00 -4.4782143055e+00 2.5854982347e+00 4.4782143055e+00 
5800 4.2110362693e+00 2.0243626953e-01 2.5815474423e+00 -4.4713713322e+00 2.5815474423e+00 4.4713713322e+00 
5900 4.2085639732e+00 2.0055330237e-01 2.5776276044e+00 -4.4645819739e+00 2.5776276044e+00 4.4645819739e+00 
6000 4.2061987009e+00 1.9869913065e-01 2.5737383153e+00 -4.4578455275e+00 2.5737383153e+00 4.4578455275e+00 
6100 4.2039339333e+00 1.9687421269e-01 2.5698791548e+00 -4.4511612654e+00 2.5698791548e+00 4.4511612654e+00 
6200 4.2017636042e+00 1.9507891154e-01 2.5660496900e+00 -4.4445284379e+00 2.5660496900e+00 4.4445284379e+00 
6300 4.1996820663e+00 1.9331350018e-01 2.5622494776e+00 -4.4379462769e+00 2.5622494776e+00 4.4379462769e+00 
6400 4.1976840589e+00 1.9157816696e-01 2.5584780651e+00 -4.4314139988e+00 2.5584780651e+00 4.4314139988e+00 
6500 4.1957646793e+00 1.8987302107e-01 2.5547349927e+00 -4.4249308072e+00 2.5547349927e+00 4.4249308072e+00 
6600 4.1939193558e+00 1.8819809794e-01 2.5510197948e+00 -4.4184958956e+00 2.5510197948e+00 4.4184958956e+00 
6700 4.1921438234e+00 1.8655336469e-01 2.5473320014e+00 -4.4121084502e+00 2.5473320014e+00 4.4121084502e+00 
6800 4.1904341014e+00 1.8493872534e-01 2.5436711396e+00 -4.4057676516e+00 2.5436711396e+00 4.4057676516e+00 
6900 4.1887864726e+00 1.8335402593e-01 2.5400367348e+00 -4.3994726778e+00 2.5400367348e+00 4.3994726778e+00 
7000 4.1871974644e+00 1.8179905943e-01 2.5364283118e+00 -4.3932227058e+00 2.5364283118e+00 4.3932227058e+00 
7100 4.1856638313e+00 1.8027357044e-01 2.5328453959e+00 -4.3870169134e+00 2.5328453959e+00 4.3870169134e+00 
7200 4.1841825386e+00 1.7877725965e-01 2.5292875140e+00 -4.3808544812e+00 2.5292875140e+00 4.3808544812e+00 
7300 4.1827507478e+00 1.7730978809e-01 2.5257541955e+00 -4.3747345940e+00 2.5257541955e+00 4.3747345940e+00 
7400 4.1813658027e+00 1.7587078112e-01 2.5222449731e+00 -4.3686564425e+00 2.5222449731e+00 4.3686564425e+00 
7500 4.1800252169e+00 1.7445983219e-01 2.5187593837e+00 -4.3626192245e+00 2.5187593837e+00 4.3626192245e+00 
7600 4.1787266617e+00 1.7307650637e-01 2.5152969688e+00 -4.3566221461e+00 2.5152969688e+00 4.3566221461e+00 
7700 4.1774679560e+00 1.7172034367e-01 2.5118572756e+00 -4.3506644228e+00 2.5118572756e+00 4.3506644228e+00 
7800 4.1762470555e+00 1.7039086205e-01 2.5084398573e+00 -4.3447452805e+00 2.5084398573e+00 4.3447452805e+00 
7900 4.1750620440e+00 1.6908756033e-01 2.5050442734e+00 -4.3388639567e+00 2.5050442734e+00 4.3388639567e+00 
8000 4.1739111243e+00 1.6780992083e-01 2.5016700907e+00 -4.3330197008e+00 2.5016700907e+00 4.3330197008e+00 
8100 4.1727926109e+00 1.6655741182e-01 2.4983168833e+00 -4.3272117752e+00 2.4983168833e+00 4.3272117752e+00 
8200 4.1717049219e+00 1.6532948980e-01 2.4949842331e+00 -4.3214394558e+00 2.4949842331e+00 4.3214394558e+00 
8300 4.1706465727e+00 1.6412560158e-01 2.4916717302e+00 -4.3157020325e+00 2.4916717302e+00 4.3157020325e+00 
8400 4.1696161693e+00 1.6294518627e-01 2.4883789731e+00 -4.3099988099e+00 2.4883789731e+00 4.3099988099e+00 
8500 4.1686124026e+00 1.6178767702e-01 2.4851055688e+00 -4.3043291074e+00 2.4851055688e+00 4.3043291074e+00 
8600 4.1676340428e+00 1.6065250266e-01 2.4818511334e+00 -4.2986922599e+00 2.4818511334e+00 4.2986922599e+00 
8700 4.1666799343e+00 1.5953908925e-01 2.4786152919e+00 -4.2930876180e+00 2.4786152919e+00 4.2930876180e+00 
8800 4.1657489910e+00 1.5844686146e-01 2.4753976784e+00 -4.2875145480e+00 2.4753976784e+00 4.2875145480e+00 
8900 4.1648401918e+00 1.5737524382e-01 2.4721979365e+00 -4.2819724324e+00 2.4721979365e+00 4.2819724324e+00 
9000 4.1639525767e+00 1.5632366193e-01 2.4690157190e+00 -4.2764606700e+00 2.4690157190e+00 4.2764606700e+00 
9100 4.1630852426e+00 1.5529154350e-01 2.4658506882e+00 -4.2709786759e+00 2.4658506882e+00 4.2709786759e+00 
9200 4.1622373402e+00 1.5427831938e-01 2.4627025161e+00 -4.2655258818e+00 2.4627025161e+00 4.2655258818e+00 
9300 4.1614080702e+00 1.5328342442e-01 2.4595708838e+00 -4.2601017356e+00 2.4595708838e+00 4.2601017356e+00 
9400 4.1605966805e+00 1.5230629835e-01 2.4564554823e+00 -4.2547057018e+00 2.4564554823e+00 4.2547057018e+00 
9500 4.1598024633e+00 1.5134638648e-01 2.4533560119e+00 -4.2493372616e+00 2.4533560119e+00 4.2493372616e+00 
9600 4.1590247522e+00 1.5040314047e-01 2.4502721824e+00 -4.2439959122e+00 2.4502721824e+00 4.2439959122e+00 
9700 4.1582629199e+00 1.4947601891e-01 2.4472037130e+00 -4.2386811674e+00 2.4472037130e+00 4.2386811674e+00 
9800 4.1575163756e+00 1.4856448792e-01 2.4441503323e+00 -4.2333925569e+00 2.4441503323e+00 4.2333925569e+00 
9900 4.1567845629e+00 1.4766802172e-01 2.4411117782e+00 -4.2281296268e+00 2.4411117782e+00 4.2281296268e+00 
10000 4.1560669579e+00 1.4678610307e-01 2.4380877977e+00 -4.2228919389e+00 2.4380877977e+00 4.2228919389e+00 
10100 4.1553630670e+00 1.4591822375e-01 2.4350781468e+00 -4.2176790707e+00 2.4350781468e+00 4.2176790707e+00 
10200 4.1546724252e+00 1.4506388495e-01 2.4320825907e+00 -4.2124906154e+00 2.4320825907e+00 4.2124906154e+00 
10300 4.1539945943e+00 1.4422259768e-01 2.4291009033e+00 -4.2073261813e+00 2.4291009033e+00 4.2073261813e+00 
10400 4.1533291614e+00 1.4339388306e-01 2.4261328672e+00 -4.2021853919e+00 2.4261328672e+00 4.2021853919e+00 
10500 4.1526757374e+00 1.4257727267e-01 2.4231782735e+00 -4.1970678855e+00 2.4231782735e+00 4.1970678855e+00 
10600 4.1520339554e+00 1.4177230879e-01 2.4202369219e+00 -4.1919733150e+00 2.4202369219e+00 4.1919733150e+00 
10700 4.1514034698e+00 1.4097854470e-01 2.4173086201e+00 -4.1869013476e+00 2.4173086201e+00 4.1869013476e+00 
10800 4.1507839543e+00 1.4019554487e-01 2.4143931842e+00 -4.1818516645e+00 2.4143931842e+00 4.1818516645e+00 
10900 4.1501751014e+00 1.3942288519e-01 2.4114904380e+00 -4.1768239606e+00 2.4114904380e+00 4.1768239606e+00 
11000 4.1495766210e+00 1.3866015311e-01 2.4086002131e+00 -4.1718179442e+00 2.4086002131e+00 4.1718179442e+00 
11100 4.1489882393e+00 1.3790694784e-01 2.4057223486e+00 -4.1668333366e+00 2.4057223486e+00 4.1668333366e+00 
11200 4.1484096978e+00 1.3716288047e-01 2.4028566909e+00 -4.1618698720e+00 2.4028566909e+00 4.1618698720e+00 
11300 4.1478407526e+00 1.3642757406e-01 2.4000030939e+00 -4.1569272970e+00 2.4000030939e+00 4.1569272970e+00 
11400 4.1472811730e+00 1.3570066379e-01 2.3971614181e+00 -4.1520053701e+00 2.3971614181e+00 4.1520053701e+00 
11500 4.1467307411e+00 1.3498179698e-01 2.3943315309e+00 -4.1471038617e+00 2.3943315309e+00 4.1471038617e+00 
11600 4.1461892507e+00 1.3427063318e-01 2.3915133063e+00 -4.1422225535e+00 2.3915133063e+00 4.1422225535e+00 
11700 4.1456565068e+00 1.3356684420e-01 2.3887066246e+00 -4.1373612382e+00 2.3887066246e+00 4.1373612382e+00 
11800 4.1451323246e+00 1.3287011414e-01 2.3859113722e+00 -4.1325197190e+00 2.3859113722e+00 4.1325197190e+00 
11900 4.1446165288e+00 1.3218013938e-01 2.3831274415e+00 -4.1276978095e+00 2.3831274415e+00 4.1276978095e+00 
12000 4.1441089532e+00 1.3149662855e-01 2.3803547305e+00 -4.1228953332e+00 2.3803547305e+00 4.1228953332e+00 
12100 4.1436094398e+00 1.3081930255e-01 2.3775931428e+00 -4.1181121230e+00 2.3775931428e+00 4.1181121230e+00 
12200 4.1431178384e+00 1.3014789445e-01 2.3748425871e+00 -4.1133480208e+00 2.3748425871e+00 4.1133480208e+00 
12300 4.1426340058e+00 1.2948214944e-01 2.3721029774e+00 -4.1086028776e+00 2.3721029774e+00 4.1086028776e+00 
12400 4.1421578055e+00 1.2882182475e-01 2.3693742322e+00 -4.1038765523e+00 2.3693742322e+00 4.1038765523e+00 
12500 4.1416891068e+00 1.2816668956e-01 2.3666562748e+00 -4.0991689121e+00 2.3666562748e+00 4.0991689121e+00 
12600 4.1412277849e+00 1.2751652485e-01 2.3639490329e+00 -4.0944798315e+00 2.3639490329e+00 4.0944798315e+00 
12700 4.1407737198e+00 1.2687112332e-01 2.3612524382e+00 -4.0898091924e+00 2.3612524382e+00 4.0898091924e+00 
12800 4.1403267963e+00 1.2623028920e-01 2.3585664264e+00 -4.0851568836e+00 2.3585664264e+00 4.0851568836e+00 
12900 4.1398869035e+00 1.2559383809e-01 2.3558909369e+00 -4.0805227999e+00 2.3558909369e+00 4.0805227999e+00 
13000 4.1394539340e+00 1.2496159681e-01 2.3532259127e+00 -4.0759068425e+00 2.3532259127e+00 4.0759068425e+00 
13100 4.1390277841e+00 1.2433340318e-01 2.3505713000e+00 -4.0713089183e+00 2.3505713000e+00 4.0713089183e+00 
13200 4.1386083531e+00 1.2370910584e-01 2.3479270479e+00 -4.0667289394e+00 2.3479270479e+00 4.0667289394e+00 
13300 4.1381955431e+00 1.2308856400e-01 2.3452931086e+00 -4.0621668227e+00 2.3452931086e+00 4.0621668227e+00 
13400 4.1377892586e+00 1.2247164721e-01 2.3426694369e+00 -4.0576224900e+00 2.3426694369e+00 4.0576224900e+00 
13500 4.1373894061e+00 1.2185823516e-01 2.3400559899e+00 -4.0530958671e+00 2.3400559899e+00 4.0530958671e+00 
13600 4.1369958941e+00 1.2124821737e-01 2.3374527272e+00 -4.0485868837e+00 2.3374527272e+00 4.0485868837e+00 
13700 4.1366086328e+00 1.2064149292e-01 2.3348596101e+00 -4.0440954733e+00 2.3348596101e+00 4.0440954733e+00 
13800 4.1362275334e+00 1.2003797023e-01 2.3322766021e+00 -4.0396215722e+00 2.3322766021e+00 4.0396215722e+00 
13900 4.1358525086e+00 1.1943756669e-01 2.3297036682e+00 -4.0351651199e+00 2.3297036682e+00 4.0351651199e+00 
14000 4.1354834718e+00 1.1884020844e-01 2.3271407749e+00 -4.0307260585e+00 2.3271407749e+00 4.0307260585e+00 
14100 4.1351203372e+00 1.1824583000e-01 2.3245878900e+00 -4.0263043321e+00 2.3245878900e+00 4.0263043321e+00 
14200 4.1347630198e+00 1.1765437401e-01 2.3220449824e+00 -4.0218998869e+00 2.3220449824e+00 4.0218998869e+00 
14300 4.1344114346e+00 1.1706579087e-01 2.3195120220e+00 -4.0175126709e+00 2.3195120220e+00 4.0175126709e+00 
14400 4.1340654973e+00 1.1648003842e-01 2.3169889797e+00 -4.0131426334e+00 2.3169889797e+00 4.0131426334e+00 
14500 4.1337251235e+00 1.1589708164e-01 2.3144758267e+00 -4.0087897248e+00 2.3144758267e+00 4.0087897248e+00 
14600 4.1333902291e+00 1.1531689228e-01 2.3119725350e+00 -4.0044538963e+00 2.3119725350e+00 4.0044538963e+00 
14700 4.1330607299e+00 1.1473944856e-01 2.3094790768e+00 -4.0001351000e+00 2.3094790768e+00 4.0001351000e+00 
14800 4.1327365414e+00 1.1416473478e-01 2.3069954246e+00 -3.9958332882e+00 2.3069954246e+00 3.9958332882e+00 
14900 4.1324175792e+00 1.1359274103e-01 2.3045215509e+00 -3.9915484133e+00 2.3045215509e+00 3.9915484133e+00 
15000 4.1321037587e+00 1.1302346282e-01 2.3020574283e+00 -3.9872804277e+00 2.3020574283e+00 3.9872804277e+00 
15100 4.1317949950e+00 1.1245690076e-01 2.2996030292e+00 -3.9830292838e+00 2.2996030292e+00 3.9830292838e+00 
15200 4.1314912029e+00 1.1189306020e-01 2.2971583257e+00 -3.9787949331e+00 2.2971583257e+00 3.9787949331e+00 
15300 4.1311922969e+00 1.1133195092e-01 2.2947232896e+00 -3.9745773269e+00 2.2947232896e+00 3.9745773269e+00 
15400 4.1308981915e+00 1.1077358677e-01 2.2922978923e+00 -3.9703764155e+00 2.2922978923e+00 3.9703764155e+00 
15500 4.1306088006e+00 1.1021798536e-01 2.2898821045e+00 -3.9661921483e+00 2.2898821045e+00 3.9661921483e+00 
15600 4.1303240381e+00 1.0966516772e-01 2.2874758964e+00 -3.9620244736e+00 2.2874758964e+00 3.9620244736e+00 
15700 4.1300438175e+00 1.0911515800e-01 2.2850792373e+00 -3.9578733384e+00 2.2850792373e+00 3.9578733384e+00 
15800 4.1297680523e+00 1.0856798314e-01 2.2826920961e+00 -3.9537386885e+00 2.2826920961e+00 3.9537386885e+00 
15900 4.1294966557e+00 1.0802367257e-01 2.2803144405e+00 -3.9496204682e+00 2.2803144405e+00 3.9496204682e+00 
16000 4.1292295408e+00 1.0748225791e-01 2.2779462375e+00 -3.9455186202e+00 2.2779462375e+00 3.9455186202e+00 
16100 4.1289666209e+00 1.0694377269e-01 2.2755874530e+00 -3.9414330856e+00 2.2755874530e+00 3.9414330856e+00 
16200 4.1287078090e+00 1.0640825203e-01 2.2732380520e+00 -3.9373638037e+00 2.2732380520e+00 3.9373638037e+00 
16300 4.1284530183e+00 1.0587573241e-01 2.2708979985e+00 -3.9333107121e+00 2.2708979985e+00 3.9333107121e+00 
16400 4.1282021622e+00 1.0534625138e-01 2.2685672553e+00 -3.9292737466e+00 2.2685672553e+00 3.9292737466e+00 
16500 4.1279551541e+00 1.0481984729e-01 2.2662457843e+00 -3.9252528408e+00 2.2662457843e+00 3.9252528408e+00 
16600 4.1277119081e+00 1.0429655907e-01 2.2639335461e+00 -3.9212479268e+00 2.2639335461e+00 3.9212479268e+00 
16700 4.1274723381e+00 1.0377642599e-01 2.2616305002e+00 -3.9172589343e+00 2.2616305002e+00 3.9172589343e+00 
16800 4.1272363587e+00 1.0325948742e-01 2.2593366051e+00 -3.9132857915e+00 2.2593366051e+00 3.9132857915e+00 
16900 4.1270038851e+00 1.0274578262e-01 2.2570518180e+00 -3.9093284241e+00 2.2570518180e+00 3.9093284241e+00 
17000 4.1267748329e+00 1.0223535052e-01 2.2547760950e+00 -3.9053867562e+00 2.2547760950e+00 3.9053867562e+00 
17100 4.1265491183e+00 1.0172822956e-01 2.2525093910e+00 -3.9014607097e+00 2.2525093910e+00 3.9014607097e+00 
17200 4.1263266582e+00 1.0122445746e-01 2.2502516597e+00 -3.8975502045e+00 2.2502516597e+00 3.8975502045e+00 
17300 4.1261073704e+00 1.0072407109e-01 2.2480028540e+00 -3.8936551586e+00 2.2480028540e+00 3.8936551586e+00 
17400 4.1258911735e+00 1.0022710629e-01 2.2457629252e+00 -3.8897754882e+00 2.2457629252e+00 3.8897754882e+00 
17500 4.1256779870e+00 9.9733597687e-02 2.2435318239e+00 -3.8859111074e+00 2.2435318239e+00 3.8859111074e+00 
17600 4.1254677312e+00 9.9243578607e-02 2.2413094995e+00 -3.8820619285e+00 2.2413094995e+00 3.8820619285e+00 
17700 4.1252603276e+00 9.8757080906e-02 2.2390959001e+00 -3.8782278621e+00 2.2390959001e+00 3.8782278621e+00 
17800 4.1250556989e+00 9.8274134862e-02 2.2368909733e+00 -3.8744088167e+00 2.2368909733e+00 3.8744088167e+00 
17900 4.1248537686e+00 9.7794769062e-02 2.2346946652e+00 -3.8706046995e+00 2.2346946652e+00 3.8706046995e+00 
18000 4.1246544616e+00 9.7319010302e-02 2.2325069213e+00 -3.8668154159e+00 2.2325069213e+00 3.8668154159e+00 
18100 4.1244577040e+00 9.6846883493e-02 2.2303276859e+00 -3.8630408695e+00 2.2303276859e+00 3.8630408695e+00 
18200 4.1242634233e+00 9.6378411585e-02 2.2281569028e+00 -3.8592809628e+00 2.2281569028e+00 3.8592809628e+00 
18300 4.1240715480e+00 9.5913615487e-02 2.2259945145e+00 -3.8555355965e+00 2.2259945145e+00 3.8555355965e+00 
18400 4.1238820082e+00 9.5452514009e-02 2.2238404632e+00 -3.8518046702e+00 2.2238404632e+00 3.8518046702e+00 
18500 4.1236947354e+00 9.4995123806e-02 2.2216946900e+00 -3.8480880819e+00 2.2216946900e+00 3.8480880819e+00 
18600 4.1235096624e+00 9.4541459331e-02 2.2195571354e+00 -3.8443857288e+00 2.2195571354e+00 3.8443857288e+00 
18700 4.1233267235e+00 9.4091532797e-02 2.2174277393e+00 -3.8406975066e+00 2.2174277393e+00 3.8406975066e+00 
18800 4.1231458543e+00 9.3645354145e-02 2.2153064410e+00 -3.8370233101e+00 2.2153064410e+00 3.8370233101e+00 
18900 4.1229669921e+00 9.3202931027e-02 2.2131931792e+00 -3.8333630334e+00 2.2131931792e+00 3.8333630334e+00 
19000 4.1227900755e+00 9.2764268780e-02 2.2110878922e+00 -3.8297165692e+00 2.2110878922e+00 3.8297165692e+00 
19100 4.1226150448e+00 9.2329370428e-02 2.2089905177e+00 -3.8260838101e+00 2.2089905177e+00 3.8260838101e+00 
19200 4.1224418416e+00 9.1898236672e-02 2.2069009931e+00 -3.8224646474e+00 2.2069009931e+00 3.8224646474e+00 
19300 4.1222704091e+00 9.1470865896e-02 2.2048192556e+00 -3.8188589722e+00 2.2048192556e+00 3.8188589722e+00 
19400 4.1221006920e+00 9.1047254177e-02 2.2027452418e+00 -3.8152666750e+00 2.2027452418e+00 3.8152666750e+00 
19500 4.1219326366e+00 9.0627395302e-02 2.2006788884e+00 -3.8116876459e+00 2.2006788884e+00 3.8116876459e+00 
19600 4.1217661905e+00 9.0211280782e-02 2.1986201317e+00 -3.8081217746e+00 2.1986201317e+00 3.8081217746e+00 
19700 4.1216013030e+00 8.9798899885e-02 2.1965689079e+00 -3.8045689508e+00 2.1965689079e+00 3.8045689508e+00 
19800 4.1214379247e+00 8.9390239659e-02 2.1945251532e+00 -3.8010290638e+00 2.1945251532e+00 3.8010290638e+00 
19900 4.1212760078e+00 8.8985284971e-02 2.1924888038e+00 -3.7975020032e+00 2.1924888038e+00 3.7975020032e+00 
20000 4.1211155060e+00 8.8584018540e-02 2.1904597958e+00 -3.7939876583e+00 2.1904597958e+00 3.7939876583e+00 
20100 4.1209563743e+00 8.8186420984e-02 2.1884380656e+00 -3.7904859188e+00 2.1884380656e+00 3.7904859188e+00 
20200 4.1207985691e+00 8.7792470860e-02 2.1864235494e+00 -3.7869966744e+00 2.1864235494e+00 3.7869966744e+00 
20300 4.1206420485e+00 8.7402144713e-02 2.1844161839e+00 -3.7835198155e+00 2.1844161839e+00 3.7835198155e+00 
20400 4.1204867716e+00 8.7015417131e-02 2.1824159060e+00 -3.7800552324e+00 2.1824159060e+00 3.7800552324e+00 
20500 4.1203326992e+00 8.6632260790e-02 2.1804226526e+00 -3.7766028163e+00 2.1804226526e+00 3.7766028163e+00 
20600 4.1201797931e+00 8.6252646517e-02 2.1784363612e+00 -3.7731624587e+00 2.1784363612e+00 3.7731624587e+00 
20700 4.1200280169e+00 8.5876543344e-02 2.1764569697e+00 -3.7697340520e+00 2.1764569697e+00 3.7697340520e+00 
20800 4.1198773349e+00 8.5503918568e-02 2.1744844161e+00 -3.7663174890e+00 2.1744844161e+00 3.7663174890e+00 
20900 4.1197277131e+00 8.5134737809e-02 2.1725186393e+00 -3.7629126637e+00 2.1725186393e+00 3.7629126637e+00 
21000 4.1195791186e+00 8.4768965079e-02 2.1705595783e+00 -3.7595194705e+00 2.1705595783e+00 3.7595194705e+00 
21100 4.1194315198e+00 8.4406562836e-02 2.1686071730e+00 -3.7561378052e+00 2.1686071730e+00 3.7561378052e+00 
21200 4.1192848860e+00 8.4047492057e-02 2.1666613635e+00 -3.7527675644e+00 2.1666613635e+00 3.7527675644e+00 
21300 4.1191391881e+00 8.3691712296e-02 2.1647220909e+00 -3.7494086457e+00 2.1647220909e+00 3.7494086457e+00 
21400 4.1189943977e+00 8.3339181754e-02 2.1627892967e+00 -3.7460609480e+00 2.1627892967e+00 3.7460609480e+00 
21500 4.1188504878e+00 8.2989857341e-02 2.1608629233e+00 -3.7427243713e+00 2.1608629233e+00 3.7427243713e+00 
21600 4.1187074324e+00 8.2643694747e-02 2.1589429136e+00 -3.7393988170e+00 2.1589429136e+00 3.7393988170e+00 
21700 4.1185652065e+00 8.2300648503e-02 2.1570292115e+00 -3.7360841877e+00 2.1570292115e+00 3.7360841877e+00 
21800 4.1184237861e+00 8.1960672049e-02 2.1551217615e+00 -3.7327803874e+00 2.1551217615e+00 3.7327803874e+00 
21900 4.1182831483e+00 8.1623717800e-02 2.1532205091e+00 -3.7294873216e+00 2.1532205091e+00 3.7294873216e+00 
22000 4.1181432711e+00 8.1289737213e-02 2.1513254005e+00 -3.7262048973e+00 2.1513254005e+00 3.7262048973e+00 
22100 4.1180041334e+00 8.0958680847e-02 2.1494363830e+00 -3.7229330229e+00 2.1494363830e+00 3.7229330229e+00 
22200 4.1178657152e+00 8.0630498435e-02 2.1475534045e+00 -3.7196716086e+00 2.1475534045e+00 3.7196716086e+00 
22300 4.1177279971e+00 8.0305138939e-02 2.1456764141e+00 -3.7164205659e+00 2.1456764141e+00 3.7164205659e+00 
22400 4.1175909609e+00 7.9982550620e-02 2.1438053618e+00 -3.7131798082e+00 2.1438053618e+00 3.7131798082e+00 
22500 4.1174545890e+00 7.9662681099e-02 2.1419401986e+00 -3.7099492507e+00 2.1419401986e+00 3.7099492507e+00 
22600 4.1173188646e+00 7.9345477413e-02 2.1400808762e+00 -3.7067288100e+00 2.1400808762e+00 3.7067288100e+00 
22700 4.1171837719e+00 7.9030886082e-02 2.1382273479e+00 -3.7035184046e+00 2.1382273479e+00 3.7035184046e+00 
22800 4.1170492958e+00 7.8718853166e-02 2.1363795675e+00 -3.7003179551e+00 2.1363795675e+00 3.7003179551e+00 
22900 4.1169154217e+00 7.8409324320e-02 2.1345374901e+00 -3.6971273835e+00 2.1345374901e+00 3.6971273835e+00 
23000 4.1167821361e+00 7.8102244855e-02 2.1327010719e+00 -3.6939466139e+00 2.1327010719e+00 3.6939466139e+00 
23100 4.1166494259e+00 7.7797559793e-02 2.1308702701e+00 -3.6907755721e+00 2.1308702701e+00 3.6907755721e+00 
23200 4.1165172789e+00 7.7495213919e-02 2.1290450430e+00 -3.6876141861e+00 2.1290450430e+00 3.6876141861e+00 
23300 4.1163856834e+00 7.7195151837e-02 2.1272253501e+00 -3.6844623855e+00 2.1272253501e+00 3.6844623855e+00 
23400 4.1162546285e+00 7.6897318021e-02 2.1254111519e+00 -3.6813201020e+00 2.1254111519e+00 3.6813201020e+00 
23500 4.1161241038e+00 7.6601656865e-02 2.1236024101e+00 -3.6781872693e+00 2.1236024101e+00 3.6781872693e+00 
23600 4.1159940995e+00 7.6308112732e-02 2.1217990875e+00 -3.6750638229e+00 2.1217990875e+00 3.6750638229e+00 
23700 4.1158646065e+00 7.6016630005e-02 2.1200011480e+00 -3.6719497005e+00 2.1200011480e+00 3.6719497005e+00 
23800 4.1157356162e+00 7.5727153128e-02 2.1182085569e+00 -3.6688448415e+00 2.1182085569e+00 3.6688448415e+00 
23900 4.1156071205e+00 7.5439626656e-02 2.1164212802e+00 -3.6657491876e+00 2.1164212802e+00 3.6657491876e+00 
24000 4.1154791118e+00 7.5153995297e-02 2.1146392855e+00 -3.6626626822e+00 2.1146392855e+00 3.6626626822e+00 
24100 4.1153515833e+00 7.4870203951e-02 2.1128625414e+00 -3.6595852710e+00 2.1128625414e+00 3.6595852710e+00 
24200 4.1152245283e+00 7.4588197759e-02 2.1110910174e+00 -3.6565169016e+00 2.1110910174e+00 3.6565169016e+00 
24300 4.1150979409e+00 7.4307922132e-02 2.1093246846e+00 -3.6534575234e+00 2.1093246846e+00 3.6534575234e+00 
24400 4.1149718156e+00 7.4029322798e-02 2.1075635150e+00 -3.6504070881e+00 2.1075635150e+00 3.6504070881e+00 
24500 4.1148461472e+00 7.3752345835e-02 2.1058074817e+00 -3.6473655493e+00 2.1058074817e+00 3.6473655493e+00 
24600 4.1147209311e+00 7.3476937704e-02 2.1040565592e+00 -3.6443328625e+00 2.1040565592e+00 3.6443328625e+00 
24700 4.1145961631e+00 7.3203045289e-02 2.1023107229e+00 -3.6413089853e+00 2.1023107229e+00 3.6413089853e+00 
24800 4.1144718394e+00 7.2930615922e-02 2.1005699495e+00 -3.6382938773e+00 2.1005699495e+00 3.6382938773e+00 
24900 4.1143479566e+00 7.2659597422e-02 2.0988342167e+00 -3.6352874999e+00 2.0988342167e+00 3.6352874999e+00 
25000 4.1142245116e+00 7.2389938120e-02 2.0971035035e+00 -3.6322898167e+00 2.0971035035e+00 3.6322898167e+00 
25100 4.1141015020e+00 7.2121586888e-02 2.0953777899e+00 -3.6293007931e+00 2.0953777899e+00 3.6293007931e+00 
25200 4.1139789253e+00 7.1854493170e-02 2.0936570571e+00 -3.6263203965e+00 2.0936570571e+00 3.6263203965e+00 
25300 4.1138567796e+00 7.1588607002e-02 2.0919412873e+00 -3.6233485961e+00 2.0919412873e+00 3.6233485961e+00 
25400 4.1137350635e+00 7.1323879044e-02 2.0902304640e+00 -3.6203853631e+00 2.0902304640e+00 3.6203853631e+00 
25500 4.1136137756e+00 7.1060260598e-02 2.0885245715e+00 -3.6174306707e+00 2.0885245715e+00 3.6174306707e+00 
25600 4.1134929150e+00 7.0797703635e-02 2.0868235954e+00 -3.6144844937e+00 2.0868235954e+00 3.6144844937e+00 
25700 4.1133724811e+00 7.0536160810e-02 2.0851275224e+00 -3.6115468091e+00 2.0851275224e+00 3.6115468091e+00 
25800 4.1132524735e+00 7.0275585491e-02 2.0834363401e+00 -3.6086175953e+00 2.0834363401e+00 3.6086175953e+00 
25900 4.1131328923e+00 7.0015931770e-02 2.0817500371e+00 -3.6056968329e+00 2.0817500371e+00 3.6056968329e+00 
26000 4.1130137376e+00 6.9757154486e-02 2.0800686033e+00 -3.6027845042e+00 2.0800686033e+00 3.6027845042e+00 
26100 4.1128950100e+00 6.9499209241e-02 2.0783920294e+00 -3.5998805930e+00 2.0783920294e+00 3.5998805930e+00 
26200 4.1127767102e+00 6.9242052412e-02 2.0767203072e+00 -3.5969850851e+00 2.0767203072e+00 3.5969850851e+00 
26300 4.1126588393e+00 6.8985641173e-02 2.0750534293e+00 -3.5940979680e+00 2.0750534293e+00 3.5940979680e+00 
26400 4.1125413984e+00 6.8729933503e-02 2.0733913896e+00 -3.5912192308e+00 2.0733913896e+00 3.5912192308e+00 
26500 4.1124243890e+00 6.8474888199e-02 2.0717341828e+00 -3.5883488643e+00 2.0717341828e+00 3.5883488643e+00 
26600 4.1123078128e+00 6.8220464894e-02 2.0700818043e+00 -3.5854868609e+00 2.0700818043e+00 3.5854868609e+00 
26700 4.1121916717e+00 6.7966624059e-02 2.0684342509e+00 -3.5826332147e+00 2.0684342509e+00 3.5826332147e+00 
26800 4.1120759678e+00 6.7713327020e-02 2.0667915200e+00 -3.5797879212e+00 2.0667915200e+00 3.5797879212e+00 
26900 4.1119607034e+00 6.7460535967e-02 2.0651536098e+00 -3.5769509777e+00 2.0651536098e+00 3.5769509777e+00 
27000 4.1118458809e+00 6.7208213957e-02 2.0635205198e+00 -3.5741223827e+00 2.0635205198e+00 3.5741223827e+00 
27100 4.1117315029e+00 6.6956324926e-02 2.0618922499e+00 -3.5713021365e+00 2.0618922499e+00 3.5713021365e+00 
27200 4.1116175724e+00 6.6704833696e-02 2.0602688011e+00 -3.5684902407e+00 2.0602688011e+00 3.5684902407e+00 
27300 4.1115040922e+00 6.6453705978e-02 2.0586501751e+00 -3.5656866983e+00 2.0586501751e+00 3.5656866983e+00 
27400 4.1113910654e+00 6.6202908379e-02 2.0570363746e+00 -3.5628915138e+00 2.0570363746e+00 3.5628915138e+00 
27500 4.1112784953e+00 6.5952408408e-02 2.0554274028e+00 -3.5601046929e+00 2.0554274028e+00 3.5601046929e+00 
27600 4.1111663853e+00 6.5702174474e-02 2.0538232638e+00 -3.5573262428e+00 2.0538232638e+00 3.5573262428e+00 
27700 4.1110547389e+00 6.5452175896e-02 2.0522239627e+00 -3.5545561718e+00 2.0522239627e+00 3.5545561718e+00 
27800 4.1109435597e+00 6.5202382902e-02 2.0506295048e+00 -3.5517944898e+00 2.0506295048e+00 3.5517944898e+00 
27900 4.1108328514e+00 6.4952766629e-02 2.0490398966e+00 -3.5490412076e+00 2.0490398966e+00 3.5490412076e+00 
28000 4.1107226179e+00 6.4703299127e-02 2.0474551449e+00 -3.5462963372e+00 2.0474551449e+00 3.5462963372e+00 
28100 4.1106128631e+00 6.4453953358e-02 2.0458752575e+00 -3.5435598920e+00 2.0458752575e+00 3.5435598920e+00 
28200 4.1105035911e+00 6.4204703195e-02 2.0443002428e+00 -3.5408318864e+00 2.0443002428e+00 3.5408318864e+00 
28300 4.1103948058e+00 6.3955523422e-02 2.0427301095e+00 -3.5381123358e+00 2.0427301095e+00 3.5381123358e+00 
28400 4.1102865115e+00 6.3706389734e-02 2.0411648672e+00 -3.5354012567e+00 2.0411648672e+00 3.5354012567e+00 
28500 4.1101787125e+00 6.3457278732e-02 2.0396045262e+00 -3.5326986667e+00 2.0396045262e+00 3.5326986667e+00 
28600 4.1100714129e+00 6.3208167923e-02 2.0380490971e+00 -3.5300045845e+00 2.0380490971e+00 3.5300045845e+00 
28700 4.1099646172e+00 6.2959035714e-02 2.0364985911e+00 -3.5273190293e+00 2.0364985911e+00 3.5273190293e+00 
28800 4.1098583298e+00 6.2709861412e-02 2.0349530201e+00 -3.5246420218e+00 2.0349530201e+00 3.5246420218e+00 
28900 4.1097525550e+00 6.2460625219e-02 2.0334123962e+00 -3.5219735830e+00 2.0334123962e+00 3.5219735830e+00 
29000 4.1096472974e+00 6.2211308225e-02 2.0318767324e+00 -3.5193137353e+00 2.0318767324e+00 3.5193137353e+00 
29100 4.1095425615e+00 6.1961892404e-02 2.0303460419e+00 -3.5166625015e+00 2.0303460419e+00 3.5166625015e+00 
29200 4.1094383516e+00 6.1712360612e-02 2.0288203383e+00 -3.5140199053e+00 2.0288203383e+00 3.5140199053e+00 
29300 4.1093346725e+00 6.1462696575e-02 2.0272996358e+00 -3.5113859713e+00 2.0272996358e+00 3.5113859713e+00 
29400 4.1092315285e+00 6.1212884889e-02 2.0257839488e+00 -3.5087607245e+00 2.0257839488e+00 3.5087607245e+00 
29500 4.1091289243e+00 6.0962911008e-02 2.0242732924e+00 -3.5061441909e+00 2.0242732924e+00 3.5061441909e+00 
29600 4.1090268643e+00 6.0712761240e-02 2.0227676818e+00 -3.5035363968e+00 2.0227676818e+00 3.5035363968e+00 
29700 4.1089253532e+00 6.0462422739e-02 2.0212671326e+00 -3.5009373693e+00 2.0212671326e+00 3.5009373693e+00 
29800 4.1088243953e+00 6.0211883493e-02 2.0197716608e+00 -3.4983471362e+00 2.0197716608e+00 3.4983471362e+00 
29900 4.1087239951e+00 5.9961132325e-02 2.0182812826e+00 -3.4957657254e+00 2.0182812826e+00 3.4957657254e+00 
30000 4.1086241572e+00 5.9710158875e-02 2.0167960146e+00 -3.4931931658e+00 2.0167960146e+00 3.4931931658e+00 
30100 4.1085248860e+00 5.9458953595e-02 2.0153158736e+00 -3.4906294864e+00 2.0153158736e+00 3.4906294864e+00 
30200 4.1084261858e+00 5.9207507740e-02 2.0138408767e+00 -3.4880747168e+00 2.0138408767e+00 3.4880747168e+00 
30300 4.1083280610e+00 5.8955813359e-02 2.0123710411e+00 -3.4855288869e+00 2.0123710411e+00 3.4855288869e+00 
30400 4.1082305158e+00 5.8703863282e-02 2.0109063844e+00 -3.4829920270e+00 2.0109063844e+00 3.4829920270e+00 
30500 4.1081335547e+00 5.8451651113e-02 2.0094469242e+00 -3.4804641678e+00 2.0094469242e+00 3.4804641678e+00 
30600 4.1080371817e+00 5.8199171218e-02 2.0079926784e+00 -3.4779453402e+00 2.0079926784e+00 3.4779453402e+00 
30700 4.1079414010e+00 5.7946418716e-02 2.0065436650e+00 -3.4754355754e+00 2.0065436650e+00 3.4754355754e+00 
30800 4.1078462166e+00 5.7693389465e-02 2.0050999022e+00 -3.4729349048e+00 2.0050999022e+00 3.4729349048e+00 
30900 4.1077516326e+00 5.7440080053e-02 2.0036614081e+00 -3.4704433600e+00 2.0036614081e+00 3.4704433600e+00 
31000 4.1076576530e+00 5.7186487787e-02 2.0022282012e+00 -3.4679609729e+00 2.0022282012e+00 3.4679609729e+00 
31100 4.1075642815e+00 5.6932610679e-02 2.0008002999e+00 -3.4654877753e+00 2.0008002999e+00 3.4654877753e+00 
31200 4.1074715219e+00 5.6678447437e-02 1.9993777227e+00 -3.4630237993e+00 1.9993777227e+00 3.4630237993e+00 
31300 4.1073793780e+00 5.6423997452e-02 1.9979604881e+00 -3.4605690769e+00 1.9979604881e+00 3.4605690769e+00 
31400 4.1072878533e+00 5.6169260781e-02 1.9965486147e+00 -3.4581236404e+00 1.9965486147e+00 3.4581236404e+00 
31500 4.1071969515e+00 5.5914238145e-02 1.9951421210e+00 -3.4556875219e+00 1.9951421210e+00 3.4556875219e+00 
31600 4.1071066758e+00 5.5658930906e-02 1.9937410256e+00 -3.4532607535e+00 1.9937410256e+00 3.4532607535e+00 
31700 4.1070170297e+00 5.5403341059e-02 1.9923453470e+00 -3.4508433673e+00 1.9923453470e+00 3.4508433673e+00 
31800 4.1069280163e+00 5.5147471220e-02 1.9909551038e+00 -3.4484353954e+00 1.9909551038e+00 3.4484353954e+00 
31900 4.1068396388e+00 5.4891324611e-02 1.9895703144e+00 -3.4460368697e+00 1.9895703144e+00 3.4460368697e+00 
32000 4.1067519003e+00 5.4634905045e-02 1.9881909970e+00 -3.4436478220e+00 1.9881909970e+00 3.4436478220e+00 
32100 4.1066648036e+00 5.4378216918e-02 1.9868171700e+00 -3.4412682839e+00 1.9868171700e+00 3.4412682839e+00 
32200 4.1065783515e+00 5.4121265191e-02 1.9854488516e+00 -3.4388982869e+00 1.9854488516e+00 3.4388982869e+00 
32300 4.1064925467e+00 5.3864055379e-02 1.9840860598e+00 -3.4365378622e+00 1.9840860598e+00 3.4365378622e+00 
32400 4.1064073919e+00 5.3606593535e-02 1.9827288125e+00 -3.4341870409e+00 1.9827288125e+00 3.4341870409e+00 
32500 4.1063228895e+00 5.3348886240e-02 1.9813771275e+00 -3.4318458537e+00 1.9813771275e+00 3.4318458537e+00 
32600 4.1062390418e+00 5.3090940585e-02 1.9800310223e+00 -3.4295143311e+00 1.9800310223e+00 3.4295143311e+00 
32700 4.1061558510e+00 5.2832764159e-02 1.9786905144e+00 -3.4271925033e+00 1.9786905144e+00 3.4271925033e+00 
32800 4.1060733194e+00 5.2574365037e-02 1.9773556209e+00 -3.4248804001e+00 1.9773556209e+00 3.4248804001e+00 
32900 4.1059914487e+00 5.2315751765e-02 1.9760263590e+00 -3.4225780509e+00 1.9760263590e+00 3.4225780509e+00 
33000 4.1059102410e+00 5.2056933342e-02 1.9747027454e+00 -3.4202854849e+00 1.9747027454e+00 3.4202854849e+00 
33100 4.1058296979e+00 5.1797919214e-02 1.9733847967e+00 -3.4180027308e+00 1.9733847967e+00 3.4180027308e+00 
33200 4.1057498211e+00 5.1538719253e-02 1.9720725293e+00 -3.4157298169e+00 1.9720725293e+00 3.4157298169e+00 
33300 4.1056706120e+00 5.1279343745e-02 1.9707659591e+00 -3.4134667709e+00 1.9707659591e+00 3.4134667709e+00 
33400 4.1055920719e+00 5.1019803378e-02 1.9694651020e+00 -3.4112136203e+00 1.9694651020e+00 3.4112136203e+00 
33500 4.1055142022e+00 5.0760109228e-02 1.9681699735e+00 -3.4089703920e+00 1.9681699735e+00 3.4089703920e+00 
33600 4.1054370039e+00 5.0500272741e-02 1.9668805888e+00 -3.4067371123e+00 1.9668805888e+00 3.4067371123e+00 
33700 4.1053604779e+00 5.0240305723e-02 1.9655969630e+00 -3.4045138071e+00 1.9655969630e+00 3.4045138071e+00 
33800 4.1052846251e+00 4.9980220325e-02 1.9643191105e+00 -3.4023005017e+00 1.9643191105e+00 3.4023005017e+00 
33900 4.1052094462e+00 4.9720029029e-02 1.9630470458e+00 -3.4000972209e+00 1.9630470458e+00 3.4000972209e+00 
34000 4.1051349417e+00 4.9459744635e-02 1.9617807827e+00 -3.3979039889e+00 1.9617807827e+00 3.3979039889e+00 
34100 4.1050611122e+00 4.9199380245e-02 1.9605203349e+00 -3.3957208294e+00 1.9605203349e+00 3.3957208294e+00 
34200 4.1049879579e+00 4.8938949254e-02 1.9592657157e+00 -3.3935477652e+00 1.9592657157e+00 3.3935477652e+00 
34300 4.1049154790e+00 4.8678465330e-02 1.9580169380e+00 -3.3913848188e+00 1.9580169380e+00 3.3913848188e+00 
34400 4.1048436755e+00 4.8417942405e-02 1.9567740144e+00 -3.3892320118e+00 1.9567740144e+00 3.3892320118e+00 
34500 4.1047725474e+00 4.8157394662e-02 1.9555369569e+00 -3.3870893655e+00 1.9555369569e+00 3.3870893655e+00 
34600 4.1047020944e+00 4.7896836519e-02 1.9543057775e+00 -3.3849569002e+00 1.9543057775e+00 3.3849569002e+00 
34700 4.1046323163e+00 4.7636282617e-02 1.9530804875e+00 -3.3828346356e+00 1.9530804875e+00 3.3828346356e+00 
34800 4.1045632125e+00 4.7375747807e-02 1.9518610978e+00 -3.3807225908e+00 1.9518610978e+00 3.3807225908e+00 
34900 4.1044947825e+00 4.7115247137e-02 1.9506476192e+00 -3.3786207841e+00 1.9506476192e+00 3.3786207841e+00 
35000 4.1044270255e+00 4.6854795840e-02 1.9494400617e+00 -3.3765292332e+00 1.9494400617e+00 3.3765292332e+00 
35100 4.1043599407e+00 4.6594409319e-02 1.9482384351e+00 -3.3744479549e+00 1.9482384351e+00 3.3744479549e+00 
35200 4.1042935272e+00 4.6334103137e-02 1.9470427489e+00 -3.3723769655e+00 1.9470427489e+00 3.3723769655e+00 
35300 4.1042277838e+00 4.6073893004e-02 1.9458530117e+00 -3.3703162804e+00 1.9458530117e+00 3.3703162804e+00 
35400 4.1041627093e+00 4.5813794762e-02 1.9446692322e+00 -3.3682659141e+00 1.9446692322e+00 3.3682659141e+00 
35500 4.1040983025e+00 4.5553824377e-02 1.9434914184e+00 -3.3662258807e+00 1.9434914184e+00 3.3662258807e+00 
35600 4.1040345618e+00 4.5293997926e-02 1.9423195778e+00 -3.3641961932e+00 1.9423195778e+00 3.3641961932e+00 
35700 4.1039714856e+00 4.5034331581e-02 1.9411537175e+00 -3.3621768641e+00 1.9411537175e+00 3.3621768641e+00 
35800 4.1039090724e+00 4.4774841603e-02 1.9399938443e+00 -3.3601679047e+00 1.9399938443e+00 3.3601679047e+00 
35900 4.1038473203e+00 4.4515544329e-02 1.9388399644e+00 -3.3581693260e+00 1.9388399644e+00 3.3581693260e+00 
36000 4.1037862274e+00 4.4256456159e-02 1.9376920834e+00 -3.3561811379e+00 1.9376920834e+00 3.3561811379e+00 
36100 4.1037257916e+00 4.3997593544e-02 1.9365502068e+00 -3.3542033496e+00 1.9365502068e+00 3.3542033496e+00 
36200 4.1036660109e+00 4.3738972981e-02 1.9354143393e+00 -3.3522359693e+00 1.9354143393e+00 3.3522359693e+00 
36300 4.1036068830e+00 4.3480610996e-02 1.9342844852e+00 -3.3502790047e+00 1.9342844852e+00 3.3502790047e+00 
36400 4.1035484055e+00 4.3222524135e-02 1.9331606485e+00 -3.3483324625e+00 1.9331606485e+00 3.3483324625e+00 
36500 4.1034905761e+00 4.2964728957e-02 1.9320428326e+00 -3.3463963485e+00 1.9320428326e+00 3.3463963485e+00 
36600 4.1034333921e+00 4.2707242018e-02 1.9309310403e+00 -3.3444706678e+00 1.9309310403e+00 3.3444706678e+00 
36700 4.1033768510e+00 4.2450079869e-02 1.9298252742e+00 -3.3425554246e+00 1.9298252742e+00 3.3425554246e+00 
36800 4.1033209499e+00 4.2193259036e-02 1.9287255362e+00 -3.3406506225e+00 1.9287255362e+00 3.3406506225e+00 
36900 4.1032656860e+00 4.1936796022e-02 1.9276318277e+00 -3.3387562638e+00 1.9276318277e+00 3.3387562638e+00 
37000 4.1032110565e+00 4.1680707289e-02 1.9265441498e+00 -3.3368723505e+00 1.9265441498e+00 3.3368723505e+00 
37100 4.1031570582e+00 4.1425009252e-02 1.9254625031e+00 -3.3349988834e+00 1.9254625031e+00 3.3349988834e+00 
37200 4.1031036881e+00 4.1169718270e-02 1.9243868875e+00 -3.3331358625e+00 1.9243868875e+00 3.3331358625e+00 
37300 4.1030509429e+00 4.0914850639e-02 1.9233173026e+00 -3.3312832872e+00 1.9233173026e+00 3.3312832872e+00 
37400 4.1029988194e+00 4.0660422580e-02 1.9222537475e+00 -3.3294411558e+00 1.9222537475e+00 3.3294411558e+00 
37500 4.1029473143e+00 4.0406450234e-02 1.9211962209e+00 -3.3276094658e+00 1.9211962209e+00 3.3276094658e+00 
37600 4.1028964239e+00 4.0152949653e-02 1.9201447207e+00 -3.3257882142e+00 1.9201447207e+00 3.3257882142e+00 
37700 4.1028461450e+00 3.9899936791e-02 1.9190992447e+00 -3.3239773967e+00 1.9190992447e+00 3.3239773967e+00 
37800 4.1027964737e+00 3.9647427499e-02 1.9180597901e+00 -3.3221770084e+00 1.9180597901e+00 3.3221770084e+00 
37900 4.1027474066e+00 3.9395437516e-02 1.9170263535e+00 -3.3203870436e+00 1.9170263535e+00 3.3203870436e+00 
38000 4.1026989397e+00 3.9143982460e-02 1.9159989311e+00 -3.3186074959e+00 1.9159989311e+00 3.3186074959e+00 
38100 4.1026510694e+00 3.8893077826e-02 1.9149775186e+00 -3.3168383576e+00 1.9149775186e+00 3.3168383576e+00 
38200 4.1026037916e+00 3.8642738977e-02 1.9139621115e+00 -3.3150796208e+00 1.9139621115e+00 3.3150796208e+00 
38300 4.1025571026e+00 3.8392981133e-02 1.9129527043e+00 -3.3133312764e+00 1.9129527043e+00 3.3133312764e+00 
38400 4.1025109983e+00 3.8143819375e-02 1.9119492916e+00 -3.3115933145e+00 1.9119492916e+00 3.3115933145e+00 
38500 4.1024654746e+00 3.7895268628e-02 1.9109518671e+00 -3.3098657246e+00 1.9109518671e+00 3.3098657246e+00 
38600 4.1024205274e+00 3.7647343663e-02 1.9099604243e+00 -3.3081484953e+00 1.9099604243e+00 3.3081484953e+00 
38700 4.1023761526e+00 3.7400059088e-02 1.9089749561e+00 -3.3064416143e+00 1.9089749561e+00 3.3064416143e+00 
38800 4.1023323459e+00 3.7153429345e-02 1.9079954551e+00 -3.3047450688e+00 1.9079954551e+00 3.3047450688e+00 
38900 4.1022891030e+00 3.6907468700e-02 1.9070219132e+00 -3.3030588449e+00 1.9070219132e+00 3.3030588449e+00 
39000 4.1022464196e+00 3.6662191244e-02 1.9060543222e+00 -3.3013829280e+00 1.9060543222e+00 3.3013829280e+00 
39100 4.1022042914e+00 3.6417610887e-02 1.9050926731e+00 -3.2997173030e+00 1.9050926731e+00 3.2997173030e+00 
39200 4.1021627140e+00 3.6173741349e-02 1.9041369568e+00 -3.2980619538e+00 1.9041369568e+00 3.2980619538e+00 
39300 4.1021216828e+00 3.5930596161e-02 1.9031871635e+00 -3.2964168634e+00 1.9031871635e+00 3.2964168634e+00 
39400 4.1020811935e+00 3.5688188659e-02 1.9022432830e+00 -3.2947820145e+00 1.9022432830e+00 3.2947820145e+00 
39500 4.1020412414e+00 3.5446531980e-02 1.9013053048e+00 -3.2931573886e+00 1.9013053048e+00 3.2931573886e+00 
39600 4.1020018221e+00 3.5205639060e-02 1.9003732179e+00 -3.2915429668e+00 1.9003732179e+00 3.2915429668e+00 
39700 4.1019629309e+00 3.4965522626e-02 1.8994470110e+00 -3.2899387293e+00 1.8994470110e+00 3.2899387293e+00 
39800 4.1019245632e+00 3.4726195199e-02 1.8985266721e+00 -3.2883446556e+00 1.8985266721e+00 3.2883446556e+00 
39900 4.1018867145e+00 3.4487669087e-02 1.8976121892e+00 -3.2867607247e+00 1.8976121892e+00 3.2867607247e+00 
40000 4.1018493799e+00 3.4249956383e-02 1.8967035495e+00 -3.2851869146e+00 1.8967035495e+00 3.2851869146e+00 
40100 4.1018125548e+00 3.4013068961e-02 1.8958007400e+00 -3.2836232027e+00 1.8958007400e+00 3.2836232027e+00 
40200 4.1017762346e+00 3.3777018478e-02 1.8949037474e+00 -3.2820695659e+00 1.8949037474e+00 3.2820695659e+00 
40300 4.1017404144e+00 3.3541816367e-02 1.8940125578e+00 -3.2805259803e+00 1.8940125578e+00 3.2805259803e+00 
40400 4.1017050895e+00 3.3307473835e-02 1.8931271571e+00 -3.2789924213e+00 1.8931271571e+00 3.2789924213e+00 
40500 4.1016702551e+00 3.3074001867e-02 1.8922475307e+00 -3.2774688636e+00 1.8922475307e+00 3.2774688636e+00 
40600 4.1016359066e+00 3.2841411216e-02 1.8913736636e+00 -3.2759552815e+00 1.8913736636e+00 3.2759552815e+00 
40700 4.1016020390e+00 3.2609712407e-02 1.8905055407e+00 -3.2744516485e+00 1.8905055407e+00 3.2744516485e+00 
40800 4.1015686475e+00 3.2378915734e-02 1.8896431462e+00 -3.2729579374e+00 1.8896431462e+00 3.2729579374e+00 
40900 4.1015357274e+00 3.2149031259e-02 1.8887864641e+00 -3.2714741205e+00 1.8887864641e+00 3.2714741205e+00 
41000 4.1015032739e+00 3.1920068810e-02 1.8879354782e+00 -3.2700001696e+00 1.8879354782e+00 3.2700001696e+00 
41100 4.1014712821e+00 3.1692037982e-02 1.8870901716e+00 -3.2685360556e+00 1.8870901716e+00 3.2685360556e+00 
41200 4.1014397472e+00 3.1464948134e-02 1.8862505274e+00 -3.2670817492e+00 1.8862505274e+00 3.2670817492e+00 
41300 4.1014086643e+00 3.1238808391e-02 1.8854165282e+00 -3.2656372202e+00 1.8854165282e+00 3.2656372202e+00 
41400 4.1013780287e+00 3.1013627640e-02 1.8845881563e+00 -3.2642024381e+00 1.8845881563e+00 3.2642024381e+00 
41500 4.1013478356e+00 3.0789414532e-02 1.8837653938e+00 -3.2627773716e+00 1.8837653938e+00 3.2627773716e+00 
41600 4.1013180801e+00 3.0566177485e-02 1.8829482223e+00 -3.2613619891e+00 1.8829482223e+00 3.2613619891e+00 
41700 4.1012887574e+00 3.0343924676e-02 1.8821366232e+00 -3.2599562583e+00 1.8821366232e+00 3.2599562583e+00 
41800 4.1012598627e+00 3.0122664048e-02 1.8813305777e+00 -3.2585601464e+00 1.8813305777e+00 3.2585601464e+00 
41900 4.1012313912e+00 2.9902403308e-02 1.8805300664e+00 -3.2571736202e+00 1.8805300664e+00 3.2571736202e+00 
42000 4.1012033381e+00 2.9683149927e-02 1.8797350699e+00 -3.2557966459e+00 1.8797350699e+00 3.2557966459e+00 
42100 4.1011756987e+00 2.9464911140e-02 1.8789455685e+00 -3.2544291893e+00 1.8789455685e+00 3.2544291893e+00 
42200 4.1011484681e+00 2.9247693950e-02 1.8781615420e+00 -3.2530712156e+00 1.8781615420e+00 3.2530712156e+00 
42300 4.1011216417e+00 2.9031505123e-02 1.8773829702e+00 -3.2517226897e+00 1.8773829702e+00 3.2517226897e+00 
42400 4.1010952147e+00 2.8816351194e-02 1.8766098325e+00 -3.2503835759e+00 1.8766098325e+00 3.2503835759e+00 
42500 4.1010691824e+00 2.8602238465e-02 1.8758421080e+00 -3.2490538381e+00 1.8758421080e+00 3.2490538381e+00 
42600 4.1010435401e+00 2.8389173007e-02 1.8750797758e+00 -3.2477334399e+00 1.8750797758e+00 3.2477334399e+00 
42700 4.1010182831e+00 2.8177160663e-02 1.8743228143e+00 -3.2464223442e+00 1.8743228143e+00 3.2464223442e+00 
42800 4.1009934068e+00 2.7966207045e-02 1.8735712021e+00 -3.2451205137e+00 1.8735712021e+00 3.2451205137e+00 
42900 4.1009689065e+00 2.7756317539e-02 1.8728249175e+00 -3.2438279107e+00 1.8728249175e+00 3.2438279107e+00 
43000 4.1009447775e+00 2.7547497305e-02 1.8720839383e+00 -3.2425444971e+00 1.8720839383e+00 3.2425444971e+00 
43100 4.1009210154e+00 2.7339751280e-02 1.8713482423e+00 -3.2412702343e+00 1.8713482423e+00 3.2412702343e+00 
43200 4.1008976155e+00 2.7133084176e-02 1.8706178071e+00 -3.2400050835e+00 1.8706178071e+00 3.2400050835e+00 
43300 4.1008745732e+00 2.6927500486e-02 1.8698926101e+00 -3.2387490053e+00 1.8698926101e+00 3.2387490053e+00 
43400 4.1008518842e+00 2.6723004484e-02 1.8691726283e+00 -3.2375019603e+00 1.8691726283e+00 3.2375019603e+00 
43500 4.1008295438e+00 2.6519600224e-02 1.8684578388e+00 -3.2362639085e+00 1.8684578388e+00 3.2362639085e+00 
43600 4.1008075476e+00 2.6317291550e-02 1.8677482182e+00 -3.2350348097e+00 1.8677482182e+00 3.2350348097e+00 
43700 4.1007858911e+00 2.6116082086e-02 1.8670437433e+00 -3.2338146233e+00 1.8670437433e+00 3.2338146233e+00 
43800 4.1007645700e+00 2.5915975251e-02 1.8663443903e+00 -3.2326033085e+00 1.8663443903e+00 3.2326033085e+00 
43900 4.1007435799e+00 2.5716974250e-02 1.8656501356e+00 -3.2314008241e+00 1.8656501356e+00 3.2314008241e+00 
44000 4.1007229164e+00 2.5519082084e-02 1.8649609552e+00 -3.2302071286e+00 1.8649609552e+00 3.2302071286e+00 
44100 4.1007025752e+00 2.5322301549e-02 1.8642768251e+00 -3.2290221804e+00 1.8642768251e+00 3.2290221804e+00 
44200 4.1006825520e+00 2.5126635236e-02 1.8635977209e+00 -3.2278459374e+00 1.8635977209e+00 3.2278459374e+00 
44300 4.1006628426e+00 2.4932085539e-02 1.8629236183e+00 -3.2266783575e+00 1.8629236183e+00 3.2266783575e+00 
44400 4.1006434427e+00 2.4738654652e-02 1.8622544929e+00 -3.2255193983e+00 1.8622544929e+00 3.2255193983e+00 
44500 4.1006243481e+00 2.4546344576e-02 1.8615903198e+00 -3.2243690169e+00 1.8615903198e+00 3.2243690169e+00 
44600 4.1006055548e+00 2.4355157117e-02 1.8609310745e+00 -3.2232271704e+00 1.8609310745e+00 3.2232271704e+00 
44700 4.1005870585e+00 2.4165093892e-02 1.8602767319e+00 -3.2220938158e+00 1.8602767319e+00 3.2220938158e+00 
44800 4.1005688553e+00 2.3976156328e-02 1.8596272670e+00 -3.2209689097e+00 1.8596272670e+00 3.2209689097e+00 
44900 4.1005509409e+00 2.3788345670e-02 1.8589826548e+00 -3.2198524085e+00 1.8589826548e+00 3.2198524085e+00 
45000 4.1005333115e+00 2.3601662979e-02 1.8583428699e+00 -3.2187442685e+00 1.8583428699e+00 3.2187442685e+00 
45100 4.1005159630e+00 2.3416109135e-02 1.8577078870e+00 -3.2176444459e+00 1.8577078870e+00 3.2176444459e+00 
45200 4.1004988915e+00 2.3231684841e-02 1.8570776807e+00 -3.2165528966e+00 1.8570776807e+00 3.2165528966e+00 
45300 4.1004820931e+00 2.3048390628e-02 1.8564522254e+00 -3.2154695763e+00 1.8564522254e+00 3.2154695763e+00 
45400 4.1004655640e+00 2.2866226850e-02 1.8558314956e+00 -3.2143944407e+00 1.8558314956e+00 3.2143944407e+00 
45500 4.1004493002e+00 2.2685193697e-02 1.8552154655e+00 -3.2133274452e+00 1.8552154655e+00 3.2133274452e+00 
45600 4.1004332980e+00 2.2505291188e-02 1.8546041094e+00 -3.2122685453e+00 1.8546041094e+00 3.2122685453e+00 
45700 4.1004175536e+00 2.2326519182e-02 1.8539974013e+00 -3.2112176962e+00 1.8539974013e+00 3.2112176962e+00 
45800 4.1004020634e+00 2.2148877375e-02 1.8533953155e+00 -3.2101748530e+00 1.8533953155e+00 3.2101748530e+00 
45900 4.1003868236e+00 2.1972365306e-02 1.8527978260e+00 -3.2091399707e+00 1.8527978260e+00 3.2091399707e+00 
46000 4.1003718306e+00 2.1796982356e-02 1.8522049066e+00 -3.2081130043e+00 1.8522049066e+00 3.2081130043e+00 
46100 4.1003570808e+00 2.1622727756e-02 1.8516165315e+00 -3.2070939086e+00 1.8516165315e+00 3.2070939086e+00 
46200 4.1003425706e+00 2.1449600586e-02 1.8510326743e+00 -3.2060826384e+00 1.8510326743e+00 3.2060826384e+00 
46300 4.1003282964e+00 2.1277599780e-02 1.8504533090e+00 -3.2050791483e+00 1.8504533090e+00 3.2050791483e+00 
46400 4.1003142549e+00 2.1106724125e-02 1.8498784094e+00 -3.2040833930e+00 1.8498784094e+00 3.2040833930e+00 
46500 4.1003004425e+00 2.0936972271e-02 1.8493079493e+00 -3.2030953270e+00 1.8493079493e+00 3.2030953270e+00 
46600 4.1002868559e+00 2.0768342724e-02 1.8487419023e+00 -3.2021149048e+00 1.8487419023e+00 3.2021149048e+00 
46700 4.1002734916e+00 2.0600833859e-02 1.8481802422e+00 -3.2011420810e+00 1.8481802422e+00 3.2011420810e+00 
46800 4.1002603463e+00 2.0434443914e-02 1.8476229427e+00 -3.2001768100e+00 1.8476229427e+00 3.2001768100e+00 
46900 4.1002474167e+00 2.0269170999e-02 1.8470699775e+00 -3.1992190461e+00 1.8470699775e+00 3.1992190461e+00 
47000 4.1002346996e+00 2.0105013096e-02 1.8465213202e+00 -3.1982687439e+00 1.8465213202e+00 3.1982687439e+00 
47100 4.1002221917e+00 1.9941968062e-02 1.8459769446e+00 -3.1973258576e+00 1.8459769446e+00 3.1973258576e+00 
47200 4.1002098899e+00 1.9780033630e-02 1.8454368242e+00 -3.1963903417e+00 1.8454368242e+00 3.1963903417e+00 
47300 4.1001977910e+00 1.9619207417e-02 1.8449009328e+00 -3.1954621505e+00 1.8449009328e+00 3.1954621505e+00 
47400 4.1001858918e+00 1.9459486921e-02 1.8443692439e+00 -3.1945412384e+00 1.8443692439e+00 3.1945412384e+00 
47500 4.1001741894e+00 1.9300869527e-02 1.8438417313e+00 -3.1936275598e+00 1.8438417313e+00 3.1936275598e+00 
47600 4.1001626807e+00 1.9143352508e-02 1.8433183687e+00 -3.1927210692e+00 1.8433183687e+00 3.1927210692e+00 
47700 4.1001513627e+00 1.8986933029e-02 1.8427991298e+00 -3.1918217210e+00 1.8427991298e+00 3.1918217210e+00 
47800 4.1001402325e+00 1.8831608149e-02 1.8422839883e+00 -3.1909294696e+00 1.8422839883e+00 3.1909294696e+00 
47900 4.1001292871e+00 1.8677374823e-02 1.8417729178e+00 -3.1900442697e+00 1.8417729178e+00 3.1900442697e+00 
48000 4.1001185236e+00 1.8524229905e-02 1.8412658923e+00 -3.1891660757e+00 1.8412658923e+00 3.1891660757e+00 
48100 4.1001079392e+00 1.8372170154e-02 1.8407628855e+00 -3.1882948423e+00 1.8407628855e+00 3.1882948423e+00 
48200 4.1000975312e+00 1.8221192228e-02 1.8402638712e+00 -3.1874305242e+00 1.8402638712e+00 3.1874305242e+00 
48300 4.1000872966e+00 1.8071292697e-02 1.8397688233e+00 -3.1865730761e+00 1.8397688233e+00 3.1865730761e+00 
48400 4.1000772329e+00 1.7922468038e-02 1.8392777157e+00 -3.1857224528e+00 1.8392777157e+00 3.1857224528e+00 
48500 4.1000673372e+00 1.7774714640e-02 1.8387905224e+00 -3.1848786092e+00 1.8387905224e+00 3.1848786092e+00 
48600 4.1000576070e+00 1.7628028806e-02 1.8383072173e+00 -3.1840415003e+00 1.8383072173e+00 3.1840415003e+00 
48700 4.1000480396e+00 1.7482406758e-02 1.8378277745e+00 -3.1832110811e+00 1.8378277745e+00 3.1832110811e+00 
48800 4.1000386323e+00 1.7337844636e-02 1.8373521681e+00 -3.1823873066e+00 1.8373521681e+00 3.1823873066e+00 
48900 4.1000293828e+00 1.7194338501e-02 1.8368803723e+00 -3.1815701323e+00 1.8368803723e+00 3.1815701323e+00 
49000 4.1000202884e+00 1.7051884338e-02 1.8364123612e+00 -3.1807595132e+00 1.8364123612e+00 3.1807595132e+00 
49100 4.1000113466e+00 1.6910478061e-02 1.8359481091e+00 -3.1799554050e+00 1.8359481091e+00 3.1799554050e+00 
49200 4.1000025550e+00 1.6770115509e-02 1.8354875903e+00 -3.1791577631e+00 1.8354875903e+00 3.1791577631e+00 
49300 4.0999939112e+00 1.6630792456e-02 1.8350307793e+00 -3.1783665432e+00 1.8350307793e+00 3.1783665432e+00 
49400 4.0999854129e+00 1.6492504604e-02 1.8345776505e+00 -3.1775817010e+00 1.8345776505e+00 3.1775817010e+00 
49500 4.0999770575e+00 1.6355247597e-02 1.8341281783e+00 -3.1768031924e+00 1.8341281783e+00 3.1768031924e+00 
49600 4.0999688429e+00 1.6219017010e-02 1.8336823375e+00 -3.1760309735e+00 1.8336823375e+00 3.1760309735e+00 
49700 4.0999607668e+00 1.6083808363e-02 1.8332401026e+00 -3.1752650002e+00 1.8332401026e+00 3.1752650002e+00 
49800 4.0999528268e+00 1.5949617116e-02 1.8328014485e+00 -3.1745052290e+00 1.8328014485e+00 3.1745052290e+00 
49900 4.0999450208e+00 1.5816438672e-02 1.8323663499e+00 -3.1737516162e+00 1.8323663499e+00 3.1737516162e+00 
50000 4.0999373466e+00 1.5684268381e-02 1.8319347818e+00 -3.1730041183e+00 1.8319347818e+00 3.1730041183e+00 
50100 4.0999298021e+00 1.5553101543e-02 1.8315067192e+00 -3.1722626920e+00 1.8315067192e+00 3.1722626920e+00 
50200 4.0999223851e+00 1.5422933405e-02 1.8310821370e+00 -3.1715272942e+00 1.8310821370e+00 3.1715272942e+00 
50300 4.0999150935e+00 1.5293759169e-02 1.8306610106e+00 -3.1707978818e+00 1.8306610106e+00 3.1707978818e+00 
50400 4.0999079253e+00 1.5165573988e-02 1.8302433151e+00 -3.1700744119e+00 1.8302433151e+00 3.1700744119e+00 
50500 4.0999008784e+00 1.5038372975e-02 1.8298290259e+00 -3.1693568420e+00 1.8298290259e+00 3.1693568420e+00 
50600 4.0998939508e+00 1.4912151197e-02 1.8294181183e+00 -3.1686451293e+00 1.8294181183e+00 3.1686451293e+00 
50700 4.0998871407e+00 1.4786903684e-02 1.8290105681e+00 -3.1679392315e+00 1.8290105681e+00 3.1679392315e+00 
50800 4.0998804459e+00 1.4662625426e-02 1.8286063506e+00 -3.1672391063e+00 1.8286063506e+00 3.1672391063e+00 
50900 4.0998738647e+00 1.4539311377e-02 1.8282054418e+00 -3.1665447118e+00 1.8282054418e+00 3.1665447118e+00 
51000 4.0998673951e+00 1.4416956455e-02 1.8278078173e+00 -3.1658560061e+00 1.8278078173e+00 3.1658560061e+00 
51100 4.0998610352e+00 1.4295555547e-02 1.8274134532e+00 -3.1651729473e+00 1.8274134532e+00 3.1651729473e+00 
51200 4.0998547834e+00 1.4175103506e-02 1.8270223253e+00 -3.1644954940e+00 1.8270223253e+00 3.1644954940e+00 
51300 4.0998486377e+00 1.4055595158e-02 1.8266344099e+00 -3.1638236048e+00 1.8266344099e+00 3.1638236048e+00 
51400 4.0998425964e+00 1.3937025299e-02 1.8262496832e+00 -3.1631572386e+00 1.8262496832e+00 3.1631572386e+00 
51500 4.0998366577e+00 1.3819388701e-02 1.8258681215e+00 -3.1624963543e+00 1.8258681215e+00 3.1624963543e+00 
51600 4.0998308200e+00 1.3702680107e-02 1.8254897012e+00 -3.1618409111e+00 1.8254897012e+00 3.1618409111e+00 
51700 4.0998250815e+00 1.3586894240e-02 1.8251143988e+00 -3.1611908684e+00 1.8251143988e+00 3.1611908684e+00 
51800 4.0998194406e+00 1.3472025802e-02 1.8247421912e+00 -3.1605461858e+00 1.8247421912e+00 3.1605461858e+00 
51900 4.0998138956e+00 1.3358069471e-02 1.8243730549e+00 -3.1599068230e+00 1.8243730549e+00 3.1599068230e+00 
52000 4.0998084450e+00 1.3245019909e-02 1.8240069668e+00 -3.1592727399e+00 1.8240069668e+00 3.1592727399e+00 
52100 4.0998030872e+00 1.3132871760e-02 1.8236439041e+00 -3.1586438967e+00 1.8236439041e+00 3.1586438967e+00 
52200 4.0997978205e+00 1.3021619653e-02 1.8232838436e+00 -3.1580202538e+00 1.8232838436e+00 3.1580202538e+00 
52300 4.0997926435e+00 1.2911258199e-02 1.8229267628e+00 -3.1574017717e+00 1.8229267628e+00 3.1574017717e+00 
52400 4.0997875546e+00 1.2801782000e-02 1.8225726389e+00 -3.1567884110e+00 1.8225726389e+00 3.1567884110e+00 
52500 4.0997825524e+00 1.2693185643e-02 1.8222214493e+00 -3.1561801328e+00 1.8222214493e+00 3.1561801328e+00 
52600 4.0997776353e+00 1.2585463706e-02 1.8218731716e+00 -3.1555768982e+00 1.8218731716e+00 3.1555768982e+00 
52700 4.0997728021e+00 1.2478610757e-02 1.8215277835e+00 -3.1549786684e+00 1.8215277835e+00 3.1549786684e+00 
52800 4.0997680511e+00 1.2372621356e-02 1.8211852628e+00 -3.1543854052e+00 1.8211852628e+00 3.1543854052e+00 
52900 4.0997633812e+00 1.2267490056e-02 1.8208455874e+00 -3.1537970701e+00 1.8208455874e+00 3.1537970701e+00 
53000 4.0997587907e+00 1.2163211404e-02 1.8205087353e+00 -3.1532136252e+00 1.8205087353e+00 3.1532136252e+00 
53100 4.0997542786e+00 1.2059779942e-02 1.8201746848e+00 -3.1526350327e+00 1.8201746848e+00 3.1526350327e+00 
53200 4.0997498433e+00 1.1957190210e-02 1.8198434140e+00 -3.1520612549e+00 1.8198434140e+00 3.1520612549e+00 
53300 4.0997454836e+00 1.1855436744e-02 1.8195149014e+00 -3.1514922543e+00 1.8195149014e+00 3.1514922543e+00 
53400 4.0997411982e+00 1.1754514080e-02 1.8191891255e+00 -3.1509279939e+00 1.8191891255e+00 3.1509279939e+00 
53500 4.0997369858e+00 1.1654416753e-02 1.8188660649e+00 -3.1503684365e+00 1.8188660649e+00 3.1503684365e+00 
53600 4.0997328453e+00 1.1555139298e-02 1.8185456984e+00 -3.1498135455e+00 1.8185456984e+00 3.1498135455e+00 
53700 4.0997287753e+00 1.1456676254e-02 1.8182280049e+00 -3.1492632842e+00 1.8182280049e+00 3.1492632842e+00 
53800 4.0997247747e+00 1.1359022160e-02 1.8179129634e+00 -3.1487176163e+00 1.8179129634e+00 3.1487176163e+00 
53900 4.0997208423e+00 1.1262171560e-02 1.8176005530e+00 -3.1481765057e+00 1.8176005530e+00 3.1481765057e+00 
54000 4.0997169769e+00 1.1166119004e-02 1.8172907531e+00 -3.1476399165e+00 1.8172907531e+00 3.1476399165e+00 
54100 4.0997131774e+00 1.1070859044e-02 1.8169835429e+00 -3.1471078128e+00 1.8169835429e+00 3.1471078128e+00 
54200 4.0997094427e+00 1.0976386241e-02 1.8166789020e+00 -3.1465801593e+00 1.8166789020e+00 3.1465801593e+00 
54300 4.0997057717e+00 1.0882695164e-02 1.8163768100e+00 -3.1460569207e+00 1.8163768100e+00 3.1460569207e+00 
54400 4.0997021631e+00 1.0789780387e-02 1.8160772468e+00 -3.1455380619e+00 1.8160772468e+00 3.1455380619e+00 
54500 4.0996986161e+00 1.0697636495e-02 1.8157801920e+00 -3.1450235480e+00 1.8157801920e+00 3.1450235480e+00 
54600 4.0996951296e+00 1.0606258082e-02 1.8154856259e+00 -3.1445133445e+00 1.8154856259e+00 3.1445133445e+00 
54700 4.0996917024e+00 1.0515639753e-02 1.8151935285e+00 -3.1440074169e+00 1.8151935285e+00 3.1440074169e+00 
54800 4.0996883337e+00 1.0425776123e-02 1.8149038800e+00 -3.1435057311e+00 1.8149038800e+00 3.1435057311e+00 
54900 4.0996850223e+00 1.0336661819e-02 1.8146166609e+00 -3.1430082530e+00 1.8146166609e+00 3.1430082530e+00 
55000 4.0996817674e+00 1.0248291483e-02 1.8143318517e+00 -3.1425149489e+00 1.8143318517e+00 3.1425149489e+00 
55100 4.0996785679e+00 1.0160659766e-02 1.8140494330e+00 -3.1420257854e+00 1.8140494330e+00 3.1420257854e+00 
55200 4.0996754229e+00 1.0073761337e-02 1.8137693855e+00 -3.1415407290e+00 1.8137693855e+00 3.1415407290e+00 
55300 4.0996723314e+00 9.9875908771e-03 1.8134916902e+00 -3.1410597466e+00 1.8134916902e+00 3.1410597466e+00 
55400 4.0996692926e+00 9.9021430827e-03 1.8132163281e+00 -3.1405828054e+00 1.8132163281e+00 3.1405828054e+00 
55500 4.0996663055e+00 9.8174126668e-03 1.8129432803e+00 -3.1401098728e+00 1.8129432803e+00 3.1401098728e+00 
55600 4.0996633693e+00 9.7333943582e-03 1.8126725281e+00 -3.1396409162e+00 1.8126725281e+00 3.1396409162e+00 
55700 4.0996604831e+00 9.6500829029e-03 1.8124040529e+00 -3.1391759034e+00 1.8124040529e+00 3.1391759034e+00 
55800 4.0996576459e+00 9.5674730640e-03 1.8121378361e+00 -3.1387148025e+00 1.8121378361e+00 3.1387148025e+00 
55900 4.0996548571e+00 9.4855596229e-03 1.8118738595e+00 -3.1382575815e+00 1.8118738595e+00 3.1382575815e+00 
56000 4.0996521157e+00 9.4043373791e-03 1.8116121048e+00 -3.1378042090e+00 1.8116121048e+00 3.1378042090e+00 
56100 4.0996494209e+00 9.3238011515e-03 1.8113525538e+00 -3.1373546536e+00 1.8113525538e+00 3.1373546536e+00 
56200 4.0996467719e+00 9.2439457780e-03 1.8110951887e+00 -3.1369088841e+00 1.8110951887e+00 3.1369088841e+00 
56300 4.0996441680e+00 9.1647661168e-03 1.8108399915e+00 -3.1364668696e+00 1.8108399915e+00 3.1364668696e+00 
56400 4.0996416084e+00 9.0862570460e-03 1.8105869444e+00 -3.1360285793e+00 1.8105869444e+00 3.1360285793e+00 
56500 4.0996390923e+00 9.0084134650e-03 1.8103360300e+00 -3.1355939828e+00 1.8103360300e+00 3.1355939828e+00 
56600 4.0996366189e+00 8.9312302938e-03 1.8100872307e+00 -3.1351630498e+00 1.8100872307e+00 3.1351630498e+00 
56700 4.0996341875e+00 8.8547024744e-03 1.8098405292e+00 -3.1347357501e+00 1.8098405292e+00 3.1347357501e+00 
56800 4.0996317975e+00 8.7788249705e-03 1.8095959081e+00 -3.1343120539e+00 1.8095959081e+00 3.1343120539e+00 
56900 4.0996294480e+00 8.7035927682e-03 1.8093533504e+00 -3.1338919317e+00 1.8093533504e+00 3.1338919317e+00 
57000 4.0996271385e+00 8.6290008763e-03 1.8091128390e+00 -3.1334753538e+00 1.8091128390e+00 3.1334753538e+00 
57100 4.0996248681e+00 8.5550443266e-03 1.8088743572e+00 -3.1330622911e+00 1.8088743572e+00 3.1330622911e+00 
57200 4.0996226363e+00 8.4817181740e-03 1.8086378881e+00 -3.1326527146e+00 1.8086378881e+00 3.1326527146e+00 
57300 4.0996204423e+00 8.4090174974e-03 1.8084034151e+00 -3.1322465955e+00 1.8084034151e+00 3.1322465955e+00 
57400 4.0996182856e+00 8.3369373993e-03 1.8081709217e+00 -3.1318439051e+00 1.8081709217e+00 3.1318439051e+00 
57500 4.0996161654e+00 8.2654730064e-03 1.8079403915e+00 -3.1314446151e+00 1.8079403915e+00 3.1314446151e+00 
57600 4.0996140812e+00 8.1946194702e-03 1.8077118082e+00 -3.1310486972e+00 1.8077118082e+00 3.1310486972e+00 
57700 4.0996120324e+00 8.1243719667e-03 1.8074851557e+00 -3.1306561236e+00 1.8074851557e+00 3.1306561236e+00 
57800 4.0996100182e+00 8.0547256967e-03 1.8072604179e+00 -3.1302668664e+00 1.8072604179e+00 3.1302668664e+00 
57900 4.0996080382e+00 7.9856758865e-03 1.8070375790e+00 -3.1298808980e+00 1.8070375790e+00 3.1298808980e+00 
58000 4.0996060917e+00 7.9172177877e-03 1.8068166231e+00 -3.1294981911e+00 1.8068166231e+00 3.1294981911e+00 
58100 4.0996041782e+00 7.8493466776e-03 1.8065975345e+00 -3.1291187185e+00 1.8065975345e+00 3.1291187185e+00 
58200 4.0996022971e+00 7.7820578593e-03 1.8063802977e+00 -3.1287424534e+00 1.8063802977e+00 3.1287424534e+00 
58300 4.0996004478e+00 7.7153466618e-03 1.8061648972e+00 -3.1283693688e+00 1.8061648972e+00 3.1283693688e+00 
58400 4.0995986298e+00 7.6492084405e-03 1.8059513177e+00 -3.1279994383e+00 1.8059513177e+00 3.1279994383e+00 
58500 4.0995968426e+00 7.5836385769e-03 1.8057395441e+00 -3.1276326356e+00 1.8057395441e+00 3.1276326356e+00 
58600 4.0995950855e+00 7.5186324794e-03 1.8055295611e+00 -3.1272689344e+00 1.8055295611e+00 3.1272689344e+00 
58700 4.0995933582e+00 7.4541855827e-03 1.8053213538e+00 -3.1269083088e+00 1.8053213538e+00 3.1269083088e+00 
58800 4.0995916601e+00 7.3902933485e-03 1.8051149074e+00 -3.1265507331e+00 1.8051149074e+00 3.1265507331e+00 
58900 4.0995899907e+00 7.3269512654e-03 1.8049102070e+00 -3.1261961816e+00 1.8049102070e+00 3.1261961816e+00 
59000 4.0995883495e+00 7.2641548489e-03 1.8047072381e+00 -3.1258446291e+00 1.8047072381e+00 3.1258446291e+00 
59100 4.0995867360e+00 7.2018996419e-03 1.8045059860e+00 -3.1254960504e+00 1.8045059860e+00 3.1254960504e+00 
59200 4.0995851498e+00 7.1401812143e-03 1.8043064365e+00 -3.1251504204e+00 1.8043064365e+00 3.1251504204e+00 
59300 4.0995835903e+00 7.0789951636e-03 1.8041085751e+00 -3.1248077145e+00 1.8041085751e+00 3.1248077145e+00 
59400 4.0995820572e+00 7.0183371145e-03 1.8039123877e+00 -3.1244679080e+00 1.8039123877e+00 3.1244679080e+00 
59500 4.0995805499e+00 6.9582027194e-03 1.8037178603e+00 -3.1241309765e+00 1.8037178603e+00 3.1241309765e+00 
59600 4.0995790680e+00 6.8985876581e-03 1.8035249787e+00 -3.1237968958e+00 1.8035249787e+00 3.1237968958e+00 
59700 4.0995776111e+00 6.8394876380e-03 1.8033337292e+00 -3.1234656419e+00 1.8033337292e+00 3.1234656419e+00 
59800 4.0995761788e+00 6.7808983945e-03 1.8031440979e+00 -3.1231371910e+00 1.8031440979e+00 3.1231371910e+00 
59900 4.0995747706e+00 6.7228156903e-03 1.8029560714e+00 -3.1228115194e+00 1.8029560714e+00 3.1228115194e+00 
60000 4.0995733861e+00 6.6652353162e-03 1.8027696359e+00 -3.1224886037e+00 1.8027696359e+00 3.1224886037e+00 
60100 4.0995720250e+00 6.6081530906e-03 1.8025847780e+00 -3.1221684205e+00 1.8025847780e+00 3.1221684205e+00 
60200 4.0995706867e+00 6.5515648598e-03 1.8024014846e+00 -3.1218509469e+00 1.8024014846e+00 3.1218509469e+00 
60300 4.0995693710e+00 6.4954664979e-03 1.8022197422e+00 -3.1215361598e+00 1.8022197422e+00 3.1215361598e+00 
60400 4.0995680774e+00 6.4398539067e-03 1.8020395378e+00 -3.1212240367e+00 1.8020395378e+00 3.1212240367e+00 
60500 4.0995668056e+00 6.3847230162e-03 1.8018608584e+00 -3.1209145549e+00 1.8018608584e+00 3.1209145549e+00 
60600 4.0995655552e+00 6.3300697840e-03 1.8016836910e+00 -3.1206076920e+00 1.8016836910e+00 3.1206076920e+00 
60700 4.0995643257e+00 6.2758901954e-03 1.8015080229e+00 -3.1203034259e+00 1.8015080229e+00 3.1203034259e+00 
60800 4.0995631170e+00 6.2221802640e-03 1.8013338414e+00 -3.1200017346e+00 1.8013338414e+00 3.1200017346e+00 
60900 4.0995619285e+00 6.1689360306e-03 1.8011611338e+00 -3.1197025963e+00 1.8011611338e+00 3.1197025963e+00 
61000 4.0995607600e+00 6.1161535643e-03 1.8009898876e+00 -3.1194059893e+00 1.8009898876e+00 3.1194059893e+00 
61100 4.0995596112e+00 6.0638289616e-03 1.8008200905e+00 -3.1191118921e+00 1.8008200905e+00 3.1191118921e+00 
61200 4.0995584816e+00 6.0119583470e-03 1.8006517301e+00 -3.1188202834e+00 1.8006517301e+00 3.1188202834e+00 
61300 4.0995573709e+00 5.9605378724e-03 1.8004847943e+00 -3.1185311420e+00 1.8004847943e+00 3.1185311420e+00 
61400 4.0995562789e+00 5.9095637175e-03 1.8003192710e+00 -3.1182444471e+00 1.8003192710e+00 3.1182444471e+00 
61500 4.0995552052e+00 5.8590320897e-03 1.8001551480e+00 -3.1179601779e+00 1.8001551480e+00 3.1179601779e+00 
61600 4.0995541495e+00 5.8089392236e-03 1.7999924136e+00 -3.1176783136e+00 1.7999924136e+00 3.1176783136e+00 
61700 4.0995531115e+00 5.7592813816e-03 1.7998310559e+00 -3.1173988339e+00 1.7998310559e+00 3.1173988339e+00 
61800 4.0995520909e+00 5.7100548534e-03 1.7996710632e+00 -3.1171217184e+00 1.7996710632e+00 3.1171217184e+00 
61900 4.0995510874e+00 5.6612559559e-03 1.7995124239e+00 -3.1168469471e+00 1.7995124239e+00 3.1168469471e+00 
62000 4.0995501007e+00 5.6128810335e-03 1.7993551265e+00 -3.1165745000e+00 1.7993551265e+00 3.1165745000e+00 
62100 4.0995491305e+00 5.5649264577e-03 1.7991991595e+00 -3.1163043572e+00 1.7991991595e+00 3.1163043572e+00 
62200 4.0995481765e+00 5.5173886271e-03 1.7990445116e+00 -3.1160364992e+00 1.7990445116e+00 3.1160364992e+00 
62300 4.0995472385e+00 5.4702639675e-03 1.7988911716e+00 -3.1157709065e+00 1.7988911716e+00 3.1157709065e+00 
62400 4.0995463162e+00 5.4235489315e-03 1.7987391283e+00 -3.1155075598e+00 1.7987391283e+00 3.1155075598e+00 
62500 4.0995454093e+00 5.3772399986e-03 1.7985883707e+00 -3.1152464399e+00 1.7985883707e+00 3.1152464399e+00 
62600 4.0995445175e+00 5.3313336752e-03 1.7984388877e+00 -3.1149875279e+00 1.7984388877e+00 3.1149875279e+00 
62700 4.0995436407e+00 5.2858264943e-03 1.7982906686e+00 -3.1147308048e+00 1.7982906686e+00 3.1147308048e+00 
62800 4.0995427785e+00 5.2407150155e-03 1.7981437026e+00 -3.1144762521e+00 1.7981437026e+00 3.1144762521e+00 
62900 4.0995419307e+00 5.1959958249e-03 1.7979979788e+00 -3.1142238512e+00 1.7979979788e+00 3.1142238512e+00 
63000 4.0995410970e+00 5.1516655350e-03 1.7978534868e+00 -3.1139735838e+00 1.7978534868e+00 3.1139735838e+00 
63100 4.0995402773e+00 5.1077207847e-03 1.7977102161e+00 -3.1137254315e+00 1.7977102161e+00 3.1137254315e+00 
63200 4.0995394712e+00 5.0641582390e-03 1.7975681561e+00 -3.1134793764e+00 1.7975681561e+00 3.1134793764e+00 
63300 4.0995386786e+00 5.0209745889e-03 1.7974272965e+00 -3.1132354005e+00 1.7974272965e+00 3.1132354005e+00 
63400 4.0995378992e+00 4.9781665514e-03 1.7972876272e+00 -3.1129934861e+00 1.7972876272e+00 3.1129934861e+00 
63500 4.0995371328e+00 4.9357308695e-03 1.7971491379e+00 -3.1127536156e+00 1.7971491379e+00 3.1127536156e+00 
63600 4.0995363791e+00 4.8936643117e-03 1.7970118185e+00 -3.1125157715e+00 1.7970118185e+00 3.1125157715e+00 
63700 4.0995356381e+00 4.8519636724e-03 1.7968756591e+00 -3.1122799364e+00 1.7968756591e+00 3.1122799364e+00 
63800 4.0995349093e+00 4.8106257712e-03 1.7967406497e+00 -3.1120460932e+00 1.7967406497e+00 3.1120460932e+00 
63900 4.0995341927e+00 4.7696474532e-03 1.7966067804e+00 -3.1118142249e+00 1.7966067804e+00 3.1118142249e+00 
64000 4.0995334880e+00 4.7290255889e-03 1.7964740416e+00 -3.1115843146e+00 1.7964740416e+00 3.1115843146e+00 
64100 4.0995327951e+00 4.6887570736e-03 1.7963424236e+00 -3.1113563454e+00 1.7963424236e+00 3.1113563454e+00 
64200 4.0995321136e+00 4.6488388279e-03 1.7962119167e+00 -3.1111303009e+00 1.7962119167e+00 3.1111303009e+00 
64300 4.0995314435e+00 4.6092677972e-03 1.7960825115e+00 -3.1109061645e+00 1.7960825115e+00 3.1109061645e+00 
64400 4.0995307846e+00 4.5700409515e-03 1.7959541986e+00 -3.1106839200e+00 1.7959541986e+00 3.1106839200e+00 
64500 4.0995301366e+00 4.5311552856e-03 1.7958269685e+00 -3.1104635511e+00 1.7958269685e+00 3.1104635511e+00 
64600 4.0995294993e+00 4.4926078185e-03 1.7957008121e+00 -3.1102450417e+00 1.7957008121e+00 3.1102450417e+00 
64700 4.0995288727e+00 4.4543955939e-03 1.7955757201e+00 -3.1100283761e+00 1.7955757201e+00 3.1100283761e+00 
64800 4.0995282564e+00 4.4165156794e-03 1.7954516834e+00 -3.1098135383e+00 1.7954516834e+00 3.1098135383e+00 
64900 4.0995276504e+00 4.3789651669e-03 1.7953286931e+00 -3.1096005127e+00 1.7953286931e+00 3.1096005127e+00 
65000 4.0995270544e+00 4.3417411721e-03 1.7952067400e+00 -3.1093892838e+00 1.7952067400e+00 3.1093892838e+00 
65100 4.0995264684e+00 4.3048408345e-03 1.7950858155e+00 -3.1091798363e+00 1.7950858155e+00 3.1091798363e+00 
65200 4.0995258920e+00 4.2682613173e-03 1.7949659105e+00 -3.1089721549e+00 1.7949659105e+00 3.1089721549e+00 
65300 4.0995253252e+00 4.2319998071e-03 1.7948470165e+00 -3.1087662244e+00 1.7948470165e+00 3.1087662244e+00 
65400 4.0995247678e+00 4.1960535141e-03 1.7947291247e+00 -3.1085620299e+00 1.7947291247e+00 3.1085620299e+00 
65500 4.0995242197e+00 4.1604196715e-03 1.7946122267e+00 -3.1083595565e+00 1.7946122267e+00 3.1083595565e+00 
65600 4.0995236806e+00 4.1250955358e-03 1.7944963137e+00 -3.1081587894e+00 1.7944963137e+00 3.1081587894e+00 
65700 4.0995231505e+00 4.0900783861e-03 1.7943813776e+00 -3.1079597141e+00 1.7943813776e+00 3.1079597141e+00 
65800 4.0995226291e+00 4.0553655248e-03 1.7942674097e+00 -3.1077623160e+00 1.7942674097e+00 3.1077623160e+00 
65900 4.0995221164e+00 4.0209542765e-03 1.7941544020e+00 -3.1075665808e+00 1.7941544020e+00 3.1075665808e+00 
66000 4.0995216121e+00 3.9868419886e-03 1.7940423460e+00 -3.1073724943e+00 1.7940423460e+00 3.1073724943e+00 
66100 4.0995211162e+00 3.9530260307e-03 1.7939312338e+00 -3.1071800422e+00 1.7939312338e+00 3.1071800422e+00 
66200 4.0995206285e+00 3.9195037947e-03 1.7938210572e+00 -3.1069892107e+00 1.7938210572e+00 3.1069892107e+00 
66300 4.0995201489e+00 3.8862726947e-03 1.7937118082e+00 -3.1067999859e+00 1.7937118082e+00 3.1067999859e+00 
66400 4.0995196772e+00 3.8533301664e-03 1.7936034788e+00 -3.1066123539e+00 1.7936034788e+00 3.1066123539e+00 
66500 4.0995192133e+00 3.8206736676e-03 1.7934960612e+00 -3.1064263012e+00 1.7934960612e+00 3.1064263012e+00 
66600 4.0995187571e+00 3.7883006776e-03 1.7933895475e+00 -3.1062418141e+00 1.7933895475e+00 3.1062418141e+00 
66700 4.0995183084e+00 3.7562086973e-03 1.7932839301e+00 -3.1060588794e+00 1.7932839301e+00 3.1060588794e+00 
66800 4.0995178671e+00 3.7243952487e-03 1.7931792013e+00 -3.1058774837e+00 1.7931792013e+00 3.1058774837e+00 
66900 4.0995174331e+00 3.6928578751e-03 1.7930753533e+00 -3.1056976137e+00 1.7930753533e+00 3.1056976137e+00 
67000 4.0995170063e+00 3.6615941411e-03 1.7929723788e+00 -3.1055192566e+00 1.7929723788e+00 3.1055192566e+00 
67100 4.0995165865e+00 3.6306016319e-03 1.7928702701e+00 -3.1053423992e+00 1.7928702701e+00 3.1053423992e+00 
67200 4.0995161736e+00 3.5998779536e-03 1.7927690200e+00 -3.1051670288e+00 1.7927690200e+00 3.1051670288e+00 
67300 4.0995157676e+00 3.5694207328e-03 1.7926686210e+00 -3.1049931327e+00 1.7926686210e+00 3.1049931327e+00 
67400 4.0995153682e+00 3.5392276166e-03 1.7925690658e+00 -3.1048206981e+00 1.7925690658e+00 3.1048206981e+00 
67500 4.0995149754e+00 3.5092962724e-03 1.7924703473e+00 -3.1046497126e+00 1.7924703473e+00 3.1046497126e+00 
67600 4.0995145892e+00 3.4796243880e-03 1.7923724583e+00 -3.1044801638e+00 1.7923724583e+00 3.1044801638e+00 
67700 4.0995142092e+00 3.4502096708e-03 1.7922753916e+00 -3.1043120394e+00 1.7922753916e+00 3.1043120394e+00 
67800 4.0995138356e+00 3.4210498484e-03 1.7921791402e+00 -3.1041453272e+00 1.7921791402e+00 3.1041453272e+00 
67900 4.0995134681e+00 3.3921426679e-03 1.7920836972e+00 -3.1039800150e+00 1.7920836972e+00 3.1039800150e+00 
68000 4.0995131066e+00 3.3634858963e-03 1.7919890556e+00 -3.1038160910e+00 1.7919890556e+00 3.1038160910e+00 
68100 4.0995127511e+00 3.3350773196e-03 1.7918952086e+00 -3.1036535432e+00 1.7918952086e+00 3.1036535432e+00 
68200 4.0995124015e+00 3.3069147435e-03 1.7918021494e+00 -3.1034923598e+00 1.7918021494e+00 3.1034923598e+00 
68300 4.0995120576e+00 3.2789959926e-03 1.7917098712e+00 -3.1033325293e+00 1.7917098712e+00 3.1033325293e+00 
68400 4.0995117193e+00 3.2513189105e-03 1.7916183673e+00 -3.1031740399e+00 1.7916183673e+00 3.1031740399e+00 
68500 4.0995113867e+00 3.2238813598e-03 1.7915276311e+00 -3.1030168802e+00 1.7915276311e+00 3.1030168802e+00 
68600 4.0995110595e+00 3.1966812218e-03 1.7914376561e+00 -3.1028610390e+00 1.7914376561e+00 3.1028610390e+00 
68700 4.0995107376e+00 3.1697163961e-03 1.7913484357e+00 -3.1027065047e+00 1.7913484357e+00 3.1027065047e+00 
68800 4.0995104211e+00 3.1429848010e-03 1.7912599635e+00 -3.1025532664e+00 1.7912599635e+00 3.1025532664e+00 
68900 4.0995101098e+00 3.1164843731e-03 1.7911722331e+00 -3.1024013129e+00 1.7911722331e+00 3.1024013129e+00 
69000 4.0995098036e+00 3.0902130670e-03 1.7910852382e+00 -3.1022506332e+00 1.7910852382e+00 3.1022506332e+00 
69100 4.0995095024e+00 3.0641688553e-03 1.7909989724e+00 -3.1021012164e+00 1.7909989724e+00 3.1021012164e+00 
69200 4.0995092062e+00 3.0383497284e-03 1.7909134295e+00 -3.1019530518e+00 1.7909134295e+00 3.1019530518e+00 
69300 4.0995089148e+00 3.0127536947e-03 1.7908286033e+00 -3.1018061286e+00 1.7908286033e+00 3.1018061286e+00 
69400 4.0995086283e+00 2.9873787799e-03 1.7907444878e+00 -3.1016604362e+00 1.7907444878e+00 3.1016604362e+00 
69500 4.0995083464e+00 2.9622230272e-03 1.7906610768e+00 -3.1015159642e+00 1.7906610768e+00 3.1015159642e+00 
69600 4.0995080691e+00 2.9372844971e-03 1.7905783643e+00 -3.1013727020e+00 1.7905783643e+00 3.1013727020e+00 
69700 4.0995077964e+00 2.9125612674e-03 1.7904963444e+00 -3.1012306393e+00 1.7904963444e+00 3.1012306393e+00 
69800 4.0995075282e+00 2.8880514327e-03 1.7904150111e+00 -3.1010897659e+00 1.7904150111e+00 3.1010897659e+00 
69900 4.0995072644e+00 2.8637531045e-03 1.7903343586e+00 -3.1009500716e+00 1.7903343586e+00 3.1009500716e+00 
70000 4.0995070049e+00 2.8396644113e-03 1.7902543810e+00 -3.1008115464e+00 1.7902543810e+00 3.1008115464e+00 
70100 4.0995067497e+00 2.8157834979e-03 1.7901750726e+00 -3.1006741803e+00 1.7901750726e+00 3.1006741803e+00 
70200 4.0995064986e+00 2.7921085258e-03 1.7900964277e+00 -3.1005379633e+00 1.7900964277e+00 3.1005379633e+00 
70300 4.0995062517e+00 2.7686376727e-03 1.7900184406e+00 -3.1004028857e+00 1.7900184406e+00 3.1004028857e+00 
70400 4.0995060088e+00 2.7453691326e-03 1.7899411058e+00 -3.1002689377e+00 1.7899411058e+00 3.1002689377e+00 
70500 4.0995057699e+00 2.7223011155e-03 1.7898644175e+00 -3.1001361098e+00 1.7898644175e+00 3.1001361098e+00 
70600 4.0995055349e+00 2.6994318473e-03 1.7897883703e+00 -3.1000043922e+00 1.7897883703e+00 3.1000043922e+00 
70700 4.0995053037e+00 2.6767595699e-03 1.7897129588e+00 -3.0998737757e+00 1.7897129588e+00 3.0998737757e+00 
70800 4.0995050764e+00 2.6542825407e-03 1.7896381775e+00 -3.0997442507e+00 1.7896381775e+00 3.0997442507e+00 
70900 4.0995048527e+00 2.6319990327e-03 1.7895640211e+00 -3.0996158079e+00 1.7895640211e+00 3.0996158079e+00 
71000 4.0995046327e+00 2.6099073344e-03 1.7894904842e+00 -3.0994884382e+00 1.7894904842e+00 3.0994884382e+00 
71100 4.0995044164e+00 2.5880057494e-03 1.7894175615e+00 -3.0993621324e+00 1.7894175615e+00 3.0993621324e+00 
71200 4.0995042035e+00 2.5662925966e-03 1.7893452477e+00 -3.0992368814e+00 1.7893452477e+00 3.0992368814e+00 
71300 4.0995039942e+00 2.5447662099e-03 1.7892735378e+00 -3.0991126762e+00 1.7892735378e+00 3.0991126762e+00 
71400 4.0995037882e+00 2.5234249381e-03 1.7892024266e+00 -3.0989895079e+00 1.7892024266e+00 3.0989895079e+00 
71500 4.0995035857e+00 2.5022671448e-03 1.7891319089e+00 -3.0988673677e+00 1.7891319089e+00 3.0988673677e+00 
71600 4.0995033864e+00 2.4812912082e-03 1.7890619797e+00 -3.0987462468e+00 1.7890619797e+00 3.0987462468e+00 
71700 4.0995031904e+00 2.4604955211e-03 1.7889926340e+00 -3.0986261365e+00 1.7889926340e+00 3.0986261365e+00 
71800 4.0995029976e+00 2.4398784907e-03 1.7889238668e+00 -3.0985070282e+00 1.7889238668e+00 3.0985070282e+00 
71900 4.0995028080e+00 2.4194385384e-03 1.7888556732e+00 -3.0983889135e+00 1.7888556732e+00 3.0983889135e+00 
72000 4.0995026215e+00 2.3991740998e-03 1.7887880484e+00 -3.0982717837e+00 1.7887880484e+00 3.0982717837e+00 
72100 4.0995024380e+00 2.3790836247e-03 1.7887209873e+00 -3.0981556306e+00 1.7887209873e+00 3.0981556306e+00 
72200 4.0995022575e+00 2.3591655764e-03 1.7886544854e+00 -3.0980404459e+00 1.7886544854e+00 3.0980404459e+00 
72300 4.0995020799e+00 2.3394184325e-03 1.7885885377e+00 -3.0979262212e+00 1.7885885377e+00 3.0979262212e+00 
72400 4.0995019053e+00 2.3198406839e-03 1.7885231397e+00 -3.0978129484e+00 1.7885231397e+00 3.0978129484e+00 
72500 4.0995017335e+00 2.3004308353e-03 1.7884582865e+00 -3.0977006195e+00 1.7884582865e+00 3.0977006195e+00 
72600 4.0995015645e+00 2.2811874048e-03 1.7883939737e+00 -3.0975892264e+00 1.7883939737e+00 3.0975892264e+00 
72700 4.0995013983e+00 2.2621089236e-03 1.7883301965e+00 -3.0974787611e+00 1.7883301965e+00 3.0974787611e+00 
72800 4.0995012348e+00 2.2431939363e-03 1.7882669505e+00 -3.0973692158e+00 1.7882669505e+00 3.0973692158e+00 
72900 4.0995010739e+00 2.2244410008e-03 1.7882042311e+00 -3.0972605826e+00 1.7882042311e+00 3.0972605826e+00 
73000 4.0995009157e+00 2.2058486875e-03 1.7881420338e+00 -3.0971528537e+00 1.7881420338e+00 3.0971528537e+00 
73100 4.0995007601e+00 2.1874155801e-03 1.7880803543e+00 -3.0970460216e+00 1.7880803543e+00 3.0970460216e+00 
73200 4.0995006070e+00 2.1691402749e-03 1.7880191880e+00 -3.0969400786e+00 1.7880191880e+00 3.0969400786e+00 
73300 4.0995004564e+00 2.1510213807e-03 1.7879585307e+00 -3.0968350171e+00 1.7879585307e+00 3.0968350171e+00 
73400 4.0995003082e+00 2.1330575190e-03 1.7878983781e+00 -3.0967308296e+00 1.7878983781e+00 3.0967308296e+00 
73500 4.0995001625e+00 2.1152473236e-03 1.7878387258e+00 -3.0966275088e+00 1.7878387258e+00 3.0966275088e+00 
73600 4.0995000192e+00 2.0975894409e-03 1.7877795695e+00 -3.0965250472e+00 1.7877795695e+00 3.0965250472e+00 
73700 4.0994998781e+00 2.0800825291e-03 1.7877209052e+00 -3.0964234376e+00 1.7877209052e+00 3.0964234376e+00 
73800 4.0994997394e+00 2.0627252588e-03 1.7876627286e+00 -3.0963226727e+00 1.7876627286e+00 3.0963226727e+00 
73900 4.0994996030e+00 2.0455163125e-03 1.7876050355e+00 -3.0962227454e+00 1.7876050355e+00 3.0962227454e+00 
74000 4.0994994687e+00 2.0284543844e-03 1.7875478220e+00 -3.0961236486e+00 1.7875478220e+00 3.0961236486e+00 
74100 4.0994993367e+00 2.0115381807e-03 1.7874910838e+00 -3.0960253752e+00 1.7874910838e+00 3.0960253752e+00 
74200 4.0994992068e+00 1.9947664193e-03 1.7874348170e+00 -3.0959279183e+00 1.7874348170e+00 3.0959279183e+00 
74300 4.0994990790e+00 1.9781378295e-03 1.7873790176e+00 -3.0958312709e+00 1.7873790176e+00 3.0958312709e+00 
74400 4.0994989533e+00 1.9616511521e-03 1.7873236816e+00 -3.0957354261e+00 1.7873236816e+00 3.0957354261e+00 
74500 4.0994988297e+00 1.9453051393e-03 1.7872688051e+00 -3.0956403773e+00 1.7872688051e+00 3.0956403773e+00 
74600 4.0994987080e+00 1.9290985547e-03 1.7872143842e+00 -3.0955461175e+00 1.7872143842e+00 3.0955461175e+00 
74700 4.0994985884e+00 1.9130301727e-03 1.7871604151e+00 -3.0954526402e+00 1.7871604151e+00 3.0954526402e+00 
74800 4.0994984707e+00 1.8970987792e-03 1.7871068939e+00 -3.0953599387e+00 1.7871068939e+00 3.0953599387e+00 
74900 4.0994983549e+00 1.8813031707e-03 1.7870538167e+00 -3.0952680065e+00 1.7870538167e+00 3.0952680065e+00 
75000 4.0994982410e+00 1.8656421547e-03 1.7870011800e+00 -3.0951768369e+00 1.7870011800e+00 3.0951768369e+00 
75100 4.0994981289e+00 1.8501145495e-03 1.7869489799e+00 -3.0950864237e+00 1.7869489799e+00 3.0950864237e+00 
75200 4.0994980187e+00 1.8347191840e-03 1.7868972127e+00 -3.0949967604e+00 1.7868972127e+00 3.0949967604e+00 
75300 4.0994979102e+00 1.8194548978e-03 1.7868458748e+00 -3.0949078405e+00 1.7868458748e+00 3.0949078405e+00 
75400 4.0994978036e+00 1.8043205408e-03 1.7867949626e+00 -3.0948196580e+00 1.7867949626e+00 3.0948196580e+00 
75500 4.0994976986e+00 1.7893149733e-03 1.7867444724e+00 -3.0947322064e+00 1.7867444724e+00 3.0947322064e+00 
75600 4.0994975954e+00 1.7744370661e-03 1.7866944007e+00 -3.0946454797e+00 1.7866944007e+00 3.0946454797e+00 
75700 4.0994974939e+00 1.7596857000e-03 1.7866447440e+00 -3.0945594717e+00 1.7866447440e+00 3.0945594717e+00 
75800 4.0994973940e+00 1.7450597658e-03 1.7865954987e+00 -3.0944741763e+00 1.7865954987e+00 3.0944741763e+00 
75900 4.0994972957e+00 1.7305581647e-03 1.7865466613e+00 -3.0943895875e+00 1.7865466613e+00 3.0943895875e+00 
76000 4.0994971990e+00 1.7161798074e-03 1.7864982285e+00 -3.0943056994e+00 1.7864982285e+00 3.0943056994e+00 
76100 4.0994971039e+00 1.7019236147e-03 1.7864501968e+00 -3.0942225060e+00 1.7864501968e+00 3.0942225060e+00 
76200 4.0994970103e+00 1.6877885169e-03 1.7864025627e+00 -3.0941400014e+00 1.7864025627e+00 3.0941400014e+00 
76300 4.0994969183e+00 1.6737734543e-03 1.7863553231e+00 -3.0940581799e+00 1.7863553231e+00 3.0940581799e+00 
76400 4.0994968278e+00 1.6598773765e-03 1.7863084744e+00 -3.0939770357e+00 1.7863084744e+00 3.0939770357e+00 
76500 4.0994967387e+00 1.6460992427e-03 1.7862620135e+00 -3.0938965631e+00 1.7862620135e+00 3.0938965631e+00 
76600 4.0994966511e+00 1.6324380213e-03 1.7862159371e+00 -3.0938167563e+00 1.7862159371e+00 3.0938167563e+00 
76700 4.0994965649e+00 1.6188926902e-03 1.7861702418e+00 -3.0937376098e+00 1.7861702418e+00 3.0937376098e+00 
76800 4.0994964801e+00 1.6054622366e-03 1.7861249246e+00 -3.0936591181e+00 1.7861249246e+00 3.0936591181e+00 
76900 4.0994963966e+00 1.5921456565e-03 1.7860799822e+00 -3.0935812755e+00 1.7860799822e+00 3.0935812755e+00 
77000 4.0994963146e+00 1.5789419552e-03 1.7860354114e+00 -3.0935040767e+00 1.7860354114e+00 3.0935040767e+00 
77100 4.0994962338e+00 1.5658501471e-03 1.7859912092e+00 -3.0934275162e+00 1.7859912092e+00 3.0934275162e+00 
77200 4.0994961544e+00 1.5528692551e-03 1.7859473724e+00 -3.0933515886e+00 1.7859473724e+00 3.0933515886e+00 
77300 4.0994960763e+00 1.5399983112e-03 1.7859038979e+00 -3.0932762886e+00 1.7859038979e+00 3.0932762886e+00 
77400 4.0994959994e+00 1.5272363561e-03 1.7858607827e+00 -3.0932016108e+00 1.7858607827e+00 3.0932016108e+00 
77500 4.0994959238e+00 1.5145824391e-03 1.7858180237e+00 -3.0931275502e+00 1.7858180237e+00 3.0931275502e+00 
77600 4.0994958494e+00 1.5020356180e-03 1.7857756181e+00 -3.0930541014e+00 1.7857756181e+00 3.0930541014e+00 
77700 4.0994957762e+00 1.4895949592e-03 1.7857335627e+00 -3.0929812593e+00 1.7857335627e+00 3.0929812593e+00 
77800 4.0994957042e+00 1.4772595375e-03 1.7856918546e+00 -3.0929090189e+00 1.7856918546e+00 3.0929090189e+00 
77900 4.0994956334e+00 1.4650284359e-03 1.7856504910e+00 -3.0928373750e+00 1.7856504910e+00 3.0928373750e+00 
78000 4.0994955637e+00 1.4529007459e-03 1.7856094689e+00 -3.0927663226e+00 1.7856094689e+00 3.0927663226e+00 
78100 4.0994954952e+00 1.4408755669e-03 1.7855687854e+00 -3.0926958568e+00 1.7855687854e+00 3.0926958568e+00 
78200 4.0994954278e+00 1.4289520067e-03 1.7855284378e+00 -3.0926259726e+00 1.7855284378e+00 3.0926259726e+00 
78300 4.0994953614e+00 1.4171291808e-03 1.7854884231e+00 -3.0925566652e+00 1.7854884231e+00 3.0925566652e+00 
78400 4.0994952962e+00 1.4054062131e-03 1.7854487386e+00 -3.0924879296e+00 1.7854487386e+00 3.0924879296e+00 
78500 4.0994952320e+00 1.3937822349e-03 1.7854093815e+00 -3.0924197611e+00 1.7854093815e+00 3.0924197611e+00 
78600 4.0994951688e+00 1.3822563856e-03 1.7853703491e+00 -3.0923521550e+00 1.7853703491e+00 3.0923521550e+00 
78700 4.0994951067e+00 1.3708278123e-03 1.7853316386e+00 -3.0922851065e+00 1.7853316386e+00 3.0922851065e+00 
78800 4.0994950455e+00 1.3594956698e-03 1.7852932474e+00 -3.0922186108e+00 1.7852932474e+00 3.0922186108e+00 
78900 4.0994949854e+00 1.3482591204e-03 1.7852551726e+00 -3.0921526635e+00 1.7852551726e+00 3.0921526635e+00 
79000 4.0994949262e+00 1.3371173340e-03 1.7852174118e+00 -3.0920872598e+00 1.7852174118e+00 3.0920872598e+00 
79100 4.0994948680e+00 1.3260694880e-03 1.7851799622e+00 -3.0920223952e+00 1.7851799622e+00 3.0920223952e+00 
79200 4.0994948108e+00 1.3151147670e-03 1.7851428213e+00 -3.0919580653e+00 1.7851428213e+00 3.0919580653e+00 
79300 4.0994947545e+00 1.3042523632e-03 1.7851059864e+00 -3.0918942654e+00 1.7851059864e+00 3.0918942654e+00 
79400 4.0994946990e+00 1.2934814758e-03 1.7850694550e+00 -3.0918309912e+00 1.7850694550e+00 3.0918309912e+00 
79500 4.0994946445e+00 1.2828013113e-03 1.7850332246e+00 -3.0917682382e+00 1.7850332246e+00 3.0917682382e+00 
79600 4.0994945909e+00 1.2722110835e-03 1.7849972926e+00 -3.0917060021e+00 1.7849972926e+00 3.0917060021e+00 
79700 4.0994945381e+00 1.2617100129e-03 1.7849616565e+00 -3.0916442786e+00 1.7849616565e+00 3.0916442786e+00 
79800 4.0994944862e+00 1.2512973273e-03 1.7849263138e+00 -3.0915830633e+00 1.7849263138e+00 3.0915830633e+00 
79900 4.0994944352e+00 1.2409722612e-03 1.7848912621e+00 -3.0915223520e+00 1.7848912621e+00 3.0915223520e+00 
80000 4.0994943849e+00 1.2307340562e-03 1.7848564990e+00 -3.0914621405e+00 1.7848564990e+00 3.0914621405e+00 
80100 4.0994943355e+00 1.2205819604e-03 1.7848220220e+00 -3.0914024246e+00 1.7848220220e+00 3.0914024246e+00 
80200 4.0994942869e+00 1.2105152289e-03 1.7847878287e+00 -3.0913432001e+00 1.7847878287e+00 3.0913432001e+00 
80300 4.0994942390e+00 1.2005331234e-03 1.7847539168e+00 -3.0912844629e+00 1.7847539168e+00 3.0912844629e+00 
80400 4.0994941920e+00 1.1906349122e-03 1.7847202839e+00 -3.0912262090e+00 1.7847202839e+00 3.0912262090e+00 
80500 4.0994941457e+00 1.1808198701e-03 1.7846869277e+00 -3.0911684343e+00 1.7846869277e+00 3.0911684343e+00 
80600 4.0994941001e+00 1.1710872784e-03 1.7846538458e+00 -3.0911111348e+00 1.7846538458e+00 3.0911111348e+00 
80700 4.0994940553e+00 1.1614364250e-03 1.7846210360e+00 -3.0910543065e+00 1.7846210360e+00 3.0910543065e+00 
80800 4.0994940113e+00 1.1518666039e-03 1.7845884959e+00 -3.0909979455e+00 1.7845884959e+00 3.0909979455e+00 
80900 4.0994939679e+00 1.1423771157e-03 1.7845562234e+00 -3.0909420479e+00 1.7845562234e+00 3.0909420479e+00 
81000 4.0994939252e+00 1.1329672670e-03 1.7845242162e+00 -3.0908866098e+00 1.7845242162e+00 3.0908866098e+00 
81100 4.0994938832e+00 1.1236363708e-03 1.7844924720e+00 -3.0908316273e+00 1.7844924720e+00 3.0908316273e+00 
81200 4.0994938420e+00 1.1143837461e-03 1.7844609888e+00 -3.0907770967e+00 1.7844609888e+00 3.0907770967e+00 
81300 4.0994938013e+00 1.1052087180e-03 1.7844297642e+00 -3.0907230141e+00 1.7844297642e+00 3.0907230141e+00 
81400 4.0994937614e+00 1.0961106178e-03 1.7843987962e+00 -3.0906693759e+00 1.7843987962e+00 3.0906693759e+00 
81500 4.0994937220e+00 1.0870887825e-03 1.7843680825e+00 -3.0906161783e+00 1.7843680825e+00 3.0906161783e+00 
81600 4.0994936834e+00 1.0781425553e-03 1.7843376212e+00 -3.0905634177e+00 1.7843376212e+00 3.0905634177e+00 
81700 4.0994936453e+00 1.0692712850e-03 1.7843074100e+00 -3.0905110904e+00 1.7843074100e+00 3.0905110904e+00 
81800 4.0994936079e+00 1.0604743263e-03 1.7842774468e+00 -3.0904591927e+00 1.7842774468e+00 3.0904591927e+00 
81900 4.0994935710e+00 1.0517510398e-03 1.7842477297e+00 -3.0904077212e+00 1.7842477297e+00 3.0904077212e+00 
82000 4.0994935348e+00 1.0431007917e-03 1.7842182566e+00 -3.0903566722e+00 1.7842182566e+00 3.0903566722e+00 
82100 4.0994934991e+00 1.0345229537e-03 1.7841890254e+00 -3.0903060422e+00 1.7841890254e+00 3.0903060422e+00 
82200 4.0994934641e+00 1.0260169033e-03 1.7841600340e+00 -3.0902558278e+00 1.7841600340e+00 3.0902558278e+00 
82300 4.0994934296e+00 1.0175820234e-03 1.7841312806e+00 -3.0902060254e+00 1.7841312806e+00 3.0902060254e+00 
82400 4.0994933956e+00 1.0092177026e-03 1.7841027631e+00 -3.0901566316e+00 1.7841027631e+00 3.0901566316e+00 
82500 4.0994933622e+00 1.0009233347e-03 1.7840744796e+00 -3.0901076431e+00 1.7840744796e+00 3.0901076431e+00 
82600 4.0994933294e+00 9.9269831913e-04 1.7840464280e+00 -3.0900590564e+00 1.7840464280e+00 3.0900590564e+00 
82700 4.0994932971e+00 9.8454206043e-04 1.7840186066e+00 -3.0900108682e+00 1.7840186066e+00 3.0900108682e+00 
82800 4.0994932653e+00 9.7645396857e-04 1.7839910132e+00 -3.0899630752e+00 1.7839910132e+00 3.0899630752e+00 
82900 4.0994932340e+00 9.6843345875e-04 1.7839636462e+00 -3.0899156741e+00 1.7839636462e+00 3.0899156741e+00 
83000 4.0994932032e+00 9.6047995134e-04 1.7839365035e+00 -3.0898686616e+00 1.7839365035e+00 3.0898686616e+00 
83100 4.0994931729e+00 9.5259287190e-04 1.7839095833e+00 -3.0898220345e+00 1.7839095833e+00 3.0898220345e+00 
83200 4.0994931431e+00 9.4477165104e-04 1.7838828838e+00 -3.0897757895e+00 1.7838828838e+00 3.0897757895e+00 
83300 4.0994931138e+00 9.3701572446e-04 1.7838564031e+00 -3.0897299236e+00 1.7838564031e+00 3.0897299236e+00 
83400 4.0994930850e+00 9.2932453287e-04 1.7838301394e+00 -3.0896844336e+00 1.7838301394e+00 3.0896844336e+00 
83500 4.0994930566e+00 9.2169752191e-04 1.7838040909e+00 -3.0896393162e+00 1.7838040909e+00 3.0896393162e+00 
83600 4.0994930287e+00 9.1413414216e-04 1.7837782558e+00 -3.0895945685e+00 1.7837782558e+00 3.0895945685e+00 
83700 4.0994930013e+00 9.0663384908e-04 1.7837526323e+00 -3.0895501873e+00 1.7837526323e+00 3.0895501873e+00 
83800 4.0994929743e+00 8.9919610294e-04 1.7837272187e+00 -3.0895061697e+00 1.7837272187e+00 3.0895061697e+00 
83900 4.0994929477e+00 8.9182036878e-04 1.7837020133e+00 -3.0894625125e+00 1.7837020133e+00 3.0894625125e+00 
84000 4.0994929215e+00 8.8450611641e-04 1.7836770142e+00 -3.0894192128e+00 1.7836770142e+00 3.0894192128e+00 
84100 4.0994928958e+00 8.7725282030e-04 1.7836522198e+00 -3.0893762677e+00 1.7836522198e+00 3.0893762677e+00 
84200 4.0994928705e+00 8.7005995960e-04 1.7836276283e+00 -3.0893336741e+00 1.7836276283e+00 3.0893336741e+00 
84300 4.0994928456e+00 8.6292701805e-04 1.7836032382e+00 -3.0892914292e+00 1.7836032382e+00 3.0892914292e+00 
84400 4.0994928211e+00 8.5585348395e-04 1.7835790477e+00 -3.0892495300e+00 1.7835790477e+00 3.0892495300e+00 
84500 4.0994927970e+00 8.4883885015e-04 1.7835550552e+00 -3.0892079737e+00 1.7835550552e+00 3.0892079737e+00 
84600 4.0994927733e+00 8.4188261395e-04 1.7835312590e+00 -3.0891667574e+00 1.7835312590e+00 3.0891667574e+00 
84700 4.0994927500e+00 8.3498427711e-04 1.7835076575e+00 -3.0891258784e+00 1.7835076575e+00 3.0891258784e+00 
84800 4.0994927271e+00 8.2814334579e-04 1.7834842490e+00 -3.0890853338e+00 1.7834842490e+00 3.0890853338e+00 
84900 4.0994927045e+00 8.2135933051e-04 1.7834610321e+00 -3.0890451209e+00 1.7834610321e+00 3.0890451209e+00 
85000 4.0994926823e+00 8.1463174609e-04 1.7834380050e+00 -3.0890052368e+00 1.7834380050e+00 3.0890052368e+00 
85100 4.0994926605e+00 8.0796011166e-04 1.7834151663e+00 -3.0889656789e+00 1.7834151663e+00 3.0889656789e+00 
85200 4.0994926390e+00 8.0134395057e-04 1.7833925143e+00 -3.0889264445e+00 1.7833925143e+00 3.0889264445e+00 
85300 4.0994926178e+00 7.9478279037e-04 1.7833700475e+00 -3.0888875309e+00 1.7833700475e+00 3.0888875309e+00 
85400 4.0994925970e+00 7.8827616279e-04 1.7833477643e+00 -3.0888489354e+00 1.7833477643e+00 3.0888489354e+00 
85500 4.0994925766e+00 7.8182360366e-04 1.7833256634e+00 -3.0888106554e+00 1.7833256634e+00 3.0888106554e+00 
85600 4.0994925564e+00 7.7542465293e-04 1.7833037430e+00 -3.0887726882e+00 1.7833037430e+00 3.0887726882e+00 
85700 4.0994925366e+00 7.6907885458e-04 1.7832820018e+00 -3.0887350314e+00 1.7832820018e+00 3.0887350314e+00 
85800 4.0994925171e+00 7.6278575659e-04 1.7832604383e+00 -3.0886976823e+00 1.7832604383e+00 3.0886976823e+00 
85900 4.0994924980e+00 7.5654491093e-04 1.7832390509e+00 -3.0886606383e+00 1.7832390509e+00 3.0886606383e+00 
86000 4.0994924791e+00 7.5035587353e-04 1.7832178383e+00 -3.0886238969e+00 1.7832178383e+00 3.0886238969e+00 
86100 4.0994924605e+00 7.4421820418e-04 1.7831967990e+00 -3.0885874557e+00 1.7831967990e+00 3.0885874557e+00 
86200 4.0994924423e+00 7.3813146656e-04 1.7831759315e+00 -3.0885513122e+00 1.7831759315e+00 3.0885513122e+00 
86300 4.0994924243e+00 7.3209522820e-04 1.7831552344e+00 -3.0885154638e+00 1.7831552344e+00 3.0885154638e+00 
86400 4.0994924067e+00 7.2610906039e-04 1.7831347064e+00 -3.0884799082e+00 1.7831347064e+00 3.0884799082e+00 
86500 4.0994923893e+00 7.2017253821e-04 1.7831143460e+00 -3.0884446429e+00 1.7831143460e+00 3.0884446429e+00 
86600 4.0994923722e+00 7.1428524046e-04 1.7830941518e+00 -3.0884096656e+00 1.7830941518e+00 3.0884096656e+00 
86700 4.0994923553e+00 7.0844674963e-04 1.7830741224e+00 -3.0883749737e+00 1.7830741224e+00 3.0883749737e+00 
86800 4.0994923388e+00 7.0265665188e-04 1.7830542566e+00 -3.0883405651e+00 1.7830542566e+00 3.0883405651e+00 
86900 4.0994923225e+00 6.9691453697e-04 1.7830345529e+00 -3.0883064373e+00 1.7830345529e+00 3.0883064373e+00 
87000 4.0994923065e+00 6.9121999829e-04 1.7830150100e+00 -3.0882725880e+00 1.7830150100e+00 3.0882725880e+00 
87100 4.0994922907e+00 6.8557263278e-04 1.7829956266e+00 -3.0882390149e+00 1.7829956266e+00 3.0882390149e+00 
87200 4.0994922752e+00 6.7997204088e-04 1.7829764013e+00 -3.0882057157e+00 1.7829764013e+00 3.0882057157e+00 
87300 4.0994922600e+00 6.7441782657e-04 1.7829573329e+00 -3.0881726883e+00 1.7829573329e+00 3.0881726883e+00 
87400 4.0994922450e+00 6.6890959726e-04 1.7829384200e+00 -3.0881399302e+00 1.7829384200e+00 3.0881399302e+00 
87500 4.0994922302e+00 6.6344696381e-04 1.7829196614e+00 -3.0881074394e+00 1.7829196614e+00 3.0881074394e+00 
87600 4.0994922157e+00 6.5802954048e-04 1.7829010558e+00 -3.0880752135e+00 1.7829010558e+00 3.0880752135e+00 
87700 4.0994922014e+00 6.5265694489e-04 1.7828826020e+00 -3.0880432505e+00 1.7828826020e+00 3.0880432505e+00 
87800 4.0994921873e+00 6.4732879801e-04 1.7828642986e+00 -3.0880115481e+00 1.7828642986e+00 3.0880115481e+00 
87900 4.0994921735e+00 6.4204472412e-04 1.7828461444e+00 -3.0879801042e+00 1.7828461444e+00 3.0879801042e+00 
88000 4.0994921599e+00 6.3680435077e-04 1.7828281383e+00 -3.0879489167e+00 1.7828281383e+00 3.0879489167e+00 
88100 4.0994921465e+00 6.3160730877e-04 1.7828102789e+00 -3.0879179833e+00 1.7828102789e+00 3.0879179833e+00 
88200 4.0994921333e+00 6.2645323214e-04 1.7827925651e+00 -3.0878873022e+00 1.7827925651e+00 3.0878873022e+00 
88300 4.0994921203e+00 6.2134175810e-04 1.7827749957e+00 -3.0878568711e+00 1.7827749957e+00 3.0878568711e+00 
88400 4.0994921076e+00 6.1627252703e-04 1.7827575695e+00 -3.0878266880e+00 1.7827575695e+00 3.0878266880e+00 
88500 4.0994920951e+00 6.1124518243e-04 1.7827402853e+00 -3.0877967508e+00 1.7827402853e+00 3.0877967508e+00 
88600 4.0994920827e+00 6.0625937092e-04 1.7827231419e+00 -3.0877670576e+00 1.7827231419e+00 3.0877670576e+00 
88700 4.0994920706e+00 6.0131474220e-04 1.7827061382e+00 -3.0877376063e+00 1.7827061382e+00 3.0877376063e+00 
88800 4.0994920586e+00 5.9641094899e-04 1.7826892730e+00 -3.0877083949e+00 1.7826892730e+00 3.0877083949e+00 
88900 4.0994920469e+00 5.9154764707e-04 1.7826725452e+00 -3.0876794215e+00 1.7826725452e+00 3.0876794215e+00 
89000 4.0994920353e+00 5.8672449518e-04 1.7826559536e+00 -3.0876506840e+00 1.7826559536e+00 3.0876506840e+00 
89100 4.0994920240e+00 5.8194115504e-04 1.7826394971e+00 -3.0876221806e+00 1.7826394971e+00 3.0876221806e+00 
89200 4.0994920128e+00 5.7719729132e-04 1.7826231747e+00 -3.0875939093e+00 1.7826231747e+00 3.0875939093e+00 
89300 4.0994920018e+00 5.7249257159e-04 1.7826069852e+00 -3.0875658683e+00 1.7826069852e+00 3.0875658683e+00 
89400 4.0994919909e+00 5.6782666630e-04 1.7825909275e+00 -3.0875380555e+00 1.7825909275e+00 3.0875380555e+00 
89500 4.0994919803e+00 5.6319924877e-04 1.7825750005e+00 -3.0875104692e+00 1.7825750005e+00 3.0875104692e+00 
89600 4.0994919698e+00 5.5860999517e-04 1.7825592032e+00 -3.0874831074e+00 1.7825592032e+00 3.0874831074e+00 
89700 4.0994919595e+00 5.5405858444e-04 1.7825435344e+00 -3.0874559683e+00 1.7825435344e+00 3.0874559683e+00 
89800 4.0994919493e+00 5.4954469834e-04 1.7825279932e+00 -3.0874290502e+00 1.7825279932e+00 3.0874290502e+00 
89900 4.0994919394e+00 5.4506802137e-04 1.7825125785e+00 -3.0874023511e+00 1.7825125785e+00 3.0874023511e+00 
90000 4.0994919296e+00 5.4062824077e-04 1.7824972892e+00 -3.0873758692e+00 1.7824972892e+00 3.0873758692e+00 
90100 4.0994919199e+00 5.3622504648e-04 1.7824821243e+00 -3.0873496029e+00 1.7824821243e+00 3.0873496029e+00 
90200 4.0994919104e+00 5.3185813114e-04 1.7824670828e+00 -3.0873235502e+00 1.7824670828e+00 3.0873235502e+00 
90300 4.0994919010e+00 5.2752719004e-04 1.7824521637e+00 -3.0872977095e+00 1.7824521637e+00 3.0872977095e+00 
90400 4.0994918918e+00 5.2323192110e-04 1.7824373659e+00 -3.0872720790e+00 1.7824373659e+00 3.0872720790e+00 
90500 4.0994918828e+00 5.1897202486e-04 1.7824226885e+00 -3.0872466570e+00 1.7824226885e+00 3.0872466570e+00 
90600 4.0994918739e+00 5.1474720446e-04 1.7824081304e+00 -3.0872214417e+00 1.7824081304e+00 3.0872214417e+00 
90700 4.0994918651e+00 5.1055716559e-04 1.7823936908e+00 -3.0871964316e+00 1.7823936908e+00 3.0871964316e+00 
90800 4.0994918565e+00 5.0640161648e-04 1.7823793686e+00 -3.0871716248e+00 1.7823793686e+00 3.0871716248e+00 
90900 4.0994918481e+00 5.0228026789e-04 1.7823651628e+00 -3.0871470197e+00 1.7823651628e+00 3.0871470197e+00 
91000 4.0994918397e+00 4.9819283307e-04 1.7823510726e+00 -3.0871226146e+00 1.7823510726e+00 3.0871226146e+00 
91100 4.0994918315e+00 4.9413902776e-04 1.7823370969e+00 -3.0870984080e+00 1.7823370969e+00 3.0870984080e+00 
91200 4.0994918234e+00 4.9011857013e-04 1.7823232348e+00 -3.0870743982e+00 1.7823232348e+00 3.0870743982e+00 
91300 4.0994918155e+00 4.8613118080e-04 1.7823094854e+00 -3.0870505835e+00 1.7823094854e+00 3.0870505835e+00 
91400 4.0994918077e+00 4.8217658278e-04 1.7822958477e+00 -3.0870269624e+00 1.7822958477e+00 3.0870269624e+00 
91500 4.0994918000e+00 4.7825450148e-04 1.7822823209e+00 -3.0870035332e+00 1.7822823209e+00 3.0870035332e+00 
91600 4.0994917924e+00 4.7436466468e-04 1.7822689040e+00 -3.0869802945e+00 1.7822689040e+00 3.0869802945e+00 
91700 4.0994917850e+00 4.7050680248e-04 1.7822555961e+00 -3.0869572446e+00 1.7822555961e+00 3.0869572446e+00 
91800 4.0994917777e+00 4.6668064733e-04 1.7822423964e+00 -3.0869343819e+00 1.7822423964e+00 3.0869343819e+00 
91900 4.0994917705e+00 4.6288593397e-04 1.7822293039e+00 -3.0869117051e+00 1.7822293039e+00 3.0869117051e+00 
92000 4.0994917634e+00 4.5912239943e-04 1.7822163178e+00 -3.0868892124e+00 1.7822163178e+00 3.0868892124e+00 
92100 4.0994917564e+00 4.5538978299e-04 1.7822034371e+00 -3.0868669025e+00 1.7822034371e+00 3.0868669025e+00 
92200 4.0994917496e+00 4.5168782617e-04 1.7821906611e+00 -3.0868447738e+00 1.7821906611e+00 3.0868447738e+00 
92300 4.0994917429e+00 4.4801627273e-04 1.7821779888e+00 -3.0868228248e+00 1.7821779888e+00 3.0868228248e+00 
92400 4.0994917362e+00 4.4437486861e-04 1.7821654195e+00 -3.0868010541e+00 1.7821654195e+00 3.0868010541e+00 
92500 4.0994917297e+00 4.4076336195e-04 1.7821529523e+00 -3.0867794602e+00 1.7821529523e+00 3.0867794602e+00 
92600 4.0994917233e+00 4.3718150304e-04 1.7821405862e+00 -3.0867580416e+00 1.7821405862e+00 3.0867580416e+00 
92700 4.0994917170e+00 4.3362904431e-04 1.7821283206e+00 -3.0867367969e+00 1.7821283206e+00 3.0867367969e+00 
92800 4.0994917107e+00 4.3010574033e-04 1.7821161546e+00 -3.0867157247e+00 1.7821161546e+00 3.0867157247e+00 
92900 4.0994917046e+00 4.2661134776e-04 1.7821040873e+00 -3.0866948236e+00 1.7821040873e+00 3.0866948236e+00 
93000 4.0994916986e+00 4.2314562534e-04 1.7820921180e+00 -3.0866740922e+00 1.7820921180e+00 3.0866740922e+00 
93100 4.0994916927e+00 4.1970833391e-04 1.7820802459e+00 -3.0866535290e+00 1.7820802459e+00 3.0866535290e+00 
93200 4.0994916869e+00 4.1629923633e-04 1.7820684701e+00 -3.0866331328e+00 1.7820684701e+00 3.0866331328e+00 
93300 4.0994916812e+00 4.1291809749e-04 1.7820567899e+00 -3.0866129020e+00 1.7820567899e+00 3.0866129020e+00 
93400 4.0994916755e+00 4.0956468431e-04 1.7820452045e+00 -3.0865928355e+00 1.7820452045e+00 3.0865928355e+00 
93500 4.0994916700e+00 4.0623876569e-04 1.7820337130e+00 -3.0865729318e+00 1.7820337130e+00 3.0865729318e+00 
93600 4.0994916645e+00 4.0294011252e-04 1.7820223149e+00 -3.0865531896e+00 1.7820223149e+00 3.0865531896e+00 
93700 4.0994916592e+00 3.9966849764e-04 1.7820110092e+00 -3.0865336076e+00 1.7820110092e+00 3.0865336076e+00 
93800 4.0994916539e+00 3.9642369583e-04 1.7819997952e+00 -3.0865141844e+00 1.7819997952e+00 3.0865141844e+00 
93900 4.0994916487e+00 3.9320548381e-04 1.7819886722e+00 -3.0864949188e+00 1.7819886722e+00 3.0864949188e+00 
94000 4.0994916436e+00 3.9001364020e-04 1.7819776395e+00 -3.0864758095e+00 1.7819776395e+00 3.0864758095e+00 
94100 4.0994916386e+00 3.8684794549e-04 1.7819666962e+00 -3.0864568552e+00 1.7819666962e+00 3.0864568552e+00 
94200 4.0994916336e+00 3.8370818208e-04 1.7819558417e+00 -3.0864380547e+00 1.7819558417e+00 3.0864380547e+00 
94300 4.0994916288e+00 3.8059413421e-04 1.7819450752e+00 -3.0864194066e+00 1.7819450752e+00 3.0864194066e+00 
94400 4.0994916240e+00 3.7750558796e-04 1.7819343961e+00 -3.0864009097e+00 1.7819343961e+00 3.0864009097e+00 
94500 4.0994916193e+00 3.7444233123e-04 1.7819238035e+00 -3.0863825629e+00 1.7819238035e+00 3.0863825629e+00 
94600 4.0994916146e+00 3.7140415375e-04 1.7819132968e+00 -3.0863643648e+00 1.7819132968e+00 3.0863643648e+00 
94700 4.0994916101e+00 3.6839084701e-04 1.7819028753e+00 -3.0863463142e+00 1.7819028753e+00 3.0863463142e+00 
94800 4.0994916056e+00 3.6540220430e-04 1.7818925383e+00 -3.0863284100e+00 1.7818925383e+00 3.0863284100e+00 
94900 4.0994916012e+00 3.6243802067e-04 1.7818822851e+00 -3.0863106509e+00 1.7818822851e+00 3.0863106509e+00 
95000 4.0994915969e+00 3.5949809291e-04 1.7818721150e+00 -3.0862930359e+00 1.7818721150e+00 3.0862930359e+00 
95100 4.0994915926e+00 3.5658221955e-04 1.7818620274e+00 -3.0862755635e+00 1.7818620274e+00 3.0862755635e+00 
95200 4.0994915884e+00 3.5369020081e-04 1.7818520215e+00 -3.0862582329e+00 1.7818520215e+00 3.0862582329e+00 
95300 4.0994915843e+00 3.5082183863e-04 1.7818420967e+00 -3.0862410426e+00 1.7818420967e+00 3.0862410426e+00 
95400 4.0994915802e+00 3.4797693664e-04 1.7818322524e+00 -3.0862239917e+00 1.7818322524e+00 3.0862239917e+00 
95500 4.0994915762e+00 3.4515530012e-04 1.7818224878e+00 -3.0862070790e+00 1.7818224878e+00 3.0862070790e+00 
95600 4.0994915723e+00 3.4235673602e-04 1.7818128024e+00 -3.0861903033e+00 1.7818128024e+00 3.0861903033e+00 
95700 4.0994915684e+00 3.3958105292e-04 1.7818031954e+00 -3.0861736635e+00 1.7818031954e+00 3.0861736635e+00 
95800 4.0994915646e+00 3.3682806105e-04 1.7817936663e+00 -3.0861571586e+00 1.7817936663e+00 3.0861571586e+00 
95900 4.0994915609e+00 3.3409757222e-04 1.7817842143e+00 -3.0861407874e+00 1.7817842143e+00 3.0861407874e+00 
96000 4.0994915572e+00 3.3138939984e-04 1.7817748390e+00 -3.0861245488e+00 1.7817748390e+00 3.0861245488e+00 
96100 4.0994915536e+00 3.2870335894e-04 1.7817655396e+00 -3.0861084417e+00 1.7817655396e+00 3.0861084417e+00 
96200 4.0994915500e+00 3.2603926608e-04 1.7817563155e+00 -3.0860924651e+00 1.7817563155e+00 3.0860924651e+00 
96300 4.0994915465e+00 3.2339693940e-04 1.7817471661e+00 -3.0860766180e+00 1.7817471661e+00 3.0860766180e+00 
96400 4.0994915431e+00 3.2077619856e-04 1.7817380909e+00 -3.0860608991e+00 1.7817380909e+00 3.0860608991e+00 
96500 4.0994915397e+00 3.1817686476e-04 1.7817290891e+00 -3.0860453076e+00 1.7817290891e+00 3.0860453076e+00 
96600 4.0994915363e+00 3.1559876073e-04 1.7817201602e+00 -3.0860298424e+00 1.7817201602e+00 3.0860298424e+00 
96700 4.0994915331e+00 3.1304171069e-04 1.7817113036e+00 -3.0860145023e+00 1.7817113036e+00 3.0860145023e+00 
96800 4.0994915298e+00 3.1050554033e-04 1.7817025188e+00 -3.0859992865e+00 1.7817025188e+00 3.0859992865e+00 
96900 4.0994915267e+00 3.0799007684e-04 1.7816938051e+00 -3.0859841939e+00 1.7816938051e+00 3.0859841939e+00 
97000 4.0994915235e+00 3.0549514887e-04 1.7816851619e+00 -3.0859692235e+00 1.7816851619e+00 3.0859692235e+00 
97100 4.0994915205e+00 3.0302058652e-04 1.7816765887e+00 -3.0859543743e+00 1.7816765887e+00 3.0859543743e+00 
97200 4.0994915174e+00 3.0056622130e-04 1.7816680849e+00 -3.0859396453e+00 1.7816680849e+00 3.0859396453e+00 
97300 4.0994915145e+00 2.9813188620e-04 1.7816596499e+00 -3.0859250355e+00 1.7816596499e+00 3.0859250355e+00 
97400 4.0994915115e+00 2.9571741556e-04 1.7816512833e+00 -3.0859105440e+00 1.7816512833e+00 3.0859105440e+00 
97500 4.0994915087e+00 2.9332264516e-04 1.7816429843e+00 -3.0858961697e+00 1.7816429843e+00 3.0858961697e+00 
97600 4.0994915058e+00 2.9094741217e-04 1.7816347525e+00 -3.0858819118e+00 1.7816347525e+00 3.0858819118e+00 
97700 4.0994915030e+00 2.8859155510e-04 1.7816265873e+00 -3.0858677693e+00 1.7816265873e+00 3.0858677693e+00 
97800 4.0994915003e+00 2.8625491387e-04 1.7816184882e+00 -3.0858537413e+00 1.7816184882e+00 3.0858537413e+00 
97900 4.0994914976e+00 2.8393732970e-04 1.7816104547e+00 -3.0858398268e+00 1.7816104547e+00 3.0858398268e+00 
98000 4.0994914949e+00 2.8163864520e-04 1.7816024861e+00 -3.0858260248e+00 1.7816024861e+00 3.0858260248e+00 
98100 4.0994914923e+00 2.7935870428e-04 1.7815945820e+00 -3.0858123346e+00 1.7815945820e+00 3.0858123346e+00 
98200 4.0994914898e+00 2.7709735217e-04 1.7815867419e+00 -3.0857987551e+00 1.7815867419e+00 3.0857987551e+00 
98300 4.0994914872e+00 2.7485443540e-04 1.7815789652e+00 -3.0857852854e+00 1.7815789652e+00 3.0857852854e+00 
98400 4.0994914848e+00 2.7262980181e-04 1.7815712514e+00 -3.0857719248e+00 1.7815712514e+00 3.0857719248e+00 
98500 4.0994914823e+00 2.7042330051e-04 1.7815636000e+00 -3.0857586722e+00 1.7815636000e+00 3.0857586722e+00 
98600 4.0994914799e+00 2.6823478189e-04 1.7815560106e+00 -3.0857455268e+00 1.7815560106e+00 3.0857455268e+00 
98700 4.0994914776e+00 2.6606409759e-04 1.7815484825e+00 -3.0857324878e+00 1.7815484825e+00 3.0857324878e+00 
98800 4.0994914752e+00 2.6391110050e-04 1.7815410153e+00 -3.0857195542e+00 1.7815410153e+00 3.0857195542e+00 
98900 4.0994914729e+00 2.6177564475e-04 1.7815336084e+00 -3.0857067252e+00 1.7815336084e+00 3.0857067252e+00 
99000 4.0994914707e+00 2.5965758571e-04 1.7815262615e+00 -3.0856940000e+00 1.7815262615e+00 3.0856940000e+00 
99100 4.0994914685e+00 2.5755677996e-04 1.7815189740e+00 -3.0856813777e+00 1.7815189740e+00 3.0856813777e+00 
99200 4.0994914663e+00 2.5547308526e-04 1.7815117455e+00 -3.0856688574e+00 1.7815117455e+00 3.0856688574e+00 
99300 4.0994914642e+00 2.5340636062e-04 1.7815045753e+00 -3.0856564384e+00 1.7815045753e+00 3.0856564384e+00 
99400 4.0994914620e+00 2.5135646618e-04 1.7814974632e+00 -3.0856441198e+00 1.7814974632e+00 3.0856441198e+00 
99500 4.0994914600e+00 2.4932326329e-04 1.7814904086e+00 -3.0856319008e+00 1.7814904086e+00 3.0856319008e+00 
99600 4.0994914579e+00 2.4730661445e-04 1.7814834110e+00 -3.0856197806e+00 1.7814834110e+00 3.0856197806e+00 
99700 4.0994914559e+00 2.4530638333e-04 1.7814764699e+00 -3.0856077584e+00 1.7814764699e+00 3.0856077584e+00 
99800 4.0994914539e+00 2.4332243472e-04 1.7814695850e+00 -3.0855958334e+00 1.7814695850e+00 3.0855958334e+00 
99900 4.0994914520e+00 2.4135463457e-04 1.7814627558e+00 -3.0855840048e+00 1.7814627558e+00 3.0855840048e+00 
100000 4.0994914501e+00 2.3940284995e-04 1.7814559817e+00 -3.0855722718e+00 1.7814559817e+00 3.0855722718e+00 
100100 4.0994914482e+00 2.3746694903e-04 1.7814492624e+00 -3.0855606336e+00 1.7814492624e+00 3.0855606336e+00 
100200 4.0994914464e+00 2.3554680109e-04 1.7814425974e+00 -3.0855490895e+00 1.7814425974e+00 3.0855490895e+00 
100300 4.0994914446e+00 2.3364227653e-04 1.7814359863e+00 -3.0855376387e+00 1.7814359863e+00 3.0855376387e+00 
100400 4.0994914428e+00 2.3175324681e-04 1.7814294286e+00 -3.0855262805e+00 1.7814294286e+00 3.0855262805e+00 
100500 4.0994914410e+00 2.2987958448e-04 1.7814229239e+00 -3.0855150140e+00 1.7814229239e+00 3.0855150140e+00 
100600 4.0994914393e+00 2.2802116315e-04 1.7814164718e+00 -3.0855038386e+00 1.7814164718e+00 3.0855038386e+00 
100700 4.0994914376e+00 2.2617785750e-04 1.7814100718e+00 -3.0854927535e+00 1.7814100718e+00 3.0854927535e+00 
100800 4.0994914359e+00 2.2434954325e-04 1.7814037235e+00 -3.0854817579e+00 1.7814037235e+00 3.0854817579e+00 
100900 4.0994914342e+00 2.2253609716e-04 1.7813974265e+00 -3.0854708512e+00 1.7813974265e+00 3.0854708512e+00 
101000 4.0994914326e+00 2.2073739703e-04 1.7813911804e+00 -3.0854600327e+00 1.7813911804e+00 3.0854600327e+00 
101100 4.0994914310e+00 2.1895332168e-04 1.7813849848e+00 -3.0854493015e+00 1.7813849848e+00 3.0854493015e+00 
101200 4.0994914295e+00 2.1718375094e-04 1.7813788392e+00 -3.0854386570e+00 1.7813788392e+00 3.0854386570e+00 
101300 4.0994914279e+00 2.1542856565e-04 1.7813727433e+00 -3.0854280985e+00 1.7813727433e+00 3.0854280985e+00 
101400 4.0994914264e+00 2.1368764764e-04 1.7813666966e+00 -3.0854176254e+00 1.7813666966e+00 3.0854176254e+00 
101500 4.0994914249e+00 2.1196087974e-04 1.7813606987e+00 -3.0854072368e+00 1.7813606987e+00 3.0854072368e+00 
101600 4.0994914234e+00 2.1024814574e-04 1.7813547493e+00 -3.0853969321e+00 1.7813547493e+00 3.0853969321e+00 
101700 4.0994914220e+00 2.0854933043e-04 1.7813488480e+00 -3.0853867107e+00 1.7813488480e+00 3.0853867107e+00 
101800 4.0994914206e+00 2.0686431953e-04 1.7813429943e+00 -3.0853765718e+00 1.7813429943e+00 3.0853765718e+00 
101900 4.0994914192e+00 2.0519299974e-04 1.7813371879e+00 -3.0853665148e+00 1.7813371879e+00 3.0853665148e+00 
102000 4.0994914178e+00 2.0353525870e-04 1.7813314283e+00 -3.0853565390e+00 1.7813314283e+00 3.0853565390e+00 
102100 4.0994914165e+00 2.0189098497e-04 1.7813257153e+00 -3.0853466438e+00 1.7813257153e+00 3.0853466438e+00 
102200 4.0994914151e+00 2.0026006807e-04 1.7813200485e+00 -3.0853368285e+00 1.7813200485e+00 3.0853368285e+00 
102300 4.0994914138e+00 1.9864239842e-04 1.7813144273e+00 -3.0853270924e+00 1.7813144273e+00 3.0853270924e+00 
102400 4.0994914125e+00 1.9703786736e-04 1.7813088516e+00 -3.0853174350e+00 1.7813088516e+00 3.0853174350e+00 
102500 4.0994914113e+00 1.9544636714e-04 1.7813033209e+00 -3.0853078555e+00 1.7813033209e+00 3.0853078555e+00 
102600 4.0994914100e+00 1.9386779091e-04 1.7812978349e+00 -3.0852983534e+00 1.7812978349e+00 3.0852983534e+00 
102700 4.0994914088e+00 1.9230203270e-04 1.7812923931e+00 -3.0852889280e+00 1.7812923931e+00 3.0852889280e+00 
102800 4.0994914076e+00 1.9074898743e-04 1.7812869953e+00 -3.0852795787e+00 1.7812869953e+00 3.0852795787e+00 
102900 4.0994914064e+00 1.8920855090e-04 1.7812816411e+00 -3.0852703049e+00 1.7812816411e+00 3.0852703049e+00 
103000 4.0994914052e+00 1.8768061978e-04 1.7812763300e+00 -3.0852611059e+00 1.7812763300e+00 3.0852611059e+00 
103100 4.0994914041e+00 1.8616509159e-04 1.7812710619e+00 -3.0852519812e+00 1.7812710619e+00 3.0852519812e+00 
103200 4.0994914030e+00 1.8466186470e-04 1.7812658363e+00 -3.0852429302e+00 1.7812658363e+00 3.0852429302e+00 
103300 4.0994914019e+00 1.8317083834e-04 1.7812606528e+00 -3.0852339522e+00 1.7812606528e+00 3.0852339522e+00 
103400 4.0994914008e+00 1.8169191258e-04 1.7812555112e+00 -3.0852250467e+00 1.7812555112e+00 3.0852250467e+00 
103500 4.0994913997e+00 1.8022498832e-04 1.7812504111e+00 -3.0852162130e+00 1.7812504111e+00 3.0852162130e+00 
103600 4.0994913986e+00 1.7876996726e-04 1.7812453522e+00 -3.0852074507e+00 1.7812453522e+00 3.0852074507e+00 
103700 4.0994913976e+00 1.7732675195e-04 1.7812403341e+00 -3.0851987591e+00 1.7812403341e+00 3.0851987591e+00 
103800 4.0994913966e+00 1.7589524574e-04 1.7812353564e+00 -3.0851901376e+00 1.7812353564e+00 3.0851901376e+00 
103900 4.0994913956e+00 1.7447535277e-04 1.7812304190e+00 -3.0851815857e+00 1.7812304190e+00 3.0851815857e+00 
104000 4.0994913946e+00 1.7306697800e-04 1.7812255214e+00 -3.0851731028e+00 1.7812255214e+00 3.0851731028e+00 
104100 4.0994913936e+00 1.7167002717e-04 1.7812206633e+00 -3.0851646883e+00 1.7812206633e+00 3.0851646883e+00 
104200 4.0994913926e+00 1.7028440679e-04 1.7812158444e+00 -3.0851563418e+00 1.7812158444e+00 3.0851563418e+00 
104300 4.0994913917e+00 1.6891002417e-04 1.7812110644e+00 -3.0851480626e+00 1.7812110644e+00 3.0851480626e+00 
104400 4.0994913908e+00 1.6754678737e-04 1.7812063230e+00 -3.0851398502e+00 1.7812063230e+00 3.0851398502e+00 
104500 4.0994913899e+00 1.6619460522e-04 1.7812016198e+00 -3.0851317040e+00 1.7812016198e+00 3.0851317040e+00 
104600 4.0994913890e+00 1.6485338732e-04 1.7811969546e+00 -3.0851236236e+00 1.7811969546e+00 3.0851236236e+00 
104700 4.0994913881e+00 1.6352304401e-04 1.7811923270e+00 -3.0851156083e+00 1.7811923270e+00 3.0851156083e+00 
104800 4.0994913872e+00 1.6220348636e-04 1.7811877367e+00 -3.0851076578e+00 1.7811877367e+00 3.0851076578e+00 
104900 4.0994913864e+00 1.6089462619e-04 1.7811831835e+00 -3.0850997713e+00 1.7811831835e+00 3.0850997713e+00 
105000 4.0994913855e+00 1.5959637607e-04 1.7811786669e+00 -3.0850919485e+00 1.7811786669e+00 3.0850919485e+00 
105100 4.0994913847e+00 1.5830864927e-04 1.7811741869e+00 -3.0850841888e+00 1.7811741869e+00 3.0850841888e+00 
105200 4.0994913839e+00 1.5703135978e-04 1.7811697429e+00 -3.0850764917e+00 1.7811697429e+00 3.0850764917e+00 
105300 4.0994913831e+00 1.5576442232e-04 1.7811653348e+00 -3.0850688566e+00 1.7811653348e+00 3.0850688566e+00 
105400 4.0994913823e+00 1.5450775230e-04 1.7811609623e+00 -3.0850612832e+00 1.7811609623e+00 3.0850612832e+00 
105500 4.0994913815e+00 1.5326126584e-04 1.7811566250e+00 -3.0850537708e+00 1.7811566250e+00 3.0850537708e+00 
105600 4.0994913808e+00 1.5202487976e-04 1.7811523227e+00 -3.0850463190e+00 1.7811523227e+00 3.0850463190e+00 
105700 4.0994913800e+00 1.5079851155e-04 1.7811480551e+00 -3.0850389273e+00 1.7811480551e+00 3.0850389273e+00 
105800 4.0994913793e+00 1.4958207941e-04 1.7811438219e+00 -3.0850315952e+00 1.7811438219e+00 3.0850315952e+00 
105900 4.0994913786e+00 1.4837550219e-04 1.7811396229e+00 -3.0850243222e+00 1.7811396229e+00 3.0850243222e+00 
106000 4.0994913779e+00 1.4717869943e-04 1.7811354577e+00 -3.0850171079e+00 1.7811354577e+00 3.0850171079e+00 
106100 4.0994913772e+00 1.4599159133e-04 1.7811313261e+00 -3.0850099518e+00 1.7811313261e+00 3.0850099518e+00 
106200 4.0994913765e+00 1.4481409875e-04 1.7811272278e+00 -3.0850028534e+00 1.7811272278e+00 3.0850028534e+00 
106300 4.0994913758e+00 1.4364614321e-04 1.7811231626e+00 -3.0849958122e+00 1.7811231626e+00 3.0849958122e+00 
106400 4.0994913751e+00 1.4248764687e-04 1.7811191301e+00 -3.0849888277e+00 1.7811191301e+00 3.0849888277e+00 
106500 4.0994913745e+00 1.4133853254e-04 1.7811151302e+00 -3.0849818996e+00 1.7811151302e+00 3.0849818996e+00 
106600 4.0994913738e+00 1.4019872368e-04 1.7811111625e+00 -3.0849750274e+00 1.7811111625e+00 3.0849750274e+00 
106700 4.0994913732e+00 1.3906814435e-04 1.7811072268e+00 -3.0849682105e+00 1.7811072268e+00 3.0849682105e+00 
106800 4.0994913726e+00 1.3794671927e-04 1.7811033228e+00 -3.0849614487e+00 1.7811033228e+00 3.0849614487e+00 
106900 4.0994913720e+00 1.3683437377e-04 1.7810994503e+00 -3.0849547413e+00 1.7810994503e+00 3.0849547413e+00 
107000 4.0994913714e+00 1.3573103380e-04 1.7810956090e+00 -3.0849480880e+00 1.7810956090e+00 3.0849480880e+00 
107100 4.0994913708e+00 1.3463662591e-04 1.7810917987e+00 -3.0849414883e+00 1.7810917987e+00 3.0849414883e+00 
107200 4.0994913702e+00 1.3355107727e-04 1.7810880191e+00 -3.0849349418e+00 1.7810880191e+00 3.0849349418e+00 
107300 4.0994913696e+00 1.3247431564e-04 1.7810842700e+00 -3.0849284481e+00 1.7810842700e+00 3.0849284481e+00 
107400 4.0994913691e+00 1.3140626940e-04 1.7810805510e+00 -3.0849220068e+00 1.7810805510e+00 3.0849220068e+00 
107500 4.0994913685e+00 1.3034686750e-04 1.7810768621e+00 -3.0849156173e+00 1.7810768621e+00 3.0849156173e+00 
107600 4.0994913680e+00 1.2929603947e-04 1.7810732029e+00 -3.0849092794e+00 1.7810732029e+00 3.0849092794e+00 
107700 4.0994913674e+00 1.2825371544e-04 1.7810695731e+00 -3.0849029925e+00 1.7810695731e+00 3.0849029925e+00 
107800 4.0994913669e+00 1.2721982612e-04 1.7810659727e+00 -3.0848967563e+00 1.7810659727e+00 3.0848967563e+00 
107900 4.0994913664e+00 1.2619430277e-04 1.7810624012e+00 -3.0848905704e+00 1.7810624012e+00 3.0848905704e+00 
108000 4.0994913659e+00 1.2517707722e-04 1.7810588586e+00 -3.0848844343e+00 1.7810588586e+00 3.0848844343e+00 
108100 4.0994913654e+00 1.2416808189e-04 1.7810553444e+00 -3.0848783477e+00 1.7810553444e+00 3.0848783477e+00 
108200 4.0994913649e+00 1.2316724973e-04 1.7810518586e+00 -3.0848723101e+00 1.7810518586e+00 3.0848723101e+00 
108300 4.0994913644e+00 1.2217451425e-04 1.7810484009e+00 -3.0848663212e+00 1.7810484009e+00 3.0848663212e+00 
108400 4.0994913639e+00 1.2118980950e-04 1.7810449711e+00 -3.0848603805e+00 1.7810449711e+00 3.0848603805e+00 
108500 4.0994913634e+00 1.2021307010e-04 1.7810415689e+00 -3.0848544877e+00 1.7810415689e+00 3.0848544877e+00 
108600 4.0994913630e+00 1.1924423118e-04 1.7810381941e+00 -3.0848486424e+00 1.7810381941e+00 3.0848486424e+00 
108700 4.0994913625e+00 1.1828322841e-04 1.7810348465e+00 -3.0848428441e+00 1.7810348465e+00 3.0848428441e+00 
108800 4.0994913621e+00 1.1732999800e-04 1.7810315258e+00 -3.0848370926e+00 1.7810315258e+00 3.0848370926e+00 
108900 4.0994913616e+00 1.1638447669e-04 1.7810282320e+00 -3.0848313875e+00 1.7810282320e+00 3.0848313875e+00 
109000 4.0994913612e+00 1.1544660172e-04 1.7810249646e+00 -3.0848257283e+00 1.7810249646e+00 3.0848257283e+00 
109100 4.0994913608e+00 1.1451631087e-04 1.7810217236e+00 -3.0848201147e+00 1.7810217236e+00 3.0848201147e+00 
109200 4.0994913604e+00 1.1359354240e-04 1.7810185087e+00 -3.0848145463e+00 1.7810185087e+00 3.0848145463e+00 
109300 4.0994913600e+00 1.1267823512e-04 1.7810153197e+00 -3.0848090228e+00 1.7810153197e+00 3.0848090228e+00 
109400 4.0994913596e+00 1.1177032831e-04 1.7810121564e+00 -3.0848035438e+00 1.7810121564e+00 3.0848035438e+00 
109500 4.0994913592e+00 1.1086505336e-04 1.7810090186e+00 -3.0847981089e+00 1.7810090186e+00 3.0847981089e+00 
109600 4.0994913588e+00 1.0996515114e-04 1.7810059061e+00 -3.0847927180e+00 1.7810059061e+00 3.0847927180e+00 
109700 4.0994913584e+00 1.0907246188e-04 1.7810028190e+00 -3.0847873709e+00 1.7810028190e+00 3.0847873709e+00 
109800 4.0994913580e+00 1.0818521553e-04 1.7809997569e+00 -3.0847820672e+00 1.7809997569e+00 3.0847820672e+00 
109900 4.0994913576e+00 1.0730423544e-04 1.7809967197e+00 -3.0847768066e+00 1.7809967197e+00 3.0847768066e+00 
110000 4.0994913573e+00 1.0643041796e-04 1.7809937072e+00 -3.0847715888e+00 1.7809937072e+00 3.0847715888e+00 
110100 4.0994913569e+00 1.0556165401e-04 1.7809907192e+00 -3.0847664135e+00 1.7809907192e+00 3.0847664135e+00 
110200 4.0994913566e+00 1.0469905353e-04 1.7809877557e+00 -3.0847612805e+00 1.7809877557e+00 3.0847612805e+00 
110300 4.0994913562e+00 1.0384357581e-04 1.7809848163e+00 -3.0847561894e+00 1.7809848163e+00 3.0847561894e+00 
110400 4.0994913559e+00 1.0299424153e-04 1.7809819010e+00 -3.0847511399e+00 1.7809819010e+00 3.0847511399e+00 
110500 4.0994913555e+00 1.0214952757e-04 1.7809790095e+00 -3.0847461316e+00 1.7809790095e+00 3.0847461316e+00 
110600 4.0994913552e+00 1.0131087183e-04 1.7809761417e+00 -3.0847411645e+00 1.7809761417e+00 3.0847411645e+00 
110700 4.0994913549e+00 1.0047825110e-04 1.7809732974e+00 -3.0847362381e+00 1.7809732974e+00 3.0847362381e+00 
110800 4.0994913546e+00 9.9652707934e-05 1.7809704766e+00 -3.0847313522e+00 1.7809704766e+00 3.0847313522e+00 
110900 4.0994913543e+00 9.8833175081e-05 1.7809676789e+00 -3.0847265064e+00 1.7809676789e+00 3.0847265064e+00 
111000 4.0994913539e+00 9.8019627112e-05 1.7809649042e+00 -3.0847217005e+00 1.7809649042e+00 3.0847217005e+00 
111100 4.0994913536e+00 9.7212038393e-05 1.7809621523e+00 -3.0847169341e+00 1.7809621523e+00 3.0847169341e+00 
111200 4.0994913533e+00 9.6410383096e-05 1.7809594231e+00 -3.0847122070e+00 1.7809594231e+00 3.0847122070e+00 
111300 4.0994913530e+00 9.5614635204e-05 1.7809567164e+00 -3.0847075189e+00 1.7809567164e+00 3.0847075189e+00 
111400 4.0994913528e+00 9.4824768516e-05 1.7809540320e+00 -3.0847028694e+00 1.7809540320e+00 3.0847028694e+00 
111500 4.0994913525e+00 9.4040756658e-05 1.7809513698e+00 -3.0846982584e+00 1.7809513698e+00 3.0846982584e+00 
111600 4.0994913522e+00 9.3260468976e-05 1.7809487297e+00 -3.0846936854e+00 1.7809487297e+00 3.0846936854e+00 
111700 4.0994913519e+00 9.2485995632e-05 1.7809461114e+00 -3.0846891504e+00 1.7809461114e+00 3.0846891504e+00 
111800 4.0994913516e+00 9.1719493868e-05 1.7809435148e+00 -3.0846846531e+00 1.7809435148e+00 3.0846846531e+00 
111900 4.0994913514e+00 9.0956515962e-05 1.7809409398e+00 -3.0846801930e+00 1.7809409398e+00 3.0846801930e+00 
112000 4.0994913511e+00 9.0201534250e-05 1.7809383862e+00 -3.0846757701e+00 1.7809383862e+00 3.0846757701e+00 
112100 4.0994913509e+00 8.9449950182e-05 1.7809358538e+00 -3.0846713838e+00 1.7809358538e+00 3.0846713838e+00 
112200 4.0994913506e+00 8.8706379166e-05 1.7809333425e+00 -3.0846670340e+00 1.7809333425e+00 3.0846670340e+00 
112300 4.0994913504e+00 8.7966085730e-05 1.7809308520e+00 -3.0846627205e+00 1.7809308520e+00 3.0846627205e+00 
112400 4.0994913501e+00 8.7233814796e-05 1.7809283824e+00 -3.0846584429e+00 1.7809283824e+00 3.0846584429e+00 
112500 4.0994913499e+00 8.6504707283e-05 1.7809259332e+00 -3.0846542009e+00 1.7809259332e+00 3.0846542009e+00 
112600 4.0994913496e+00 8.5783624657e-05 1.7809235046e+00 -3.0846499944e+00 1.7809235046e+00 3.0846499944e+00 
112700 4.0994913494e+00 8.5068062697e-05 1.7809210962e+00 -3.0846458229e+00 1.7809210962e+00 3.0846458229e+00 
112800 4.0994913492e+00 8.4357993321e-05 1.7809187079e+00 -3.0846416862e+00 1.7809187079e+00 3.0846416862e+00 
112900 4.0994913489e+00 8.3653388343e-05 1.7809163395e+00 -3.0846375840e+00 1.7809163395e+00 3.0846375840e+00 
113000 4.0994913487e+00 8.2954219479e-05 1.7809139909e+00 -3.0846335161e+00 1.7809139909e+00 3.0846335161e+00 
113100 4.0994913485e+00 8.2259209273e-05 1.7809116619e+00 -3.0846294822e+00 1.7809116619e+00 3.0846294822e+00 
113200 4.0994913483e+00 8.1570824588e-05 1.7809093524e+00 -3.0846254821e+00 1.7809093524e+00 3.0846254821e+00 
113300 4.0994913481e+00 8.0886535320e-05 1.7809070623e+00 -3.0846215155e+00 1.7809070623e+00 3.0846215155e+00 
113400 4.0994913479e+00 8.0208821192e-05 1.7809047914e+00 -3.0846175821e+00 1.7809047914e+00 3.0846175821e+00 
113500 4.0994913477e+00 7.9537778129e-05 1.7809025395e+00 -3.0846136817e+00 1.7809025395e+00 3.0846136817e+00 
113600 4.0994913475e+00 7.8869289599e-05 1.7809003064e+00 -3.0846098139e+00 1.7809003064e+00 3.0846098139e+00 
113700 4.0994913473e+00 7.8206034100e-05 1.7808980921e+00 -3.0846059786e+00 1.7808980921e+00 3.0846059786e+00 
113800 4.0994913471e+00 7.7547983255e-05 1.7808958964e+00 -3.0846021755e+00 1.7808958964e+00 3.0846021755e+00 
113900 4.0994913469e+00 7.6895108610e-05 1.7808937192e+00 -3.0845984045e+00 1.7808937192e+00 3.0845984045e+00 
114000 4.0994913467e+00 7.6250091670e-05 1.7808915603e+00 -3.0845946652e+00 1.7808915603e+00 3.0845946652e+00 
114100 4.0994913465e+00 7.5610138436e-05 1.7808894195e+00 -3.0845909572e+00 1.7808894195e+00 3.0845909572e+00 
114200 4.0994913463e+00 7.4975220054e-05 1.7808872967e+00 -3.0845872804e+00 1.7808872967e+00 3.0845872804e+00 
114300 4.0994913461e+00 7.4345307653e-05 1.7808851917e+00 -3.0845836344e+00 1.7808851917e+00 3.0845836344e+00 
114400 4.0994913460e+00 7.3720372345e-05 1.7808831044e+00 -3.0845800191e+00 1.7808831044e+00 3.0845800191e+00 
114500 4.0994913458e+00 7.3099106589e-05 1.7808810346e+00 -3.0845764342e+00 1.7808810346e+00 3.0845764342e+00 
114600 4.0994913456e+00 7.2482757400e-05 1.7808789823e+00 -3.0845728794e+00 1.7808789823e+00 3.0845728794e+00 
114700 4.0994913455e+00 7.1872577009e-05 1.7808769472e+00 -3.0845693546e+00 1.7808769472e+00 3.0845693546e+00 
114800 4.0994913453e+00 7.1268779034e-05 1.7808749293e+00 -3.0845658595e+00 1.7808749293e+00 3.0845658595e+00 
114900 4.0994913451e+00 7.0666941971e-05 1.7808729284e+00 -3.0845623938e+00 1.7808729284e+00 3.0845623938e+00 
114900 4.0994913451e+00 7.0666941971e-05 1.7808729284e+00 -3.0845623938e+00 1.7808729284e+00 3.0845623938e+00 
