# step Hamiltonian StressXX CellTensor1 CellTensor2 CellTensor3 CellTensor4 
0 6.3323651278e+00 1.9081798938e-01 2.8378601290e+00 -4.9153179282e+00 2.8378601290e+00 4.9153179282e+00 
100 6.3631994806e+00 2.3244704686e-01 2.8378601290e+00 -4.9153179282e+00 2.8378601290e+00 4.9153179282e+00 
200 6.3921139909e+00 2.7052792892e-01 2.8337656521e+00 -4.9082260861e+00 2.8337656521e+00 4.9082260861e+00 
300 6.4198645085e+00 3.0562084249e-01 2.8289937004e+00 -4.8999608234e+00 2.8289937004e+00 4.8999608234e+00 
400 6.4466903424e+00 3.3811079452e-01 2.8235938404e+00 -4.8906079915e+00 2.8235938404e+00 4.8906079915e+00 
500 6.4727623531e+00 3.6833588653e-01 2.8176087188e+00 -4.8802414568e+00 2.8176087188e+00 4.8802414568e+00 
600 6.4981804609e+00 3.9656837532e-01 2.8110749311e+00 -4.8689246045e+00 2.8110749311e+00 4.8689246045e+00 
700 6.5229651073e+00 4.2298016948e-01 2.8040242099e+00 -4.8567123973e+00 2.8040242099e+00 4.8567123973e+00 
800 6.5470378731e+00 4.4758023766e-01 2.7964852231e+00 -4.8436544890e+00 2.7964852231e+00 4.8436544890e+00 
900 6.5701849656e+00 4.7010627687e-01 2.7884865011e+00 -4.8298002961e+00 2.7884865011e+00 4.8298002961e+00 
1000 6.5919993110e+00 4.8985857794e-01 2.7800613445e+00 -4.8152074968e+00 2.7800613445e+00 4.8152074968e+00 
1100 6.6118122648e+00 5.0551301064e-01 2.7712558010e+00 -4.7999558481e+00 2.7712558010e+00 4.7999558481e+00 
1200 6.6286723949e+00 5.1510296518e-01 2.7621401718e+00 -4.7841671151e+00 2.7621401718e+00 4.7841671151e+00 
1300 6.6415041726e+00 5.1659605215e-01 2.7528210905e+00 -4.7680259930e+00 2.7528210905e+00 4.7680259930e+00 
1400 6.6495628166e+00 5.0934524491e-01 2.7434434092e+00 -4.7517833725e+00 2.7434434092e+00 4.7517833725e+00 
1500 6.6529708451e+00 4.9543756989e-01 2.7341657069e+00 -4.7357139207e+00 2.7341657069e+00 4.7357139207e+00 
1600 6.6527514266e+00 4.7896735356e-01 2.7251106039e+00 -4.7200300222e+00 2.7251106039e+00 4.7200300222e+00 
1700 6.6502230730e+00 4.6351892648e-01 2.7163273074e+00 -4.7048169064e+00 2.7163273074e+00 4.7048169064e+00 
1800 6.6464080681e+00 4.5063778722e-01 2.7077996991e+00 -4.6900466555e+00 2.7077996991e+00 4.6900466555e+00 
1900 6.6418930816e+00 4.4023258426e-01 2.6994828677e+00 -4.6756414809e+00 2.6994828677e+00 4.6756414809e+00 
2000 6.6369635885e+00 4.3157832108e-01 2.6913329681e+00 -4.6615254408e+00 2.6913329681e+00 4.6615254408e+00 
2100 6.6317535665e+00 4.2394300584e-01 2.6833190323e+00 -4.6476448969e+00 2.6833190323e+00 4.6476448969e+00 
2200 6.6263321093e+00 4.1679031927e-01 2.6754233186e+00 -4.6339691195e+00 2.6754233186e+00 4.6339691195e+00 
2300 6.6207421083e+00 4.0978028237e-01 2.6676378686e+00 -4.6204843246e+00 2.6676378686e+00 4.6204843246e+00 
2400 6.6150154871e+00 4.0271571085e-01 2.6599609818e+00 -4.6071875667e+00 2.6599609818e+00 4.6071875667e+00 
2500 6.6091788846e+00 3.9549085801e-01 2.6523946274e+00 -4.5940822563e+00 2.6523946274e+00 4.5940822563e+00 
2600 6.6032557688e+00 3.8805487791e-01 2.6449427751e+00 -4.5811752695e+00 2.6449427751e+00 4.5811752695e+00 
2700 6.5972672631e+00 3.8038862650e-01 2.6376103858e+00 -4.5684751988e+00 2.6376103858e+00 4.5684751988e+00 
2800 6.5912325155e+00 3.7249071071e-01 2.6304028234e+00 -4.5559913345e+00 2.6304028234e+00 4.5559913345e+00 
2900 6.5851688991e+00 3.6436934116e-01 2.6233255205e+00 -4.5437330863e+00 2.6233255205e+00 4.5437330863e+00 
3000 6.5790921521e+00 3.5603766121e-01 2.6163837944e+00 -4.5317096639e+00 2.6163837944e+00 4.5317096639e+00 
3100 6.5730164931e+00 3.4751110961e-01 2.6095827481e+00 -4.5199299063e+00 2.6095827481e+00 4.5199299063e+00 
3200 6.5669547241e+00 3.3880595786e-01 2.6029272214e+00 -4.5084021959e+00 2.6029272214e+00 4.5084021959e+00 
3300 6.5609183295e+00 3.2993852064e-01 2.5964217684e+00 -4.4971344207e+00 2.5964217684e+00 4.4971344207e+00 
3400 6.5549175687e+00 3.2092474924e-01 2.5900706503e+00 -4.4861339615e+00 2.5900706503e+00 4.4861339615e+00 
3500 6.5489615664e+00 3.1178004117e-01 2.5838778365e+00 -4.4754076934e+00 2.5838778365e+00 4.4754076934e+00 
3600 6.5430583982e+00 3.0251916968e-01 2.5778470091e+00 -4.4649619939e+00 2.5778470091e+00 4.4649619939e+00 
3700 6.5372151720e+00 2.9315627849e-01 2.5719815690e+00 -4.4548027537e+00 2.5719815690e+00 4.4548027537e+00 
3800 6.5314381059e+00 2.8370490990e-01 2.5662846430e+00 -4.4449353884e+00 2.5662846430e+00 4.4449353884e+00 
3900 6.5257326012e+00 2.7417804858e-01 2.5607590898e+00 -4.4353648496e+00 2.5607590898e+00 4.4353648496e+00 
4000 6.5201033116e+00 2.6458817070e-01 2.5554075064e+00 -4.4260956352e+00 2.5554075064e+00 4.4260956352e+00 
4100 6.5145542081e+00 2.5494729291e-01 2.5502322330e+00 -4.4171317987e+00 2.5502322330e+00 4.4171317987e+00 
4200 6.5090886394e+00 2.4526701812e-01 2.5452353578e+00 -4.4084769569e+00 2.5452353578e+00 4.4084769569e+00 
4300 6.5037093888e+00 2.3555857663e-01 2.5404187209e+00 -4.4001342971e+00 2.5404187209e+00 4.4001342971e+00 
4400 6.4984187269e+00 2.2583286196e-01 2.5357839181e+00 -4.3921065832e+00 2.5357839181e+00 4.3921065832e+00 
4500 6.4932184610e+00 2.1610046122e-01 2.5313323036e+00 -4.3843961606e+00 2.5313323036e+00 4.3843961606e+00 
4600 6.4881099806e+00 2.0637168017e-01 2.5270649929e+00 -4.3770049618e+00 2.5270649929e+00 4.3770049618e+00 
4700 6.4830943001e+00 1.9665656335e-01 2.5229828658e+00 -4.3699345101e+00 2.5229828658e+00 4.3699345101e+00 
4800 6.4781720980e+00 1.8696490942e-01 2.5190865679e+00 -4.3631859242e+00 2.5190865679e+00 4.3631859242e+00 
4900 6.4733437534e+00 1.7730628232e-01 2.5153765140e+00 -4.3567599224e+00 2.5153765140e+00 4.3567599224e+00 
5000 6.4686093797e+00 1.6769001847e-01 2.5118528901e+00 -4.3506568267e+00 2.5118528901e+00 4.3506568267e+00 
5100 6.4639688558e+00 1.5812523044e-01 2.5085156558e+00 -4.3448765675e+00 2.5085156558e+00 4.3448765675e+00 
5200 6.4594218547e+00 1.4862080755e-01 2.5053645478e+00 -4.3394186883e+00 2.5053645478e+00 4.3394186883e+00 
5300 6.4549678696e+00 1.3918541350e-01 2.5023990822e+00 -4.3342823512e+00 2.5023990822e+00 4.3342823512e+00 
5400 6.4506062387e+00 1.2982748164e-01 2.4996185584e+00 -4.3294663427e+00 2.4996185584e+00 4.3294663427e+00 
5500 6.4463361663e+00 1.2055520805e-01 2.4970220627e+00 -4.3249690802e+00 2.4970220627e+00 4.3249690802e+00 
5600 6.4421567436e+00 1.1137654269e-01 2.4946084724e+00 -4.3207886191e+00 2.4946084724e+00 4.3207886191e+00 
5700 6.4380669659e+00 1.0229917906e-01 2.4923764605e+00 -4.3169226611e+00 2.4923764605e+00 4.3169226611e+00 
5800 6.4340657498e+00 9.3330542523e-02 2.4903245006e+00 -4.3133685624e+00 2.4903245006e+00 4.3133685624e+00 
5900 6.4301519466e+00 8.4477777640e-02 2.4884508727e+00 -4.3101233437e+00 2.4884508727e+00 4.3101233437e+00 
6000 6.4263243555e+00 7.5747734785e-02 2.4867536689e+00 -4.3071837004e+00 2.4867536689e+00 4.3071837004e+00 
6100 6.4225817345e+00 6.7146956282e-02 2.4852307999e+00 -4.3045460140e+00 2.4852307999e+00 4.3045460140e+00 
6200 6.4189228097e+00 5.8681662358e-02 2.4838800025e+00 -4.3022063642e+00 2.4838800025e+00 4.3022063642e+00 
6300 6.4153462836e+00 5.0357737157e-02 2.4826988462e+00 -4.3001605415e+00 2.4826988462e+00 4.3001605415e+00 
6400 6.4118508409e+00 4.2180715092e-02 2.4816847420e+00 -4.2984040615e+00 2.4816847420e+00 4.2984040615e+00 
6500 6.4084351546e+00 3.4155767750e-02 2.4808349502e+00 -4.2969321789e+00 2.4808349502e+00 4.2969321789e+00 
6600 6.4050978891e+00 2.6287691632e-02 2.4801465894e+00 -4.2957399031e+00 2.4801465894e+00 4.2957399031e+00 
6700 6.4018377035e+00 1.8580896922e-02 2.4796166459e+00 -4.2948220139e+00 2.4796166459e+00 4.2948220139e+00 
6800 6.3986532534e+00 1.1039397518e-02 2.4792419825e+00 -4.2941730780e+00 2.4792419825e+00 4.2941730780e+00 
6900 6.3955431913e+00 3.6668025285e-03 2.4790193493e+00 -4.2937874660e+00 2.4790193493e+00 4.2937874660e+00 
7000 6.3925061671e+00 -3.5336906076e-03 2.4789453930e+00 -4.2936593698e+00 2.4789453930e+00 4.2936593698e+00 
7100 6.3895408274e+00 -1.0559301193e-02 2.4790166674e+00 -4.2937828207e+00 2.4790166674e+00 4.2937828207e+00 
7200 6.3866458141e+00 -1.7407668425e-02 2.4792296440e+00 -4.2941517071e+00 2.4792296440e+00 4.2941517071e+00 
7300 6.3838197629e+00 -2.4076852511e-02 2.4795807224e+00 -4.2947597927e+00 2.4795807224e+00 4.2947597927e+00 
7400 6.3810613013e+00 -3.0565333677e-02 2.4800662407e+00 -4.2956007351e+00 2.4800662407e+00 4.2956007351e+00 
7500 6.3783690465e+00 -3.6872009019e-02 2.4806824864e+00 -4.2966681038e+00 2.4806824864e+00 4.2966681038e+00 
7600 6.3757416033e+00 -4.2996187183e-02 2.4814257062e+00 -4.2979553984e+00 2.4814257062e+00 4.2979553984e+00 
7700 6.3731775613e+00 -4.8937580888e-02 2.4822921172e+00 -4.2994560662e+00 2.4822921172e+00 4.2994560662e+00 
7800 6.3706754936e+00 -5.4696297341e-02 2.4832779161e+00 -4.3011635200e+00 2.4832779161e+00 4.3011635200e+00 
7900 6.3682339543e+00 -6.0272826626e-02 2.4843792898e+00 -4.3030711552e+00 2.4843792898e+00 4.3030711552e+00 
8000 6.3658514772e+00 -6.5668028155e-02 2.4855924244e+00 -4.3051723659e+00 2.4855924244e+00 4.3051723659e+00 
8100 6.3635265744e+00 -7.0883115333e-02 2.4869135147e+00 -4.3074605615e+00 2.4869135147e+00 4.3074605615e+00 
8200 6.3612577353e+00 -7.5919638576e-02 2.4883387730e+00 -4.3099291812e+00 2.4883387730e+00 4.3099291812e+00 
8300 6.3590434266e+00 -8.0779466863e-02 2.4898644372e+00 -4.3125717092e+00 2.4898644372e+00 4.3125717092e+00 
8400 6.3568820920e+00 -8.5464768008e-02 2.4914867792e+00 -4.3153816880e+00 2.4914867792e+00 4.3153816880e+00 
8500 6.3547721527e+00 -8.9977987858e-02 2.4932021118e+00 -4.3183527311e+00 2.4932021118e+00 4.3183527311e+00 
8600 6.3527120087e+00 -9.4321828628e-02 2.4950067956e+00 -4.3214785353e+00 2.4950067956e+00 4.3214785353e+00 
8700 6.3507000403e+00 -9.8499226587e-02 2.4968972460e+00 -4.3247528913e+00 2.4968972460e+00 4.3247528913e+00 
8800 6.3487346096e+00 -1.0251332931e-01 2.4988699380e+00 -4.3281696941e+00 2.4988699380e+00 4.3281696941e+00 
8900 6.3468140636e+00 -1.0636747273e-01 2.5009214122e+00 -4.3317229516e+00 2.5009214122e+00 4.3317229516e+00 
9000 6.3449367364e+00 -1.1006515814e-01 2.5030482790e+00 -4.3354067930e+00 2.5030482790e+00 4.3354067930e+00 
9100 6.3431009526e+00 -1.1361002944e-01 2.5052472229e+00 -4.3392154756e+00 2.5052472229e+00 4.3392154756e+00 
9200 6.3413050309e+00 -1.1700585074e-01 2.5075150061e+00 -4.3431433913e+00 2.5075150061e+00 4.3431433913e+00 
9300 6.3395472874e+00 -1.2025648444e-01 2.5098484713e+00 -4.3471850716e+00 2.5098484713e+00 4.3471850716e+00 
9400 6.3378260398e+00 -1.2336587015e-01 2.5122445442e+00 -4.3513351915e+00 2.5122445442e+00 4.3513351915e+00 
9500 6.3361396115e+00 -1.2633800434e-01 2.5147002355e+00 -4.3555885738e+00 2.5147002355e+00 4.3555885738e+00 
9600 6.3344863355e+00 -1.2917692097e-01 2.5172126427e+00 -4.3599401906e+00 2.5172126427e+00 4.3599401906e+00 
9700 6.3328645585e+00 -1.3188667323e-01 2.5197789504e+00 -4.3643851659e+00 2.5197789504e+00 4.3643851659e+00 
9800 6.3312726455e+00 -1.3447131636e-01 2.5223964316e+00 -4.3689187763e+00 2.5223964316e+00 4.3689187763e+00 
9900 6.3297089833e+00 -1.3693489168e-01 2.5250624474e+00 -4.3735364511e+00 2.5250624474e+00 4.3735364511e+00 
10000 6.3281719847e+00 -1.3928141194e-01 2.5277744471e+00 -4.3782337725e+00 2.5277744471e+00 4.3782337725e+00 
10100 6.3266600925e+00 -1.4151484785e-01 2.5305299676e+00 -4.3830064739e+00 2.5305299676e+00 4.3830064739e+00 
10200 6.3251717828e+00 -1.4363911592e-01 2.5333266324e+00 -4.3878504394e+00 2.5333266324e+00 4.3878504394e+00 
10300 6.3237055685e+00 -1.4565806762e-01 2.5361621506e+00 -4.3927617010e+00 2.5361621506e+00 4.3927617010e+00 
10400 6.3222600023e+00 -1.4757547976e-01 2.5390343156e+00 -4.3977364368e+00 2.5390343156e+00 4.3977364368e+00 
10500 6.3208336801e+00 -1.4939504611e-01 2.5419410034e+00 -4.4027709676e+00 2.5419410034e+00 4.4027709676e+00 
10600 6.3194252428e+00 -1.5112037023e-01 2.5448801707e+00 -4.4078617547e+00 2.5448801707e+00 4.4078617547e+00 
10700 6.3180333793e+00 -1.5275495939e-01 2.5478498531e+00 -4.4130053957e+00 2.5478498531e+00 4.4130053957e+00 
10800 6.3166568281e+00 -1.5430221968e-01 2.5508481632e+00 -4.4181986211e+00 2.5508481632e+00 4.4181986211e+00 
10900 6.3152943792e+00 -1.5576545203e-01 2.5538732879e+00 -4.4234382908e+00 2.5538732879e+00 4.4234382908e+00 
11000 6.3139448754e+00 -1.5714784925e-01 2.5569234865e+00 -4.4287213898e+00 2.5569234865e+00 4.4287213898e+00 
11100 6.3126072133e+00 -1.5845249399e-01 2.5599970883e+00 -4.4340450241e+00 2.5599970883e+00 4.4340450241e+00 
11200 6.3112803443e+00 -1.5968235743e-01 2.5630924899e+00 -4.4394064169e+00 2.5630924899e+00 4.4394064169e+00 
11300 6.3099632751e+00 -1.6084029883e-01 2.5662081531e+00 -4.4448029040e+00 2.5662081531e+00 4.4448029040e+00 
11400 6.3086550681e+00 -1.6192906569e-01 2.5693426026e+00 -4.4502319297e+00 2.5693426026e+00 4.4502319297e+00 
11500 6.3073548409e+00 -1.6295129451e-01 2.5724944229e+00 -4.4556910427e+00 2.5724944229e+00 4.4556910427e+00 
11600 6.3060617668e+00 -1.6390951216e-01 2.5756622566e+00 -4.4611778916e+00 2.5756622566e+00 4.4611778916e+00 
11700 6.3047750739e+00 -1.6480613769e-01 2.5788448016e+00 -4.4666902212e+00 2.5788448016e+00 4.4666902212e+00 
11800 6.3034940445e+00 -1.6564348450e-01 2.5820408087e+00 -4.4722258680e+00 2.5820408087e+00 4.4722258680e+00 
11900 6.3022180145e+00 -1.6642376300e-01 2.5852490798e+00 -4.4777827565e+00 2.5852490798e+00 4.4777827565e+00 
12000 6.3009463722e+00 -1.6714908344e-01 2.5884684651e+00 -4.4833588953e+00 2.5884684651e+00 4.4833588953e+00 
12100 6.2996785573e+00 -1.6782145905e-01 2.5916978610e+00 -4.4889523731e+00 2.5916978610e+00 4.4889523731e+00 
12200 6.2984140596e+00 -1.6844280938e-01 2.5949362083e+00 -4.4945613552e+00 2.5949362083e+00 4.4945613552e+00 
12300 6.2971524177e+00 -1.6901496377e-01 2.5981824900e+00 -4.5001840800e+00 2.5981824900e+00 4.5001840800e+00 
12400 6.2958932172e+00 -1.6953966498e-01 2.6014357292e+00 -4.5058188556e+00 2.6014357292e+00 4.5058188556e+00 
12500 6.2946360897e+00 -1.7001857286e-01 2.6046949874e+00 -4.5114640565e+00 2.6046949874e+00 4.5114640565e+00 
12600 6.2933807105e+00 -1.7045326806e-01 2.6079593626e+00 -4.5171181202e+00 2.6079593626e+00 4.5171181202e+00 
12700 6.2921267977e+00 -1.7084525578e-01 2.6112279876e+00 -4.5227795447e+00 2.6112279876e+00 4.5227795447e+00 
12800 6.2908741097e+00 -1.7119596953e-01 2.6145000283e+00 -4.5284468854e+00 2.6145000283e+00 4.5284468854e+00 
12900 6.2896224442e+00 -1.7150677479e-01 2.6177746822e+00 -4.5341187523e+00 2.6177746822e+00 4.5341187523e+00 
13000 6.2883716355e+00 -1.7177897265e-01 2.6210511769e+00 -4.5397938077e+00 2.6210511769e+00 4.5397938077e+00 
13100 6.2871215540e+00 -1.7201380343e-01 2.6243287688e+00 -4.5454707634e+00 2.6243287688e+00 4.5454707634e+00 
13200 6.2858721031e+00 -1.7221245008e-01 2.6276067415e+00 -4.5511483786e+00 2.6276067415e+00 4.5511483786e+00 
13300 6.2846232184e+00 -1.7237604165e-01 2.6308844048e+00 -4.5568254579e+00 2.6308844048e+00 4.5568254579e+00 
13400 6.2833748655e+00 -1.7250565650e-01 2.6341610932e+00 -4.5625008488e+00 2.6341610932e+00 4.5625008488e+00 
13500 6.2821270384e+00 -1.7260232548e-01 2.6374361653e+00 -4.5681734401e+00 2.6374361653e+00 4.5681734401e+00 
13600 6.2808797579e+00 -1.7266703496e-01 2.6407090023e+00 -4.5738421600e+00 2.6407090023e+00 4.5738421600e+00 
13700 6.2796330698e+00 -1.7270072971e-01 2.6439790070e+00 -4.5795059743e+00 2.6439790070e+00 4.5795059743e+00 
13800 6.2783870434e+00 -1.7270431567e-01 2.6472456033e+00 -4.5851638851e+00 2.6472456033e+00 4.5851638851e+00 
13900 6.2771417698e+00 -1.7267866259e-01 2.6505082349e+00 -4.5908149287e+00 2.6505082349e+00 4.5908149287e+00 
14000 6.2758973604e+00 -1.7262460649e-01 2.6537663645e+00 -4.5964581748e+00 2.6537663645e+00 4.5964581748e+00 
14100 6.2746539456e+00 -1.7254295204e-01 2.6570194735e+00 -4.6020927248e+00 2.6570194735e+00 4.6020927248e+00 
14200 6.2734116732e+00 -1.7243447476e-01 2.6602670608e+00 -4.6077177109e+00 2.6602670608e+00 4.6077177109e+00 
14300 6.2721707071e+00 -1.7229992312e-01 2.6635086421e+00 -4.6133322946e+00 2.6635086421e+00 4.6133322946e+00 
14400 6.2709312258e+00 -1.7214002044e-01 2.6667437500e+00 -4.6189356657e+00 2.6667437500e+00 4.6189356657e+00 
14500 6.2696934213e+00 -1.7195546675e-01 2.6699719323e+00 -4.6245270416e+00 2.6699719323e+00 4.6245270416e+00 
14600 6.2684574980e+00 -1.7174694046e-01 2.6731927525e+00 -4.6301056658e+00 2.6731927525e+00 4.6301056658e+00 
14700 6.2672236711e+00 -1.7151509995e-01 2.6764057886e+00 -4.6356708076e+00 2.6764057886e+00 4.6356708076e+00 
14800 6.2659921658e+00 -1.7126058498e-01 2.6796106330e+00 -4.6412217609e+00 2.6796106330e+00 4.6412217609e+00 
14900 6.2647632162e+00 -1.7098401807e-01 2.6828068919e+00 -4.6467578436e+00 2.6828068919e+00 4.6467578436e+00 
15000 6.2635370643e+00 -1.7068600567e-01 2.6859941848e+00 -4.6522783969e+00 2.6859941848e+00 4.6522783969e+00 
15100 6.2623139587e+00 -1.7036713934e-01 2.6891721443e+00 -4.6577827843e+00 2.6891721443e+00 4.6577827843e+00 
15200 6.2610941542e+00 -1.7002799674e-01 2.6923404158e+00 -4.6632703914e+00 2.6923404158e+00 4.6632703914e+00 
15300 6.2598779103e+00 -1.6966914254e-01 2.6954986567e+00 -4.6687406252e+00 2.6954986567e+00 4.6687406252e+00 
15400 6.2586654910e+00 -1.6929112930e-01 2.6986465366e+00 -4.6741929131e+00 2.6986465366e+00 4.6741929131e+00 
15500 6.2574571634e+00 -1.6889449819e-01 2.7017837368e+00 -4.6796267031e+00 2.7017837368e+00 4.6796267031e+00 
15600 6.2562531974e+00 -1.6847977966e-01 2.7049099497e+00 -4.6850414628e+00 2.7049099497e+00 4.6850414628e+00 
15700 6.2550538646e+00 -1.6804749407e-01 2.7080248791e+00 -4.6904366788e+00 2.7080248791e+00 4.6904366788e+00 
15800 6.2538594379e+00 -1.6759815218e-01 2.7111282396e+00 -4.6958118568e+00 2.7111282396e+00 4.6958118568e+00 
15900 6.2526701908e+00 -1.6713225564e-01 2.7142197563e+00 -4.7011665208e+00 2.7142197563e+00 4.7011665208e+00 
16000 6.2514863965e+00 -1.6665029739e-01 2.7172991646e+00 -4.7065002124e+00 2.7172991646e+00 4.7065002124e+00 
16100 6.2503083277e+00 -1.6615276201e-01 2.7203662101e+00 -4.7118124911e+00 2.7203662101e+00 4.7118124911e+00 
16200 6.2491362556e+00 -1.6564012599e-01 2.7234206484e+00 -4.7171029334e+00 2.7234206484e+00 4.7171029334e+00 
16300 6.2479704499e+00 -1.6511285804e-01 2.7264622446e+00 -4.7223711326e+00 2.7264622446e+00 4.7223711326e+00 
16400 6.2468111778e+00 -1.6457141923e-01 2.7294907734e+00 -4.7276166982e+00 2.7294907734e+00 4.7276166982e+00 
16500 6.2456587039e+00 -1.6401626322e-01 2.7325060186e+00 -4.7328392562e+00 2.7325060186e+00 4.7328392562e+00 
16600 6.2445132894e+00 -1.6344783636e-01 2.7355077733e+00 -4.7380384478e+00 2.7355077733e+00 4.7380384478e+00 
16700 6.2433751918e+00 -1.6286657781e-01 2.7384958392e+00 -4.7432139299e+00 2.7384958392e+00 4.7432139299e+00 
16800 6.2422446646e+00 -1.6227291961e-01 2.7414700271e+00 -4.7483653744e+00 2.7414700271e+00 4.7483653744e+00 
16900 6.2411219569e+00 -1.6166728673e-01 2.7444301559e+00 -4.7534924678e+00 2.7444301559e+00 4.7534924678e+00 
17000 6.2400073128e+00 -1.6105009715e-01 2.7473760529e+00 -4.7585949111e+00 2.7473760529e+00 4.7585949111e+00 
17100 6.2389009712e+00 -1.6042176178e-01 2.7503075537e+00 -4.7636724194e+00 2.7503075537e+00 4.7636724194e+00 
17200 6.2378031655e+00 -1.5978268456e-01 2.7532245017e+00 -4.7687247216e+00 2.7532245017e+00 4.7687247216e+00 
17300 6.2367141231e+00 -1.5913326239e-01 2.7561267482e+00 -4.7737515600e+00 2.7561267482e+00 4.7737515600e+00 
17400 6.2356340655e+00 -1.5847388511e-01 2.7590141519e+00 -4.7787526900e+00 2.7590141519e+00 4.7787526900e+00 
17500 6.2345632074e+00 -1.5780493550e-01 2.7618865792e+00 -4.7837278799e+00 2.7618865792e+00 4.7837278799e+00 
17600 6.2335017570e+00 -1.5712678921e-01 2.7647439035e+00 -4.7886769108e+00 2.7647439035e+00 4.7886769108e+00 
17700 6.2324499155e+00 -1.5643981472e-01 2.7675860054e+00 -4.7935995757e+00 2.7675860054e+00 4.7935995757e+00 
17800 6.2314078766e+00 -1.5574437335e-01 2.7704127724e+00 -4.7984956797e+00 2.7704127724e+00 4.7984956797e+00 
17900 6.2303758269e+00 -1.5504081914e-01 2.7732240986e+00 -4.8033650396e+00 2.7732240986e+00 4.8033650396e+00 
18000 6.2293539452e+00 -1.5432949885e-01 2.7760198849e+00 -4.8082074835e+00 2.7760198849e+00 4.8082074835e+00 
18100 6.2283424023e+00 -1.5361075194e-01 2.7788000384e+00 -4.8130228506e+00 2.7788000384e+00 4.8130228506e+00 
18200 6.2273413610e+00 -1.5288491049e-01 2.7815644725e+00 -4.8178109909e+00 2.7815644725e+00 4.8178109909e+00 
18300 6.2263509761e+00 -1.5215229920e-01 2.7843131067e+00 -4.8225717649e+00 2.7843131067e+00 4.8225717649e+00 
18400 6.2253713936e+00 -1.5141323534e-01 2.7870458661e+00 -4.8273050431e+00 2.7870458661e+00 4.8273050431e+00 
18500 6.2244027515e+00 -1.5066802875e-01 2.7897626820e+00 -4.8320107062e+00 2.7897626820e+00 4.8320107062e+00 
18600 6.2234451786e+00 -1.4991698184e-01 2.7924634908e+00 -4.8366886443e+00 2.7924634908e+00 4.8366886443e+00 
18700 6.2224987954e+00 -1.4916038955e-01 2.7951482345e+00 -4.8413387568e+00 2.7951482345e+00 4.8413387568e+00 
18800 6.2215637133e+00 -1.4839853939e-01 2.7978168604e+00 -4.8459609524e+00 2.7978168604e+00 4.8459609524e+00 
18900 6.2206400348e+00 -1.4763171142e-01 2.8004693206e+00 -4.8505551484e+00 2.8004693206e+00 4.8505551484e+00 
19000 6.2197278534e+00 -1.4686017830e-01 2.8031055725e+00 -4.8551212705e+00 2.8031055725e+00 4.8551212705e+00 
19100 6.2188272535e+00 -1.4608420531e-01 2.8057255778e+00 -4.8596592529e+00 2.8057255778e+00 4.8596592529e+00 
19200 6.2179383105e+00 -1.4530405040e-01 2.8083293032e+00 -4.8641690375e+00 2.8083293032e+00 4.8641690375e+00 
19300 6.2170610905e+00 -1.4451996423e-01 2.8109167194e+00 -4.8686505739e+00 2.8109167194e+00 4.8686505739e+00 
19400 6.2161956505e+00 -1.4373219023e-01 2.8134878019e+00 -4.8731038193e+00 2.8134878019e+00 4.8731038193e+00 
19500 6.2153420385e+00 -1.4294096470e-01 2.8160425298e+00 -4.8775287379e+00 2.8160425298e+00 4.8775287379e+00 
19600 6.2145002930e+00 -1.4214651682e-01 2.8185808867e+00 -4.8819253010e+00 2.8185808867e+00 4.8819253010e+00 
19700 6.2136704438e+00 -1.4134906885e-01 2.8211028596e+00 -4.8862934862e+00 2.8211028596e+00 4.8862934862e+00 
19800 6.2128525114e+00 -1.4054883611e-01 2.8236084395e+00 -4.8906332778e+00 2.8236084395e+00 4.8906332778e+00 
19900 6.2120465075e+00 -1.3974602718e-01 2.8260976207e+00 -4.8949446663e+00 2.8260976207e+00 4.8949446663e+00 
20000 6.2112524345e+00 -1.3894084396e-01 2.8285704013e+00 -4.8992276478e+00 2.8285704013e+00 4.8992276478e+00 
20100 6.2104702863e+00 -1.3813348185e-01 2.8310267823e+00 -4.9034822246e+00 2.8310267823e+00 4.9034822246e+00 
20200 6.2097000480e+00 -1.3732412981e-01 2.8334667681e+00 -4.9077084040e+00 2.8334667681e+00 4.9077084040e+00 
20300 6.2089416960e+00 -1.3651297056e-01 2.8358903661e+00 -4.9119061988e+00 2.8358903661e+00 4.9119061988e+00 
20400 6.2081951982e+00 -1.3570018073e-01 2.8382975866e+00 -4.9160756269e+00 2.8382975866e+00 4.9160756269e+00 
20500 6.2074605142e+00 -1.3488593098e-01 2.8406884425e+00 -4.9202167109e+00 2.8406884425e+00 4.9202167109e+00 
20600 6.2067375953e+00 -1.3407038619e-01 2.8430629497e+00 -4.9243294780e+00 2.8430629497e+00 4.9243294780e+00 
20700 6.2060263849e+00 -1.3325370560e-01 2.8454211265e+00 -4.9284139601e+00 2.8454211265e+00 4.9284139601e+00 
20800 6.2053268185e+00 -1.3243604303e-01 2.8477629937e+00 -4.9324701930e+00 2.8477629937e+00 4.9324701930e+00 
20900 6.2046388238e+00 -1.3161754703e-01 2.8500885744e+00 -4.9364982169e+00 2.8500885744e+00 4.9364982169e+00 
21000 6.2039623214e+00 -1.3079836106e-01 2.8523978939e+00 -4.9404980757e+00 2.8523978939e+00 4.9404980757e+00 
21100 6.2032972241e+00 -1.2997862368e-01 2.8546909798e+00 -4.9444698170e+00 2.8546909798e+00 4.9444698170e+00 
21200 6.2026434383e+00 -1.2915846877e-01 2.8569678618e+00 -4.9484134922e+00 2.8569678618e+00 4.9484134922e+00 
21300 6.2020008631e+00 -1.2833802568e-01 2.8592285713e+00 -4.9523291559e+00 2.8592285713e+00 4.9523291559e+00 
21400 6.2013693914e+00 -1.2751741947e-01 2.8614731418e+00 -4.9562168660e+00 2.8614731418e+00 4.9562168660e+00 
21500 6.2007489097e+00 -1.2669677109e-01 2.8637016085e+00 -4.9600766837e+00 2.8637016085e+00 4.9600766837e+00 
21600 6.2001392983e+00 -1.2587619756e-01 2.8659140085e+00 -4.9639086729e+00 2.8659140085e+00 4.9639086729e+00 
21700 6.1995404321e+00 -1.2505581221e-01 2.8681103805e+00 -4.9677129007e+00 2.8681103805e+00 4.9677129007e+00 
21800 6.1989521803e+00 -1.2423572485e-01 2.8702907645e+00 -4.9714894366e+00 2.8702907645e+00 4.9714894366e+00 
21900 6.1983744070e+00 -1.2341604202e-01 2.8724552025e+00 -4.9752383531e+00 2.8724552025e+00 4.9752383531e+00 
22000 6.1978069713e+00 -1.2259686711e-01 2.8746037375e+00 -4.9789597250e+00 2.8746037375e+00 4.9789597250e+00 
22100 6.1972497278e+00 -1.2177830064e-01 2.8767364143e+00 -4.9826536296e+00 2.8767364143e+00 4.9826536296e+00 
22200 6.1967025267e+00 -1.2096044041e-01 2.8788532788e+00 -4.9863201464e+00 2.8788532788e+00 4.9863201464e+00 
22300 6.1961652144e+00 -1.2014338171e-01 2.8809543783e+00 -4.9899593574e+00 2.8809543783e+00 4.9899593574e+00 
22400 6.1956376335e+00 -1.1932721753e-01 2.8830397612e+00 -4.9935713467e+00 2.8830397612e+00 4.9935713467e+00 
22500 6.1951196232e+00 -1.1851203870e-01 2.8851094774e+00 -4.9971562003e+00 2.8851094774e+00 4.9971562003e+00 
22600 6.1946110197e+00 -1.1769793414e-01 2.8871635778e+00 -5.0007140066e+00 2.8871635778e+00 5.0007140066e+00 
22700 6.1941116565e+00 -1.1688499098e-01 2.8892021144e+00 -5.0042448556e+00 2.8892021144e+00 5.0042448556e+00 
22800 6.1936213645e+00 -1.1607329479e-01 2.8912251405e+00 -5.0077488394e+00 2.8912251405e+00 5.0077488394e+00 
22900 6.1931399727e+00 -1.1526292970e-01 2.8932327101e+00 -5.0112260520e+00 2.8932327101e+00 5.0112260520e+00 
23000 6.1926673082e+00 -1.1445397861e-01 2.8952248787e+00 -5.0146765892e+00 2.8952248787e+00 5.0146765892e+00 
23100 6.1922031967e+00 -1.1364652331e-01 2.8972017026e+00 -5.0181005486e+00 2.8972017026e+00 5.0181005486e+00 
23200 6.1917474627e+00 -1.1284064468e-01 2.8991632391e+00 -5.0214980295e+00 2.8991632391e+00 5.0214980295e+00 
23300 6.1912999298e+00 -1.1203642278e-01 2.9011095465e+00 -5.0248691329e+00 2.9011095465e+00 5.0248691329e+00 
23400 6.1908604212e+00 -1.1123393703e-01 2.9030406842e+00 -5.0282139616e+00 2.9030406842e+00 5.0282139616e+00 
23500 6.1904287596e+00 -1.1043326632e-01 2.9049567126e+00 -5.0315326200e+00 2.9049567126e+00 5.0315326200e+00 
23600 6.1900047680e+00 -1.0963448915e-01 2.9068576927e+00 -5.0348252142e+00 2.9068576927e+00 5.0348252142e+00 
23700 6.1895882697e+00 -1.0883768372e-01 2.9087436869e+00 -5.0380918520e+00 2.9087436869e+00 5.0380918520e+00 
23800 6.1891790884e+00 -1.0804292806e-01 2.9106147584e+00 -5.0413326427e+00 2.9106147584e+00 5.0413326427e+00 
23900 6.1887770489e+00 -1.0725030011e-01 2.9124709711e+00 -5.0445476975e+00 2.9124709711e+00 5.0445476975e+00 
24000 6.1883819772e+00 -1.0645987781e-01 2.9143123902e+00 -5.0477371289e+00 2.9143123902e+00 5.0477371289e+00 
24100 6.1879937007e+00 -1.0567173921e-01 2.9161390816e+00 -5.0509010513e+00 2.9161390816e+00 5.0509010513e+00 
24200 6.1876120483e+00 -1.0488596248e-01 2.9179511124e+00 -5.0540395807e+00 2.9179511124e+00 5.0540395807e+00 
24300 6.1872368511e+00 -1.0410262603e-01 2.9197485504e+00 -5.0571528346e+00 2.9197485504e+00 5.0571528346e+00 
24400 6.1868679423e+00 -1.0332180851e-01 2.9215314644e+00 -5.0602409323e+00 2.9215314644e+00 5.0602409323e+00 
24500 6.1865051573e+00 -1.0254358890e-01 2.9232999243e+00 -5.0633039947e+00 2.9232999243e+00 5.0633039947e+00 
24600 6.1861483343e+00 -1.0176804650e-01 2.9250540009e+00 -5.0663421444e+00 2.9250540009e+00 5.0663421444e+00 
24700 6.1857973143e+00 -1.0099526097e-01 2.9267937658e+00 -5.0693555057e+00 2.9267937658e+00 5.0693555057e+00 
24800 6.1854519411e+00 -1.0022531235e-01 2.9285192919e+00 -5.0723442045e+00 2.9285192919e+00 5.0723442045e+00 
24900 6.1851120620e+00 -9.9458281038e-02 2.9302306527e+00 -5.0753083685e+00 2.9302306527e+00 5.0753083685e+00 
25000 6.1847775273e+00 -9.8694247809e-02 2.9319279232e+00 -5.0782481271e+00 2.9319279232e+00 5.0782481271e+00 
25100 6.1844481910e+00 -9.7933293780e-02 2.9336111788e+00 -5.0811636114e+00 2.9336111788e+00 5.0811636114e+00 
25200 6.1841239107e+00 -9.7175500390e-02 2.9352804964e+00 -5.0840549543e+00 2.9352804964e+00 5.0840549543e+00 
25300 6.1838045478e+00 -9.6420949368e-02 2.9369359537e+00 -5.0869222904e+00 2.9369359537e+00 5.0869222904e+00 
25400 6.1834899674e+00 -9.5669722684e-02 2.9385776294e+00 -5.0897657560e+00 2.9385776294e+00 5.0897657560e+00 
25500 6.1831800389e+00 -9.4921902504e-02 2.9402056032e+00 -5.0925854895e+00 2.9402056032e+00 5.0925854895e+00 
25600 6.1828746355e+00 -9.4177571122e-02 2.9418199560e+00 -5.0953816305e+00 2.9418199560e+00 5.0953816305e+00 
25700 6.1825736346e+00 -9.3436810896e-02 2.9434207696e+00 -5.0981543210e+00 2.9434207696e+00 5.0981543210e+00 
25800 6.1822769180e+00 -9.2699704171e-02 2.9450081268e+00 -5.1009037043e+00 2.9450081268e+00 5.1009037043e+00 
25900 6.1819843715e+00 -9.1966333197e-02 2.9465821115e+00 -5.1036299259e+00 2.9465821115e+00 5.1036299259e+00 
26000 6.1816958854e+00 -9.1236780038e-02 2.9481428087e+00 -5.1063331326e+00 2.9481428087e+00 5.1063331326e+00 
26100 6.1814113542e+00 -9.0511126475e-02 2.9496903042e+00 -5.1090134735e+00 2.9496903042e+00 5.1090134735e+00 
26200 6.1811306769e+00 -8.9789453907e-02 2.9512246851e+00 -5.1116710992e+00 2.9512246851e+00 5.1116710992e+00 
26300 6.1808537567e+00 -8.9071843242e-02 2.9527460394e+00 -5.1143061620e+00 2.9527460394e+00 5.1143061620e+00 
26400 6.1805805012e+00 -8.8358374784e-02 2.9542544560e+00 -5.1169188162e+00 2.9542544560e+00 5.1169188162e+00 
26500 6.1803108221e+00 -8.7649128117e-02 2.9557500249e+00 -5.1195092177e+00 2.9557500249e+00 5.1195092177e+00 
26600 6.1800446357e+00 -8.6944181983e-02 2.9572328373e+00 -5.1220775240e+00 2.9572328373e+00 5.1220775240e+00 
26700 6.1797818621e+00 -8.6243614164e-02 2.9587029850e+00 -5.1246238945e+00 2.9587029850e+00 5.1246238945e+00 
26800 6.1795224260e+00 -8.5547501349e-02 2.9601605610e+00 -5.1271484902e+00 2.9601605610e+00 5.1271484902e+00 
26900 6.1792662559e+00 -8.4855919006e-02 2.9616056593e+00 -5.1296514739e+00 2.9616056593e+00 5.1296514739e+00 
27000 6.1790132844e+00 -8.4168941257e-02 2.9630383746e+00 -5.1321330096e+00 2.9630383746e+00 5.1321330096e+00 
27100 6.1787634478e+00 -8.3486640743e-02 2.9644588028e+00 -5.1345932633e+00 2.9644588028e+00 5.1345932633e+00 
27200 6.1785166866e+00 -8.2809088490e-02 2.9658670404e+00 -5.1370324024e+00 2.9658670404e+00 5.1370324024e+00 
27300 6.1782729448e+00 -8.2136353784e-02 2.9672631849e+00 -5.1394505957e+00 2.9672631849e+00 5.1394505957e+00 
27400 6.1780321700e+00 -8.1468504035e-02 2.9686473347e+00 -5.1418480135e+00 2.9686473347e+00 5.1418480135e+00 
27500 6.1777943132e+00 -8.0805604649e-02 2.9700195890e+00 -5.1442248276e+00 2.9700195890e+00 5.1442248276e+00 
27600 6.1775593289e+00 -8.0147718902e-02 2.9713800475e+00 -5.1465812109e+00 2.9713800475e+00 5.1465812109e+00 
27700 6.1773271749e+00 -7.9494907811e-02 2.9727288110e+00 -5.1489173378e+00 2.9727288110e+00 5.1489173378e+00 
27800 6.1770978118e+00 -7.8847230017e-02 2.9740659808e+00 -5.1512333838e+00 2.9740659808e+00 5.1512333838e+00 
27900 6.1768712034e+00 -7.8204741662e-02 2.9753916589e+00 -5.1535295257e+00 2.9753916589e+00 5.1535295257e+00 
28000 6.1766473161e+00 -7.7567496275e-02 2.9767059480e+00 -5.1558059412e+00 2.9767059480e+00 5.1558059412e+00 
28100 6.1764261191e+00 -7.6935544662e-02 2.9780089513e+00 -5.1580628091e+00 2.9780089513e+00 5.1580628091e+00 
28200 6.1762075841e+00 -7.6308934801e-02 2.9793007726e+00 -5.1603003091e+00 2.9793007726e+00 5.1603003091e+00 
28300 6.1759916850e+00 -7.5687711740e-02 2.9805815160e+00 -5.1625186218e+00 2.9805815160e+00 5.1625186218e+00 
28400 6.1757783980e+00 -7.5071917502e-02 2.9818512864e+00 -5.1647179287e+00 2.9818512864e+00 5.1647179287e+00 
28500 6.1755677014e+00 -7.4461591000e-02 2.9831101888e+00 -5.1668984117e+00 2.9831101888e+00 5.1668984117e+00 
28600 6.1753595753e+00 -7.3856767951e-02 2.9843583288e+00 -5.1690602535e+00 2.9843583288e+00 5.1690602535e+00 
28700 6.1751540014e+00 -7.3257480799e-02 2.9855958121e+00 -5.1712036374e+00 2.9855958121e+00 5.1712036374e+00 
28800 6.1749509633e+00 -7.2663758651e-02 2.9868227447e+00 -5.1733287470e+00 2.9868227447e+00 5.1733287470e+00 
28900 6.1747504458e+00 -7.2075627215e-02 2.9880392328e+00 -5.1754357662e+00 2.9880392328e+00 5.1754357662e+00 
29000 6.1745524350e+00 -7.1493108742e-02 2.9892453829e+00 -5.1775248794e+00 2.9892453829e+00 5.1775248794e+00 
29100 6.1743569182e+00 -7.0916221983e-02 2.9904413013e+00 -5.1795962709e+00 2.9904413013e+00 5.1795962709e+00 
29200 6.1741638837e+00 -7.0344982150e-02 2.9916270946e+00 -5.1816501252e+00 2.9916270946e+00 5.1816501252e+00 
29300 6.1739733206e+00 -6.9779400886e-02 2.9928028693e+00 -5.1836866267e+00 2.9928028693e+00 5.1836866267e+00 
29400 6.1737852189e+00 -6.9219486239e-02 2.9939687317e+00 -5.1857059597e+00 2.9939687317e+00 5.1857059597e+00 
29500 6.1735995689e+00 -6.8665242655e-02 2.9951247882e+00 -5.1877083082e+00 2.9951247882e+00 5.1877083082e+00 
29600 6.1734163617e+00 -6.8116670960e-02 2.9962711448e+00 -5.1896938561e+00 2.9962711448e+00 5.1896938561e+00 
29700 6.1732355886e+00 -6.7573768375e-02 2.9974079074e+00 -5.1916627866e+00 2.9974079074e+00 5.1916627866e+00 
29800 6.1730572412e+00 -6.7036528514e-02 2.9985351814e+00 -5.1936152825e+00 2.9985351814e+00 5.1936152825e+00 
29900 6.1728813113e+00 -6.6504941409e-02 2.9996530721e+00 -5.1955515260e+00 2.9996530721e+00 5.1955515260e+00 
30000 6.1727077905e+00 -6.5978993530e-02 3.0007616842e+00 -5.1974716985e+00 3.0007616842e+00 5.1974716985e+00 
30100 6.1725366707e+00 -6.5458667824e-02 3.0018611221e+00 -5.1993759808e+00 3.0018611221e+00 5.1993759808e+00 
30200 6.1723679435e+00 -6.4943943749e-02 3.0029514895e+00 -5.2012645525e+00 3.0029514895e+00 5.2012645525e+00 
30300 6.1722016002e+00 -6.4434797329e-02 3.0040328896e+00 -5.2031375923e+00 3.0040328896e+00 5.2031375923e+00 
30400 6.1720376321e+00 -6.3931201203e-02 3.0051054249e+00 -5.2049952781e+00 3.0051054249e+00 5.2049952781e+00 
30500 6.1718760298e+00 -6.3433124690e-02 3.0061691975e+00 -5.2068377861e+00 3.0061691975e+00 5.2068377861e+00 
30600 6.1717167837e+00 -6.2940533857e-02 3.0072243083e+00 -5.2086652917e+00 3.0072243083e+00 5.2086652917e+00 
30700 6.1715598838e+00 -6.2453391597e-02 3.0082708578e+00 -5.2104779686e+00 3.0082708578e+00 5.2104779686e+00 
30800 6.1714053194e+00 -6.1971657705e-02 3.0093089455e+00 -5.2122759894e+00 3.0093089455e+00 5.2122759894e+00 
30900 6.1712530794e+00 -6.1495288970e-02 3.0103386702e+00 -5.2140595247e+00 3.0103386702e+00 5.2140595247e+00 
31000 6.1711031520e+00 -6.1024239264e-02 3.0113601294e+00 -5.2158287440e+00 3.0113601294e+00 5.2158287440e+00 
31100 6.1709555247e+00 -6.0558459644e-02 3.0123734201e+00 -5.2175838149e+00 3.0123734201e+00 5.2175838149e+00 
31200 6.1708101847e+00 -6.0097898451e-02 3.0133786378e+00 -5.2193249032e+00 3.0133786378e+00 5.2193249032e+00 
31300 6.1706671181e+00 -5.9642501419e-02 3.0143758775e+00 -5.2210521729e+00 3.0143758775e+00 5.2210521729e+00 
31400 6.1705263107e+00 -5.9192211786e-02 3.0153652326e+00 -5.2227657862e+00 3.0153652326e+00 5.2227657862e+00 
31500 6.1703877475e+00 -5.8746970408e-02 3.0163467956e+00 -5.2244659032e+00 3.0163467956e+00 5.2244659032e+00 
31600 6.1702514126e+00 -5.8306715881e-02 3.0173206579e+00 -5.2261526823e+00 3.0173206579e+00 5.2261526823e+00 
31700 6.1701172897e+00 -5.7871384659e-02 3.0182869097e+00 -5.2278262794e+00 3.0182869097e+00 5.2278262794e+00 
31800 6.1699853616e+00 -5.7440911180e-02 3.0192456397e+00 -5.2294868485e+00 3.0192456397e+00 5.2294868485e+00 
31900 6.1698556107e+00 -5.7015227992e-02 3.0201969357e+00 -5.2311345416e+00 3.0201969357e+00 5.2311345416e+00 
32000 6.1697280185e+00 -5.6594265882e-02 3.0211408841e+00 -5.2327695080e+00 3.0211408841e+00 5.2327695080e+00 
32100 6.1696025659e+00 -5.6177954005e-02 3.0220775698e+00 -5.2343918952e+00 3.0220775698e+00 5.2343918952e+00 
32200 6.1694792333e+00 -5.5766220018e-02 3.0230070766e+00 -5.2360018482e+00 3.0230070766e+00 5.2360018482e+00 
32300 6.1693580004e+00 -5.5358990209e-02 3.0239294868e+00 -5.2375995097e+00 3.0239294868e+00 5.2375995097e+00 
32400 6.1692388464e+00 -5.4956189631e-02 3.0248448815e+00 -5.2391850199e+00 3.0248448815e+00 5.2391850199e+00 
32500 6.1691217499e+00 -5.4557742233e-02 3.0257533404e+00 -5.2407585167e+00 3.0257533404e+00 5.2407585167e+00 
32600 6.1690066889e+00 -5.4163570998e-02 3.0266549415e+00 -5.2423201356e+00 3.0266549415e+00 5.2423201356e+00 
32700 6.1688936410e+00 -5.3773598067e-02 3.0275497616e+00 -5.2438700096e+00 3.0275497616e+00 5.2438700096e+00 
32800 6.1687825835e+00 -5.3387744878e-02 3.0284378763e+00 -5.2454082693e+00 3.0284378763e+00 5.2454082693e+00 
32900 6.1686734930e+00 -5.3005932289e-02 3.0293193594e+00 -5.2469350428e+00 3.0293193594e+00 5.2469350428e+00 
33000 6.1685663459e+00 -5.2628080712e-02 3.0301942833e+00 -5.2484504556e+00 3.0301942833e+00 5.2484504556e+00 
33100 6.1684611181e+00 -5.2254110237e-02 3.0310627193e+00 -5.2499546308e+00 3.0310627193e+00 5.2499546308e+00 
33200 6.1683577854e+00 -5.1883940757e-02 3.0319247369e+00 -5.2514476890e+00 3.0319247369e+00 5.2514476890e+00 
33300 6.1682563231e+00 -5.1517492094e-02 3.0327804042e+00 -5.2529297483e+00 3.0327804042e+00 5.2529297483e+00 
33400 6.1681567064e+00 -5.1154684113e-02 3.0336297881e+00 -5.2544009244e+00 3.0336297881e+00 5.2544009244e+00 
33500 6.1680589101e+00 -5.0795436844e-02 3.0344729538e+00 -5.2558613302e+00 3.0344729538e+00 5.2558613302e+00 
33600 6.1679629091e+00 -5.0439670595e-02 3.0353099653e+00 -5.2573110766e+00 3.0353099653e+00 5.2573110766e+00 
33700 6.1678686778e+00 -5.0087306062e-02 3.0361408849e+00 -5.2587502715e+00 3.0361408849e+00 5.2587502715e+00 
33800 6.1677761909e+00 -4.9738264439e-02 3.0369657737e+00 -5.2601790209e+00 3.0369657737e+00 5.2601790209e+00 
33900 6.1676854226e+00 -4.9392467521e-02 3.0377846914e+00 -5.2615974279e+00 3.0377846914e+00 5.2615974279e+00 
34000 6.1675963473e+00 -4.9049837806e-02 3.0385976962e+00 -5.2630055935e+00 3.0385976962e+00 5.2630055935e+00 
34100 6.1675089394e+00 -4.8710298588e-02 3.0394048449e+00 -5.2644036162e+00 3.0394048449e+00 5.2644036162e+00 
34200 6.1674231732e+00 -4.8373774055e-02 3.0402061932e+00 -5.2657915922e+00 3.0402061932e+00 5.2657915922e+00 
34300 6.1673390230e+00 -4.8040189375e-02 3.0410017953e+00 -5.2671696153e+00 3.0410017953e+00 5.2671696153e+00 
34400 6.1672564633e+00 -4.7709470780e-02 3.0417917038e+00 -5.2685377771e+00 3.0417917038e+00 5.2685377771e+00 
34500 6.1671754685e+00 -4.7381545649e-02 3.0425759706e+00 -5.2698961669e+00 3.0425759706e+00 5.2698961669e+00 
34600 6.1670960134e+00 -4.7056342580e-02 3.0433546457e+00 -5.2712448718e+00 3.0433546457e+00 5.2712448718e+00 
34700 6.1670180726e+00 -4.6733791465e-02 3.0441277783e+00 -5.2725839768e+00 3.0441277783e+00 5.2725839768e+00 
34800 6.1669416211e+00 -4.6413823556e-02 3.0448954162e+00 -5.2739135646e+00 3.0448954162e+00 5.2739135646e+00 
34900 6.1668666339e+00 -4.6096371528e-02 3.0456576059e+00 -5.2752337159e+00 3.0456576059e+00 5.2752337159e+00 
35000 6.1667930864e+00 -4.5781369537e-02 3.0464143929e+00 -5.2765445094e+00 3.0464143929e+00 5.2765445094e+00 
35100 6.1667209539e+00 -4.5468753272e-02 3.0471658214e+00 -5.2778460217e+00 3.0471658214e+00 5.2778460217e+00 
35200 6.1666502122e+00 -4.5158460008e-02 3.0479119345e+00 -5.2791383275e+00 3.0479119345e+00 5.2791383275e+00 
35300 6.1665808371e+00 -4.4850428645e-02 3.0486527743e+00 -5.2804214997e+00 3.0486527743e+00 5.2804214997e+00 
35400 6.1665128050e+00 -4.4544599756e-02 3.0493883817e+00 -5.2816956091e+00 3.0493883817e+00 5.2816956091e+00 
35500 6.1664460921e+00 -4.4240915614e-02 3.0501187967e+00 -5.2829607249e+00 3.0501187967e+00 5.2829607249e+00 
35600 6.1663806752e+00 -4.3939320230e-02 3.0508440580e+00 -5.2842169145e+00 3.0508440580e+00 5.2842169145e+00 
35700 6.1663165314e+00 -4.3639759377e-02 3.0515642038e+00 -5.2854642436e+00 3.0515642038e+00 5.2854642436e+00 
35800 6.1662536377e+00 -4.3342180615e-02 3.0522792709e+00 -5.2867027761e+00 3.0522792709e+00 5.2867027761e+00 
35900 6.1661919718e+00 -4.3046533306e-02 3.0529892954e+00 -5.2879325746e+00 3.0529892954e+00 5.2879325746e+00 
36000 6.1661315115e+00 -4.2752768632e-02 3.0536943124e+00 -5.2891536999e+00 3.0536943124e+00 5.2891536999e+00 
36100 6.1660722351e+00 -4.2460839605e-02 3.0543943563e+00 -5.2903662115e+00 3.0543943563e+00 5.2903662115e+00 
36200 6.1660141208e+00 -4.2170701070e-02 3.0550894606e+00 -5.2915701674e+00 3.0550894606e+00 5.2915701674e+00 
36300 6.1659571474e+00 -4.1882309714e-02 3.0557796579e+00 -5.2927656242e+00 3.0557796579e+00 5.2927656242e+00 
36400 6.1659012941e+00 -4.1595624060e-02 3.0564649801e+00 -5.2939526371e+00 3.0564649801e+00 5.2939526371e+00 
36500 6.1658465402e+00 -4.1310604463e-02 3.0571454585e+00 -5.2951312602e+00 3.0571454585e+00 5.2951312602e+00 
36600 6.1657928653e+00 -4.1027213107e-02 3.0578211235e+00 -5.2963015464e+00 3.0578211235e+00 5.2963015464e+00 
36700 6.1657402494e+00 -4.0745413985e-02 3.0584920050e+00 -5.2974635472e+00 3.0584920050e+00 5.2974635472e+00 
36800 6.1656886729e+00 -4.0465172893e-02 3.0591581322e+00 -5.2986173134e+00 3.0591581322e+00 5.2986173134e+00 
36900 6.1656381163e+00 -4.0186457407e-02 3.0598195336e+00 -5.2997628942e+00 3.0598195336e+00 5.2997628942e+00 
37000 6.1655885605e+00 -3.9909236866e-02 3.0604762373e+00 -5.3009003383e+00 3.0604762373e+00 5.3009003383e+00 
37100 6.1655399867e+00 -3.9633482345e-02 3.0611282707e+00 -5.3020296933e+00 3.0611282707e+00 5.3020296933e+00 
37200 6.1654923765e+00 -3.9359166631e-02 3.0617756607e+00 -5.3031510057e+00 3.0617756607e+00 5.3031510057e+00 
37300 6.1654457116e+00 -3.9086264195e-02 3.0624184339e+00 -5.3042643215e+00 3.0624184339e+00 5.3042643215e+00 
37400 6.1653999740e+00 -3.8814751160e-02 3.0630566161e+00 -5.3053696856e+00 3.0630566161e+00 5.3053696856e+00 
37500 6.1653551463e+00 -3.8544605268e-02 3.0636902330e+00 -5.3064671422e+00 3.0636902330e+00 5.3064671422e+00 
37600 6.1653112110e+00 -3.8275805845e-02 3.0643193097e+00 -5.3075567351e+00 3.0643193097e+00 5.3075567351e+00 
37700 6.1652681511e+00 -3.8008333763e-02 3.0649438710e+00 -5.3086385070e+00 3.0649438710e+00 5.3086385070e+00 
37800 6.1652259499e+00 -3.7742171404e-02 3.0655639414e+00 -5.3097125003e+00 3.0655639414e+00 5.3097125003e+00 
37900 6.1651845908e+00 -3.7477302613e-02 3.0661795448e+00 -5.3107787567e+00 3.0661795448e+00 5.3107787567e+00 
38000 6.1651440576e+00 -3.7213712664e-02 3.0667907052e+00 -5.3118373175e+00 3.0667907052e+00 5.3118373175e+00 
38100 6.1651043344e+00 -3.6951388208e-02 3.0673974459e+00 -5.3128882234e+00 3.0673974459e+00 5.3128882234e+00 
38200 6.1650654055e+00 -3.6690317237e-02 3.0679997904e+00 -5.3139315146e+00 3.0679997904e+00 5.3139315146e+00 
38300 6.1650272555e+00 -3.6430489029e-02 3.0685977616e+00 -5.3149672310e+00 3.0685977616e+00 5.3149672310e+00 
38400 6.1649898691e+00 -3.6171894109e-02 3.0691913823e+00 -5.3159954123e+00 3.0691913823e+00 5.3159954123e+00 
38500 6.1649532315e+00 -3.5914524196e-02 3.0697806751e+00 -5.3170160974e+00 3.0697806751e+00 5.3170160974e+00 
38600 6.1649173280e+00 -3.5658372157e-02 3.0703656626e+00 -5.3180293255e+00 3.0703656626e+00 5.3180293255e+00 
38700 6.1648821442e+00 -3.5403431958e-02 3.0709463670e+00 -5.3190351350e+00 3.0709463670e+00 5.3190351350e+00 
38800 6.1648476658e+00 -3.5149698614e-02 3.0715228105e+00 -5.3200335643e+00 3.0715228105e+00 5.3200335643e+00 
38900 6.1648138790e+00 -3.4897168141e-02 3.0720950151e+00 -5.3210246518e+00 3.0720950151e+00 5.3210246518e+00 
39000 6.1647807701e+00 -3.4645837501e-02 3.0726630028e+00 -5.3220084353e+00 3.0726630028e+00 5.3220084353e+00 
39100 6.1647483256e+00 -3.4395704560e-02 3.0732267954e+00 -5.3229849528e+00 3.0732267954e+00 5.3229849528e+00 
39200 6.1647165321e+00 -3.4146768031e-02 3.0737864148e+00 -5.3239542421e+00 3.0737864148e+00 5.3239542421e+00 
39300 6.1646853768e+00 -3.3899027428e-02 3.0743418828e+00 -5.3249163408e+00 3.0743418828e+00 5.3249163408e+00 
39400 6.1646548469e+00 -3.3652483014e-02 3.0748932209e+00 -5.3258712865e+00 3.0748932209e+00 5.3258712865e+00 
39500 6.1646249297e+00 -3.3407135756e-02 3.0754404510e+00 -5.3268191168e+00 3.0754404510e+00 5.3268191168e+00 
39600 6.1645956129e+00 -3.3162987269e-02 3.0759835947e+00 -5.3277598692e+00 3.0759835947e+00 5.3277598692e+00 
39700 6.1645668843e+00 -3.2920039775e-02 3.0765226735e+00 -5.3286935812e+00 3.0765226735e+00 5.3286935812e+00 
39800 6.1645387321e+00 -3.2678296052e-02 3.0770577093e+00 -5.3296202904e+00 3.0770577093e+00 5.3296202904e+00 
39900 6.1645111446e+00 -3.2437759385e-02 3.0775887237e+00 -5.3305400342e+00 3.0775887237e+00 5.3305400342e+00 
40000 6.1644841101e+00 -3.2198433526e-02 3.0781157383e+00 -5.3314528503e+00 3.0781157383e+00 5.3314528503e+00 
40100 6.1644576175e+00 -3.1960322640e-02 3.0786387749e+00 -5.3323587763e+00 3.0786387749e+00 5.3323587763e+00 
40200 6.1644316557e+00 -3.1723431269e-02 3.0791578553e+00 -5.3332578499e+00 3.0791578553e+00 5.3332578499e+00 
40300 6.1644062137e+00 -3.1487764281e-02 3.0796730013e+00 -5.3341501089e+00 3.0796730013e+00 5.3341501089e+00 
40400 6.1643812808e+00 -3.1253326835e-02 3.0801842347e+00 -5.3350355912e+00 3.0801842347e+00 5.3350355912e+00 
40500 6.1643568466e+00 -3.1020124331e-02 3.0806915775e+00 -5.3359143346e+00 3.0806915775e+00 5.3359143346e+00 
40600 6.1643329008e+00 -3.0788162379e-02 3.0811950516e+00 -5.3367863774e+00 3.0811950516e+00 5.3367863774e+00 
40700 6.1643094332e+00 -3.0557446751e-02 3.0816946791e+00 -5.3376517576e+00 3.0816946791e+00 5.3376517576e+00 
40800 6.1642864340e+00 -3.0327983352e-02 3.0821904820e+00 -5.3385105135e+00 3.0821904820e+00 5.3385105135e+00 
40900 6.1642638934e+00 -3.0099778175e-02 3.0826824826e+00 -5.3393626835e+00 3.0826824826e+00 5.3393626835e+00 
41000 6.1642418019e+00 -2.9872837271e-02 3.0831707030e+00 -5.3402083061e+00 3.0831707030e+00 5.3402083061e+00 
41100 6.1642201501e+00 -2.9647166713e-02 3.0836551657e+00 -5.3410474200e+00 3.0836551657e+00 5.3410474200e+00 
41200 6.1641989289e+00 -2.9422772566e-02 3.0841358928e+00 -5.3418800639e+00 3.0841358928e+00 5.3418800639e+00 
41300 6.1641781293e+00 -2.9199660850e-02 3.0846129070e+00 -5.3427062767e+00 3.0846129070e+00 5.3427062767e+00 
41400 6.1641577424e+00 -2.8977837518e-02 3.0850862307e+00 -5.3435260973e+00 3.0850862307e+00 5.3435260973e+00 
41500 6.1641377597e+00 -2.8757308419e-02 3.0855558865e+00 -5.3443395650e+00 3.0855558865e+00 5.3443395650e+00 
41600 6.1641181727e+00 -2.8538079278e-02 3.0860218971e+00 -5.3451467190e+00 3.0860218971e+00 5.3451467190e+00 
41700 6.1640989731e+00 -2.8320155667e-02 3.0864842851e+00 -5.3459475986e+00 3.0864842851e+00 5.3459475986e+00 
41800 6.1640801528e+00 -2.8103542982e-02 3.0869430734e+00 -5.3467422432e+00 3.0869430734e+00 5.3467422432e+00 
41900 6.1640617038e+00 -2.7888246419e-02 3.0873982848e+00 -5.3475306925e+00 3.0873982848e+00 5.3475306925e+00 
42000 6.1640436185e+00 -2.7674270954e-02 3.0878499422e+00 -5.3483129860e+00 3.0878499422e+00 5.3483129860e+00 
42100 6.1640258891e+00 -2.7461621320e-02 3.0882980686e+00 -5.3490891637e+00 3.0882980686e+00 5.3490891637e+00 
42200 6.1640085083e+00 -2.7250301994e-02 3.0887426869e+00 -5.3498592653e+00 3.0887426869e+00 5.3498592653e+00 
42300 6.1639914687e+00 -2.7040317175e-02 3.0891838203e+00 -5.3506233307e+00 3.0891838203e+00 5.3506233307e+00 
42400 6.1639747632e+00 -2.6831670770e-02 3.0896214918e+00 -5.3513814000e+00 3.0896214918e+00 5.3513814000e+00 
42500 6.1639583849e+00 -2.6624366379e-02 3.0900557246e+00 -5.3521335133e+00 3.0900557246e+00 5.3521335133e+00 
42600 6.1639423269e+00 -2.6418407284e-02 3.0904865419e+00 -5.3528797106e+00 3.0904865419e+00 5.3528797106e+00 
42700 6.1639265826e+00 -2.6213796435e-02 3.0909139667e+00 -5.3536200322e+00 3.0909139667e+00 5.3536200322e+00 
42800 6.1639111454e+00 -2.6010536439e-02 3.0913380225e+00 -5.3543545183e+00 3.0913380225e+00 5.3543545183e+00 
42900 6.1638960089e+00 -2.5808629553e-02 3.0917587323e+00 -5.3550832091e+00 3.0917587323e+00 5.3550832091e+00 
43000 6.1638811670e+00 -2.5608077675e-02 3.0921761195e+00 -5.3558061449e+00 3.0921761195e+00 5.3558061449e+00 
43100 6.1638666135e+00 -2.5408882337e-02 3.0925902073e+00 -5.3565233661e+00 3.0925902073e+00 5.3565233661e+00 
43200 6.1638523425e+00 -2.5211044700e-02 3.0930010190e+00 -5.3572349128e+00 3.0930010190e+00 5.3572349128e+00 
43300 6.1638383482e+00 -2.5014565550e-02 3.0934085779e+00 -5.3579408254e+00 3.0934085779e+00 5.3579408254e+00 
43400 6.1638246248e+00 -2.4819445293e-02 3.0938129071e+00 -5.3586411442e+00 3.0938129071e+00 5.3586411442e+00 
43500 6.1638111668e+00 -2.4625683954e-02 3.0942140300e+00 -5.3593359094e+00 3.0942140300e+00 5.3593359094e+00 
43600 6.1637979688e+00 -2.4433281175e-02 3.0946119696e+00 -5.3600251611e+00 3.0946119696e+00 5.3600251611e+00 
43700 6.1637850255e+00 -2.4242236217e-02 3.0950067494e+00 -5.3607089397e+00 3.0950067494e+00 5.3607089397e+00 
43800 6.1637723317e+00 -2.4052547958e-02 3.0953983922e+00 -5.3613872850e+00 3.0953983922e+00 5.3613872850e+00 
43900 6.1637598823e+00 -2.3864214896e-02 3.0957869214e+00 -5.3620602373e+00 3.0957869214e+00 5.3620602373e+00 
44000 6.1637476724e+00 -2.3677235151e-02 3.0961723599e+00 -5.3627278364e+00 3.0961723599e+00 5.3627278364e+00 
44100 6.1637356971e+00 -2.3491606470e-02 3.0965547308e+00 -5.3633901221e+00 3.0965547308e+00 5.3633901221e+00 
44200 6.1637239518e+00 -2.3307326229e-02 3.0969340570e+00 -5.3640471344e+00 3.0969340570e+00 5.3640471344e+00 
44300 6.1637124318e+00 -2.3124391439e-02 3.0973103614e+00 -5.3646989127e+00 3.0973103614e+00 5.3646989127e+00 
44400 6.1637011327e+00 -2.2942798753e-02 3.0976836668e+00 -5.3653454967e+00 3.0976836668e+00 5.3653454967e+00 
44500 6.1636900499e+00 -2.2762544470e-02 3.0980539960e+00 -5.3659869257e+00 3.0980539960e+00 5.3659869257e+00 
44600 6.1636791793e+00 -2.2583624544e-02 3.0984213717e+00 -5.3666232391e+00 3.0984213717e+00 5.3666232391e+00 
44700 6.1636685166e+00 -2.2406034590e-02 3.0987858165e+00 -5.3672544759e+00 3.0987858165e+00 5.3672544759e+00 
44800 6.1636580577e+00 -2.2229769893e-02 3.0991473527e+00 -5.3678806751e+00 3.0991473527e+00 5.3678806751e+00 
44900 6.1636477986e+00 -2.2054825416e-02 3.0995060030e+00 -5.3685018755e+00 3.0995060030e+00 5.3685018755e+00 
45000 6.1636377354e+00 -2.1881195813e-02 3.0998617895e+00 -5.3691181158e+00 3.0998617895e+00 5.3691181158e+00 
45100 6.1636278643e+00 -2.1708875432e-02 3.1002147344e+00 -5.3697294344e+00 3.1002147344e+00 5.3697294344e+00 
45200 6.1636181815e+00 -2.1537858330e-02 3.1005648599e+00 -5.3703358695e+00 3.1005648599e+00 5.3703358695e+00 
45300 6.1636086834e+00 -2.1368138281e-02 3.1009121879e+00 -5.3709374593e+00 3.1009121879e+00 5.3709374593e+00 
45400 6.1635993663e+00 -2.1199708788e-02 3.1012567403e+00 -5.3715342415e+00 3.1012567403e+00 5.3715342415e+00 
45500 6.1635902268e+00 -2.1032563095e-02 3.1015985388e+00 -5.3721262539e+00 3.1015985388e+00 5.3721262539e+00 
45600 6.1635812616e+00 -2.0866694194e-02 3.1019376050e+00 -5.3727135338e+00 3.1019376050e+00 5.3727135338e+00 
45700 6.1635724671e+00 -2.0702094840e-02 3.1022739605e+00 -5.3732961185e+00 3.1022739605e+00 5.3732961185e+00 
45800 6.1635638402e+00 -2.0538757564e-02 3.1026076264e+00 -5.3738740450e+00 3.1026076264e+00 5.3738740450e+00 
45900 6.1635553776e+00 -2.0376674680e-02 3.1029386242e+00 -5.3744473499e+00 3.1029386242e+00 5.3744473499e+00 
46000 6.1635470763e+00 -2.0215838299e-02 3.1032669748e+00 -5.3750160698e+00 3.1032669748e+00 5.3750160698e+00 
46100 6.1635389332e+00 -2.0056240344e-02 3.1035926991e+00 -5.3755802409e+00 3.1035926991e+00 5.3755802409e+00 
46200 6.1635309453e+00 -1.9897872558e-02 3.1039158180e+00 -5.3761398992e+00 3.1039158180e+00 5.3761398992e+00 
46300 6.1635231096e+00 -1.9740726517e-02 3.1042363521e+00 -5.3766950805e+00 3.1042363521e+00 5.3766950805e+00 
46400 6.1635154233e+00 -1.9584793643e-02 3.1045543218e+00 -5.3772458202e+00 3.1045543218e+00 5.3772458202e+00 
46500 6.1635078835e+00 -1.9430065216e-02 3.1048697475e+00 -5.3777921536e+00 3.1048697475e+00 5.3777921536e+00 
46600 6.1635004876e+00 -1.9276532383e-02 3.1051826494e+00 -5.3783341155e+00 3.1051826494e+00 5.3783341155e+00 
46700 6.1634932328e+00 -1.9124186175e-02 3.1054930474e+00 -5.3788717407e+00 3.1054930474e+00 5.3788717407e+00 
46800 6.1634861166e+00 -1.8973017514e-02 3.1058009615e+00 -5.3794050636e+00 3.1058009615e+00 5.3794050636e+00 
46900 6.1634791362e+00 -1.8823017229e-02 3.1061064114e+00 -5.3799341183e+00 3.1061064114e+00 5.3799341183e+00 
47000 6.1634722892e+00 -1.8674176061e-02 3.1064094165e+00 -5.3804589385e+00 3.1064094165e+00 5.3804589385e+00 
47100 6.1634655731e+00 -1.8526484683e-02 3.1067099963e+00 -5.3809795580e+00 3.1067099963e+00 5.3809795580e+00 
47200 6.1634589854e+00 -1.8379933701e-02 3.1070081699e+00 -5.3814960099e+00 3.1070081699e+00 5.3814960099e+00 
47300 6.1634525238e+00 -1.8234513676e-02 3.1073039565e+00 -5.3820083272e+00 3.1073039565e+00 5.3820083272e+00 
47400 6.1634461860e+00 -1.8090215123e-02 3.1075973749e+00 -5.3825165427e+00 3.1075973749e+00 5.3825165427e+00 
47500 6.1634399697e+00 -1.7947028532e-02 3.1078884437e+00 -5.3830206888e+00 3.1078884437e+00 5.3830206888e+00 
47600 6.1634338725e+00 -1.7804944370e-02 3.1081771817e+00 -5.3835207976e+00 3.1081771817e+00 5.3835207976e+00 
47700 6.1634278923e+00 -1.7663953097e-02 3.1084636071e+00 -5.3840169010e+00 3.1084636071e+00 5.3840169010e+00 
47800 6.1634220270e+00 -1.7524045171e-02 3.1087477382e+00 -5.3845090304e+00 3.1087477382e+00 5.3845090304e+00 
47900 6.1634162744e+00 -1.7385211058e-02 3.1090295930e+00 -5.3849972173e+00 3.1090295930e+00 5.3849972173e+00 
48000 6.1634106325e+00 -1.7247441245e-02 3.1093091894e+00 -5.3854814925e+00 3.1093091894e+00 5.3854814925e+00 
48100 6.1634050991e+00 -1.7110726244e-02 3.1095865452e+00 -5.3859618868e+00 3.1095865452e+00 5.3859618868e+00 
48200 6.1633996724e+00 -1.6975056603e-02 3.1098616779e+00 -5.3864384306e+00 3.1098616779e+00 5.3864384306e+00 
48300 6.1633943502e+00 -1.6840422910e-02 3.1101346049e+00 -5.3869111540e+00 3.1101346049e+00 5.3869111540e+00 
48400 6.1633891308e+00 -1.6706815808e-02 3.1104053434e+00 -5.3873800870e+00 3.1104053434e+00 5.3873800870e+00 
48500 6.1633840122e+00 -1.6574225996e-02 3.1106739106e+00 -5.3878452590e+00 3.1106739106e+00 5.3878452590e+00 
48600 6.1633789925e+00 -1.6442644238e-02 3.1109403234e+00 -5.3883066994e+00 3.1109403234e+00 5.3883066994e+00 
48700 6.1633740699e+00 -1.6312061370e-02 3.1112045984e+00 -5.3887644372e+00 3.1112045984e+00 5.3887644372e+00 
48800 6.1633692427e+00 -1.6182468306e-02 3.1114667523e+00 -5.3892185011e+00 3.1114667523e+00 5.3892185011e+00 
48900 6.1633645090e+00 -1.6053856044e-02 3.1117268016e+00 -5.3896689197e+00 3.1117268016e+00 5.3896689197e+00 
49000 6.1633598672e+00 -1.5926215671e-02 3.1119847625e+00 -5.3901157211e+00 3.1119847625e+00 5.3901157211e+00 
49100 6.1633553155e+00 -1.5799538371e-02 3.1122406512e+00 -5.3905589333e+00 3.1122406512e+00 5.3905589333e+00 
49200 6.1633508522e+00 -1.5673815424e-02 3.1124944837e+00 -5.3909985840e+00 3.1124944837e+00 5.3909985840e+00 
49300 6.1633464758e+00 -1.5549038218e-02 3.1127462757e+00 -5.3914347006e+00 3.1127462757e+00 5.3914347006e+00 
49400 6.1633421846e+00 -1.5425198248e-02 3.1129960430e+00 -5.3918673103e+00 3.1129960430e+00 5.3918673103e+00 
49500 6.1633379770e+00 -1.5302287119e-02 3.1132438012e+00 -5.3922964400e+00 3.1132438012e+00 5.3922964400e+00 
49600 6.1633338515e+00 -1.5180296556e-02 3.1134895655e+00 -5.3927221164e+00 3.1134895655e+00 5.3927221164e+00 
49700 6.1633298065e+00 -1.5059218401e-02 3.1137333514e+00 -5.3931443659e+00 3.1137333514e+00 5.3931443659e+00 
49800 6.1633258406e+00 -1.4939044616e-02 3.1139751739e+00 -5.3935632146e+00 3.1139751739e+00 5.3935632146e+00 
49900 6.1633219523e+00 -1.4819767291e-02 3.1142150479e+00 -5.3939786887e+00 3.1142150479e+00 5.3939786887e+00 
50000 6.1633181401e+00 -1.4701378640e-02 3.1144529884e+00 -5.3943908137e+00 3.1144529884e+00 5.3943908137e+00 
50100 6.1633144026e+00 -1.4583871007e-02 3.1146890100e+00 -5.3947996151e+00 3.1146890100e+00 5.3947996151e+00 
50200 6.1633107385e+00 -1.4467236865e-02 3.1149231273e+00 -5.3952051182e+00 3.1149231273e+00 5.3952051182e+00 
50300 6.1633071462e+00 -1.4351468819e-02 3.1151553548e+00 -5.3956073480e+00 3.1151553548e+00 5.3956073480e+00 
50400 6.1633036246e+00 -1.4236559605e-02 3.1153857068e+00 -5.3960063294e+00 3.1153857068e+00 5.3960063294e+00 
50500 6.1633001722e+00 -1.4122502095e-02 3.1156141975e+00 -5.3964020869e+00 3.1156141975e+00 5.3964020869e+00 
50600 6.1632967878e+00 -1.4009289293e-02 3.1158408410e+00 -5.3967946450e+00 3.1158408410e+00 5.3967946450e+00 
50700 6.1632934700e+00 -1.3896914335e-02 3.1160656513e+00 -5.3971840277e+00 3.1160656513e+00 5.3971840277e+00 
50800 6.1632902177e+00 -1.3785370493e-02 3.1162886421e+00 -5.3975702591e+00 3.1162886421e+00 5.3975702591e+00 
50900 6.1632870296e+00 -1.3674651172e-02 3.1165098272e+00 -5.3979533630e+00 3.1165098272e+00 5.3979533630e+00 
51000 6.1632839044e+00 -1.3564749910e-02 3.1167292202e+00 -5.3983333629e+00 3.1167292202e+00 5.3983333629e+00 
51100 6.1632808411e+00 -1.3455660374e-02 3.1169468347e+00 -5.3987102822e+00 3.1169468347e+00 5.3987102822e+00 
51200 6.1632778383e+00 -1.3347376367e-02 3.1171626840e+00 -5.3990841442e+00 3.1171626840e+00 5.3990841442e+00 
51300 6.1632748950e+00 -1.3239891817e-02 3.1173767814e+00 -5.3994549718e+00 3.1173767814e+00 5.3994549718e+00 
51400 6.1632720101e+00 -1.3133200783e-02 3.1175891401e+00 -5.3998227878e+00 3.1175891401e+00 5.3998227878e+00 
51500 6.1632691823e+00 -1.3027297451e-02 3.1177997732e+00 -5.4001876150e+00 3.1177997732e+00 5.4001876150e+00 
51600 6.1632664107e+00 -1.2922176129e-02 3.1180086937e+00 -5.4005494759e+00 3.1180086937e+00 5.4005494759e+00 
51700 6.1632636942e+00 -1.2817831251e-02 3.1182159144e+00 -5.4009083927e+00 3.1182159144e+00 5.4009083927e+00 
51800 6.1632610317e+00 -1.2714257370e-02 3.1184214481e+00 -5.4012643876e+00 3.1184214481e+00 5.4012643876e+00 
51900 6.1632584221e+00 -1.2611449158e-02 3.1186253076e+00 -5.4016174826e+00 3.1186253076e+00 5.4016174826e+00 
52000 6.1632558646e+00 -1.2509401405e-02 3.1188275054e+00 -5.4019676995e+00 3.1188275054e+00 5.4019676995e+00 
52100 6.1632533580e+00 -1.2408109010e-02 3.1190280541e+00 -5.4023150600e+00 3.1190280541e+00 5.4023150600e+00 
52200 6.1632509014e+00 -1.2307566987e-02 3.1192269661e+00 -5.4026595856e+00 3.1192269661e+00 5.4026595856e+00 
52300 6.1632484938e+00 -1.2207770456e-02 3.1194242537e+00 -5.4030012978e+00 3.1194242537e+00 5.4030012978e+00 
52400 6.1632461343e+00 -1.2108714643e-02 3.1196199292e+00 -5.4033402177e+00 3.1196199292e+00 5.4033402177e+00 
52500 6.1632438220e+00 -1.2010394876e-02 3.1198140048e+00 -5.4036763665e+00 3.1198140048e+00 5.4036763665e+00 
52600 6.1632415560e+00 -1.1912806581e-02 3.1200064925e+00 -5.4040097650e+00 3.1200064925e+00 5.4040097650e+00 
52700 6.1632393353e+00 -1.1815945282e-02 3.1201974044e+00 -5.4043404341e+00 3.1201974044e+00 5.4043404341e+00 
52800 6.1632371591e+00 -1.1719806595e-02 3.1203867525e+00 -5.4046683945e+00 3.1203867525e+00 5.4046683945e+00 
52900 6.1632350265e+00 -1.1624386224e-02 3.1205745485e+00 -5.4049936668e+00 3.1205745485e+00 5.4049936668e+00 
53000 6.1632329367e+00 -1.1529679960e-02 3.1207608043e+00 -5.4053162713e+00 3.1207608043e+00 5.4053162713e+00 
53100 6.1632308889e+00 -1.1435683678e-02 3.1209455316e+00 -5.4056362283e+00 3.1209455316e+00 5.4056362283e+00 
53200 6.1632288822e+00 -1.1342393331e-02 3.1211287420e+00 -5.4059535581e+00 3.1211287420e+00 5.4059535581e+00 
53300 6.1632269159e+00 -1.1249804948e-02 3.1213104471e+00 -5.4062682807e+00 3.1213104471e+00 5.4062682807e+00 
53400 6.1632249891e+00 -1.1157914631e-02 3.1214906585e+00 -5.4065804159e+00 3.1214906585e+00 5.4065804159e+00 
53500 6.1632231011e+00 -1.1066718551e-02 3.1216693876e+00 -5.4068899837e+00 3.1216693876e+00 5.4068899837e+00 
53600 6.1632212512e+00 -1.0976212944e-02 3.1218466457e+00 -5.4071970037e+00 3.1218466457e+00 5.4071970037e+00 
53700 6.1632194385e+00 -1.0886394110e-02 3.1220224441e+00 -5.4075014956e+00 3.1220224441e+00 5.4075014956e+00 
53800 6.1632176625e+00 -1.0797258405e-02 3.1221967942e+00 -5.4078034787e+00 3.1221967942e+00 5.4078034787e+00 
53900 6.1632159223e+00 -1.0708802242e-02 3.1223697070e+00 -5.4081029725e+00 3.1223697070e+00 5.4081029725e+00 
54000 6.1632142173e+00 -1.0621022087e-02 3.1225411937e+00 -5.4083999963e+00 3.1225411937e+00 5.4083999963e+00 
54100 6.1632125467e+00 -1.0533914453e-02 3.1227112655e+00 -5.4086945691e+00 3.1227112655e+00 5.4086945691e+00 
54200 6.1632109100e+00 -1.0447475897e-02 3.1228799331e+00 -5.4089867101e+00 3.1228799331e+00 5.4089867101e+00 
54300 6.1632093064e+00 -1.0361703021e-02 3.1230472077e+00 -5.4092764382e+00 3.1230472077e+00 5.4092764382e+00 
54400 6.1632077353e+00 -1.0276592463e-02 3.1232131001e+00 -5.4095637723e+00 3.1232131001e+00 5.4095637723e+00 
54500 6.1632061961e+00 -1.0192140900e-02 3.1233776211e+00 -5.4098487310e+00 3.1233776211e+00 5.4098487310e+00 
54600 6.1632046881e+00 -1.0108345038e-02 3.1235407815e+00 -5.4101313331e+00 3.1235407815e+00 5.4101313331e+00 
54700 6.1632032107e+00 -1.0025201613e-02 3.1237025920e+00 -5.4104115970e+00 3.1237025920e+00 5.4104115970e+00 
54800 6.1632017634e+00 -9.9427073891e-03 3.1238630632e+00 -5.4106895413e+00 3.1238630632e+00 5.4106895413e+00 
54900 6.1632003455e+00 -9.8608591524e-03 3.1240222058e+00 -5.4109651843e+00 3.1240222058e+00 5.4109651843e+00 
55000 6.1631989564e+00 -9.7796537099e-03 3.1241800302e+00 -5.4112385443e+00 3.1241800302e+00 5.4112385443e+00 
55100 6.1631975957e+00 -9.6990878865e-03 3.1243365470e+00 -5.4115096394e+00 3.1243365470e+00 5.4115096394e+00 
55200 6.1631962628e+00 -9.6191585220e-03 3.1244917667e+00 -5.4117784877e+00 3.1244917667e+00 5.4117784877e+00 
55300 6.1631949570e+00 -9.5398624689e-03 3.1246456995e+00 -5.4120451072e+00 3.1246456995e+00 5.4120451072e+00 
55400 6.1631936779e+00 -9.4611965893e-03 3.1247983559e+00 -5.4123095158e+00 3.1247983559e+00 5.4123095158e+00 
55500 6.1631924249e+00 -9.3831577531e-03 3.1249497460e+00 -5.4125717312e+00 3.1249497460e+00 5.4125717312e+00 
55600 6.1631911976e+00 -9.3057428350e-03 3.1250998802e+00 -5.4128317711e+00 3.1250998802e+00 5.4128317711e+00 
55700 6.1631899954e+00 -9.2289487127e-03 3.1252487685e+00 -5.4130896533e+00 3.1252487685e+00 5.4130896533e+00 
55800 6.1631888178e+00 -9.1527722646e-03 3.1253964210e+00 -5.4133453950e+00 3.1253964210e+00 5.4133453950e+00 
55900 6.1631876644e+00 -9.0772103675e-03 3.1255428480e+00 -5.4135990139e+00 3.1255428480e+00 5.4135990139e+00 
56000 6.1631865347e+00 -9.0022598948e-03 3.1256880592e+00 -5.4138505272e+00 3.1256880592e+00 5.4138505272e+00 
56100 6.1631854282e+00 -8.9279177147e-03 3.1258320648e+00 -5.4140999522e+00 3.1258320648e+00 5.4140999522e+00 
56200 6.1631843444e+00 -8.8541806881e-03 3.1259748745e+00 -5.4143473059e+00 3.1259748745e+00 5.4143473059e+00 
56300 6.1631832830e+00 -8.7810456671e-03 3.1261164983e+00 -5.4145926055e+00 3.1261164983e+00 5.4145926055e+00 
56400 6.1631822434e+00 -8.7085094935e-03 3.1262569459e+00 -5.4148358679e+00 3.1262569459e+00 5.4148358679e+00 
56500 6.1631812253e+00 -8.6365689969e-03 3.1263962271e+00 -5.4150771099e+00 3.1263962271e+00 5.4150771099e+00 
56600 6.1631802282e+00 -8.5652209938e-03 3.1265343515e+00 -5.4153163484e+00 3.1265343515e+00 5.4153163484e+00 
56700 6.1631792517e+00 -8.4944622859e-03 3.1266713288e+00 -5.4155536000e+00 3.1266713288e+00 5.4155536000e+00 
56800 6.1631782955e+00 -8.4242896590e-03 3.1268071685e+00 -5.4157888813e+00 3.1268071685e+00 5.4157888813e+00 
56900 6.1631773590e+00 -8.3546998819e-03 3.1269418802e+00 -5.4160222088e+00 3.1269418802e+00 5.4160222088e+00 
57000 6.1631764419e+00 -8.2856897054e-03 3.1270754733e+00 -5.4162535989e+00 3.1270754733e+00 5.4162535989e+00 
57100 6.1631755439e+00 -8.2172558613e-03 3.1272079573e+00 -5.4164830679e+00 3.1272079573e+00 5.4164830679e+00 
57200 6.1631746646e+00 -8.1493950616e-03 3.1273393415e+00 -5.4167106320e+00 3.1273393415e+00 5.4167106320e+00 
57300 6.1631738035e+00 -8.0821039979e-03 3.1274696352e+00 -5.4169363073e+00 3.1274696352e+00 5.4169363073e+00 
57400 6.1631729604e+00 -8.0153793404e-03 3.1275988476e+00 -5.4171601098e+00 3.1275988476e+00 5.4171601098e+00 
57500 6.1631721349e+00 -7.9492177377e-03 3.1277269880e+00 -5.4173820555e+00 3.1277269880e+00 5.4173820555e+00 
57600 6.1631713266e+00 -7.8836158161e-03 3.1278540655e+00 -5.4176021601e+00 3.1278540655e+00 5.4176021601e+00 
57700 6.1631705352e+00 -7.8185701794e-03 3.1279800891e+00 -5.4178204393e+00 3.1279800891e+00 5.4178204393e+00 
57800 6.1631697604e+00 -7.7540774084e-03 3.1281050678e+00 -5.4180369089e+00 3.1281050678e+00 5.4180369089e+00 
57900 6.1631690018e+00 -7.6901340608e-03 3.1282290108e+00 -5.4182515843e+00 3.1282290108e+00 5.4182515843e+00 
58000 6.1631682592e+00 -7.6267366710e-03 3.1283519267e+00 -5.4184644810e+00 3.1283519267e+00 5.4184644810e+00 
58100 6.1631675321e+00 -7.5638817503e-03 3.1284738245e+00 -5.4186756142e+00 3.1284738245e+00 5.4186756142e+00 
58200 6.1631668204e+00 -7.5015657864e-03 3.1285947130e+00 -5.4188849993e+00 3.1285947130e+00 5.4188849993e+00 
58300 6.1631661237e+00 -7.4397852439e-03 3.1287146009e+00 -5.4190926512e+00 3.1287146009e+00 5.4190926512e+00 
58400 6.1631654417e+00 -7.3785365646e-03 3.1288334969e+00 -5.4192985851e+00 3.1288334969e+00 5.4192985851e+00 
58500 6.1631647741e+00 -7.3178161672e-03 3.1289514096e+00 -5.4195028159e+00 3.1289514096e+00 5.4195028159e+00 
58600 6.1631641206e+00 -7.2576204482e-03 3.1290683475e+00 -5.4197053583e+00 3.1290683475e+00 5.4197053583e+00 
58700 6.1631634811e+00 -7.1979457816e-03 3.1291843192e+00 -5.4199062271e+00 3.1291843192e+00 5.4199062271e+00 
58800 6.1631628551e+00 -7.1387885203e-03 3.1292993330e+00 -5.4201054369e+00 3.1292993330e+00 5.4201054369e+00 
58900 6.1631622424e+00 -7.0801449954e-03 3.1294133974e+00 -5.4203030022e+00 3.1294133974e+00 5.4203030022e+00 
59000 6.1631616428e+00 -7.0220115178e-03 3.1295265207e+00 -5.4204989374e+00 3.1295265207e+00 5.4204989374e+00 
59100 6.1631610560e+00 -6.9643843783e-03 3.1296387110e+00 -5.4206932568e+00 3.1296387110e+00 5.4206932568e+00 
59200 6.1631604818e+00 -6.9072598483e-03 3.1297499767e+00 -5.4208859746e+00 3.1297499767e+00 5.4208859746e+00 
59300 6.1631599198e+00 -6.8506341805e-03 3.1298603257e+00 -5.4210771048e+00 3.1298603257e+00 5.4210771048e+00 
59400 6.1631593700e+00 -6.7945036099e-03 3.1299697663e+00 -5.4212666614e+00 3.1299697663e+00 5.4212666614e+00 
59500 6.1631588319e+00 -6.7388643543e-03 3.1300783064e+00 -5.4214546583e+00 3.1300783064e+00 5.4214546583e+00 
59600 6.1631583055e+00 -6.6837126152e-03 3.1301859539e+00 -5.4216411093e+00 3.1301859539e+00 5.4216411093e+00 
59700 6.1631577904e+00 -6.6290445791e-03 3.1302927167e+00 -5.4218260279e+00 3.1302927167e+00 5.4218260279e+00 
59800 6.1631572865e+00 -6.5748564177e-03 3.1303986027e+00 -5.4220094278e+00 3.1303986027e+00 5.4220094278e+00 
59900 6.1631567935e+00 -6.5211442895e-03 3.1305036196e+00 -5.4221913224e+00 3.1305036196e+00 5.4221913224e+00 
60000 6.1631563112e+00 -6.4679043404e-03 3.1306077750e+00 -5.4223717249e+00 3.1306077750e+00 5.4223717249e+00 
60100 6.1631558395e+00 -6.4151327050e-03 3.1307110767e+00 -5.4225506487e+00 3.1307110767e+00 5.4225506487e+00 
60200 6.1631553780e+00 -6.3628255074e-03 3.1308135321e+00 -5.4227281067e+00 3.1308135321e+00 5.4227281067e+00 
60300 6.1631549267e+00 -6.3109788626e-03 3.1309151489e+00 -5.4229041120e+00 3.1309151489e+00 5.4229041120e+00 
60400 6.1631544852e+00 -6.2595888770e-03 3.1310159343e+00 -5.4230786775e+00 3.1310159343e+00 5.4230786775e+00 
60500 6.1631540535e+00 -6.2086516503e-03 3.1311158958e+00 -5.4232518159e+00 3.1311158958e+00 5.4232518159e+00 
60600 6.1631536312e+00 -6.1581632760e-03 3.1312150407e+00 -5.4234235400e+00 3.1312150407e+00 5.4234235400e+00 
60700 6.1631532183e+00 -6.1081198430e-03 3.1313133763e+00 -5.4235938621e+00 3.1313133763e+00 5.4235938621e+00 
60800 6.1631528146e+00 -6.0585174361e-03 3.1314109097e+00 -5.4237627949e+00 3.1314109097e+00 5.4237627949e+00 
60900 6.1631524198e+00 -6.0093521382e-03 3.1315076480e+00 -5.4239303506e+00 3.1315076480e+00 5.4239303506e+00 
61000 6.1631520338e+00 -5.9606200304e-03 3.1316035983e+00 -5.4240965414e+00 3.1316035983e+00 5.4240965414e+00 
61100 6.1631516564e+00 -5.9123171940e-03 3.1316987676e+00 -5.4242613795e+00 3.1316987676e+00 5.4242613795e+00 
61200 6.1631512875e+00 -5.8644397113e-03 3.1317931628e+00 -5.4244248768e+00 3.1317931628e+00 5.4244248768e+00 
61300 6.1631509269e+00 -5.8169836666e-03 3.1318867908e+00 -5.4245870452e+00 3.1318867908e+00 5.4245870452e+00 
61400 6.1631505744e+00 -5.7699451479e-03 3.1319796583e+00 -5.4247478965e+00 3.1319796583e+00 5.4247478965e+00 
61500 6.1631502298e+00 -5.7233202478e-03 3.1320717721e+00 -5.4249074423e+00 3.1320717721e+00 5.4249074423e+00 
61600 6.1631498931e+00 -5.6771050648e-03 3.1321631390e+00 -5.4250656943e+00 3.1321631390e+00 5.4250656943e+00 
61700 6.1631495640e+00 -5.6312957042e-03 3.1322537653e+00 -5.4252226638e+00 3.1322537653e+00 5.4252226638e+00 
61800 6.1631492425e+00 -5.5858882794e-03 3.1323436578e+00 -5.4253783621e+00 3.1323436578e+00 5.4253783621e+00 
61900 6.1631489283e+00 -5.5408789136e-03 3.1324328229e+00 -5.4255328006e+00 3.1324328229e+00 5.4255328006e+00 
62000 6.1631486213e+00 -5.4962637399e-03 3.1325212671e+00 -5.4256859903e+00 3.1325212671e+00 5.4256859903e+00 
62100 6.1631483214e+00 -5.4520389033e-03 3.1326089965e+00 -5.4258379423e+00 3.1326089965e+00 5.4258379423e+00 
62200 6.1631480284e+00 -5.4082005616e-03 3.1326960177e+00 -5.4259886673e+00 3.1326960177e+00 5.4259886673e+00 
62300 6.1631477422e+00 -5.3647448864e-03 3.1327823367e+00 -5.4261381762e+00 3.1327823367e+00 5.4261381762e+00 
62400 6.1631474627e+00 -5.3216680640e-03 3.1328679598e+00 -5.4262864798e+00 3.1328679598e+00 5.4262864798e+00 
62500 6.1631471898e+00 -5.2789662969e-03 3.1329528930e+00 -5.4264335884e+00 3.1329528930e+00 5.4264335884e+00 
62600 6.1631469232e+00 -5.2366358049e-03 3.1330371424e+00 -5.4265795127e+00 3.1330371424e+00 5.4265795127e+00 
62700 6.1631466629e+00 -5.1946728254e-03 3.1331207141e+00 -5.4267242630e+00 3.1331207141e+00 5.4267242630e+00 
62800 6.1631464088e+00 -5.1530736153e-03 3.1332036138e+00 -5.4268678495e+00 3.1332036138e+00 5.4268678495e+00 
62900 6.1631461608e+00 -5.1118344514e-03 3.1332858474e+00 -5.4270102824e+00 3.1332858474e+00 5.4270102824e+00 
63000 6.1631459186e+00 -5.0709516316e-03 3.1333674208e+00 -5.4271515717e+00 3.1333674208e+00 5.4271515717e+00 
63100 6.1631456823e+00 -5.0304214758e-03 3.1334483398e+00 -5.4272917273e+00 3.1334483398e+00 5.4272917273e+00 
63200 6.1631454517e+00 -4.9902403269e-03 3.1335286098e+00 -5.4274307592e+00 3.1335286098e+00 5.4274307592e+00 
63300 6.1631452266e+00 -4.9504045515e-03 3.1336082367e+00 -5.4275686770e+00 3.1336082367e+00 5.4275686770e+00 
63400 6.1631450071e+00 -4.9109105407e-03 3.1336872259e+00 -5.4277054903e+00 3.1336872259e+00 5.4277054903e+00 
63500 6.1631447928e+00 -4.8717547115e-03 3.1337655830e+00 -5.4278412087e+00 3.1337655830e+00 5.4278412087e+00 
63600 6.1631445839e+00 -4.8329335069e-03 3.1338433134e+00 -5.4279758417e+00 3.1338433134e+00 5.4279758417e+00 
63700 6.1631443801e+00 -4.7944433971e-03 3.1339204224e+00 -5.4281093985e+00 3.1339204224e+00 5.4281093985e+00 
63800 6.1631441814e+00 -4.7562808799e-03 3.1339969155e+00 -5.4282418883e+00 3.1339969155e+00 5.4282418883e+00 
63900 6.1631439876e+00 -4.7184424819e-03 3.1340727978e+00 -5.4283733204e+00 3.1340727978e+00 5.4283733204e+00 
64000 6.1631437987e+00 -4.6809247589e-03 3.1341480746e+00 -5.4285037037e+00 3.1341480746e+00 5.4285037037e+00 
64100 6.1631436145e+00 -4.6437242965e-03 3.1342227511e+00 -5.4286330472e+00 3.1342227511e+00 5.4286330472e+00 
64200 6.1631434351e+00 -4.6068377107e-03 3.1342968324e+00 -5.4287613596e+00 3.1342968324e+00 5.4287613596e+00 
64300 6.1631432602e+00 -4.5702616487e-03 3.1343703234e+00 -5.4288886499e+00 3.1343703234e+00 5.4288886499e+00 
64400 6.1631430898e+00 -4.5339927895e-03 3.1344432293e+00 -5.4290149265e+00 3.1344432293e+00 5.4290149265e+00 
64500 6.1631429238e+00 -4.4980278442e-03 3.1345155549e+00 -5.4291401982e+00 3.1345155549e+00 5.4291401982e+00 
64600 6.1631427621e+00 -4.4623635564e-03 3.1345873051e+00 -5.4292644732e+00 3.1345873051e+00 5.4292644732e+00 
64700 6.1631426046e+00 -4.4269967031e-03 3.1346584848e+00 -5.4293877601e+00 3.1346584848e+00 5.4293877601e+00 
64800 6.1631424513e+00 -4.3919240948e-03 3.1347290988e+00 -5.4295100671e+00 3.1347290988e+00 5.4295100671e+00 
64900 6.1631423021e+00 -4.3571425761e-03 3.1347991518e+00 -5.4296314024e+00 3.1347991518e+00 5.4296314024e+00 
65000 6.1631421569e+00 -4.3226490259e-03 3.1348686484e+00 -5.4297517740e+00 3.1348686484e+00 5.4297517740e+00 
65100 6.1631420155e+00 -4.2884403578e-03 3.1349375933e+00 -5.4298711901e+00 3.1349375933e+00 5.4298711901e+00 
65200 6.1631418780e+00 -4.2545135206e-03 3.1350059911e+00 -5.4299896586e+00 3.1350059911e+00 5.4299896586e+00 
65300 6.1631417443e+00 -4.2208654982e-03 3.1350738463e+00 -5.4301071872e+00 3.1350738463e+00 5.4301071872e+00 
65400 6.1631416142e+00 -4.1874933103e-03 3.1351411633e+00 -5.4302237838e+00 3.1351411633e+00 5.4302237838e+00 
65500 6.1631414878e+00 -4.1543940122e-03 3.1352079468e+00 -5.4303394561e+00 3.1352079468e+00 5.4303394561e+00 
65600 6.1631413649e+00 -4.1215646955e-03 3.1352742009e+00 -5.4304542116e+00 3.1352742009e+00 5.4304542116e+00 
65700 6.1631412454e+00 -4.0890024876e-03 3.1353399300e+00 -5.4305680578e+00 3.1353399300e+00 5.4305680578e+00 
65800 6.1631411294e+00 -4.0567045524e-03 3.1354051385e+00 -5.4306810023e+00 3.1354051385e+00 5.4306810023e+00 
65900 6.1631410167e+00 -4.0246680903e-03 3.1354698306e+00 -5.4307930523e+00 3.1354698306e+00 5.4307930523e+00 
66000 6.1631409073e+00 -3.9928903380e-03 3.1355340105e+00 -5.4309042151e+00 3.1355340105e+00 5.4309042151e+00 
66100 6.1631408011e+00 -3.9613685688e-03 3.1355976824e+00 -5.4310144979e+00 3.1355976824e+00 5.4310144979e+00 
66200 6.1631406980e+00 -3.9301000927e-03 3.1356608502e+00 -5.4311239079e+00 3.1356608502e+00 5.4311239079e+00 
66300 6.1631405980e+00 -3.8990822561e-03 3.1357235183e+00 -5.4312324521e+00 3.1357235183e+00 5.4312324521e+00 
66400 6.1631405010e+00 -3.8683124420e-03 3.1357856904e+00 -5.4313401375e+00 3.1357856904e+00 5.4313401375e+00 
66500 6.1631404069e+00 -3.8377880701e-03 3.1358473708e+00 -5.4314469709e+00 3.1358473708e+00 5.4314469709e+00 
66600 6.1631403158e+00 -3.8075065961e-03 3.1359085632e+00 -5.4315529593e+00 3.1359085632e+00 5.4315529593e+00 
66700 6.1631402275e+00 -3.7774655124e-03 3.1359692715e+00 -5.4316581093e+00 3.1359692715e+00 5.4316581093e+00 
66800 6.1631401420e+00 -3.7476623475e-03 3.1360294998e+00 -5.4317624276e+00 3.1360294998e+00 5.4317624276e+00 
66900 6.1631400592e+00 -3.7180946658e-03 3.1360892517e+00 -5.4318659210e+00 3.1360892517e+00 5.4318659210e+00 
67000 6.1631399791e+00 -3.6887600679e-03 3.1361485310e+00 -5.4319685958e+00 3.1361485310e+00 5.4319685958e+00 
67100 6.1631399017e+00 -3.6596561899e-03 3.1362073416e+00 -5.4320704586e+00 3.1362073416e+00 5.4320704586e+00 
67200 6.1631398268e+00 -3.6307807034e-03 3.1362656870e+00 -5.4321715159e+00 3.1362656870e+00 5.4321715159e+00 
67300 6.1631397544e+00 -3.6021313154e-03 3.1363235710e+00 -5.4322717739e+00 3.1363235710e+00 5.4322717739e+00 
67400 6.1631396844e+00 -3.5737057678e-03 3.1363809972e+00 -5.4323712390e+00 3.1363809972e+00 5.4323712390e+00 
67500 6.1631396169e+00 -3.5455018373e-03 3.1364379692e+00 -5.4324699174e+00 3.1364379692e+00 5.4324699174e+00 
67600 6.1631395518e+00 -3.5175173352e-03 3.1364944905e+00 -5.4325678152e+00 3.1364944905e+00 5.4325678152e+00 
67700 6.1631394890e+00 -3.4897501067e-03 3.1365505647e+00 -5.4326649385e+00 3.1365505647e+00 5.4326649385e+00 
67800 6.1631394285e+00 -3.4621980313e-03 3.1366061952e+00 -5.4327612934e+00 3.1366061952e+00 5.4327612934e+00 
67900 6.1631393701e+00 -3.4348590216e-03 3.1366613856e+00 -5.4328568859e+00 3.1366613856e+00 5.4328568859e+00 
68000 6.1631393140e+00 -3.4077310237e-03 3.1367161392e+00 -5.4329517219e+00 3.1367161392e+00 5.4329517219e+00 
68100 6.1631392600e+00 -3.3808120163e-03 3.1367704593e+00 -5.4330458073e+00 3.1367704593e+00 5.4330458073e+00 
68200 6.1631392081e+00 -3.3541000109e-03 3.1368243495e+00 -5.4331391478e+00 3.1368243495e+00 5.4331391478e+00 
68300 6.1631391583e+00 -3.3275930507e-03 3.1368778130e+00 -5.4332317492e+00 3.1368778130e+00 5.4332317492e+00 
68400 6.1631391105e+00 -3.3012892109e-03 3.1369308530e+00 -5.4333236172e+00 3.1369308530e+00 5.4333236172e+00 
68500 6.1631390646e+00 -3.2751865976e-03 3.1369834729e+00 -5.4334147576e+00 3.1369834729e+00 5.4334147576e+00 
68600 6.1631390207e+00 -3.2492833481e-03 3.1370356758e+00 -5.4335051757e+00 3.1370356758e+00 5.4335051757e+00 
68700 6.1631389787e+00 -3.2235776301e-03 3.1370874651e+00 -5.4335948773e+00 3.1370874651e+00 5.4335948773e+00 
68800 6.1631389385e+00 -3.1980676410e-03 3.1371388437e+00 -5.4336838677e+00 3.1371388437e+00 5.4336838677e+00 
68900 6.1631389001e+00 -3.1727516081e-03 3.1371898149e+00 -5.4337721525e+00 3.1371898149e+00 5.4337721525e+00 
69000 6.1631388635e+00 -3.1476277875e-03 3.1372403818e+00 -5.4338597369e+00 3.1372403818e+00 5.4338597369e+00 
69100 6.1631388287e+00 -3.1226944640e-03 3.1372905475e+00 -5.4339466264e+00 3.1372905475e+00 5.4339466264e+00 
69200 6.1631387956e+00 -3.0979499508e-03 3.1373403150e+00 -5.4340328263e+00 3.1373403150e+00 5.4340328263e+00 
69300 6.1631387641e+00 -3.0733925884e-03 3.1373896874e+00 -5.4341183417e+00 3.1373896874e+00 5.4341183417e+00 
69400 6.1631387342e+00 -3.0490207448e-03 3.1374386676e+00 -5.4342031779e+00 3.1374386676e+00 5.4342031779e+00 
69500 6.1631387060e+00 -3.0248328146e-03 3.1374872587e+00 -5.4342873401e+00 3.1374872587e+00 5.4342873401e+00 
69600 6.1631386793e+00 -3.0008272187e-03 3.1375354635e+00 -5.4343708333e+00 3.1375354635e+00 5.4343708333e+00 
69700 6.1631386542e+00 -2.9770024038e-03 3.1375832850e+00 -5.4344536626e+00 3.1375832850e+00 5.4344536626e+00 
69800 6.1631386305e+00 -2.9533568416e-03 3.1376307262e+00 -5.4345358331e+00 3.1376307262e+00 5.4345358331e+00 
69900 6.1631386083e+00 -2.9298890288e-03 3.1376777898e+00 -5.4346173496e+00 3.1376777898e+00 5.4346173496e+00 
70000 6.1631385876e+00 -2.9065974864e-03 3.1377244787e+00 -5.4346982172e+00 3.1377244787e+00 5.4346982172e+00 
70100 6.1631385682e+00 -2.8834807590e-03 3.1377707958e+00 -5.4347784408e+00 3.1377707958e+00 5.4347784408e+00 
70200 6.1631385503e+00 -2.8605374145e-03 3.1378167438e+00 -5.4348580251e+00 3.1378167438e+00 5.4348580251e+00 
70300 6.1631385337e+00 -2.8377660438e-03 3.1378623256e+00 -5.4349369750e+00 3.1378623256e+00 5.4349369750e+00 
70400 6.1631385184e+00 -2.8151652598e-03 3.1379075438e+00 -5.4350152953e+00 3.1379075438e+00 5.4350152953e+00 
70500 6.1631385044e+00 -2.7927336973e-03 3.1379524013e+00 -5.4350929907e+00 3.1379524013e+00 5.4350929907e+00 
70600 6.1631384916e+00 -2.7704700124e-03 3.1379969007e+00 -5.4351700660e+00 3.1379969007e+00 5.4351700660e+00 
70700 6.1631384801e+00 -2.7483728819e-03 3.1380410447e+00 -5.4352465257e+00 3.1380410447e+00 5.4352465257e+00 
70800 6.1631384698e+00 -2.7264410030e-03 3.1380848360e+00 -5.4353223745e+00 3.1380848360e+00 5.4353223745e+00 
70900 6.1631384607e+00 -2.7046730927e-03 3.1381282773e+00 -5.4353976169e+00 3.1381282773e+00 5.4353976169e+00 
71000 6.1631384527e+00 -2.6830678874e-03 3.1381713711e+00 -5.4354722576e+00 3.1381713711e+00 5.4354722576e+00 
71100 6.1631384459e+00 -2.6616241421e-03 3.1382141201e+00 -5.4355463011e+00 3.1382141201e+00 5.4355463011e+00 
71200 6.1631384402e+00 -2.6403406304e-03 3.1382565269e+00 -5.4356197518e+00 3.1382565269e+00 5.4356197518e+00 
71300 6.1631384355e+00 -2.6192161438e-03 3.1382985940e+00 -5.4356926141e+00 3.1382985940e+00 5.4356926141e+00 
71400 6.1631384319e+00 -2.5982494911e-03 3.1383403240e+00 -5.4357648925e+00 3.1383403240e+00 5.4357648925e+00 
71500 6.1631384293e+00 -2.5774394981e-03 3.1383817193e+00 -5.4358365914e+00 3.1383817193e+00 5.4358365914e+00 
71600 6.1631384278e+00 -2.5567850072e-03 3.1384227826e+00 -5.4359077151e+00 3.1384227826e+00 5.4359077151e+00 
71700 6.1631384272e+00 -2.5362848768e-03 3.1384635163e+00 -5.4359782679e+00 3.1384635163e+00 5.4359782679e+00 
71800 6.1631384276e+00 -2.5159379809e-03 3.1385039229e+00 -5.4360482541e+00 3.1385039229e+00 5.4360482541e+00 
71900 6.1631384289e+00 -2.4957432086e-03 3.1385440047e+00 -5.4361176780e+00 3.1385440047e+00 5.4361176780e+00 
72000 6.1631384312e+00 -2.4756994640e-03 3.1385837644e+00 -5.4361865437e+00 3.1385837644e+00 5.4361865437e+00 
72100 6.1631384343e+00 -2.4558056651e-03 3.1386232042e+00 -5.4362548555e+00 3.1386232042e+00 5.4362548555e+00 
72200 6.1631384383e+00 -2.4360607441e-03 3.1386623267e+00 -5.4363226176e+00 3.1386623267e+00 5.4363226176e+00 
72300 6.1631384432e+00 -2.4164636466e-03 3.1387011340e+00 -5.4363898339e+00 3.1387011340e+00 5.4363898339e+00 
72400 6.1631384489e+00 -2.3970133311e-03 3.1387396288e+00 -5.4364565087e+00 3.1387396288e+00 5.4364565087e+00 
72500 6.1631384554e+00 -2.3777087691e-03 3.1387778132e+00 -5.4365226461e+00 3.1387778132e+00 5.4365226461e+00 
72600 6.1631384627e+00 -2.3585489441e-03 3.1388156896e+00 -5.4365882500e+00 3.1388156896e+00 5.4365882500e+00 
72700 6.1631384708e+00 -2.3395328516e-03 3.1388532603e+00 -5.4366533244e+00 3.1388532603e+00 5.4366533244e+00 
72800 6.1631384797e+00 -2.3206594985e-03 3.1388905277e+00 -5.4367178734e+00 3.1388905277e+00 5.4367178734e+00 
72900 6.1631384893e+00 -2.3019279031e-03 3.1389274941e+00 -5.4367819010e+00 3.1389274941e+00 5.4367819010e+00 
73000 6.1631384996e+00 -2.2833370941e-03 3.1389641616e+00 -5.4368454109e+00 3.1389641616e+00 5.4368454109e+00 
73100 6.1631385106e+00 -2.2648861110e-03 3.1390005325e+00 -5.4369084073e+00 3.1390005325e+00 5.4369084073e+00 
73200 6.1631385223e+00 -2.2465740032e-03 3.1390366091e+00 -5.4369708938e+00 3.1390366091e+00 5.4369708938e+00 
73300 6.1631385347e+00 -2.2283998299e-03 3.1390723936e+00 -5.4370328744e+00 3.1390723936e+00 5.4370328744e+00 
73400 6.1631385477e+00 -2.2103626598e-03 3.1391078883e+00 -5.4370943529e+00 3.1391078883e+00 5.4370943529e+00 
73500 6.1631385614e+00 -2.1924615705e-03 3.1391430952e+00 -5.4371553331e+00 3.1391430952e+00 5.4371553331e+00 
73600 6.1631385756e+00 -2.1746956487e-03 3.1391780166e+00 -5.4372158187e+00 3.1391780166e+00 5.4372158187e+00 
73700 6.1631385905e+00 -2.1570639893e-03 3.1392126546e+00 -5.4372758136e+00 3.1392126546e+00 5.4372758136e+00 
73800 6.1631386060e+00 -2.1395656955e-03 3.1392470115e+00 -5.4373353213e+00 3.1392470115e+00 5.4373353213e+00 
73900 6.1631386220e+00 -2.1221998786e-03 3.1392810892e+00 -5.4373943457e+00 3.1392810892e+00 5.4373943457e+00 
74000 6.1631386386e+00 -2.1049656573e-03 3.1393148900e+00 -5.4374528904e+00 3.1393148900e+00 5.4374528904e+00 
74100 6.1631386557e+00 -2.0878621577e-03 3.1393484159e+00 -5.4375109591e+00 3.1393484159e+00 5.4375109591e+00 
74200 6.1631386734e+00 -2.0708885133e-03 3.1393816691e+00 -5.4375685552e+00 3.1393816691e+00 5.4375685552e+00 
74300 6.1631386916e+00 -2.0540438641e-03 3.1394146516e+00 -5.4376256826e+00 3.1394146516e+00 5.4376256826e+00 
74400 6.1631387102e+00 -2.0373273569e-03 3.1394473654e+00 -5.4376823446e+00 3.1394473654e+00 5.4376823446e+00 
74500 6.1631387294e+00 -2.0207381448e-03 3.1394798127e+00 -5.4377385450e+00 3.1394798127e+00 5.4377385450e+00 
74600 6.1631387490e+00 -2.0042753872e-03 3.1395119955e+00 -5.4377942871e+00 3.1395119955e+00 5.4377942871e+00 
74700 6.1631387691e+00 -1.9879382494e-03 3.1395439157e+00 -5.4378495746e+00 3.1395439157e+00 5.4378495746e+00 
74800 6.1631387896e+00 -1.9717259023e-03 3.1395755754e+00 -5.4379044108e+00 3.1395755754e+00 5.4379044108e+00 
74900 6.1631388106e+00 -1.9556375225e-03 3.1396069766e+00 -5.4379587993e+00 3.1396069766e+00 5.4379587993e+00 
75000 6.1631388319e+00 -1.9396722918e-03 3.1396381213e+00 -5.4380127435e+00 3.1396381213e+00 5.4380127435e+00 
75100 6.1631388537e+00 -1.9238293972e-03 3.1396690114e+00 -5.4380662467e+00 3.1396690114e+00 5.4380662467e+00 
75200 6.1631388759e+00 -1.9081080308e-03 3.1396996489e+00 -5.4381193124e+00 3.1396996489e+00 5.4381193124e+00 
75300 6.1631388984e+00 -1.8925073893e-03 3.1397300358e+00 -5.4381719440e+00 3.1397300358e+00 5.4381719440e+00 
75400 6.1631389214e+00 -1.8770266743e-03 3.1397601739e+00 -5.4382241447e+00 3.1397601739e+00 5.4382241447e+00 
75500 6.1631389446e+00 -1.8616650915e-03 3.1397900652e+00 -5.4382759180e+00 3.1397900652e+00 5.4382759180e+00 
75600 6.1631389683e+00 -1.8464218512e-03 3.1398197115e+00 -5.4383272670e+00 3.1398197115e+00 5.4383272670e+00 
75700 6.1631389922e+00 -1.8312961680e-03 3.1398491149e+00 -5.4383781951e+00 3.1398491149e+00 5.4383781951e+00 
75800 6.1631390165e+00 -1.8162872604e-03 3.1398782771e+00 -5.4384287055e+00 3.1398782771e+00 5.4384287055e+00 
75900 6.1631390411e+00 -1.8013943507e-03 3.1399072000e+00 -5.4384788015e+00 3.1399072000e+00 5.4384788015e+00 
76000 6.1631390660e+00 -1.7866166653e-03 3.1399358856e+00 -5.4385284863e+00 3.1399358856e+00 5.4385284863e+00 
76100 6.1631390912e+00 -1.7719534341e-03 3.1399643355e+00 -5.4385777630e+00 3.1399643355e+00 5.4385777630e+00 
76200 6.1631391167e+00 -1.7574038906e-03 3.1399925517e+00 -5.4386266349e+00 3.1399925517e+00 5.4386266349e+00 
76300 6.1631391425e+00 -1.7429672721e-03 3.1400205359e+00 -5.4386751050e+00 3.1400205359e+00 5.4386751050e+00 
76400 6.1631391685e+00 -1.7286428188e-03 3.1400482900e+00 -5.4387231766e+00 3.1400482900e+00 5.4387231766e+00 
76500 6.1631391948e+00 -1.7144297746e-03 3.1400758158e+00 -5.4387708526e+00 3.1400758158e+00 5.4387708526e+00 
76600 6.1631392213e+00 -1.7003273864e-03 3.1401031150e+00 -5.4388181362e+00 3.1401031150e+00 5.4388181362e+00 
76700 6.1631392480e+00 -1.6863349045e-03 3.1401301895e+00 -5.4388650305e+00 3.1401301895e+00 5.4388650305e+00 
76800 6.1631392750e+00 -1.6724515819e-03 3.1401570409e+00 -5.4389115385e+00 3.1401570409e+00 5.4389115385e+00 
76900 6.1631393022e+00 -1.6586766750e-03 3.1401836710e+00 -5.4389576632e+00 3.1401836710e+00 5.4389576632e+00 
77000 6.1631393296e+00 -1.6450094430e-03 3.1402100815e+00 -5.4390034076e+00 3.1402100815e+00 5.4390034076e+00 
77100 6.1631393572e+00 -1.6314491479e-03 3.1402362742e+00 -5.4390487747e+00 3.1402362742e+00 5.4390487747e+00 
77200 6.1631393850e+00 -1.6179950547e-03 3.1402622508e+00 -5.4390937674e+00 3.1402622508e+00 5.4390937674e+00 
77300 6.1631394130e+00 -1.6046464311e-03 3.1402880129e+00 -5.4391383887e+00 3.1402880129e+00 5.4391383887e+00 
77400 6.1631394411e+00 -1.5914025476e-03 3.1403135623e+00 -5.4391826416e+00 3.1403135623e+00 5.4391826416e+00 
77500 6.1631394694e+00 -1.5782626774e-03 3.1403389006e+00 -5.4392265288e+00 3.1403389006e+00 5.4392265288e+00 
77600 6.1631394979e+00 -1.5652260965e-03 3.1403640295e+00 -5.4392700533e+00 3.1403640295e+00 5.4392700533e+00 
77700 6.1631395265e+00 -1.5522920834e-03 3.1403889506e+00 -5.4393132180e+00 3.1403889506e+00 5.4393132180e+00 
77800 6.1631395553e+00 -1.5394599193e-03 3.1404136656e+00 -5.4393560256e+00 3.1404136656e+00 5.4393560256e+00 
77900 6.1631395842e+00 -1.5267288882e-03 3.1404381761e+00 -5.4393984791e+00 3.1404381761e+00 5.4393984791e+00 
78000 6.1631396133e+00 -1.5140982764e-03 3.1404624837e+00 -5.4394405811e+00 3.1404624837e+00 5.4394405811e+00 
78100 6.1631396424e+00 -1.5015673730e-03 3.1404865900e+00 -5.4394823344e+00 3.1404865900e+00 5.4394823344e+00 
78200 6.1631396717e+00 -1.4891354696e-03 3.1405104967e+00 -5.4395237420e+00 3.1405104967e+00 5.4395237420e+00 
78300 6.1631397011e+00 -1.4768018605e-03 3.1405342052e+00 -5.4395648063e+00 3.1405342052e+00 5.4395648063e+00 
78400 6.1631397306e+00 -1.4645658423e-03 3.1405577172e+00 -5.4396055303e+00 3.1405577172e+00 5.4396055303e+00 
78500 6.1631397602e+00 -1.4524267145e-03 3.1405810342e+00 -5.4396459165e+00 3.1405810342e+00 5.4396459165e+00 
78600 6.1631397898e+00 -1.4403837789e-03 3.1406041577e+00 -5.4396859677e+00 3.1406041577e+00 5.4396859677e+00 
78700 6.1631398196e+00 -1.4284363401e-03 3.1406270894e+00 -5.4397256865e+00 3.1406270894e+00 5.4397256865e+00 
78800 6.1631398494e+00 -1.4165837051e-03 3.1406498307e+00 -5.4397650756e+00 3.1406498307e+00 5.4397650756e+00 
78900 6.1631398793e+00 -1.4048251838e-03 3.1406723831e+00 -5.4398041375e+00 3.1406723831e+00 5.4398041375e+00 
79000 6.1631399093e+00 -1.3931600883e-03 3.1406947482e+00 -5.4398428749e+00 3.1406947482e+00 5.4398428749e+00 
79100 6.1631399393e+00 -1.3815877336e-03 3.1407169274e+00 -5.4398812904e+00 3.1407169274e+00 5.4398812904e+00 
79200 6.1631399694e+00 -1.3701074374e-03 3.1407389222e+00 -5.4399193865e+00 3.1407389222e+00 5.4399193865e+00 
79300 6.1631399995e+00 -1.3587185198e-03 3.1407607341e+00 -5.4399571659e+00 3.1407607341e+00 5.4399571659e+00 
79400 6.1631400297e+00 -1.3474203039e-03 3.1407823645e+00 -5.4399946309e+00 3.1407823645e+00 5.4399946309e+00 
79500 6.1631400599e+00 -1.3362121151e-03 3.1408038149e+00 -5.4400317841e+00 3.1408038149e+00 5.4400317841e+00 
79600 6.1631400901e+00 -1.3250932821e-03 3.1408250868e+00 -5.4400686280e+00 3.1408250868e+00 5.4400686280e+00 
79700 6.1631401204e+00 -1.3140631357e-03 3.1408461815e+00 -5.4401051651e+00 3.1408461815e+00 5.4401051651e+00 
79800 6.1631401507e+00 -1.3031210100e-03 3.1408671004e+00 -5.4401413978e+00 3.1408671004e+00 5.4401413978e+00 
79900 6.1631401810e+00 -1.2922662417e-03 3.1408878451e+00 -5.4401773285e+00 3.1408878451e+00 5.4401773285e+00 
80000 6.1631402113e+00 -1.2814981703e-03 3.1409084167e+00 -5.4402129597e+00 3.1409084167e+00 5.4402129597e+00 
80100 6.1631402416e+00 -1.2708161383e-03 3.1409288169e+00 -5.4402482938e+00 3.1409288169e+00 5.4402482938e+00 
80200 6.1631402719e+00 -1.2602194909e-03 3.1409490469e+00 -5.4402833331e+00 3.1409490469e+00 5.4402833331e+00 
80300 6.1631403023e+00 -1.2497075765e-03 3.1409691080e+00 -5.4403180801e+00 3.1409691080e+00 5.4403180801e+00 
80400 6.1631403326e+00 -1.2392797462e-03 3.1409890017e+00 -5.4403525369e+00 3.1409890017e+00 5.4403525369e+00 
80500 6.1631403629e+00 -1.2289353541e-03 3.1410087292e+00 -5.4403867061e+00 3.1410087292e+00 5.4403867061e+00 
80600 6.1631403932e+00 -1.2186737576e-03 3.1410282920e+00 -5.4404205898e+00 3.1410282920e+00 5.4404205898e+00 
80700 6.1631404235e+00 -1.2084943169e-03 3.1410476913e+00 -5.4404541903e+00 3.1410476913e+00 5.4404541903e+00 
80800 6.1631404537e+00 -1.1983963953e-03 3.1410669285e+00 -5.4404875101e+00 3.1410669285e+00 5.4404875101e+00 
80900 6.1631404839e+00 -1.1883793593e-03 3.1410860047e+00 -5.4405205511e+00 3.1410860047e+00 5.4405205511e+00 
81000 6.1631405141e+00 -1.1784425786e-03 3.1411049215e+00 -5.4405533159e+00 3.1411049215e+00 5.4405533159e+00 
81100 6.1631405443e+00 -1.1685854258e-03 3.1411236799e+00 -5.4405858064e+00 3.1411236799e+00 5.4405858064e+00 
81200 6.1631405744e+00 -1.1588072772e-03 3.1411422813e+00 -5.4406180250e+00 3.1411422813e+00 5.4406180250e+00 
81300 6.1631406045e+00 -1.1491075119e-03 3.1411607269e+00 -5.4406499738e+00 3.1411607269e+00 5.4406499738e+00 
81400 6.1631406345e+00 -1.1394855126e-03 3.1411790181e+00 -5.4406816550e+00 3.1411790181e+00 5.4406816550e+00 
81500 6.1631406645e+00 -1.1299406650e-03 3.1411971560e+00 -5.4407130707e+00 3.1411971560e+00 5.4407130707e+00 
81600 6.1631406945e+00 -1.1204723585e-03 3.1412151418e+00 -5.4407442231e+00 3.1412151418e+00 5.4407442231e+00 
81700 6.1631407243e+00 -1.1110799856e-03 3.1412329768e+00 -5.4407751143e+00 3.1412329768e+00 5.4407751143e+00 
81800 6.1631407542e+00 -1.1017629424e-03 3.1412506623e+00 -5.4408057464e+00 3.1412506623e+00 5.4408057464e+00 
81900 6.1631407839e+00 -1.0925206284e-03 3.1412681993e+00 -5.4408361214e+00 3.1412681993e+00 5.4408361214e+00 
82000 6.1631408136e+00 -1.0833524464e-03 3.1412855891e+00 -5.4408662414e+00 3.1412855891e+00 5.4408662414e+00 
82100 6.1631408433e+00 -1.0742578028e-03 3.1413028329e+00 -5.4408961086e+00 3.1413028329e+00 5.4408961086e+00 
82200 6.1631408728e+00 -1.0652361078e-03 3.1413199318e+00 -5.4409257248e+00 3.1413199318e+00 5.4409257248e+00 
82300 6.1631409023e+00 -1.0562867746e-03 3.1413368871e+00 -5.4409550921e+00 3.1413368871e+00 5.4409550921e+00 
82400 6.1631409317e+00 -1.0474092206e-03 3.1413536998e+00 -5.4409842126e+00 3.1413536998e+00 5.4409842126e+00 
82500 6.1631409611e+00 -1.0386028663e-03 3.1413703711e+00 -5.4410130882e+00 3.1413703711e+00 5.4410130882e+00 
82600 6.1631409903e+00 -1.0298671361e-03 3.1413869022e+00 -5.4410417208e+00 3.1413869022e+00 5.4410417208e+00 
82700 6.1631410195e+00 -1.0212014581e-03 3.1414032941e+00 -5.4410701125e+00 3.1414032941e+00 5.4410701125e+00 
82800 6.1631410486e+00 -1.0126052638e-03 3.1414195480e+00 -5.4410982651e+00 3.1414195480e+00 5.4410982651e+00 
82900 6.1631410776e+00 -1.0040779887e-03 3.1414356651e+00 -5.4411261806e+00 3.1414356651e+00 5.4411261806e+00 
83000 6.1631411065e+00 -9.9561907198e-04 3.1414516463e+00 -5.4411538608e+00 3.1414516463e+00 5.4411538608e+00 
83100 6.1631411353e+00 -9.8722795637e-04 3.1414674928e+00 -5.4411813078e+00 3.1414674928e+00 5.4411813078e+00 
83200 6.1631411640e+00 -9.7890408856e-04 3.1414832056e+00 -5.4412085232e+00 3.1414832056e+00 5.4412085232e+00 
83300 6.1631411926e+00 -9.7064691896e-04 3.1414987859e+00 -5.4412355091e+00 3.1414987859e+00 5.4412355091e+00 
83400 6.1631412212e+00 -9.6245590179e-04 3.1415142347e+00 -5.4412622672e+00 3.1415142347e+00 5.4412622672e+00 
83500 6.1631412496e+00 -9.5433049510e-04 3.1415295531e+00 -5.4412887994e+00 3.1415295531e+00 5.4412887994e+00 
83600 6.1631412779e+00 -9.4627016075e-04 3.1415447420e+00 -5.4413151074e+00 3.1415447420e+00 5.4413151074e+00 
83700 6.1631413061e+00 -9.3827436446e-04 3.1415598026e+00 -5.4413411932e+00 3.1415598026e+00 5.4413411932e+00 
83800 6.1631413342e+00 -9.3034257583e-04 3.1415747359e+00 -5.4413670583e+00 3.1415747359e+00 5.4413670583e+00 
83900 6.1631413622e+00 -9.2247426832e-04 3.1415895429e+00 -5.4413927047e+00 3.1415895429e+00 5.4413927047e+00 
84000 6.1631413901e+00 -9.1466891927e-04 3.1416042245e+00 -5.4414181341e+00 3.1416042245e+00 5.4414181341e+00 
84100 6.1631414179e+00 -9.0692600993e-04 3.1416187819e+00 -5.4414433482e+00 3.1416187819e+00 5.4414433482e+00 
84200 6.1631414456e+00 -8.9924502544e-04 3.1416332159e+00 -5.4414683488e+00 3.1416332159e+00 5.4414683488e+00 
84300 6.1631414731e+00 -8.9162545487e-04 3.1416475277e+00 -5.4414931374e+00 3.1416475277e+00 5.4414931374e+00 
84400 6.1631415005e+00 -8.8406679118e-04 3.1416617181e+00 -5.4415177160e+00 3.1416617181e+00 5.4415177160e+00 
84500 6.1631415279e+00 -8.7656853129e-04 3.1416757882e+00 -5.4415420860e+00 3.1416757882e+00 5.4415420860e+00 
84600 6.1631415551e+00 -8.6913017601e-04 3.1416897388e+00 -5.4415662493e+00 3.1416897388e+00 5.4415662493e+00 
84700 6.1631415821e+00 -8.6175123011e-04 3.1417035711e+00 -5.4415902074e+00 3.1417035711e+00 5.4415902074e+00 
84800 6.1631416091e+00 -8.5443120228e-04 3.1417172858e+00 -5.4416139620e+00 3.1417172858e+00 5.4416139620e+00 
84900 6.1631416359e+00 -8.4716960515e-04 3.1417308840e+00 -5.4416375147e+00 3.1417308840e+00 5.4416375147e+00 
85000 6.1631416626e+00 -8.3996595527e-04 3.1417443665e+00 -5.4416608672e+00 3.1417443665e+00 5.4416608672e+00 
85100 6.1631416892e+00 -8.3281977314e-04 3.1417577343e+00 -5.4416840209e+00 3.1417577343e+00 5.4416840209e+00 
85200 6.1631417156e+00 -8.2573058319e-04 3.1417709884e+00 -5.4417069776e+00 3.1417709884e+00 5.4417069776e+00 
85300 6.1631417419e+00 -8.1869791374e-04 3.1417841296e+00 -5.4417297388e+00 3.1417841296e+00 5.4417297388e+00 
85400 6.1631417681e+00 -8.1172129708e-04 3.1417971588e+00 -5.4417523060e+00 3.1417971588e+00 5.4417523060e+00 
85500 6.1631417942e+00 -8.0480026940e-04 3.1418100769e+00 -5.4417746809e+00 3.1418100769e+00 5.4417746809e+00 
85600 6.1631418201e+00 -7.9793437078e-04 3.1418228848e+00 -5.4417968648e+00 3.1418228848e+00 5.4417968648e+00 
85700 6.1631418459e+00 -7.9112314522e-04 3.1418355834e+00 -5.4418188594e+00 3.1418355834e+00 5.4418188594e+00 
85800 6.1631418716e+00 -7.8436614061e-04 3.1418481735e+00 -5.4418406662e+00 3.1418481735e+00 5.4418406662e+00 
85900 6.1631418971e+00 -7.7766290873e-04 3.1418606561e+00 -5.4418622867e+00 3.1418606561e+00 5.4418622867e+00 
86000 6.1631419225e+00 -7.7101300522e-04 3.1418730319e+00 -5.4418837223e+00 3.1418730319e+00 5.4418837223e+00 
86100 6.1631419478e+00 -7.6441598960e-04 3.1418853019e+00 -5.4419049745e+00 3.1418853019e+00 5.4419049745e+00 
86200 6.1631419729e+00 -7.5787142521e-04 3.1418974668e+00 -5.4419260447e+00 3.1418974668e+00 5.4419260447e+00 
86300 6.1631419978e+00 -7.5137887925e-04 3.1419095276e+00 -5.4419469345e+00 3.1419095276e+00 5.4419469345e+00 
86400 6.1631420227e+00 -7.4493792275e-04 3.1419214849e+00 -5.4419676453e+00 3.1419214849e+00 5.4419676453e+00 
86500 6.1631420474e+00 -7.3854813051e-04 3.1419333398e+00 -5.4419881785e+00 3.1419333398e+00 5.4419881785e+00 
86600 6.1631420720e+00 -7.3220908115e-04 3.1419450929e+00 -5.4420085354e+00 3.1419450929e+00 5.4420085354e+00 
86700 6.1631420964e+00 -7.2592035707e-04 3.1419567450e+00 -5.4420287176e+00 3.1419567450e+00 5.4420287176e+00 
86800 6.1631421207e+00 -7.1968154440e-04 3.1419682971e+00 -5.4420487263e+00 3.1419682971e+00 5.4420487263e+00 
86900 6.1631421448e+00 -7.1349223303e-04 3.1419797498e+00 -5.4420685630e+00 3.1419797498e+00 5.4420685630e+00 
87000 6.1631421688e+00 -7.0735201655e-04 3.1419911040e+00 -5.4420882290e+00 3.1419911040e+00 5.4420882290e+00 
87100 6.1631421927e+00 -7.0126049227e-04 3.1420023604e+00 -5.4421077258e+00 3.1420023604e+00 5.4421077258e+00 
87200 6.1631422164e+00 -6.9521726117e-04 3.1420135199e+00 -5.4421270545e+00 3.1420135199e+00 5.4421270545e+00 
87300 6.1631422400e+00 -6.8922192788e-04 3.1420245831e+00 -5.4421462166e+00 3.1420245831e+00 5.4421462166e+00 
87400 6.1631422634e+00 -6.8327410069e-04 3.1420355509e+00 -5.4421652134e+00 3.1420355509e+00 5.4421652134e+00 
87500 6.1631422867e+00 -6.7737339148e-04 3.1420464241e+00 -5.4421840462e+00 3.1420464241e+00 5.4421840462e+00 
87600 6.1631423098e+00 -6.7151941572e-04 3.1420572032e+00 -5.4422027163e+00 3.1420572032e+00 5.4422027163e+00 
87700 6.1631423328e+00 -6.6571179247e-04 3.1420678892e+00 -5.4422212250e+00 3.1420678892e+00 5.4422212250e+00 
87800 6.1631423557e+00 -6.5995014431e-04 3.1420784828e+00 -5.4422395735e+00 3.1420784828e+00 5.4422395735e+00 
87900 6.1631423784e+00 -6.5423409735e-04 3.1420889846e+00 -5.4422577632e+00 3.1420889846e+00 5.4422577632e+00 
88000 6.1631424009e+00 -6.4856328119e-04 3.1420993954e+00 -5.4422757953e+00 3.1420993954e+00 5.4422757953e+00 
88100 6.1631424234e+00 -6.4293732890e-04 3.1421097159e+00 -5.4422936710e+00 3.1421097159e+00 5.4422936710e+00 
88200 6.1631424456e+00 -6.3735587699e-04 3.1421199469e+00 -5.4423113916e+00 3.1421199469e+00 5.4423113916e+00 
88300 6.1631424678e+00 -6.3181856538e-04 3.1421300891e+00 -5.4423289583e+00 3.1421300891e+00 5.4423289583e+00 
88400 6.1631424897e+00 -6.2632503738e-04 3.1421401431e+00 -5.4423463723e+00 3.1421401431e+00 5.4423463723e+00 
88500 6.1631425116e+00 -6.2087493967e-04 3.1421501096e+00 -5.4423636348e+00 3.1421501096e+00 5.4423636348e+00 
88600 6.1631425333e+00 -6.1546792224e-04 3.1421599894e+00 -5.4423807471e+00 3.1421599894e+00 5.4423807471e+00 
88700 6.1631425548e+00 -6.1010363841e-04 3.1421697831e+00 -5.4423977103e+00 3.1421697831e+00 5.4423977103e+00 
88800 6.1631425762e+00 -6.0478174476e-04 3.1421794914e+00 -5.4424145256e+00 3.1421794914e+00 5.4424145256e+00 
88900 6.1631425975e+00 -5.9950190111e-04 3.1421891150e+00 -5.4424311942e+00 3.1421891150e+00 5.4424311942e+00 
89000 6.1631426186e+00 -5.9426377051e-04 3.1421986546e+00 -5.4424477172e+00 3.1421986546e+00 5.4424477172e+00 
89100 6.1631426395e+00 -5.8906701921e-04 3.1422081108e+00 -5.4424640958e+00 3.1422081108e+00 5.4424640958e+00 
89200 6.1631426604e+00 -5.8391131659e-04 3.1422174842e+00 -5.4424803311e+00 3.1422174842e+00 5.4424803311e+00 
89300 6.1631426810e+00 -5.7879633518e-04 3.1422267756e+00 -5.4424964243e+00 3.1422267756e+00 5.4424964243e+00 
89400 6.1631427015e+00 -5.7372175060e-04 3.1422359856e+00 -5.4425123764e+00 3.1422359856e+00 5.4425123764e+00 
89500 6.1631427219e+00 -5.6868724154e-04 3.1422451148e+00 -5.4425281887e+00 3.1422451148e+00 5.4425281887e+00 
89600 6.1631427422e+00 -5.6369248975e-04 3.1422541639e+00 -5.4425438621e+00 3.1422541639e+00 5.4425438621e+00 
89700 6.1631427623e+00 -5.5873717994e-04 3.1422631334e+00 -5.4425593978e+00 3.1422631334e+00 5.4425593978e+00 
89800 6.1631427822e+00 -5.5382099984e-04 3.1422720241e+00 -5.4425747970e+00 3.1422720241e+00 5.4425747970e+00 
89900 6.1631428020e+00 -5.4894364012e-04 3.1422808365e+00 -5.4425900605e+00 3.1422808365e+00 5.4425900605e+00 
90000 6.1631428217e+00 -5.4410479435e-04 3.1422895713e+00 -5.4426051897e+00 3.1422895713e+00 5.4426051897e+00 
90100 6.1631428412e+00 -5.3930415901e-04 3.1422982291e+00 -5.4426201854e+00 3.1422982291e+00 5.4426201854e+00 
90200 6.1631428605e+00 -5.3454143340e-04 3.1423068105e+00 -5.4426350487e+00 3.1423068105e+00 5.4426350487e+00 
90300 6.1631428798e+00 -5.2981631967e-04 3.1423153161e+00 -5.4426497808e+00 3.1423153161e+00 5.4426497808e+00 
90400 6.1631428988e+00 -5.2512852276e-04 3.1423237464e+00 -5.4426643826e+00 3.1423237464e+00 5.4426643826e+00 
90500 6.1631429178e+00 -5.2047775037e-04 3.1423321021e+00 -5.4426788552e+00 3.1423321021e+00 5.4426788552e+00 
90600 6.1631429366e+00 -5.1586371293e-04 3.1423403839e+00 -5.4426931995e+00 3.1423403839e+00 5.4426931995e+00 
90700 6.1631429552e+00 -5.1128612356e-04 3.1423485921e+00 -5.4427074167e+00 3.1423485921e+00 5.4427074167e+00 
90800 6.1631429737e+00 -5.0674469808e-04 3.1423567276e+00 -5.4427215076e+00 3.1423567276e+00 5.4427215076e+00 
90900 6.1631429921e+00 -5.0223915492e-04 3.1423647907e+00 -5.4427354734e+00 3.1423647907e+00 5.4427354734e+00 
91000 6.1631430103e+00 -4.9776921513e-04 3.1423727821e+00 -5.4427493149e+00 3.1423727821e+00 5.4427493149e+00 
91100 6.1631430284e+00 -4.9333460233e-04 3.1423807024e+00 -5.4427630333e+00 3.1423807024e+00 5.4427630333e+00 
91200 6.1631430464e+00 -4.8893504269e-04 3.1423885521e+00 -5.4427766293e+00 3.1423885521e+00 5.4427766293e+00 
91300 6.1631430642e+00 -4.8457026492e-04 3.1423963318e+00 -5.4427901041e+00 3.1423963318e+00 5.4427901041e+00 
91400 6.1631430819e+00 -4.8024000019e-04 3.1424040420e+00 -5.4428034586e+00 3.1424040420e+00 5.4428034586e+00 
91500 6.1631430994e+00 -4.7594398214e-04 3.1424116833e+00 -5.4428166937e+00 3.1424116833e+00 5.4428166937e+00 
91600 6.1631431168e+00 -4.7168194684e-04 3.1424192562e+00 -5.4428298104e+00 3.1424192562e+00 5.4428298104e+00 
91700 6.1631431340e+00 -4.6745363274e-04 3.1424267613e+00 -5.4428428096e+00 3.1424267613e+00 5.4428428096e+00 
91800 6.1631431511e+00 -4.6325878069e-04 3.1424341990e+00 -5.4428556922e+00 3.1424341990e+00 5.4428556922e+00 
91900 6.1631431681e+00 -4.5909713385e-04 3.1424415701e+00 -5.4428684592e+00 3.1424415701e+00 5.4428684592e+00 
92000 6.1631431849e+00 -4.5496843772e-04 3.1424488748e+00 -5.4428811114e+00 3.1424488748e+00 5.4428811114e+00 
92100 6.1631432016e+00 -4.5087244005e-04 3.1424561139e+00 -5.4428936499e+00 3.1424561139e+00 5.4428936499e+00 
92200 6.1631432182e+00 -4.4680889087e-04 3.1424632878e+00 -5.4429060754e+00 3.1424632878e+00 5.4429060754e+00 
92300 6.1631432346e+00 -4.4277754243e-04 3.1424703970e+00 -5.4429183889e+00 3.1424703970e+00 5.4429183889e+00 
92400 6.1631432509e+00 -4.3877814917e-04 3.1424774421e+00 -5.4429305913e+00 3.1424774421e+00 5.4429305913e+00 
92500 6.1631432671e+00 -4.3481046770e-04 3.1424844235e+00 -5.4429426835e+00 3.1424844235e+00 5.4429426835e+00 
92600 6.1631432831e+00 -4.3087425679e-04 3.1424913418e+00 -5.4429546663e+00 3.1424913418e+00 5.4429546663e+00 
92700 6.1631432990e+00 -4.2696927730e-04 3.1424981974e+00 -5.4429665405e+00 3.1424981974e+00 5.4429665405e+00 
92800 6.1631433148e+00 -4.2309529221e-04 3.1425049908e+00 -5.4429783072e+00 3.1425049908e+00 5.4429783072e+00 
92900 6.1631433304e+00 -4.1925206651e-04 3.1425117227e+00 -5.4429899670e+00 3.1425117227e+00 5.4429899670e+00 
93000 6.1631433459e+00 -4.1543936729e-04 3.1425183933e+00 -5.4430015209e+00 3.1425183933e+00 5.4430015209e+00 
93100 6.1631433613e+00 -4.1165696360e-04 3.1425250033e+00 -5.4430129698e+00 3.1425250033e+00 5.4430129698e+00 
93200 6.1631433765e+00 -4.0790462649e-04 3.1425315531e+00 -5.4430243143e+00 3.1425315531e+00 5.4430243143e+00 
93300 6.1631433916e+00 -4.0418212898e-04 3.1425380431e+00 -5.4430355554e+00 3.1425380431e+00 5.4430355554e+00 
93400 6.1631434066e+00 -4.0048924600e-04 3.1425444740e+00 -5.4430466940e+00 3.1425444740e+00 5.4430466940e+00 
93500 6.1631434214e+00 -3.9682575442e-04 3.1425508460e+00 -5.4430577307e+00 3.1425508460e+00 5.4430577307e+00 
93600 6.1631434361e+00 -3.9319143295e-04 3.1425571598e+00 -5.4430686664e+00 3.1425571598e+00 5.4430686664e+00 
93700 6.1631434507e+00 -3.8958606220e-04 3.1425634157e+00 -5.4430795020e+00 3.1425634157e+00 5.4430795020e+00 
93800 6.1631434652e+00 -3.8600942459e-04 3.1425696142e+00 -5.4430902382e+00 3.1425696142e+00 5.4430902382e+00 
93900 6.1631434795e+00 -3.8246130437e-04 3.1425757559e+00 -5.4431008758e+00 3.1425757559e+00 5.4431008758e+00 
94000 6.1631434937e+00 -3.7894148757e-04 3.1425818410e+00 -5.4431114156e+00 3.1425818410e+00 5.4431114156e+00 
94100 6.1631435078e+00 -3.7544976199e-04 3.1425878702e+00 -5.4431218584e+00 3.1425878702e+00 5.4431218584e+00 
94200 6.1631435218e+00 -3.7198591716e-04 3.1425938437e+00 -5.4431322049e+00 3.1425938437e+00 5.4431322049e+00 
94300 6.1631435356e+00 -3.6854974435e-04 3.1425997622e+00 -5.4431424560e+00 3.1425997622e+00 5.4431424560e+00 
94400 6.1631435493e+00 -3.6514103652e-04 3.1426056260e+00 -5.4431526123e+00 3.1426056260e+00 5.4431526123e+00 
94500 6.1631435629e+00 -3.6175958831e-04 3.1426114355e+00 -5.4431626747e+00 3.1426114355e+00 5.4431626747e+00 
94600 6.1631435764e+00 -3.5840519602e-04 3.1426171912e+00 -5.4431726439e+00 3.1426171912e+00 5.4431726439e+00 
94700 6.1631435898e+00 -3.5507765758e-04 3.1426228936e+00 -5.4431825207e+00 3.1426228936e+00 5.4431825207e+00 
94800 6.1631436030e+00 -3.5177677255e-04 3.1426285429e+00 -5.4431923057e+00 3.1426285429e+00 5.4431923057e+00 
94900 6.1631436161e+00 -3.4850234205e-04 3.1426341398e+00 -5.4432019997e+00 3.1426341398e+00 5.4432019997e+00 
95000 6.1631436291e+00 -3.4525416883e-04 3.1426396846e+00 -5.4432116035e+00 3.1426396846e+00 5.4432116035e+00 
95100 6.1631436420e+00 -3.4203205714e-04 3.1426451776e+00 -5.4432211178e+00 3.1426451776e+00 5.4432211178e+00 
95200 6.1631436547e+00 -3.3883581281e-04 3.1426506194e+00 -5.4432305432e+00 3.1426506194e+00 5.4432305432e+00 
95300 6.1631436674e+00 -3.3566524316e-04 3.1426560103e+00 -5.4432398806e+00 3.1426560103e+00 5.4432398806e+00 
95400 6.1631436799e+00 -3.3252015703e-04 3.1426613508e+00 -5.4432491306e+00 3.1426613508e+00 5.4432491306e+00 
95500 6.1631436923e+00 -3.2940036473e-04 3.1426666412e+00 -5.4432582938e+00 3.1426666412e+00 5.4432582938e+00 
95600 6.1631437046e+00 -3.2630567803e-04 3.1426718820e+00 -5.4432673711e+00 3.1426718820e+00 5.4432673711e+00 
95700 6.1631437167e+00 -3.2323591017e-04 3.1426770735e+00 -5.4432763631e+00 3.1426770735e+00 5.4432763631e+00 
95800 6.1631437288e+00 -3.2019087578e-04 3.1426822162e+00 -5.4432852705e+00 3.1426822162e+00 5.4432852705e+00 
95900 6.1631437408e+00 -3.1717039094e-04 3.1426873105e+00 -5.4432940940e+00 3.1426873105e+00 5.4432940940e+00 
96000 6.1631437526e+00 -3.1417427311e-04 3.1426923566e+00 -5.4433028342e+00 3.1426923566e+00 5.4433028342e+00 
96100 6.1631437643e+00 -3.1120234111e-04 3.1426973551e+00 -5.4433114919e+00 3.1426973551e+00 5.4433114919e+00 
96200 6.1631437759e+00 -3.0825441516e-04 3.1427023063e+00 -5.4433200676e+00 3.1427023063e+00 5.4433200676e+00 
96300 6.1631437874e+00 -3.0533031681e-04 3.1427072106e+00 -5.4433285621e+00 3.1427072106e+00 5.4433285621e+00 
96400 6.1631437988e+00 -3.0242986894e-04 3.1427120684e+00 -5.4433369760e+00 3.1427120684e+00 5.4433369760e+00 
96500 6.1631438101e+00 -2.9955289575e-04 3.1427168800e+00 -5.4433453099e+00 3.1427168800e+00 5.4433453099e+00 
96600 6.1631438213e+00 -2.9669922275e-04 3.1427216458e+00 -5.4433535646e+00 3.1427216458e+00 5.4433535646e+00 
96700 6.1631438324e+00 -2.9386867672e-04 3.1427263662e+00 -5.4433617406e+00 3.1427263662e+00 5.4433617406e+00 
96800 6.1631438433e+00 -2.9106108574e-04 3.1427310416e+00 -5.4433698386e+00 3.1427310416e+00 5.4433698386e+00 
96900 6.1631438542e+00 -2.8827627913e-04 3.1427356723e+00 -5.4433778592e+00 3.1427356723e+00 5.4433778592e+00 
97000 6.1631438649e+00 -2.8551408747e-04 3.1427402587e+00 -5.4433858030e+00 3.1427402587e+00 5.4433858030e+00 
97100 6.1631438756e+00 -2.8277434258e-04 3.1427448011e+00 -5.4433936708e+00 3.1427448011e+00 5.4433936708e+00 
97200 6.1631438861e+00 -2.8005687747e-04 3.1427493000e+00 -5.4434014630e+00 3.1427493000e+00 5.4434014630e+00 
97300 6.1631438966e+00 -2.7736152639e-04 3.1427537556e+00 -5.4434091803e+00 3.1427537556e+00 5.4434091803e+00 
97400 6.1631439069e+00 -2.7468812478e-04 3.1427581683e+00 -5.4434168234e+00 3.1427581683e+00 5.4434168234e+00 
97500 6.1631439172e+00 -2.7203650925e-04 3.1427625385e+00 -5.4434243928e+00 3.1427625385e+00 5.4434243928e+00 
97600 6.1631439273e+00 -2.6940651760e-04 3.1427668665e+00 -5.4434318890e+00 3.1427668665e+00 5.4434318890e+00 
97700 6.1631439373e+00 -2.6679798878e-04 3.1427711526e+00 -5.4434393129e+00 3.1427711526e+00 5.4434393129e+00 
97800 6.1631439473e+00 -2.6421076288e-04 3.1427753972e+00 -5.4434466648e+00 3.1427753972e+00 5.4434466648e+00 
97900 6.1631439571e+00 -2.6164468114e-04 3.1427796007e+00 -5.4434539454e+00 3.1427796007e+00 5.4434539454e+00 
98000 6.1631439668e+00 -2.5909958594e-04 3.1427837633e+00 -5.4434611553e+00 3.1427837633e+00 5.4434611553e+00 
98100 6.1631439765e+00 -2.5657532075e-04 3.1427878855e+00 -5.4434682950e+00 3.1427878855e+00 5.4434682950e+00 
98200 6.1631439860e+00 -2.5407173016e-04 3.1427919674e+00 -5.4434753652e+00 3.1427919674e+00 5.4434753652e+00 
98300 6.1631439955e+00 -2.5158865985e-04 3.1427960096e+00 -5.4434823664e+00 3.1427960096e+00 5.4434823664e+00 
98400 6.1631440048e+00 -2.4912595659e-04 3.1428000122e+00 -5.4434892991e+00 3.1428000122e+00 5.4434892991e+00 
98500 6.1631440141e+00 -2.4668346823e-04 3.1428039756e+00 -5.4434961640e+00 3.1428039756e+00 5.4434961640e+00 
98600 6.1631440233e+00 -2.4426104368e-04 3.1428079002e+00 -5.4435029616e+00 3.1428079002e+00 5.4435029616e+00 
98700 6.1631440323e+00 -2.4185853290e-04 3.1428117862e+00 -5.4435096924e+00 3.1428117862e+00 5.4435096924e+00 
98800 6.1631440413e+00 -2.3947578691e-04 3.1428156340e+00 -5.4435163570e+00 3.1428156340e+00 5.4435163570e+00 
98900 6.1631440502e+00 -2.3711265777e-04 3.1428194439e+00 -5.4435229559e+00 3.1428194439e+00 5.4435229559e+00 
99000 6.1631440590e+00 -2.3476899856e-04 3.1428232162e+00 -5.4435294897e+00 3.1428232162e+00 5.4435294897e+00 
99100 6.1631440677e+00 -2.3244466339e-04 3.1428269512e+00 -5.4435359589e+00 3.1428269512e+00 5.4435359589e+00 
99200 6.1631440763e+00 -2.3013950738e-04 3.1428306493e+00 -5.4435423641e+00 3.1428306493e+00 5.4435423641e+00 
99300 6.1631440849e+00 -2.2785338665e-04 3.1428343106e+00 -5.4435487057e+00 3.1428343106e+00 5.4435487057e+00 
99400 6.1631440933e+00 -2.2558615833e-04 3.1428379356e+00 -5.4435549843e+00 3.1428379356e+00 5.4435549843e+00 
99500 6.1631441017e+00 -2.2333768053e-04 3.1428415245e+00 -5.4435612005e+00 3.1428415245e+00 5.4435612005e+00 
99600 6.1631441099e+00 -2.2110781234e-04 3.1428450776e+00 -5.4435673547e+00 3.1428450776e+00 5.4435673547e+00 
99700 6.1631441181e+00 -2.1889641383e-04 3.1428485952e+00 -5.4435734474e+00 3.1428485952e+00 5.4435734474e+00 
99800 6.1631441262e+00 -2.1670334603e-04 3.1428520777e+00 -5.4435794792e+00 3.1428520777e+00 5.4435794792e+00 
99900 6.1631441342e+00 -2.1452847094e-04 3.1428555252e+00 -5.4435854505e+00 3.1428555252e+00 5.4435854505e+00 
100000 6.1631441421e+00 -2.1237165150e-04 3.1428589382e+00 -5.4435913619e+00 3.1428589382e+00 5.4435913619e+00 
100100 6.1631441500e+00 -2.1023275161e-04 3.1428623168e+00 -5.4435972139e+00 3.1428623168e+00 5.4435972139e+00 
100200 6.1631441577e+00 -2.0811163609e-04 3.1428656614e+00 -5.4436030069e+00 3.1428656614e+00 5.4436030069e+00 
100300 6.1631441654e+00 -2.0600817071e-04 3.1428689723e+00 -5.4436087415e+00 3.1428689723e+00 5.4436087415e+00 
100400 6.1631441730e+00 -2.0392222215e-04 3.1428722497e+00 -5.4436144181e+00 3.1428722497e+00 5.4436144181e+00 
100500 6.1631441805e+00 -2.0185365803e-04 3.1428754939e+00 -5.4436200373e+00 3.1428754939e+00 5.4436200373e+00 
100600 6.1631441880e+00 -1.9980234686e-04 3.1428787052e+00 -5.4436255994e+00 3.1428787052e+00 5.4436255994e+00 
100700 6.1631441953e+00 -1.9776815806e-04 3.1428818838e+00 -5.4436311050e+00 3.1428818838e+00 5.4436311050e+00 
100800 6.1631442026e+00 -1.9575096198e-04 3.1428850301e+00 -5.4436365545e+00 3.1428850301e+00 5.4436365545e+00 
100900 6.1631442098e+00 -1.9375062982e-04 3.1428881443e+00 -5.4436419484e+00 3.1428881443e+00 5.4436419484e+00 
101000 6.1631442169e+00 -1.9176703371e-04 3.1428912267e+00 -5.4436472872e+00 3.1428912267e+00 5.4436472872e+00 
101100 6.1631442239e+00 -1.8980004663e-04 3.1428942775e+00 -5.4436525714e+00 3.1428942775e+00 5.4436525714e+00 
101200 6.1631442309e+00 -1.8784954246e-04 3.1428972970e+00 -5.4436578013e+00 3.1428972970e+00 5.4436578013e+00 
101300 6.1631442378e+00 -1.8591539594e-04 3.1429002855e+00 -5.4436629775e+00 3.1429002855e+00 5.4436629775e+00 
101400 6.1631442446e+00 -1.8399748268e-04 3.1429032432e+00 -5.4436681004e+00 3.1429032432e+00 5.4436681004e+00 
101500 6.1631442514e+00 -1.8209567916e-04 3.1429061704e+00 -5.4436731705e+00 3.1429061704e+00 5.4436731705e+00 
101600 6.1631442580e+00 -1.8020986270e-04 3.1429090673e+00 -5.4436781881e+00 3.1429090673e+00 5.4436781881e+00 
101700 6.1631442646e+00 -1.7833991149e-04 3.1429119342e+00 -5.4436831538e+00 3.1429119342e+00 5.4436831538e+00 
101800 6.1631442712e+00 -1.7648570454e-04 3.1429147714e+00 -5.4436880679e+00 3.1429147714e+00 5.4436880679e+00 
101900 6.1631442776e+00 -1.7464712173e-04 3.1429175791e+00 -5.4436929309e+00 3.1429175791e+00 5.4436929309e+00 
102000 6.1631442840e+00 -1.7282404375e-04 3.1429203575e+00 -5.4436977433e+00 3.1429203575e+00 5.4436977433e+00 
102100 6.1631442903e+00 -1.7101635214e-04 3.1429231069e+00 -5.4437025054e+00 3.1429231069e+00 5.4437025054e+00 
102200 6.1631442965e+00 -1.6922392925e-04 3.1429258276e+00 -5.4437072178e+00 3.1429258276e+00 5.4437072178e+00 
102300 6.1631443027e+00 -1.6744665827e-04 3.1429285197e+00 -5.4437118807e+00 3.1429285197e+00 5.4437118807e+00 
102400 6.1631443088e+00 -1.6568442319e-04 3.1429311836e+00 -5.4437164946e+00 3.1429311836e+00 5.4437164946e+00 
102500 6.1631443148e+00 -1.6393710881e-04 3.1429338194e+00 -5.4437210600e+00 3.1429338194e+00 5.4437210600e+00 
102600 6.1631443208e+00 -1.6220460076e-04 3.1429364274e+00 -5.4437255773e+00 3.1429364274e+00 5.4437255773e+00 
102700 6.1631443267e+00 -1.6048678545e-04 3.1429390079e+00 -5.4437300468e+00 3.1429390079e+00 5.4437300468e+00 
102800 6.1631443325e+00 -1.5878355009e-04 3.1429415610e+00 -5.4437344689e+00 3.1429415610e+00 5.4437344689e+00 
102900 6.1631443383e+00 -1.5709478270e-04 3.1429440871e+00 -5.4437388441e+00 3.1429440871e+00 5.4437388441e+00 
103000 6.1631443440e+00 -1.5542037206e-04 3.1429465862e+00 -5.4437431728e+00 3.1429465862e+00 5.4437431728e+00 
103100 6.1631443496e+00 -1.5376020778e-04 3.1429490587e+00 -5.4437474554e+00 3.1429490587e+00 5.4437474554e+00 
103200 6.1631443552e+00 -1.5211418020e-04 3.1429515049e+00 -5.4437516921e+00 3.1429515049e+00 5.4437516921e+00 
103300 6.1631443607e+00 -1.5048218047e-04 3.1429539248e+00 -5.4437558836e+00 3.1429539248e+00 5.4437558836e+00 
103400 6.1631443662e+00 -1.4886410051e-04 3.1429563187e+00 -5.4437600300e+00 3.1429563187e+00 5.4437600300e+00 
103500 6.1631443716e+00 -1.4725983298e-04 3.1429586870e+00 -5.4437641319e+00 3.1429586870e+00 5.4437641319e+00 
103600 6.1631443769e+00 -1.4566927134e-04 3.1429610297e+00 -5.4437681896e+00 3.1429610297e+00 5.4437681896e+00 
103700 6.1631443822e+00 -1.4409230978e-04 3.1429633471e+00 -5.4437722034e+00 3.1429633471e+00 5.4437722034e+00 
103800 6.1631443874e+00 -1.4252884326e-04 3.1429656394e+00 -5.4437761738e+00 3.1429656394e+00 5.4437761738e+00 
103900 6.1631443925e+00 -1.4097876750e-04 3.1429679068e+00 -5.4437801011e+00 3.1429679068e+00 5.4437801011e+00 
104000 6.1631443976e+00 -1.3944197893e-04 3.1429701495e+00 -5.4437839857e+00 3.1429701495e+00 5.4437839857e+00 
104100 6.1631444026e+00 -1.3791837477e-04 3.1429723679e+00 -5.4437878279e+00 3.1429723679e+00 5.4437878279e+00 
104200 6.1631444076e+00 -1.3640785295e-04 3.1429745619e+00 -5.4437916282e+00 3.1429745619e+00 5.4437916282e+00 
104300 6.1631444125e+00 -1.3491031213e-04 3.1429767320e+00 -5.4437953868e+00 3.1429767320e+00 5.4437953868e+00 
104400 6.1631444173e+00 -1.3342565172e-04 3.1429788782e+00 -5.4437991042e+00 3.1429788782e+00 5.4437991042e+00 
104500 6.1631444221e+00 -1.3195377185e-04 3.1429810008e+00 -5.4438027806e+00 3.1429810008e+00 5.4438027806e+00 
104600 6.1631444269e+00 -1.3049457337e-04 3.1429831000e+00 -5.4438064165e+00 3.1429831000e+00 5.4438064165e+00 
104700 6.1631444316e+00 -1.2904795783e-04 3.1429851759e+00 -5.4438100122e+00 3.1429851759e+00 5.4438100122e+00 
104800 6.1631444362e+00 -1.2761382754e-04 3.1429872289e+00 -5.4438135680e+00 3.1429872289e+00 5.4438135680e+00 
104900 6.1631444408e+00 -1.2619208547e-04 3.1429892590e+00 -5.4438170843e+00 3.1429892590e+00 5.4438170843e+00 
105000 6.1631444453e+00 -1.2478263533e-04 3.1429912666e+00 -5.4438205614e+00 3.1429912666e+00 5.4438205614e+00 
105100 6.1631444498e+00 -1.2338538152e-04 3.1429932516e+00 -5.4438239997e+00 3.1429932516e+00 5.4438239997e+00 
105200 6.1631444542e+00 -1.2200022914e-04 3.1429952145e+00 -5.4438273995e+00 3.1429952145e+00 5.4438273995e+00 
105300 6.1631444585e+00 -1.2062708399e-04 3.1429971553e+00 -5.4438307611e+00 3.1429971553e+00 5.4438307611e+00 
105400 6.1631444629e+00 -1.1926585255e-04 3.1429990743e+00 -5.4438340849e+00 3.1429990743e+00 5.4438340849e+00 
105500 6.1631444671e+00 -1.1791644199e-04 3.1430009716e+00 -5.4438373711e+00 3.1430009716e+00 5.4438373711e+00 
105600 6.1631444713e+00 -1.1657876016e-04 3.1430028475e+00 -5.4438406202e+00 3.1430028475e+00 5.4438406202e+00 
105700 6.1631444755e+00 -1.1525271561e-04 3.1430047021e+00 -5.4438438324e+00 3.1430047021e+00 5.4438438324e+00 
105800 6.1631444796e+00 -1.1393821753e-04 3.1430065356e+00 -5.4438470081e+00 3.1430065356e+00 5.4438470081e+00 
105900 6.1631444837e+00 -1.1263517582e-04 3.1430083481e+00 -5.4438501476e+00 3.1430083481e+00 5.4438501476e+00 
106000 6.1631444877e+00 -1.1134350101e-04 3.1430101400e+00 -5.4438532511e+00 3.1430101400e+00 5.4438532511e+00 
106100 6.1631444916e+00 -1.1006310431e-04 3.1430119113e+00 -5.4438563191e+00 3.1430119113e+00 5.4438563191e+00 
106200 6.1631444955e+00 -1.0879389759e-04 3.1430136622e+00 -5.4438593518e+00 3.1430136622e+00 5.4438593518e+00 
106300 6.1631444994e+00 -1.0753579338e-04 3.1430153929e+00 -5.4438623495e+00 3.1430153929e+00 5.4438623495e+00 
106400 6.1631445032e+00 -1.0628870485e-04 3.1430171036e+00 -5.4438653125e+00 3.1430171036e+00 5.4438653125e+00 
106500 6.1631445070e+00 -1.0505254581e-04 3.1430187945e+00 -5.4438682412e+00 3.1430187945e+00 5.4438682412e+00 
106600 6.1631445107e+00 -1.0382723075e-04 3.1430204657e+00 -5.4438711358e+00 3.1430204657e+00 5.4438711358e+00 
106700 6.1631445144e+00 -1.0261267476e-04 3.1430221174e+00 -5.4438739966e+00 3.1430221174e+00 5.4438739966e+00 
106800 6.1631445181e+00 -1.0140879357e-04 3.1430237498e+00 -5.4438768240e+00 3.1430237498e+00 5.4438768240e+00 
106900 6.1631445217e+00 -1.0021550357e-04 3.1430253630e+00 -5.4438796182e+00 3.1430253630e+00 5.4438796182e+00 
107000 6.1631445252e+00 -9.9032721762e-05 3.1430269573e+00 -5.4438823796e+00 3.1430269573e+00 5.4438823796e+00 
107100 6.1631445287e+00 -9.7860365754e-05 3.1430285327e+00 -5.4438851083e+00 3.1430285327e+00 5.4438851083e+00 
107200 6.1631445322e+00 -9.6698353799e-05 3.1430300895e+00 -5.4438878047e+00 3.1430300895e+00 5.4438878047e+00 
107300 6.1631445356e+00 -9.5546604754e-05 3.1430316278e+00 -5.4438904691e+00 3.1430316278e+00 5.4438904691e+00 
107400 6.1631445390e+00 -9.4405038087e-05 3.1430331478e+00 -5.4438931018e+00 3.1430331478e+00 5.4438931018e+00 
107500 6.1631445423e+00 -9.3273573877e-05 3.1430346496e+00 -5.4438957030e+00 3.1430346496e+00 5.4438957030e+00 
107600 6.1631445456e+00 -9.2152132815e-05 3.1430361334e+00 -5.4438982731e+00 3.1430361334e+00 5.4438982731e+00 
107700 6.1631445489e+00 -9.1040636177e-05 3.1430375994e+00 -5.4439008122e+00 3.1430375994e+00 5.4439008122e+00 
107800 6.1631445521e+00 -8.9939005843e-05 3.1430390477e+00 -5.4439033207e+00 3.1430390477e+00 5.4439033207e+00 
107900 6.1631445553e+00 -8.8847164291e-05 3.1430404784e+00 -5.4439057989e+00 3.1430404784e+00 5.4439057989e+00 
108000 6.1631445584e+00 -8.7765034573e-05 3.1430418918e+00 -5.4439082469e+00 3.1430418918e+00 5.4439082469e+00 
108100 6.1631445615e+00 -8.6692540338e-05 3.1430432880e+00 -5.4439106652e+00 3.1430432880e+00 5.4439106652e+00 
108200 6.1631445645e+00 -8.5629605810e-05 3.1430446671e+00 -5.4439130539e+00 3.1430446671e+00 5.4439130539e+00 
108300 6.1631445676e+00 -8.4576155799e-05 3.1430460293e+00 -5.4439154133e+00 3.1430460293e+00 5.4439154133e+00 
108400 6.1631445705e+00 -8.3532115670e-05 3.1430473748e+00 -5.4439177437e+00 3.1430473748e+00 5.4439177437e+00 
108500 6.1631445735e+00 -8.2497411369e-05 3.1430487036e+00 -5.4439200453e+00 3.1430487036e+00 5.4439200453e+00 
108600 6.1631445764e+00 -8.1471969408e-05 3.1430500160e+00 -5.4439223184e+00 3.1430500160e+00 5.4439223184e+00 
108700 6.1631445793e+00 -8.0455716853e-05 3.1430513121e+00 -5.4439245633e+00 3.1430513121e+00 5.4439245633e+00 
108800 6.1631445821e+00 -7.9448581333e-05 3.1430525920e+00 -5.4439267801e+00 3.1430525920e+00 5.4439267801e+00 
108900 6.1631445849e+00 -7.8450491027e-05 3.1430538558e+00 -5.4439289692e+00 3.1430538558e+00 5.4439289692e+00 
109000 6.1631445877e+00 -7.7461374663e-05 3.1430551038e+00 -5.4439311308e+00 3.1430551038e+00 5.4439311308e+00 
109100 6.1631445904e+00 -7.6481161517e-05 3.1430563361e+00 -5.4439332652e+00 3.1430563361e+00 5.4439332652e+00 
109200 6.1631445931e+00 -7.5509781406e-05 3.1430575528e+00 -5.4439353725e+00 3.1430575528e+00 5.4439353725e+00 
109300 6.1631445957e+00 -7.4547164685e-05 3.1430587540e+00 -5.4439374531e+00 3.1430587540e+00 5.4439374531e+00 
109400 6.1631445984e+00 -7.3593242238e-05 3.1430599399e+00 -5.4439395071e+00 3.1430599399e+00 5.4439395071e+00 
109500 6.1631446009e+00 -7.2647945484e-05 3.1430611106e+00 -5.4439415349e+00 3.1430611106e+00 5.4439415349e+00 
109600 6.1631446035e+00 -7.1711206366e-05 3.1430622663e+00 -5.4439435366e+00 3.1430622663e+00 5.4439435366e+00 
109700 6.1631446060e+00 -7.0782957352e-05 3.1430634071e+00 -5.4439455125e+00 3.1430634071e+00 5.4439455125e+00 
109800 6.1631446085e+00 -6.9863131425e-05 3.1430645331e+00 -5.4439474628e+00 3.1430645331e+00 5.4439474628e+00 
109900 6.1631446110e+00 -6.9621424555e-05 3.1430645331e+00 -5.4439474628e+00 3.1430645331e+00 5.4439474628e+00 
110000 6.1631446135e+00 -6.9390397922e-05 3.1430645331e+00 -5.4439474628e+00 3.1430645331e+00 5.4439474628e+00 
110100 6.1631446159e+00 -6.9169312288e-05 3.1430645331e+00 -5.4439474628e+00 3.1430645331e+00 5.4439474628e+00 
110200 6.1631446183e+00 -6.8957539281e-05 3.1430645331e+00 -5.4439474628e+00 3.1430645331e+00 5.4439474628e+00 
110300 6.1631446207e+00 -6.8754541153e-05 3.1430645331e+00 -5.4439474628e+00 3.1430645331e+00 5.4439474628e+00 
110400 6.1631446231e+00 -6.8559854444e-05 3.1430645331e+00 -5.4439474628e+00 3.1430645331e+00 5.4439474628e+00 
110500 6.1631446254e+00 -6.8373076597e-05 3.1430645331e+00 -5.4439474628e+00 3.1430645331e+00 5.4439474628e+00 
110600 6.1631446277e+00 -6.8193854980e-05 3.1430645331e+00 -5.4439474628e+00 3.1430645331e+00 5.4439474628e+00 
110700 6.1631446299e+00 -6.8021877783e-05 3.1430645331e+00 -5.4439474628e+00 3.1430645331e+00 5.4439474628e+00 
110800 6.1631446321e+00 -6.7856866441e-05 3.1430645331e+00 -5.4439474628e+00 3.1430645331e+00 5.4439474628e+00 
110900 6.1631446343e+00 -6.7698569337e-05 3.1430645331e+00 -5.4439474628e+00 3.1430645331e+00 5.4439474628e+00 
111000 6.1631446365e+00 -6.7546756521e-05 3.1430645331e+00 -5.4439474628e+00 3.1430645331e+00 5.4439474628e+00 
111100 6.1631446386e+00 -6.7401215319e-05 3.1430645331e+00 -5.4439474628e+00 3.1430645331e+00 5.4439474628e+00 
111200 6.1631446407e+00 -6.7261746660e-05 3.1430645331e+00 -5.4439474628e+00 3.1430645331e+00 5.4439474628e+00 
111300 6.1631446428e+00 -6.7128162027e-05 3.1430645331e+00 -5.4439474628e+00 3.1430645331e+00 5.4439474628e+00 
111400 6.1631446448e+00 -6.7000280924e-05 3.1430645331e+00 -5.4439474628e+00 3.1430645331e+00 5.4439474628e+00 
111500 6.1631446469e+00 -6.6877928786e-05 3.1430645331e+00 -5.4439474628e+00 3.1430645331e+00 5.4439474628e+00 
111600 6.1631446488e+00 -6.6760935286e-05 3.1430645331e+00 -5.4439474628e+00 3.1430645331e+00 5.4439474628e+00 
111700 6.1631446508e+00 -6.6649132925e-05 3.1430645331e+00 -5.4439474628e+00 3.1430645331e+00 5.4439474628e+00 
111800 6.1631446527e+00 -6.6542355934e-05 3.1430645331e+00 -5.4439474628e+00 3.1430645331e+00 5.4439474628e+00 
111900 6.1631446547e+00 -6.6440439387e-05 3.1430645331e+00 -5.4439474628e+00 3.1430645331e+00 5.4439474628e+00 
112000 6.1631446565e+00 -6.6343218517e-05 3.1430645331e+00 -5.4439474628e+00 3.1430645331e+00 5.4439474628e+00 
112100 6.1631446584e+00 -6.6250528203e-05 3.1430645331e+00 -5.4439474628e+00 3.1430645331e+00 5.4439474628e+00 
112200 6.1631446602e+00 -6.6162202592e-05 3.1430645331e+00 -5.4439474628e+00 3.1430645331e+00 5.4439474628e+00 
112300 6.1631446620e+00 -6.6078074852e-05 3.1430645331e+00 -5.4439474628e+00 3.1430645331e+00 5.4439474628e+00 
112400 6.1631446638e+00 -6.5997977011e-05 3.1430645331e+00 -5.4439474628e+00 3.1430645331e+00 5.4439474628e+00 
112500 6.1631446656e+00 -6.5921739898e-05 3.1430645331e+00 -5.4439474628e+00 3.1430645331e+00 5.4439474628e+00 
112600 6.1631446673e+00 -6.5849193134e-05 3.1430645331e+00 -5.4439474628e+00 3.1430645331e+00 5.4439474628e+00 
112700 6.1631446690e+00 -6.5780165202e-05 3.1430645331e+00 -5.4439474628e+00 3.1430645331e+00 5.4439474628e+00 
112800 6.1631446707e+00 -6.5714483543e-05 3.1430645331e+00 -5.4439474628e+00 3.1430645331e+00 5.4439474628e+00 
112900 6.1631446724e+00 -6.5651974708e-05 3.1430645331e+00 -5.4439474628e+00 3.1430645331e+00 5.4439474628e+00 
113000 6.1631446740e+00 -6.5592464526e-05 3.1430645331e+00 -5.4439474628e+00 3.1430645331e+00 5.4439474628e+00 
113100 6.1631446756e+00 -6.5535778309e-05 3.1430645331e+00 -5.4439474628e+00 3.1430645331e+00 5.4439474628e+00 
113200 6.1631446772e+00 -6.5481741058e-05 3.1430645331e+00 -5.4439474628e+00 3.1430645331e+00 5.4439474628e+00 
113300 6.1631446788e+00 -6.5430177706e-05 3.1430645331e+00 -5.4439474628e+00 3.1430645331e+00 5.4439474628e+00 
113400 6.1631446803e+00 -6.5380913335e-05 3.1430645331e+00 -5.4439474628e+00 3.1430645331e+00 5.4439474628e+00 
113500 6.1631446819e+00 -6.5333773438e-05 3.1430645331e+00 -5.4439474628e+00 3.1430645331e+00 5.4439474628e+00 
113600 6.1631446834e+00 -6.5288584147e-05 3.1430645331e+00 -5.4439474628e+00 3.1430645331e+00 5.4439474628e+00 
113700 6.1631446849e+00 -6.5245172481e-05 3.1430645331e+00 -5.4439474628e+00 3.1430645331e+00 5.4439474628e+00 
113800 6.1631446863e+00 -6.5203366591e-05 3.1430645331e+00 -5.4439474628e+00 3.1430645331e+00 5.4439474628e+00 
113900 6.1631446878e+00 -6.5162995992e-05 3.1430645331e+00 -5.4439474628e+00 3.1430645331e+00 5.4439474628e+00 
114000 6.1631446892e+00 -6.5123891787e-05 3.1430645331e+00 -5.4439474628e+00 3.1430645331e+00 5.4439474628e+00 
114100 6.1631446906e+00 -6.5085886888e-05 3.1430645331e+00 -5.4439474628e+00 3.1430645331e+00 5.4439474628e+00 
114200 6.1631446920e+00 -6.5048816241e-05 3.1430645331e+00 -5.4439474628e+00 3.1430645331e+00 5.4439474628e+00 
114300 6.1631446933e+00 -6.5012517022e-05 3.1430645331e+00 -5.4439474628e+00 3.1430645331e+00 5.4439474628e+00 
114400 6.1631446947e+00 -6.4976828823e-05 3.1430645331e+00 -5.4439474628e+00 3.1430645331e+00 5.4439474628e+00 
114500 6.1631446960e+00 -6.4941593845e-05 3.1430645331e+00 -5.4439474628e+00 3.1430645331e+00 5.4439474628e+00 
114600 6.1631446973e+00 -6.4906657071e-05 3.1430645331e+00 -5.4439474628e+00 3.1430645331e+00 5.4439474628e+00 
114700 6.1631446986e+00 -6.4871866422e-05 3.1430645331e+00 -5.4439474628e+00 3.1430645331e+00 5.4439474628e+00 
114800 6.1631446998e+00 -6.4837072908e-05 3.1430645331e+00 -5.4439474628e+00 3.1430645331e+00 5.4439474628e+00 
114900 6.1631447011e+00 -6.4802130767e-05 3.1430645331e+00 -5.4439474628e+00 3.1430645331e+00 5.4439474628e+00 
115000 6.1631447023e+00 -6.4766897599e-05 3.1430645331e+00 -5.4439474628e+00 3.1430645331e+00 5.4439474628e+00 
115100 6.1631447035e+00 -6.4731234473e-05 3.1430645331e+00 -5.4439474628e+00 3.1430645331e+00 5.4439474628e+00 
115200 6.1631447047e+00 -6.4695006042e-05 3.1430645331e+00 -5.4439474628e+00 3.1430645331e+00 5.4439474628e+00 
115300 6.1631447059e+00 -6.4658080629e-05 3.1430645331e+00 -5.4439474628e+00 3.1430645331e+00 5.4439474628e+00 
115400 6.1631447071e+00 -6.4620330317e-05 3.1430645331e+00 -5.4439474628e+00 3.1430645331e+00 5.4439474628e+00 
115500 6.1631447082e+00 -6.4581631023e-05 3.1430645331e+00 -5.4439474628e+00 3.1430645331e+00 5.4439474628e+00 
115600 6.1631447093e+00 -6.4541862559e-05 3.1430645331e+00 -5.4439474628e+00 3.1430645331e+00 5.4439474628e+00 
115700 6.1631447104e+00 -6.4500908689e-05 3.1430645331e+00 -5.4439474628e+00 3.1430645331e+00 5.4439474628e+00 
115800 6.1631447115e+00 -6.4458657168e-05 3.1430645331e+00 -5.4439474628e+00 3.1430645331e+00 5.4439474628e+00 
115900 6.1631447126e+00 -6.4414999789e-05 3.1430645331e+00 -5.4439474628e+00 3.1430645331e+00 5.4439474628e+00 
116000 6.1631447136e+00 -6.4369832397e-05 3.1430645331e+00 -5.4439474628e+00 3.1430645331e+00 5.4439474628e+00 
116100 6.1631447147e+00 -6.4323054918e-05 3.1430645331e+00 -5.4439474628e+00 3.1430645331e+00 5.4439474628e+00 
116200 6.1631447157e+00 -6.4274571358e-05 3.1430645331e+00 -5.4439474628e+00 3.1430645331e+00 5.4439474628e+00 
116300 6.1631447167e+00 -6.4224289814e-05 3.1430645331e+00 -5.4439474628e+00 3.1430645331e+00 5.4439474628e+00 
116400 6.1631447177e+00 -6.4172122472e-05 3.1430645331e+00 -5.4439474628e+00 3.1430645331e+00 5.4439474628e+00 
116500 6.1631447187e+00 -6.4117985585e-05 3.1430645331e+00 -5.4439474628e+00 3.1430645331e+00 5.4439474628e+00 
116600 6.1631447197e+00 -6.4061799466e-05 3.1430645331e+00 -5.4439474628e+00 3.1430645331e+00 5.4439474628e+00 
116700 6.1631447206e+00 -6.4003488451e-05 3.1430645331e+00 -5.4439474628e+00 3.1430645331e+00 5.4439474628e+00 
116800 6.1631447216e+00 -6.3942980877e-05 3.1430645331e+00 -5.4439474628e+00 3.1430645331e+00 5.4439474628e+00 
116900 6.1631447225e+00 -6.3880209045e-05 3.1430645331e+00 -5.4439474628e+00 3.1430645331e+00 5.4439474628e+00 
117000 6.1631447234e+00 -6.3815109183e-05 3.1430645331e+00 -5.4439474628e+00 3.1430645331e+00 5.4439474628e+00 
117100 6.1631447243e+00 -6.3747621381e-05 3.1430645331e+00 -5.4439474628e+00 3.1430645331e+00 5.4439474628e+00 
117200 6.1631447252e+00 -6.3677689566e-05 3.1430645331e+00 -5.4439474628e+00 3.1430645331e+00 5.4439474628e+00 
117300 6.1631447260e+00 -6.3605261430e-05 3.1430645331e+00 -5.4439474628e+00 3.1430645331e+00 5.4439474628e+00 
117400 6.1631447269e+00 -6.3530288380e-05 3.1430645331e+00 -5.4439474628e+00 3.1430645331e+00 5.4439474628e+00 
117500 6.1631447277e+00 -6.3452725464e-05 3.1430645331e+00 -5.4439474628e+00 3.1430645331e+00 5.4439474628e+00 
117600 6.1631447286e+00 -6.3372531319e-05 3.1430645331e+00 -5.4439474628e+00 3.1430645331e+00 5.4439474628e+00 
117700 6.1631447294e+00 -6.3289668093e-05 3.1430645331e+00 -5.4439474628e+00 3.1430645331e+00 5.4439474628e+00 
117800 6.1631447302e+00 -6.3204101384e-05 3.1430645331e+00 -5.4439474628e+00 3.1430645331e+00 5.4439474628e+00 
117900 6.1631447310e+00 -6.3115800146e-05 3.1430645331e+00 -5.4439474628e+00 3.1430645331e+00 5.4439474628e+00 
118000 6.1631447317e+00 -6.3024736637e-05 3.1430645331e+00 -5.4439474628e+00 3.1430645331e+00 5.4439474628e+00 
118100 6.1631447325e+00 -6.2930886325e-05 3.1430645331e+00 -5.4439474628e+00 3.1430645331e+00 5.4439474628e+00 
118200 6.1631447333e+00 -6.2834227813e-05 3.1430645331e+00 -5.4439474628e+00 3.1430645331e+00 5.4439474628e+00 
118300 6.1631447340e+00 -6.2734742760e-05 3.1430645331e+00 -5.4439474628e+00 3.1430645331e+00 5.4439474628e+00 
118400 6.1631447347e+00 -6.2632415794e-05 3.1430645331e+00 -5.4439474628e+00 3.1430645331e+00 5.4439474628e+00 
118500 6.1631447355e+00 -6.2527234433e-05 3.1430645331e+00 -5.4439474628e+00 3.1430645331e+00 5.4439474628e+00 
118600 6.1631447362e+00 -6.2419188996e-05 3.1430645331e+00 -5.4439474628e+00 3.1430645331e+00 5.4439474628e+00 
118700 6.1631447369e+00 -6.2308272525e-05 3.1430645331e+00 -5.4439474628e+00 3.1430645331e+00 5.4439474628e+00 
118800 6.1631447375e+00 -6.2194480696e-05 3.1430645331e+00 -5.4439474628e+00 3.1430645331e+00 5.4439474628e+00 
118900 6.1631447382e+00 -6.2077811728e-05 3.1430645331e+00 -5.4439474628e+00 3.1430645331e+00 5.4439474628e+00 
119000 6.1631447389e+00 -6.1958266308e-05 3.1430645331e+00 -5.4439474628e+00 3.1430645331e+00 5.4439474628e+00 
119100 6.1631447395e+00 -6.1835847496e-05 3.1430645331e+00 -5.4439474628e+00 3.1430645331e+00 5.4439474628e+00 
119200 6.1631447402e+00 -6.1710560652e-05 3.1430645331e+00 -5.4439474628e+00 3.1430645331e+00 5.4439474628e+00 
119300 6.1631447408e+00 -6.1582413333e-05 3.1430645331e+00 -5.4439474628e+00 3.1430645331e+00 5.4439474628e+00 
119400 6.1631447414e+00 -6.1451415229e-05 3.1430645331e+00 -5.4439474628e+00 3.1430645331e+00 5.4439474628e+00 
119500 6.1631447420e+00 -6.1317578061e-05 3.1430645331e+00 -5.4439474628e+00 3.1430645331e+00 5.4439474628e+00 
119600 6.1631447426e+00 -6.1180915507e-05 3.1430645331e+00 -5.4439474628e+00 3.1430645331e+00 5.4439474628e+00 
119700 6.1631447432e+00 -6.1041443125e-05 3.1430645331e+00 -5.4439474628e+00 3.1430645331e+00 5.4439474628e+00 
119800 6.1631447438e+00 -6.0899178258e-05 3.1430645331e+00 -5.4439474628e+00 3.1430645331e+00 5.4439474628e+00 
119900 6.1631447444e+00 -6.0754139969e-05 3.1430645331e+00 -5.4439474628e+00 3.1430645331e+00 5.4439474628e+00 
120000 6.1631447449e+00 -6.0606348946e-05 3.1430645331e+00 -5.4439474628e+00 3.1430645331e+00 5.4439474628e+00 
120100 6.1631447455e+00 -6.0455827444e-05 3.1430645331e+00 -5.4439474628e+00 3.1430645331e+00 5.4439474628e+00 
120200 6.1631447460e+00 -6.0302599188e-05 3.1430645331e+00 -5.4439474628e+00 3.1430645331e+00 5.4439474628e+00 
120300 6.1631447466e+00 -6.0146689313e-05 3.1430645331e+00 -5.4439474628e+00 3.1430645331e+00 5.4439474628e+00 
120400 6.1631447471e+00 -5.9988124284e-05 3.1430645331e+00 -5.4439474628e+00 3.1430645331e+00 5.4439474628e+00 
120500 6.1631447476e+00 -5.9826931822e-05 3.1430645331e+00 -5.4439474628e+00 3.1430645331e+00 5.4439474628e+00 
120600 6.1631447481e+00 -5.9663140840e-05 3.1430645331e+00 -5.4439474628e+00 3.1430645331e+00 5.4439474628e+00 
120700 6.1631447486e+00 -5.9496781367e-05 3.1430645331e+00 -5.4439474628e+00 3.1430645331e+00 5.4439474628e+00 
120800 6.1631447491e+00 -5.9327884481e-05 3.1430645331e+00 -5.4439474628e+00 3.1430645331e+00 5.4439474628e+00 
120900 6.1631447496e+00 -5.9156482255e-05 3.1430645331e+00 -5.4439474628e+00 3.1430645331e+00 5.4439474628e+00 
121000 6.1631447501e+00 -5.8982607678e-05 3.1430645331e+00 -5.4439474628e+00 3.1430645331e+00 5.4439474628e+00 
121100 6.1631447506e+00 -5.8806294593e-05 3.1430645331e+00 -5.4439474628e+00 3.1430645331e+00 5.4439474628e+00 
121200 6.1631447510e+00 -5.8627577649e-05 3.1430645331e+00 -5.4439474628e+00 3.1430645331e+00 5.4439474628e+00 
121300 6.1631447515e+00 -5.8446492231e-05 3.1430645331e+00 -5.4439474628e+00 3.1430645331e+00 5.4439474628e+00 
121400 6.1631447519e+00 -5.8263074404e-05 3.1430645331e+00 -5.4439474628e+00 3.1430645331e+00 5.4439474628e+00 
121500 6.1631447524e+00 -5.8077360865e-05 3.1430645331e+00 -5.4439474628e+00 3.1430645331e+00 5.4439474628e+00 
121600 6.1631447528e+00 -5.7889388880e-05 3.1430645331e+00 -5.4439474628e+00 3.1430645331e+00 5.4439474628e+00 
121700 6.1631447532e+00 -5.7699196234e-05 3.1430645331e+00 -5.4439474628e+00 3.1430645331e+00 5.4439474628e+00 
121800 6.1631447536e+00 -5.7506821187e-05 3.1430645331e+00 -5.4439474628e+00 3.1430645331e+00 5.4439474628e+00 
121900 6.1631447540e+00 -5.7312302414e-05 3.1430645331e+00 -5.4439474628e+00 3.1430645331e+00 5.4439474628e+00 
122000 6.1631447544e+00 -5.7115678970e-05 3.1430645331e+00 -5.4439474628e+00 3.1430645331e+00 5.4439474628e+00 
122100 6.1631447548e+00 -5.6916990235e-05 3.1430645331e+00 -5.4439474628e+00 3.1430645331e+00 5.4439474628e+00 
122200 6.1631447552e+00 -5.6716275876e-05 3.1430645331e+00 -5.4439474628e+00 3.1430645331e+00 5.4439474628e+00 
122300 6.1631447556e+00 -5.6513575803e-05 3.1430645331e+00 -5.4439474628e+00 3.1430645331e+00 5.4439474628e+00 
122400 6.1631447560e+00 -5.6308930135e-05 3.1430645331e+00 -5.4439474628e+00 3.1430645331e+00 5.4439474628e+00 
122500 6.1631447564e+00 -5.6102379148e-05 3.1430645331e+00 -5.4439474628e+00 3.1430645331e+00 5.4439474628e+00 
122600 6.1631447567e+00 -5.5893963250e-05 3.1430645331e+00 -5.4439474628e+00 3.1430645331e+00 5.4439474628e+00 
122700 6.1631447571e+00 -5.5683722940e-05 3.1430645331e+00 -5.4439474628e+00 3.1430645331e+00 5.4439474628e+00 
122800 6.1631447574e+00 -5.5471698777e-05 3.1430645331e+00 -5.4439474628e+00 3.1430645331e+00 5.4439474628e+00 
122900 6.1631447578e+00 -5.5257931341e-05 3.1430645331e+00 -5.4439474628e+00 3.1430645331e+00 5.4439474628e+00 
123000 6.1631447581e+00 -5.5042461216e-05 3.1430645331e+00 -5.4439474628e+00 3.1430645331e+00 5.4439474628e+00 
123100 6.1631447584e+00 -5.4825328939e-05 3.1430645331e+00 -5.4439474628e+00 3.1430645331e+00 5.4439474628e+00 
123200 6.1631447588e+00 -5.4606574996e-05 3.1430645331e+00 -5.4439474628e+00 3.1430645331e+00 5.4439474628e+00 
123300 6.1631447591e+00 -5.4386239774e-05 3.1430645331e+00 -5.4439474628e+00 3.1430645331e+00 5.4439474628e+00 
123400 6.1631447594e+00 -5.4164363551e-05 3.1430645331e+00 -5.4439474628e+00 3.1430645331e+00 5.4439474628e+00 
123500 6.1631447597e+00 -5.3940986467e-05 3.1430645331e+00 -5.4439474628e+00 3.1430645331e+00 5.4439474628e+00 
123600 6.1631447600e+00 -5.3716148494e-05 3.1430645331e+00 -5.4439474628e+00 3.1430645331e+00 5.4439474628e+00 
123700 6.1631447603e+00 -5.3489889424e-05 3.1430645331e+00 -5.4439474628e+00 3.1430645331e+00 5.4439474628e+00 
123800 6.1631447606e+00 -5.3262248847e-05 3.1430645331e+00 -5.4439474628e+00 3.1430645331e+00 5.4439474628e+00 
123900 6.1631447609e+00 -5.3033266130e-05 3.1430645331e+00 -5.4439474628e+00 3.1430645331e+00 5.4439474628e+00 
124000 6.1631447612e+00 -5.2802980394e-05 3.1430645331e+00 -5.4439474628e+00 3.1430645331e+00 5.4439474628e+00 
124100 6.1631447615e+00 -5.2571430505e-05 3.1430645331e+00 -5.4439474628e+00 3.1430645331e+00 5.4439474628e+00 
124200 6.1631447617e+00 -5.2338655062e-05 3.1430645331e+00 -5.4439474628e+00 3.1430645331e+00 5.4439474628e+00 
124300 6.1631447620e+00 -5.2104692363e-05 3.1430645331e+00 -5.4439474628e+00 3.1430645331e+00 5.4439474628e+00 
124400 6.1631447623e+00 -5.1869580414e-05 3.1430645331e+00 -5.4439474628e+00 3.1430645331e+00 5.4439474628e+00 
124500 6.1631447625e+00 -5.1633356898e-05 3.1430645331e+00 -5.4439474628e+00 3.1430645331e+00 5.4439474628e+00 
124600 6.1631447628e+00 -5.1396059173e-05 3.1430645331e+00 -5.4439474628e+00 3.1430645331e+00 5.4439474628e+00 
124700 6.1631447630e+00 -5.1157724258e-05 3.1430645331e+00 -5.4439474628e+00 3.1430645331e+00 5.4439474628e+00 
124800 6.1631447633e+00 -5.0918388826e-05 3.1430645331e+00 -5.4439474628e+00 3.1430645331e+00 5.4439474628e+00 
124900 6.1631447635e+00 -5.0678089185e-05 3.1430645331e+00 -5.4439474628e+00 3.1430645331e+00 5.4439474628e+00 
125000 6.1631447638e+00 -5.0436861282e-05 3.1430645331e+00 -5.4439474628e+00 3.1430645331e+00 5.4439474628e+00 
125100 6.1631447640e+00 -5.0194740686e-05 3.1430645331e+00 -5.4439474628e+00 3.1430645331e+00 5.4439474628e+00 
125200 6.1631447642e+00 -4.9951762582e-05 3.1430645331e+00 -5.4439474628e+00 3.1430645331e+00 5.4439474628e+00 
125300 6.1631447644e+00 -4.9707961766e-05 3.1430645331e+00 -5.4439474628e+00 3.1430645331e+00 5.4439474628e+00 
125400 6.1631447647e+00 -4.9463372644e-05 3.1430645331e+00 -5.4439474628e+00 3.1430645331e+00 5.4439474628e+00 
125500 6.1631447649e+00 -4.9218029214e-05 3.1430645331e+00 -5.4439474628e+00 3.1430645331e+00 5.4439474628e+00 
125600 6.1631447651e+00 -4.8971965075e-05 3.1430645331e+00 -5.4439474628e+00 3.1430645331e+00 5.4439474628e+00 
125700 6.1631447653e+00 -4.8725213412e-05 3.1430645331e+00 -5.4439474628e+00 3.1430645331e+00 5.4439474628e+00 
125800 6.1631447655e+00 -4.8477806998e-05 3.1430645331e+00 -5.4439474628e+00 3.1430645331e+00 5.4439474628e+00 
125900 6.1631447657e+00 -4.8229778192e-05 3.1430645331e+00 -5.4439474628e+00 3.1430645331e+00 5.4439474628e+00 
126000 6.1631447659e+00 -4.7981158933e-05 3.1430645331e+00 -5.4439474628e+00 3.1430645331e+00 5.4439474628e+00 
126100 6.1631447661e+00 -4.7731980737e-05 3.1430645331e+00 -5.4439474628e+00 3.1430645331e+00 5.4439474628e+00 
126200 6.1631447663e+00 -4.7482274699e-05 3.1430645331e+00 -5.4439474628e+00 3.1430645331e+00 5.4439474628e+00 
126300 6.1631447665e+00 -4.7232071492e-05 3.1430645331e+00 -5.4439474628e+00 3.1430645331e+00 5.4439474628e+00 
126400 6.1631447666e+00 -4.6981401358e-05 3.1430645331e+00 -5.4439474628e+00 3.1430645331e+00 5.4439474628e+00 
126500 6.1631447668e+00 -4.6730294116e-05 3.1430645331e+00 -5.4439474628e+00 3.1430645331e+00 5.4439474628e+00 
126600 6.1631447670e+00 -4.6478779160e-05 3.1430645331e+00 -5.4439474628e+00 3.1430645331e+00 5.4439474628e+00 
126700 6.1631447672e+00 -4.6226885456e-05 3.1430645331e+00 -5.4439474628e+00 3.1430645331e+00 5.4439474628e+00 
126800 6.1631447673e+00 -4.5974641543e-05 3.1430645331e+00 -5.4439474628e+00 3.1430645331e+00 5.4439474628e+00 
126900 6.1631447675e+00 -4.5722075538e-05 3.1430645331e+00 -5.4439474628e+00 3.1430645331e+00 5.4439474628e+00 
127000 6.1631447677e+00 -4.5469215131e-05 3.1430645331e+00 -5.4439474628e+00 3.1430645331e+00 5.4439474628e+00 
127100 6.1631447678e+00 -4.5216087586e-05 3.1430645331e+00 -5.4439474628e+00 3.1430645331e+00 5.4439474628e+00 
127200 6.1631447680e+00 -4.4962719751e-05 3.1430645331e+00 -5.4439474628e+00 3.1430645331e+00 5.4439474628e+00 
127300 6.1631447681e+00 -4.4709138047e-05 3.1430645331e+00 -5.4439474628e+00 3.1430645331e+00 5.4439474628e+00 
127400 6.1631447683e+00 -4.4455368479e-05 3.1430645331e+00 -5.4439474628e+00 3.1430645331e+00 5.4439474628e+00 
127500 6.1631447684e+00 -4.4201436633e-05 3.1430645331e+00 -5.4439474628e+00 3.1430645331e+00 5.4439474628e+00 
127600 6.1631447686e+00 -4.3947367681e-05 3.1430645331e+00 -5.4439474628e+00 3.1430645331e+00 5.4439474628e+00 
127700 6.1631447687e+00 -4.3693186383e-05 3.1430645331e+00 -5.4439474628e+00 3.1430645331e+00 5.4439474628e+00 
127800 6.1631447689e+00 -4.3438917085e-05 3.1430645331e+00 -5.4439474628e+00 3.1430645331e+00 5.4439474628e+00 
127900 6.1631447690e+00 -4.3184583729e-05 3.1430645331e+00 -5.4439474628e+00 3.1430645331e+00 5.4439474628e+00 
128000 6.1631447691e+00 -4.2930209846e-05 3.1430645331e+00 -5.4439474628e+00 3.1430645331e+00 5.4439474628e+00 
128100 6.1631447693e+00 -4.2675818568e-05 3.1430645331e+00 -5.4439474628e+00 3.1430645331e+00 5.4439474628e+00 
128200 6.1631447694e+00 -4.2421432624e-05 3.1430645331e+00 -5.4439474628e+00 3.1430645331e+00 5.4439474628e+00 
128300 6.1631447695e+00 -4.2167074349e-05 3.1430645331e+00 -5.4439474628e+00 3.1430645331e+00 5.4439474628e+00 
128400 6.1631447697e+00 -4.1912765678e-05 3.1430645331e+00 -5.4439474628e+00 3.1430645331e+00 5.4439474628e+00 
128500 6.1631447698e+00 -4.1658528158e-05 3.1430645331e+00 -5.4439474628e+00 3.1430645331e+00 5.4439474628e+00 
128600 6.1631447699e+00 -4.1404382946e-05 3.1430645331e+00 -5.4439474628e+00 3.1430645331e+00 5.4439474628e+00 
128700 6.1631447700e+00 -4.1150350815e-05 3.1430645331e+00 -5.4439474628e+00 3.1430645331e+00 5.4439474628e+00 
128800 6.1631447701e+00 -4.0896452152e-05 3.1430645331e+00 -5.4439474628e+00 3.1430645331e+00 5.4439474628e+00 
128900 6.1631447702e+00 -4.0642706970e-05 3.1430645331e+00 -5.4439474628e+00 3.1430645331e+00 5.4439474628e+00 
129000 6.1631447703e+00 -4.0389134901e-05 3.1430645331e+00 -5.4439474628e+00 3.1430645331e+00 5.4439474628e+00 
129100 6.1631447705e+00 -4.0135755209e-05 3.1430645331e+00 -5.4439474628e+00 3.1430645331e+00 5.4439474628e+00 
129200 6.1631447706e+00 -3.9882586786e-05 3.1430645331e+00 -5.4439474628e+00 3.1430645331e+00 5.4439474628e+00 
129300 6.1631447707e+00 -3.9629648157e-05 3.1430645331e+00 -5.4439474628e+00 3.1430645331e+00 5.4439474628e+00 
129400 6.1631447708e+00 -3.9376957485e-05 3.1430645331e+00 -5.4439474628e+00 3.1430645331e+00 5.4439474628e+00 
129500 6.1631447709e+00 -3.9124532575e-05 3.1430645331e+00 -5.4439474628e+00 3.1430645331e+00 5.4439474628e+00 
129600 6.1631447710e+00 -3.8872390875e-05 3.1430645331e+00 -5.4439474628e+00 3.1430645331e+00 5.4439474628e+00 
129700 6.1631447711e+00 -3.8620549479e-05 3.1430645331e+00 -5.4439474628e+00 3.1430645331e+00 5.4439474628e+00 
129800 6.1631447712e+00 -3.8369025136e-05 3.1430645331e+00 -5.4439474628e+00 3.1430645331e+00 5.4439474628e+00 
129900 6.1631447712e+00 -3.8117834243e-05 3.1430645331e+00 -5.4439474628e+00 3.1430645331e+00 5.4439474628e+00 
130000 6.1631447713e+00 -3.7866992859e-05 3.1430645331e+00 -5.4439474628e+00 3.1430645331e+00 5.4439474628e+00 
130100 6.1631447714e+00 -3.7616516704e-05 3.1430645331e+00 -5.4439474628e+00 3.1430645331e+00 5.4439474628e+00 
130200 6.1631447715e+00 -3.7366421160e-05 3.1430645331e+00 -5.4439474628e+00 3.1430645331e+00 5.4439474628e+00 
130300 6.1631447716e+00 -3.7116721277e-05 3.1430645331e+00 -5.4439474628e+00 3.1430645331e+00 5.4439474628e+00 
130400 6.1631447717e+00 -3.6867431779e-05 3.1430645331e+00 -5.4439474628e+00 3.1430645331e+00 5.4439474628e+00 
130500 6.1631447718e+00 -3.6618567063e-05 3.1430645331e+00 -5.4439474628e+00 3.1430645331e+00 5.4439474628e+00 
130600 6.1631447718e+00 -3.6370141201e-05 3.1430645331e+00 -5.4439474628e+00 3.1430645331e+00 5.4439474628e+00 
130700 6.1631447719e+00 -3.6122167950e-05 3.1430645331e+00 -5.4439474628e+00 3.1430645331e+00 5.4439474628e+00 
130800 6.1631447720e+00 -3.5874660750e-05 3.1430645331e+00 -5.4439474628e+00 3.1430645331e+00 5.4439474628e+00 
130900 6.1631447721e+00 -3.5627632732e-05 3.1430645331e+00 -5.4439474628e+00 3.1430645331e+00 5.4439474628e+00 
131000 6.1631447721e+00 -3.5381096714e-05 3.1430645331e+00 -5.4439474628e+00 3.1430645331e+00 5.4439474628e+00 
131100 6.1631447722e+00 -3.5135065216e-05 3.1430645331e+00 -5.4439474628e+00 3.1430645331e+00 5.4439474628e+00 
131200 6.1631447723e+00 -3.4889550447e-05 3.1430645331e+00 -5.4439474628e+00 3.1430645331e+00 5.4439474628e+00 
131300 6.1631447723e+00 -3.4644564327e-05 3.1430645331e+00 -5.4439474628e+00 3.1430645331e+00 5.4439474628e+00 
131400 6.1631447724e+00 -3.4400118473e-05 3.1430645331e+00 -5.4439474628e+00 3.1430645331e+00 5.4439474628e+00 
131500 6.1631447725e+00 -3.4156224215e-05 3.1430645331e+00 -5.4439474628e+00 3.1430645331e+00 5.4439474628e+00 
131600 6.1631447725e+00 -3.3912892595e-05 3.1430645331e+00 -5.4439474628e+00 3.1430645331e+00 5.4439474628e+00 
131700 6.1631447726e+00 -3.3670134368e-05 3.1430645331e+00 -5.4439474628e+00 3.1430645331e+00 5.4439474628e+00 
131800 6.1631447727e+00 -3.3427960010e-05 3.1430645331e+00 -5.4439474628e+00 3.1430645331e+00 5.4439474628e+00 
131900 6.1631447727e+00 -3.3186379715e-05 3.1430645331e+00 -5.4439474628e+00 3.1430645331e+00 5.4439474628e+00 
132000 6.1631447728e+00 -3.2945403411e-05 3.1430645331e+00 -5.4439474628e+00 3.1430645331e+00 5.4439474628e+00 
132100 6.1631447728e+00 -3.2705040743e-05 3.1430645331e+00 -5.4439474628e+00 3.1430645331e+00 5.4439474628e+00 
132200 6.1631447729e+00 -3.2465301097e-05 3.1430645331e+00 -5.4439474628e+00 3.1430645331e+00 5.4439474628e+00 
132300 6.1631447730e+00 -3.2226193592e-05 3.1430645331e+00 -5.4439474628e+00 3.1430645331e+00 5.4439474628e+00 
132400 6.1631447730e+00 -3.1987727082e-05 3.1430645331e+00 -5.4439474628e+00 3.1430645331e+00 5.4439474628e+00 
132500 6.1631447731e+00 -3.1749910169e-05 3.1430645331e+00 -5.4439474628e+00 3.1430645331e+00 5.4439474628e+00 
132600 6.1631447731e+00 -3.1512751200e-05 3.1430645331e+00 -5.4439474628e+00 3.1430645331e+00 5.4439474628e+00 
132700 6.1631447732e+00 -3.1276258267e-05 3.1430645331e+00 -5.4439474628e+00 3.1430645331e+00 5.4439474628e+00 
132800 6.1631447732e+00 -3.1040439215e-05 3.1430645331e+00 -5.4439474628e+00 3.1430645331e+00 5.4439474628e+00 
132900 6.1631447733e+00 -3.0805301646e-05 3.1430645331e+00 -5.4439474628e+00 3.1430645331e+00 5.4439474628e+00 
133000 6.1631447733e+00 -3.0570852922e-05 3.1430645331e+00 -5.4439474628e+00 3.1430645331e+00 5.4439474628e+00 
133100 6.1631447734e+00 -3.0337100168e-05 3.1430645331e+00 -5.4439474628e+00 3.1430645331e+00 5.4439474628e+00 
133200 6.1631447734e+00 -3.0104050272e-05 3.1430645331e+00 -5.4439474628e+00 3.1430645331e+00 5.4439474628e+00 
133300 6.1631447734e+00 -2.9871709893e-05 3.1430645331e+00 -5.4439474628e+00 3.1430645331e+00 5.4439474628e+00 
133400 6.1631447735e+00 -2.9640085463e-05 3.1430645331e+00 -5.4439474628e+00 3.1430645331e+00 5.4439474628e+00 
133500 6.1631447735e+00 -2.9409183186e-05 3.1430645331e+00 -5.4439474628e+00 3.1430645331e+00 5.4439474628e+00 
133600 6.1631447736e+00 -2.9179009052e-05 3.1430645331e+00 -5.4439474628e+00 3.1430645331e+00 5.4439474628e+00 
133700 6.1631447736e+00 -2.8949568831e-05 3.1430645331e+00 -5.4439474628e+00 3.1430645331e+00 5.4439474628e+00 
133800 6.1631447736e+00 -2.8720868078e-05 3.1430645331e+00 -5.4439474628e+00 3.1430645331e+00 5.4439474628e+00 
133900 6.1631447737e+00 -2.8492912137e-05 3.1430645331e+00 -5.4439474628e+00 3.1430645331e+00 5.4439474628e+00 
134000 6.1631447737e+00 -2.8265706147e-05 3.1430645331e+00 -5.4439474628e+00 3.1430645331e+00 5.4439474628e+00 
134100 6.1631447738e+00 -2.8039255041e-05 3.1430645331e+00 -5.4439474628e+00 3.1430645331e+00 5.4439474628e+00 
134200 6.1631447738e+00 -2.7813563556e-05 3.1430645331e+00 -5.4439474628e+00 3.1430645331e+00 5.4439474628e+00 
134300 6.1631447738e+00 -2.7588636227e-05 3.1430645331e+00 -5.4439474628e+00 3.1430645331e+00 5.4439474628e+00 
134400 6.1631447739e+00 -2.7364477401e-05 3.1430645331e+00 -5.4439474628e+00 3.1430645331e+00 5.4439474628e+00 
134500 6.1631447739e+00 -2.7141091228e-05 3.1430645331e+00 -5.4439474628e+00 3.1430645331e+00 5.4439474628e+00 
134600 6.1631447739e+00 -2.6918481680e-05 3.1430645331e+00 -5.4439474628e+00 3.1430645331e+00 5.4439474628e+00 
134700 6.1631447740e+00 -2.6696652536e-05 3.1430645331e+00 -5.4439474628e+00 3.1430645331e+00 5.4439474628e+00 
134800 6.1631447740e+00 -2.6475607409e-05 3.1430645331e+00 -5.4439474628e+00 3.1430645331e+00 5.4439474628e+00 
134900 6.1631447740e+00 -2.6255349718e-05 3.1430645331e+00 -5.4439474628e+00 3.1430645331e+00 5.4439474628e+00 
135000 6.1631447741e+00 -2.6035882723e-05 3.1430645331e+00 -5.4439474628e+00 3.1430645331e+00 5.4439474628e+00 
135100 6.1631447741e+00 -2.5817209504e-05 3.1430645331e+00 -5.4439474628e+00 3.1430645331e+00 5.4439474628e+00 
135200 6.1631447741e+00 -2.5599332985e-05 3.1430645331e+00 -5.4439474628e+00 3.1430645331e+00 5.4439474628e+00 
135300 6.1631447741e+00 -2.5382255917e-05 3.1430645331e+00 -5.4439474628e+00 3.1430645331e+00 5.4439474628e+00 
135400 6.1631447742e+00 -2.5165980901e-05 3.1430645331e+00 -5.4439474628e+00 3.1430645331e+00 5.4439474628e+00 
135500 6.1631447742e+00 -2.4950510371e-05 3.1430645331e+00 -5.4439474628e+00 3.1430645331e+00 5.4439474628e+00 
135600 6.1631447742e+00 -2.4735846615e-05 3.1430645331e+00 -5.4439474628e+00 3.1430645331e+00 5.4439474628e+00 
135700 6.1631447742e+00 -2.4521991772e-05 3.1430645331e+00 -5.4439474628e+00 3.1430645331e+00 5.4439474628e+00 
135800 6.1631447743e+00 -2.4308947830e-05 3.1430645331e+00 -5.4439474628e+00 3.1430645331e+00 5.4439474628e+00 
135900 6.1631447743e+00 -2.4096716640e-05 3.1430645331e+00 -5.4439474628e+00 3.1430645331e+00 5.4439474628e+00 
136000 6.1631447743e+00 -2.3885299905e-05 3.1430645331e+00 -5.4439474628e+00 3.1430645331e+00 5.4439474628e+00 
136100 6.1631447743e+00 -2.3674699199e-05 3.1430645331e+00 -5.4439474628e+00 3.1430645331e+00 5.4439474628e+00 
136200 6.1631447744e+00 -2.3464915957e-05 3.1430645331e+00 -5.4439474628e+00 3.1430645331e+00 5.4439474628e+00 
136300 6.1631447744e+00 -2.3255951485e-05 3.1430645331e+00 -5.4439474628e+00 3.1430645331e+00 5.4439474628e+00 
136400 6.1631447744e+00 -2.3047806966e-05 3.1430645331e+00 -5.4439474628e+00 3.1430645331e+00 5.4439474628e+00 
136500 6.1631447744e+00 -2.2840483449e-05 3.1430645331e+00 -5.4439474628e+00 3.1430645331e+00 5.4439474628e+00 
136600 6.1631447744e+00 -2.2633981881e-05 3.1430645331e+00 -5.4439474628e+00 3.1430645331e+00 5.4439474628e+00 
136700 6.1631447745e+00 -2.2428303069e-05 3.1430645331e+00 -5.4439474628e+00 3.1430645331e+00 5.4439474628e+00 
136800 6.1631447745e+00 -2.2333967296e-05 3.1430645331e+00 -5.4439474628e+00 3.1430645331e+00 5.4439474628e+00 
136800 6.1631447745e+00 -2.2333967296e-05 3.1430645331e+00 -5.4439474628e+00 3.1430645331e+00 5.4439474628e+00 
