# step Hamiltonian StressXX CellTensor1 CellTensor2 CellTensor3 CellTensor4 
0 5.3225955630e+00 9.7464255437e-02 1.7770303270e+00 -3.0779068129e+00 1.7770303270e+00 3.0779068129e+00 
100 5.3259796086e+00 9.8122200781e-02 1.7770303270e+00 -3.0779068129e+00 1.7770303270e+00 3.0779068129e+00 
200 5.3284678482e+00 9.6132060971e-02 1.7742701953e+00 -3.0731261246e+00 1.7742701953e+00 3.0731261246e+00 
300 5.3304484528e+00 9.3876605445e-02 1.7715618265e+00 -3.0684350923e+00 1.7715618265e+00 3.0684350923e+00 
400 5.3319903810e+00 9.1407671329e-02 1.7689129444e+00 -3.0638470938e+00 1.7689129444e+00 3.0638470938e+00 
500 5.3331548220e+00 8.8770925958e-02 1.7663298498e+00 -3.0593730429e+00 1.7663298498e+00 3.0593730429e+00 
600 5.3339959757e+00 8.6006467858e-02 1.7638175827e+00 -3.0550216686e+00 1.7638175827e+00 3.0550216686e+00 
700 5.3345617678e+00 8.3149389424e-02 1.7613800680e+00 -3.0507997693e+00 1.7613800680e+00 3.0507997693e+00 
800 5.3348945035e+00 8.0230298436e-02 1.7590202481e+00 -3.0467124413e+00 1.7590202481e+00 3.0467124413e+00 
900 5.3350314605e+00 7.7275797267e-02 1.7567402022e+00 -3.0427632859e+00 1.7567402022e+00 3.0427632859e+00 
1000 5.3350054258e+00 7.4308920015e-02 1.7545412529e+00 -3.0389545940e+00 1.7545412529e+00 3.0389545940e+00 
1100 5.3348451795e+00 7.1349528747e-02 1.7524240626e+00 -3.0352875129e+00 1.7524240626e+00 3.0352875129e+00 
1200 5.3345759294e+00 6.8414670795e-02 1.7503887191e+00 -3.0317621945e+00 1.7503887191e+00 3.0317621945e+00 
1300 5.3342197009e+00 6.5518899484e-02 1.7484348124e+00 -3.0283779288e+00 1.7484348124e+00 3.0283779288e+00 
1400 5.3337956861e+00 6.2674560938e-02 1.7465615030e+00 -3.0251332618e+00 1.7465615030e+00 3.0251332618e+00 
1500 5.3333205549e+00 5.9892049775e-02 1.7447675834e+00 -3.0220261019e+00 1.7447675834e+00 3.0220261019e+00 
1600 5.3328087344e+00 5.7180036458e-02 1.7430515319e+00 -3.0190538135e+00 1.7430515319e+00 3.0190538135e+00 
1700 5.3322726563e+00 5.4545669053e-02 1.7414115615e+00 -3.0162133014e+00 1.7414115615e+00 3.0162133014e+00 
1800 5.3317229792e+00 5.1994751987e-02 1.7398456627e+00 -3.0135010851e+00 1.7398456627e+00 3.0135010851e+00 
1900 5.3311687859e+00 4.9531904261e-02 1.7383516421e+00 -3.0109133656e+00 1.7383516421e+00 3.0109133656e+00 
2000 5.3306177601e+00 4.7160699362e-02 1.7369271567e+00 -3.0084460844e+00 1.7369271567e+00 3.0084460844e+00 
2100 5.3300763433e+00 4.4883788976e-02 1.7355697436e+00 -3.0060949760e+00 1.7355697436e+00 3.0060949760e+00 
2200 5.3295498764e+00 4.2703012354e-02 1.7342768480e+00 -3.0038556151e+00 1.7342768480e+00 3.0038556151e+00 
2300 5.3290427245e+00 4.0619493047e-02 1.7330458462e+00 -3.0017234575e+00 1.7330458462e+00 3.0017234575e+00 
2400 5.3285583901e+00 3.8633724515e-02 1.7318740679e+00 -2.9996938779e+00 1.7318740679e+00 2.9996938779e+00 
2500 5.3280996140e+00 3.6745645973e-02 1.7307588143e+00 -2.9977622020e+00 1.7307588143e+00 2.9977622020e+00 
2600 5.3276684654e+00 3.4954709664e-02 1.7296973756e+00 -2.9959237363e+00 1.7296973756e+00 2.9959237363e+00 
2700 5.3272664234e+00 3.3259940616e-02 1.7286870456e+00 -2.9941737933e+00 1.7286870456e+00 2.9941737933e+00 
2800 5.3268944503e+00 3.1659989824e-02 1.7277251348e+00 -2.9925077150e+00 1.7277251348e+00 2.9925077150e+00 
2900 5.3265530569e+00 3.0153181669e-02 1.7268089824e+00 -2.9909208925e+00 1.7268089824e+00 2.9909208925e+00 
3000 5.3262423621e+00 2.8737556285e-02 1.7259359663e+00 -2.9894087843e+00 1.7259359663e+00 2.9894087843e+00 
3100 5.3259621464e+00 2.7410907517e-02 1.7251035124e+00 -2.9879669318e+00 1.7251035124e+00 2.9879669318e+00 
3200 5.3257118998e+00 2.6170816988e-02 1.7243091020e+00 -2.9865909726e+00 1.7243091020e+00 2.9865909726e+00 
3300 5.3254908659e+00 2.5014684780e-02 1.7235502793e+00 -2.9852766532e+00 1.7235502793e+00 2.9852766532e+00 
3400 5.3252980808e+00 2.3939757116e-02 1.7228246571e+00 -2.9840198386e+00 1.7228246571e+00 2.9840198386e+00 
3500 5.3251324087e+00 2.2943151421e-02 1.7221299216e+00 -2.9828165215e+00 1.7221299216e+00 2.9828165215e+00 
3600 5.3249925744e+00 2.2021879050e-02 1.7214638374e+00 -2.9816628298e+00 1.7214638374e+00 2.9816628298e+00 
3700 5.3248771917e+00 2.1172865976e-02 1.7208242505e+00 -2.9805550327e+00 1.7208242505e+00 2.9805550327e+00 
3800 5.3247847901e+00 2.0392971646e-02 1.7202090917e+00 -2.9794895464e+00 1.7202090917e+00 2.9794895464e+00 
3900 5.3247138378e+00 1.9679006222e-02 1.7196163788e+00 -2.9784629377e+00 1.7196163788e+00 2.9784629377e+00 
4000 5.3246627630e+00 1.9027746363e-02 1.7190442188e+00 -2.9774719275e+00 1.7190442188e+00 2.9774719275e+00 
4100 5.3246299726e+00 1.8435949709e-02 1.7184908088e+00 -2.9765133933e+00 1.7184908088e+00 2.9765133933e+00 
4200 5.3246138696e+00 1.7900368190e-02 1.7179544373e+00 -2.9755843705e+00 1.7179544373e+00 2.9755843705e+00 
4300 5.3246128672e+00 1.7417760254e-02 1.7174334845e+00 -2.9746820538e+00 1.7174334845e+00 2.9746820538e+00 
4400 5.3246254026e+00 1.6984902134e-02 1.7169264226e+00 -2.9738037968e+00 1.7169264226e+00 2.9738037968e+00 
4500 5.3246499483e+00 1.6598598208e-02 1.7164318153e+00 -2.9729471119e+00 1.7164318153e+00 2.9729471119e+00 
4600 5.3246850223e+00 1.6255690529e-02 1.7159483176e+00 -2.9721096692e+00 1.7159483176e+00 2.9721096692e+00 
4700 5.3247291966e+00 1.5953067591e-02 1.7154746744e+00 -2.9712892952e+00 1.7154746744e+00 2.9712892952e+00 
4800 5.3247811042e+00 1.5687672359e-02 1.7150097201e+00 -2.9704839707e+00 1.7150097201e+00 2.9704839707e+00 
4900 5.3248394461e+00 1.5456509636e-02 1.7145523765e+00 -2.9696918284e+00 1.7145523765e+00 2.9696918284e+00 
5000 5.3249029950e+00 1.5256652768e-02 1.7141016515e+00 -2.9689111498e+00 1.7141016515e+00 2.9689111498e+00 
5100 5.3249706002e+00 1.5085249748e-02 1.7136566373e+00 -2.9681403625e+00 1.7136566373e+00 2.9681403625e+00 
5200 5.3250411898e+00 1.4939528734e-02 1.7132165082e+00 -2.9673780365e+00 1.7132165082e+00 2.9673780365e+00 
5300 5.3251137733e+00 1.4816802994e-02 1.7127805185e+00 -2.9666228802e+00 1.7127805185e+00 2.9666228802e+00 
5400 5.3251874419e+00 1.4714475327e-02 1.7123480002e+00 -2.9658737365e+00 1.7123480002e+00 2.9658737365e+00 
5500 5.3252613695e+00 1.4630041953e-02 1.7119183603e+00 -2.9651295784e+00 1.7119183603e+00 2.9651295784e+00 
5600 5.3253348123e+00 1.4561095901e-02 1.7114910784e+00 -2.9643895045e+00 1.7114910784e+00 2.9643895045e+00 
5700 5.3254071073e+00 1.4505329912e-02 1.7110657039e+00 -2.9636527343e+00 1.7110657039e+00 2.9636527343e+00 
5800 5.3254776713e+00 1.4460538877e-02 1.7106418531e+00 -2.9629186032e+00 1.7106418531e+00 2.9629186032e+00 
5900 5.3255459983e+00 1.4424621809e-02 1.7102192064e+00 -2.9621865576e+00 1.7102192064e+00 2.9621865576e+00 
6000 5.3256116574e+00 1.4395583390e-02 1.7097975053e+00 -2.9614561498e+00 1.7097975053e+00 2.9614561498e+00 
6100 5.3256742893e+00 1.4371535082e-02 1.7093765492e+00 -2.9607270325e+00 1.7093765492e+00 2.9607270325e+00 
6200 5.3257336033e+00 1.4350695839e-02 1.7089561928e+00 -2.9599989539e+00 1.7089561928e+00 2.9599989539e+00 
6300 5.3257893737e+00 1.4331392421e-02 1.7085363428e+00 -2.9592717522e+00 1.7085363428e+00 2.9592717522e+00 
6400 5.3258414357e+00 1.4312059342e-02 1.7081169544e+00 -2.9585453502e+00 1.7081169544e+00 2.9585453502e+00 
6500 5.3258896817e+00 1.4291238444e-02 1.7076980289e+00 -2.9578197500e+00 1.7076980289e+00 2.9578197500e+00 
6600 5.3259340566e+00 1.4267578151e-02 1.7072796102e+00 -2.9570950276e+00 1.7072796102e+00 2.9570950276e+00 
6700 5.3259745538e+00 1.4239832377e-02 1.7068617819e+00 -2.9563713277e+00 1.7068617819e+00 2.9563713277e+00 
6800 5.3260112108e+00 1.4206859147e-02 1.7064446640e+00 -2.9556488583e+00 1.7064446640e+00 2.9556488583e+00 
6900 5.3260441050e+00 1.4167618924e-02 1.7060284102e+00 -2.9549278856e+00 1.7060284102e+00 2.9549278856e+00 
7000 5.3260733488e+00 1.4121172668e-02 1.7056132048e+00 -2.9542087288e+00 1.7056132048e+00 2.9542087288e+00 
7100 5.3260990859e+00 1.4066679648e-02 1.7051992598e+00 -2.9534917550e+00 1.7051992598e+00 2.9534917550e+00 
7200 5.3261214864e+00 1.4003395028e-02 1.7047868120e+00 -2.9527773745e+00 1.7047868120e+00 2.9527773745e+00 
7300 5.3261407435e+00 1.3930667242e-02 1.7043761204e+00 -2.9520660358e+00 1.7043761204e+00 2.9520660358e+00 
7400 5.3261570687e+00 1.3847935175e-02 1.7039674632e+00 -2.9513582208e+00 1.7039674632e+00 2.9513582208e+00 
7500 5.3261706885e+00 1.3754725185e-02 1.7035611355e+00 -2.9506544405e+00 1.7035611355e+00 2.9506544405e+00 
7600 5.3261818407e+00 1.3650647967e-02 1.7031574464e+00 -2.9499552305e+00 1.7031574464e+00 2.9499552305e+00 
7700 5.3261907709e+00 1.3535395283e-02 1.7027567168e+00 -2.9492611464e+00 1.7027567168e+00 2.9492611464e+00 
7800 5.3261977290e+00 1.3408736589e-02 1.7023592769e+00 -2.9485727603e+00 1.7023592769e+00 2.9485727603e+00 
7900 5.3262029668e+00 1.3270515562e-02 1.7019654640e+00 -2.9478906565e+00 1.7019654640e+00 2.9478906565e+00 
8000 5.3262067347e+00 1.3120646552e-02 1.7015756204e+00 -2.9472154274e+00 1.7015756204e+00 2.9472154274e+00 
8100 5.3262092794e+00 1.2959110975e-02 1.7011900909e+00 -2.9465476708e+00 1.7011900909e+00 2.9465476708e+00 
8200 5.3262108417e+00 1.2785953667e-02 1.7008092214e+00 -2.9458879855e+00 1.7008092214e+00 2.9458879855e+00 
8300 5.3262116542e+00 1.2601279209e-02 1.7004333568e+00 -2.9452369688e+00 1.7004333568e+00 2.9452369688e+00 
8400 5.3262119399e+00 1.2405248244e-02 1.7000628388e+00 -2.9445952129e+00 1.7000628388e+00 2.9445952129e+00 
8500 5.3262119101e+00 1.2198073796e-02 1.6996980051e+00 -2.9439633024e+00 1.6996980051e+00 2.9439633024e+00 
8600 5.3262117638e+00 1.1980017612e-02 1.6993391871e+00 -2.9433418114e+00 1.6993391871e+00 2.9433418114e+00 
8700 5.3262116859e+00 1.1751386524e-02 1.6989867088e+00 -2.9427313011e+00 1.6989867088e+00 2.9427313011e+00 
8800 5.3262118467e+00 1.1512528867e-02 1.6986408854e+00 -2.9421323174e+00 1.6986408854e+00 2.9421323174e+00 
8900 5.3262124013e+00 1.1263830942e-02 1.6983020220e+00 -2.9415453886e+00 1.6983020220e+00 2.9415453886e+00 
9000 5.3262134890e+00 1.1005713543e-02 1.6979704124e+00 -2.9409710240e+00 1.6979704124e+00 2.9409710240e+00 
9100 5.3262152331e+00 1.0738628562e-02 1.6976463383e+00 -2.9404097113e+00 1.6976463383e+00 2.9404097113e+00 
9200 5.3262177407e+00 1.0463055674e-02 1.6973300682e+00 -2.9398619154e+00 1.6973300682e+00 2.9398619154e+00 
9300 5.3262211030e+00 1.0179499105e-02 1.6970218566e+00 -2.9393280771e+00 1.6970218566e+00 2.9393280771e+00 
9400 5.3262253953e+00 9.8884845068e-03 1.6967219430e+00 -2.9388086115e+00 1.6967219430e+00 2.9388086115e+00 
9500 5.3262306776e+00 9.5905559222e-03 1.6964305516e+00 -2.9383039069e+00 1.6964305516e+00 2.9383039069e+00 
9600 5.3262369949e+00 9.2862728634e-03 1.6961478908e+00 -2.9378143240e+00 1.6961478908e+00 2.9378143240e+00 
9700 5.3262443778e+00 8.9762074987e-03 1.6958741522e+00 -2.9373401948e+00 1.6958741522e+00 2.9373401948e+00 
9800 5.3262528432e+00 8.6609419535e-03 1.6956095107e+00 -2.9368818223e+00 1.6956095107e+00 2.9368818223e+00 
9900 5.3262623954e+00 8.3410657276e-03 1.6953541239e+00 -2.9364394794e+00 1.6953541239e+00 2.9364394794e+00 
10000 5.3262730264e+00 8.0171732316e-03 1.6951081321e+00 -2.9360134091e+00 1.6951081321e+00 2.9360134091e+00 
10100 5.3262847170e+00 7.6898614434e-03 1.6948716579e+00 -2.9356038238e+00 1.6948716579e+00 2.9356038238e+00 
10200 5.3262974381e+00 7.3597276848e-03 1.6946448062e+00 -2.9352109052e+00 1.6946448062e+00 2.9352109052e+00 
10300 5.3263111511e+00 7.0273675203e-03 1.6944276643e+00 -2.9348348042e+00 1.6944276643e+00 2.9348348042e+00 
10400 5.3263258090e+00 6.6933727759e-03 1.6942203015e+00 -2.9344756414e+00 1.6942203015e+00 2.9344756414e+00 
10500 5.3263413579e+00 6.3583296781e-03 1.6940227698e+00 -2.9341335065e+00 1.6940227698e+00 2.9341335065e+00 
10600 5.3263577373e+00 6.0228171121e-03 1.6938351038e+00 -2.9338084593e+00 1.6938351038e+00 2.9338084593e+00 
10700 5.3263748815e+00 5.6874049969e-03 1.6936573205e+00 -2.9335005296e+00 1.6936573205e+00 2.9335005296e+00 
10800 5.3263927202e+00 5.3526527759e-03 1.6934894202e+00 -2.9332097178e+00 1.6934894202e+00 2.9332097178e+00 
10900 5.3264111800e+00 5.0191080211e-03 1.6933313864e+00 -2.9329359953e+00 1.6933313864e+00 2.9329359953e+00 
11000 5.3264301846e+00 4.6873051474e-03 1.6931831864e+00 -2.9326793054e+00 1.6931831864e+00 2.9326793054e+00 
11100 5.3264496563e+00 4.3577642358e-03 1.6930447713e+00 -2.9324395634e+00 1.6930447713e+00 2.9324395634e+00 
11200 5.3264695161e+00 4.0309899604e-03 1.6929160769e+00 -2.9322166581e+00 1.6929160769e+00 2.9322166581e+00 
11300 5.3264896852e+00 3.7074706189e-03 1.6927970237e+00 -2.9320104519e+00 1.6927970237e+00 2.9320104519e+00 
11400 5.3265100851e+00 3.3876772609e-03 1.6926875176e+00 -2.9318207818e+00 1.6926875176e+00 2.9318207818e+00 
11500 5.3265306388e+00 3.0720629122e-03 1.6925874506e+00 -2.9316474607e+00 1.6925874506e+00 2.9316474607e+00 
11600 5.3265512707e+00 2.7610618912e-03 1.6924967009e+00 -2.9314902776e+00 1.6924967009e+00 2.9314902776e+00 
11700 5.3265719078e+00 2.4550892134e-03 1.6924151338e+00 -2.9313489993e+00 1.6924151338e+00 2.9313489993e+00 
11800 5.3265924800e+00 2.1545400820e-03 1.6923426022e+00 -2.9312233709e+00 1.6923426022e+00 2.9312233709e+00 
11900 5.3266129200e+00 1.8597894592e-03 1.6922789471e+00 -2.9311131169e+00 1.6922789471e+00 2.9311131169e+00 
12000 5.3266331645e+00 1.5711917161e-03 1.6922239981e+00 -2.9310179425e+00 1.6922239981e+00 2.9310179425e+00 
12100 5.3266531539e+00 1.2890803573e-03 1.6921775745e+00 -2.9309375344e+00 1.6921775745e+00 2.9309375344e+00 
12200 5.3266728328e+00 1.0137678157e-03 1.6921394852e+00 -2.9308715619e+00 1.6921394852e+00 2.9308715619e+00 
12300 5.3266921500e+00 7.4554531624e-04 1.6921095301e+00 -2.9308196781e+00 1.6921095301e+00 2.9308196781e+00 
12400 5.3267110590e+00 4.8468280268e-04 1.6920875001e+00 -2.9307815210e+00 1.6920875001e+00 2.9307815210e+00 
12500 5.3267295177e+00 2.3142892602e-04 1.6920731781e+00 -2.9307567145e+00 1.6920731781e+00 2.9307567145e+00 
12600 5.3267474886e+00 -1.3988909863e-05 1.6920663395e+00 -2.9307448697e+00 1.6920663395e+00 2.9307448697e+00 
12700 5.3267649391e+00 -2.5177423344e-04 1.6920663395e+00 -2.9307448697e+00 1.6920663395e+00 2.9307448697e+00 
12800 5.3267818409e+00 -4.8091255598e-04 1.6920737793e+00 -2.9307577559e+00 1.6920737793e+00 2.9307577559e+00 
12900 5.3267981702e+00 -7.0165923241e-04 1.6920879901e+00 -2.9307823697e+00 1.6920879901e+00 2.9307823697e+00 
13000 5.3268139077e+00 -9.1387032236e-04 1.6921087236e+00 -2.9308182813e+00 1.6921087236e+00 2.9308182813e+00 
13100 5.3268290384e+00 -1.1174221517e-03 1.6921357276e+00 -2.9308650535e+00 1.6921357276e+00 2.9308650535e+00 
13200 5.3268435515e+00 -1.3122109861e-03 1.6921687458e+00 -2.9309222427e+00 1.6921687458e+00 2.9309222427e+00 
13300 5.3268574402e+00 -1.4981526680e-03 1.6922075190e+00 -2.9309893999e+00 1.6922075190e+00 2.9309893999e+00 
13400 5.3268707011e+00 -1.6751822195e-03 1.6922517854e+00 -2.9310660716e+00 1.6922517854e+00 2.9310660716e+00 
13500 5.3268833348e+00 -1.8432534136e-03 1.6923012813e+00 -2.9311518010e+00 1.6923012813e+00 2.9311518010e+00 
13600 5.3268953450e+00 -2.0023383169e-03 1.6923557416e+00 -2.9312461289e+00 1.6923557416e+00 2.9312461289e+00 
13700 5.3269067382e+00 -2.1524268053e-03 1.6924149002e+00 -2.9313485947e+00 1.6924149002e+00 2.9313485947e+00 
13800 5.3269175241e+00 -2.2935260555e-03 1.6924784910e+00 -2.9314587372e+00 1.6924784910e+00 2.9314587372e+00 
13900 5.3269277149e+00 -2.4256600149e-03 1.6925462479e+00 -2.9315760956e+00 1.6925462479e+00 2.9315760956e+00 
14000 5.3269373249e+00 -2.5488688511e-03 1.6926179056e+00 -2.9317002102e+00 1.6926179056e+00 2.9317002102e+00 
14100 5.3269463705e+00 -2.6632083841e-03 1.6926931998e+00 -2.9318306237e+00 1.6926931998e+00 2.9318306237e+00 
14200 5.3269548701e+00 -2.7687495028e-03 1.6927718682e+00 -2.9319668813e+00 1.6927718682e+00 2.9319668813e+00 
14300 5.3269628434e+00 -2.8655775671e-03 1.6928536504e+00 -2.9321085322e+00 1.6928536504e+00 2.9321085322e+00 
14400 5.3269703114e+00 -2.9537917995e-03 1.6929382886e+00 -2.9322551299e+00 1.6929382886e+00 2.9322551299e+00 
14500 5.3269772964e+00 -3.0335046650e-03 1.6930255279e+00 -2.9324062329e+00 1.6930255279e+00 2.9324062329e+00 
14600 5.3269838214e+00 -3.1048412440e-03 1.6931151170e+00 -2.9325614057e+00 1.6931151170e+00 2.9325614057e+00 
14700 5.3269899099e+00 -3.1679385978e-03 1.6932068080e+00 -2.9327202192e+00 1.6932068080e+00 2.9327202192e+00 
14800 5.3269955859e+00 -3.2229451296e-03 1.6933003574e+00 -2.9328822514e+00 1.6933003574e+00 2.9328822514e+00 
14900 5.3270008737e+00 -3.2700199418e-03 1.6933955258e+00 -2.9330470880e+00 1.6933955258e+00 2.9330470880e+00 
15000 5.3270057975e+00 -3.3093321915e-03 1.6934920789e+00 -2.9332143229e+00 1.6934920789e+00 2.9332143229e+00 
15100 5.3270103815e+00 -3.3410604452e-03 1.6935897872e+00 -2.9333835586e+00 1.6935897872e+00 2.9333835586e+00 
15200 5.3270146494e+00 -3.3653920352e-03 1.6936884266e+00 -2.9335544070e+00 1.6936884266e+00 2.9335544070e+00 
15300 5.3270186248e+00 -3.3825224170e-03 1.6937877785e+00 -2.9337264896e+00 1.6937877785e+00 2.9337264896e+00 
15400 5.3270223305e+00 -3.3926545314e-03 1.6938876303e+00 -2.9338994380e+00 1.6938876303e+00 2.9338994380e+00 
15500 5.3270257887e+00 -3.3959981709e-03 1.6939877753e+00 -2.9340728943e+00 1.6939877753e+00 2.9340728943e+00 
15600 5.3270290207e+00 -3.3927693513e-03 1.6940880131e+00 -2.9342465112e+00 1.6940880131e+00 2.9342465112e+00 
15700 5.3270320472e+00 -3.3831896913e-03 1.6941881497e+00 -2.9344199528e+00 1.6941881497e+00 2.9344199528e+00 
15800 5.3270348879e+00 -3.3674858001e-03 1.6942879976e+00 -2.9345928945e+00 1.6942879976e+00 2.9345928945e+00 
15900 5.3270375613e+00 -3.3458886729e-03 1.6943873762e+00 -2.9347650232e+00 1.6943873762e+00 2.9347650232e+00 
16000 5.3270400851e+00 -3.3186330978e-03 1.6944861116e+00 -2.9349360380e+00 1.6944861116e+00 2.9349360380e+00 
16100 5.3270424759e+00 -3.2859570731e-03 1.6945840370e+00 -2.9351056498e+00 1.6945840370e+00 2.9351056498e+00 
16200 5.3270447492e+00 -3.2481012360e-03 1.6946809926e+00 -2.9352735818e+00 1.6946809926e+00 2.9352735818e+00 
16300 5.3270469192e+00 -3.2053083046e-03 1.6947768257e+00 -2.9354395697e+00 1.6947768257e+00 2.9354395697e+00 
16400 5.3270489993e+00 -3.1578225323e-03 1.6948713909e+00 -2.9356033614e+00 1.6948713909e+00 2.9356033614e+00 
16500 5.3270510015e+00 -3.1058891777e-03 1.6949645500e+00 -2.9357647176e+00 1.6949645500e+00 2.9357647176e+00 
16600 5.3270529370e+00 -3.0497539872e-03 1.6950561719e+00 -2.9359234113e+00 1.6950561719e+00 2.9359234113e+00 
16700 5.3270548156e+00 -2.9896626950e-03 1.6951461329e+00 -2.9360792285e+00 1.6951461329e+00 2.9360792285e+00 
16800 5.3270566463e+00 -2.9258605373e-03 1.6952343167e+00 -2.9362319673e+00 1.6952343167e+00 2.9362319673e+00 
16900 5.3270584370e+00 -2.8585917837e-03 1.6953206141e+00 -2.9363814387e+00 1.6953206141e+00 2.9363814387e+00 
17000 5.3270601947e+00 -2.7880992853e-03 1.6954049231e+00 -2.9365274662e+00 1.6954049231e+00 2.9365274662e+00 
17100 5.3270619252e+00 -2.7146240400e-03 1.6954871489e+00 -2.9366698855e+00 1.6954871489e+00 2.9366698855e+00 
17200 5.3270636337e+00 -2.6384047753e-03 1.6955672040e+00 -2.9368085449e+00 1.6955672040e+00 2.9368085449e+00 
17300 5.3270653245e+00 -2.5596775490e-03 1.6956450076e+00 -2.9369433047e+00 1.6956450076e+00 2.9369433047e+00 
17400 5.3270670010e+00 -2.4786753686e-03 1.6957204861e+00 -2.9370740374e+00 1.6957204861e+00 2.9370740374e+00 
17500 5.3270686659e+00 -2.3956278285e-03 1.6957935728e+00 -2.9372006273e+00 1.6957935728e+00 2.9372006273e+00 
17600 5.3270703213e+00 -2.3107607658e-03 1.6958642077e+00 -2.9373229706e+00 1.6958642077e+00 2.9373229706e+00 
17700 5.3270719687e+00 -2.2242959356e-03 1.6959323375e+00 -2.9374409748e+00 1.6959323375e+00 2.9374409748e+00 
17800 5.3270736088e+00 -2.1364507043e-03 1.6959979153e+00 -2.9375545588e+00 1.6959979153e+00 2.9375545588e+00 
17900 5.3270752421e+00 -2.0474377625e-03 1.6960609008e+00 -2.9376636528e+00 1.6960609008e+00 2.9376636528e+00 
18000 5.3270768684e+00 -1.9574648561e-03 1.6961212597e+00 -2.9377681976e+00 1.6961212597e+00 2.9377681976e+00 
18100 5.3270784872e+00 -1.8667345368e-03 1.6961789642e+00 -2.9378681447e+00 1.6961789642e+00 2.9378681447e+00 
18200 5.3270800977e+00 -1.7754439314e-03 1.6962339921e+00 -2.9379634559e+00 1.6962339921e+00 2.9379634559e+00 
18300 5.3270816988e+00 -1.6837845295e-03 1.6962863273e+00 -2.9380541031e+00 1.6962863273e+00 2.9380541031e+00 
18400 5.3270832890e+00 -1.5919419904e-03 1.6963359590e+00 -2.9381400677e+00 1.6963359590e+00 2.9381400677e+00 
18500 5.3270848667e+00 -1.5000959672e-03 1.6963828822e+00 -2.9382213411e+00 1.6963828822e+00 2.9382213411e+00 
18600 5.3270864302e+00 -1.4084199508e-03 1.6964270969e+00 -2.9382979232e+00 1.6964270969e+00 2.9382979232e+00 
18700 5.3270879776e+00 -1.3170811301e-03 1.6964686085e+00 -2.9383698233e+00 1.6964686085e+00 2.9383698233e+00 
18800 5.3270895070e+00 -1.2262402710e-03 1.6965074269e+00 -2.9384370589e+00 1.6965074269e+00 2.9384370589e+00 
18900 5.3270910164e+00 -1.1360516124e-03 1.6965435672e+00 -2.9384996557e+00 1.6965435672e+00 2.9384996557e+00 
19000 5.3270925037e+00 -1.0466627791e-03 1.6965770487e+00 -2.9385576473e+00 1.6965770487e+00 2.9385576473e+00 
19100 5.3270939671e+00 -9.5821471151e-04 1.6966078951e+00 -2.9386110748e+00 1.6966078951e+00 2.9386110748e+00 
19200 5.3270954045e+00 -8.7084161152e-04 1.6966361343e+00 -2.9386599865e+00 1.6966361343e+00 2.9386599865e+00 
19300 5.3270968142e+00 -7.8467090426e-04 1.6966617981e+00 -2.9387044376e+00 1.6966617981e+00 2.9387044376e+00 
19400 5.3270981943e+00 -6.9982321524e-04 1.6966849221e+00 -2.9387444896e+00 1.6966849221e+00 2.9387444896e+00 
19500 5.3270995433e+00 -6.1641236242e-04 1.6967055454e+00 -2.9387802102e+00 1.6967055454e+00 2.9387802102e+00 
19600 5.3271008596e+00 -5.3454536277e-04 1.6967237104e+00 -2.9388116729e+00 1.6967237104e+00 2.9388116729e+00 
19700 5.3271021419e+00 -4.5432245278e-04 1.6967394627e+00 -2.9388389567e+00 1.6967394627e+00 2.9388389567e+00 
19800 5.3271033889e+00 -3.7583712242e-04 1.6967528509e+00 -2.9388621456e+00 1.6967528509e+00 2.9388621456e+00 
19900 5.3271045996e+00 -2.9917616205e-04 1.6967639261e+00 -2.9388813284e+00 1.6967639261e+00 2.9388813284e+00 
20000 5.3271057731e+00 -2.2441972175e-04 1.6967727422e+00 -2.9388965983e+00 1.6967727422e+00 2.9388965983e+00 
20100 5.3271069086e+00 -1.5164138238e-04 1.6967793553e+00 -2.9389080526e+00 1.6967793553e+00 2.9389080526e+00 
20200 5.3271080057e+00 -8.0908238075e-05 1.6967838238e+00 -2.9389157923e+00 1.6967838238e+00 2.9389157923e+00 
20300 5.3271090638e+00 -1.2280989359e-05 1.6967862080e+00 -2.9389199218e+00 1.6967862080e+00 2.9389199218e+00 
20400 5.3271100828e+00 5.3832823285e-05 1.6967862080e+00 -2.9389199218e+00 1.6967862080e+00 2.9389199218e+00 
20500 5.3271110631e+00 1.1964707873e-04 1.6967862080e+00 -2.9389199218e+00 1.6967862080e+00 2.9389199218e+00 
20600 5.3271120042e+00 1.8162803308e-04 1.6967826823e+00 -2.9389138151e+00 1.6967826823e+00 2.9389138151e+00 
20700 5.3271129064e+00 2.4132302943e-04 1.6967773301e+00 -2.9389045449e+00 1.6967773301e+00 2.9389045449e+00 
20800 5.3271137703e+00 2.9870152672e-04 1.6967702189e+00 -2.9388922280e+00 1.6967702189e+00 2.9388922280e+00 
20900 5.3271145964e+00 3.5373863023e-04 1.6967614169e+00 -2.9388769824e+00 1.6967614169e+00 2.9388769824e+00 
21000 5.3271153853e+00 4.0641493934e-04 1.6967509930e+00 -2.9388589276e+00 1.6967509930e+00 2.9388589276e+00 
21100 5.3271161378e+00 4.5671638927e-04 1.6967390167e+00 -2.9388381841e+00 1.6967390167e+00 2.9388381841e+00 
21200 5.3271168548e+00 5.0463408723e-04 1.6967255581e+00 -2.9388148731e+00 1.6967255581e+00 2.9388148731e+00 
21300 5.3271175373e+00 5.5016414356e-04 1.6967106873e+00 -2.9387891161e+00 1.6967106873e+00 2.9387891161e+00 
21400 5.3271181864e+00 5.9330749848e-04 1.6966944746e+00 -2.9387610350e+00 1.6966944746e+00 2.9387610350e+00 
21500 5.3271188032e+00 6.3406974490e-04 1.6966769904e+00 -2.9387307515e+00 1.6966769904e+00 2.9387307515e+00 
21600 5.3271193889e+00 6.7246094791e-04 1.6966583048e+00 -2.9386983871e+00 1.6966583048e+00 2.9386983871e+00 
21700 5.3271199449e+00 7.0849546133e-04 1.6966384877e+00 -2.9386640627e+00 1.6966384877e+00 2.9386640627e+00 
21800 5.3271204724e+00 7.4219174201e-04 1.6966176083e+00 -2.9386278986e+00 1.6966176083e+00 2.9386278986e+00 
21900 5.3271209728e+00 7.7357216226e-04 1.6965957357e+00 -2.9385900141e+00 1.6965957357e+00 2.9385900141e+00 
22000 5.3271214475e+00 8.0266282083e-04 1.6965729379e+00 -2.9385505273e+00 1.6965729379e+00 2.9385505273e+00 
22100 5.3271218978e+00 8.2949335306e-04 1.6965492826e+00 -2.9385095550e+00 1.6965492826e+00 2.9385095550e+00 
22200 5.3271223251e+00 8.5409674058e-04 1.6965248362e+00 -2.9384672125e+00 1.6965248362e+00 2.9384672125e+00 
22300 5.3271227308e+00 8.7650912090e-04 1.6964996643e+00 -2.9384236135e+00 1.6964996643e+00 2.9384236135e+00 
22400 5.3271231163e+00 8.9676959751e-04 1.6964738315e+00 -2.9383788698e+00 1.6964738315e+00 2.9383788698e+00 
22500 5.3271234829e+00 9.1492005065e-04 1.6964474011e+00 -2.9383330911e+00 1.6964474011e+00 2.9383330911e+00 
22600 5.3271238320e+00 9.3100494937e-04 1.6964204354e+00 -2.9382863852e+00 1.6964204354e+00 2.9382863852e+00 
22700 5.3271241649e+00 9.4507116506e-04 1.6963929952e+00 -2.9382388573e+00 1.6963929952e+00 2.9382388573e+00 
22800 5.3271244827e+00 9.5716778693e-04 1.6963651400e+00 -2.9381906107e+00 1.6963651400e+00 2.9381906107e+00 
22900 5.3271247867e+00 9.6734593965e-04 1.6963369278e+00 -2.9381417456e+00 1.6963369278e+00 2.9381417456e+00 
23000 5.3271250781e+00 9.7565860361e-04 1.6963084151e+00 -2.9380923602e+00 1.6963084151e+00 2.9380923602e+00 
23100 5.3271253580e+00 9.8216043794e-04 1.6962796568e+00 -2.9380425495e+00 1.6962796568e+00 2.9380425495e+00 
23200 5.3271256274e+00 9.8690760673e-04 1.6962507065e+00 -2.9379924060e+00 1.6962507065e+00 2.9379924060e+00 
23300 5.3271258873e+00 9.8995760850e-04 1.6962216157e+00 -2.9379420193e+00 1.6962216157e+00 2.9379420193e+00 
23400 5.3271261386e+00 9.9136910944e-04 1.6961924346e+00 -2.9378914761e+00 1.6961924346e+00 2.9378914761e+00 
23500 5.3271263823e+00 9.9120178033e-04 1.6961632113e+00 -2.9378408598e+00 1.6961632113e+00 2.9378408598e+00 
23600 5.3271266192e+00 9.8951613765e-04 1.6961339924e+00 -2.9377902513e+00 1.6961339924e+00 2.9377902513e+00 
23700 5.3271268499e+00 9.8637338884e-04 1.6961048227e+00 -2.9377397280e+00 1.6961048227e+00 2.9377397280e+00 
23800 5.3271270752e+00 9.8183528199e-04 1.6960757452e+00 -2.9376893642e+00 1.6960757452e+00 2.9376893642e+00 
23900 5.3271272958e+00 9.7596396008e-04 1.6960468010e+00 -2.9376392313e+00 1.6960468010e+00 2.9376392313e+00 
24000 5.3271275121e+00 9.6882181998e-04 1.6960180293e+00 -2.9375893974e+00 1.6960180293e+00 2.9375893974e+00 
24100 5.3271277247e+00 9.6047137619e-04 1.6959894678e+00 -2.9375399272e+00 1.6959894678e+00 2.9375399272e+00 
24200 5.3271279341e+00 9.5097512958e-04 1.6959611519e+00 -2.9374908827e+00 1.6959611519e+00 2.9374908827e+00 
24300 5.3271281407e+00 9.4039544114e-04 1.6959331155e+00 -2.9374423223e+00 1.6959331155e+00 2.9374423223e+00 
24400 5.3271283447e+00 9.2879441081e-04 1.6959053905e+00 -2.9373943013e+00 1.6959053905e+00 2.9373943013e+00 
24500 5.3271285465e+00 9.1623376151e-04 1.6958780072e+00 -2.9373468719e+00 1.6958780072e+00 2.9373468719e+00 
24600 5.3271287464e+00 9.0277472833e-04 1.6958509937e+00 -2.9373000832e+00 1.6958509937e+00 2.9373000832e+00 
24700 5.3271289445e+00 8.8847795302e-04 1.6958243766e+00 -2.9372539810e+00 1.6958243766e+00 2.9372539810e+00 
24800 5.3271291410e+00 8.7340338376e-04 1.6957981806e+00 -2.9372086082e+00 1.6957981806e+00 2.9372086082e+00 
24900 5.3271293360e+00 8.5761018011e-04 1.6957724287e+00 -2.9371640046e+00 1.6957724287e+00 2.9371640046e+00 
25000 5.3271295297e+00 8.4115662335e-04 1.6957471421e+00 -2.9371202068e+00 1.6957471421e+00 2.9371202068e+00 
25100 5.3271297220e+00 8.2410003203e-04 1.6957223402e+00 -2.9370772487e+00 1.6957223402e+00 2.9370772487e+00 
25200 5.3271299130e+00 8.0649668275e-04 1.6956980409e+00 -2.9370351610e+00 1.6956980409e+00 2.9370351610e+00 
25300 5.3271301027e+00 7.8840173617e-04 1.6956742602e+00 -2.9369939718e+00 1.6956742602e+00 2.9369939718e+00 
25400 5.3271302911e+00 7.6986916812e-04 1.6956510128e+00 -2.9369537062e+00 1.6956510128e+00 2.9369537062e+00 
25500 5.3271304780e+00 7.5095170587e-04 1.6956283116e+00 -2.9369143865e+00 1.6956283116e+00 2.9369143865e+00 
25600 5.3271306636e+00 7.3170076942e-04 1.6956061679e+00 -2.9368760324e+00 1.6956061679e+00 2.9368760324e+00 
25700 5.3271308475e+00 7.1216641773e-04 1.6955845916e+00 -2.9368386611e+00 1.6955845916e+00 2.9368386611e+00 
25800 5.3271310299e+00 6.9239729981e-04 1.6955635910e+00 -2.9368022871e+00 1.6955635910e+00 2.9368022871e+00 
25900 5.3271312105e+00 6.7244061072e-04 1.6955431731e+00 -2.9367669223e+00 1.6955431731e+00 2.9367669223e+00 
26000 5.3271313893e+00 6.5234205210e-04 1.6955233435e+00 -2.9367325764e+00 1.6955233435e+00 2.9367325764e+00 
26100 5.3271315661e+00 6.3214579748e-04 1.6955041064e+00 -2.9366992567e+00 1.6955041064e+00 2.9366992567e+00 
26200 5.3271317408e+00 6.1189446191e-04 1.6954854646e+00 -2.9366669681e+00 1.6954854646e+00 2.9366669681e+00 
26300 5.3271319133e+00 5.9162907612e-04 1.6954674198e+00 -2.9366357137e+00 1.6954674198e+00 2.9366357137e+00 
26400 5.3271320835e+00 5.7138906485e-04 1.6954499724e+00 -2.9366054940e+00 1.6954499724e+00 2.9366054940e+00 
26500 5.3271322513e+00 5.5121222934e-04 1.6954331218e+00 -2.9365763078e+00 1.6954331218e+00 2.9365763078e+00 
26600 5.3271324165e+00 5.3113473391e-04 1.6954168660e+00 -2.9365481520e+00 1.6954168660e+00 2.9365481520e+00 
26700 5.3271325791e+00 5.1119109631e-04 1.6954012022e+00 -2.9365210215e+00 1.6954012022e+00 2.9365210215e+00 
26800 5.3271327389e+00 4.9141418191e-04 1.6953861264e+00 -2.9364949094e+00 1.6953861264e+00 2.9364949094e+00 
26900 5.3271328958e+00 4.7183520152e-04 1.6953716338e+00 -2.9364698074e+00 1.6953716338e+00 2.9364698074e+00 
27000 5.3271330498e+00 4.5248371263e-04 1.6953577184e+00 -2.9364457053e+00 1.6953577184e+00 2.9364457053e+00 
27100 5.3271332008e+00 4.3338762409e-04 1.6953443736e+00 -2.9364225914e+00 1.6953443736e+00 2.9364225914e+00 
27200 5.3271333487e+00 4.1457320390e-04 1.6953315919e+00 -2.9364004529e+00 1.6953315919e+00 2.9364004529e+00 
27300 5.3271334934e+00 3.9606509014e-04 1.6953193651e+00 -2.9363792753e+00 1.6953193651e+00 2.9363792753e+00 
27400 5.3271336349e+00 3.7788630479e-04 1.6953076839e+00 -2.9363590430e+00 1.6953076839e+00 2.9363590430e+00 
27500 5.3271337732e+00 3.6005827036e-04 1.6952965389e+00 -2.9363397392e+00 1.6952965389e+00 2.9363397392e+00 
27600 5.3271339082e+00 3.4260082915e-04 1.6952859196e+00 -2.9363213460e+00 1.6952859196e+00 2.9363213460e+00 
27700 5.3271340399e+00 3.2553226496e-04 1.6952758151e+00 -2.9363038445e+00 1.6952758151e+00 2.9363038445e+00 
27800 5.3271341684e+00 3.0886932723e-04 1.6952662139e+00 -2.9362872148e+00 1.6952662139e+00 2.9362872148e+00 
27900 5.3271342935e+00 2.9262725736e-04 1.6952571042e+00 -2.9362714363e+00 1.6952571042e+00 2.9362714363e+00 
28000 5.3271344153e+00 2.7681981710e-04 1.6952484734e+00 -2.9362564874e+00 1.6952484734e+00 2.9362564874e+00 
28100 5.3271345338e+00 2.6145931884e-04 1.6952403088e+00 -2.9362423459e+00 1.6952403088e+00 2.9362423459e+00 
28200 5.3271346491e+00 2.4655665782e-04 1.6952325973e+00 -2.9362289891e+00 1.6952325973e+00 2.9362289891e+00 
28300 5.3271347612e+00 2.3212134582e-04 1.6952253252e+00 -2.9362163935e+00 1.6952253252e+00 2.9362163935e+00 
28400 5.3271348702e+00 2.1816154654e-04 1.6952184789e+00 -2.9362045353e+00 1.6952184789e+00 2.9362045353e+00 
28500 5.3271349760e+00 2.0468411229e-04 1.6952120443e+00 -2.9361933903e+00 1.6952120443e+00 2.9361933903e+00 
28600 5.3271350787e+00 1.9169462192e-04 1.6952060071e+00 -2.9361829337e+00 1.6952060071e+00 2.9361829337e+00 
28700 5.3271351785e+00 1.7919741999e-04 1.6952003531e+00 -2.9361731406e+00 1.6952003531e+00 2.9361731406e+00 
28800 5.3271352753e+00 1.6719565685e-04 1.6951950677e+00 -2.9361639860e+00 1.6951950677e+00 2.9361639860e+00 
28900 5.3271353693e+00 1.5569132967e-04 1.6951901362e+00 -2.9361554445e+00 1.6951901362e+00 2.9361554445e+00 
29000 5.3271354605e+00 1.4468532422e-04 1.6951855441e+00 -2.9361474906e+00 1.6951855441e+00 2.9361474906e+00 
29100 5.3271355490e+00 1.3417745730e-04 1.6951812766e+00 -2.9361400990e+00 1.6951812766e+00 2.9361400990e+00 
29200 5.3271356349e+00 1.2416651975e-04 1.6951773189e+00 -2.9361332443e+00 1.6951773189e+00 2.9361332443e+00 
29300 5.3271357182e+00 1.1465031983e-04 1.6951736566e+00 -2.9361269009e+00 1.6951736566e+00 2.9361269009e+00 
29400 5.3271357992e+00 1.0562572701e-04 1.6951702749e+00 -2.9361210437e+00 1.6951702749e+00 2.9361210437e+00 
29500 5.3271358777e+00 9.7088715876e-05 1.6951671594e+00 -2.9361156475e+00 1.6951671594e+00 2.9361156475e+00 
29600 5.3271359540e+00 8.9034410304e-05 1.6951642958e+00 -2.9361106874e+00 1.6951642958e+00 2.9361106874e+00 
29700 5.3271360282e+00 8.1457127521e-05 1.6951616696e+00 -2.9361061388e+00 1.6951616696e+00 2.9361061388e+00 
29800 5.3271361002e+00 7.4350422205e-05 1.6951592670e+00 -2.9361019774e+00 1.6951592670e+00 2.9361019774e+00 
29900 5.3271361703e+00 6.7707130382e-05 1.6951570740e+00 -2.9360981789e+00 1.6951570740e+00 2.9360981789e+00 
30000 5.3271362386e+00 6.3472314769e-05 1.6951570740e+00 -2.9360981789e+00 1.6951570740e+00 2.9360981789e+00 
30100 5.3271363050e+00 5.9518882721e-05 1.6951570740e+00 -2.9360981789e+00 1.6951570740e+00 2.9360981789e+00 
30200 5.3271363696e+00 5.5850235618e-05 1.6951570740e+00 -2.9360981789e+00 1.6951570740e+00 2.9360981789e+00 
30300 5.3271364326e+00 5.2468923229e-05 1.6951570740e+00 -2.9360981789e+00 1.6951570740e+00 2.9360981789e+00 
30400 5.3271364940e+00 4.9376680209e-05 1.6951570740e+00 -2.9360981789e+00 1.6951570740e+00 2.9360981789e+00 
30500 5.3271365538e+00 4.6574462519e-05 1.6951570740e+00 -2.9360981789e+00 1.6951570740e+00 2.9360981789e+00 
30600 5.3271366122e+00 4.4062483682e-05 1.6951570740e+00 -2.9360981789e+00 1.6951570740e+00 2.9360981789e+00 
30700 5.3271366693e+00 4.1840250814e-05 1.6951570740e+00 -2.9360981789e+00 1.6951570740e+00 2.9360981789e+00 
30800 5.3271367251e+00 3.9906600364e-05 1.6951570740e+00 -2.9360981789e+00 1.6951570740e+00 2.9360981789e+00 
30900 5.3271367796e+00 3.8259733518e-05 1.6951570740e+00 -2.9360981789e+00 1.6951570740e+00 2.9360981789e+00 
31000 5.3271368330e+00 3.6897251195e-05 1.6951570740e+00 -2.9360981789e+00 1.6951570740e+00 2.9360981789e+00 
31100 5.3271368853e+00 3.5816188593e-05 1.6951570740e+00 -2.9360981789e+00 1.6951570740e+00 2.9360981789e+00 
31200 5.3271369365e+00 3.5013049238e-05 1.6951570740e+00 -2.9360981789e+00 1.6951570740e+00 2.9360981789e+00 
31300 5.3271369867e+00 3.4483838487e-05 1.6951570740e+00 -2.9360981789e+00 1.6951570740e+00 2.9360981789e+00 
31400 5.3271370360e+00 3.4224096441e-05 1.6951570740e+00 -2.9360981789e+00 1.6951570740e+00 2.9360981789e+00 
31500 5.3271370844e+00 3.4228930238e-05 1.6951570740e+00 -2.9360981789e+00 1.6951570740e+00 2.9360981789e+00 
31600 5.3271371319e+00 3.4493045678e-05 1.6951570740e+00 -2.9360981789e+00 1.6951570740e+00 2.9360981789e+00 
31700 5.3271371786e+00 3.5010778159e-05 1.6951570740e+00 -2.9360981789e+00 1.6951570740e+00 2.9360981789e+00 
31800 5.3271372245e+00 3.5776122894e-05 1.6951570740e+00 -2.9360981789e+00 1.6951570740e+00 2.9360981789e+00 
31900 5.3271372696e+00 3.6782764358e-05 1.6951570740e+00 -2.9360981789e+00 1.6951570740e+00 2.9360981789e+00 
32000 5.3271373140e+00 3.8024104989e-05 1.6951570740e+00 -2.9360981789e+00 1.6951570740e+00 2.9360981789e+00 
32100 5.3271373577e+00 3.9493293062e-05 1.6951570740e+00 -2.9360981789e+00 1.6951570740e+00 2.9360981789e+00 
32200 5.3271374006e+00 4.1183249776e-05 1.6951570740e+00 -2.9360981789e+00 1.6951570740e+00 2.9360981789e+00 
32300 5.3271374430e+00 4.3086695483e-05 1.6951570740e+00 -2.9360981789e+00 1.6951570740e+00 2.9360981789e+00 
32400 5.3271374846e+00 4.5196175102e-05 1.6951570740e+00 -2.9360981789e+00 1.6951570740e+00 2.9360981789e+00 
32500 5.3271375257e+00 4.7504082638e-05 1.6951570740e+00 -2.9360981789e+00 1.6951570740e+00 2.9360981789e+00 
32600 5.3271375661e+00 5.0002684875e-05 1.6951570740e+00 -2.9360981789e+00 1.6951570740e+00 2.9360981789e+00 
32700 5.3271376059e+00 5.2684144162e-05 1.6951570740e+00 -2.9360981789e+00 1.6951570740e+00 2.9360981789e+00 
32800 5.3271376451e+00 5.5540540341e-05 1.6951570740e+00 -2.9360981789e+00 1.6951570740e+00 2.9360981789e+00 
32900 5.3271376837e+00 5.8563891788e-05 1.6951570740e+00 -2.9360981789e+00 1.6951570740e+00 2.9360981789e+00 
33000 5.3271377217e+00 6.1746175570e-05 1.6951570740e+00 -2.9360981789e+00 1.6951570740e+00 2.9360981789e+00 
33100 5.3271377592e+00 6.5079346717e-05 1.6951570740e+00 -2.9360981789e+00 1.6951570740e+00 2.9360981789e+00 
33200 5.3271377961e+00 6.8555356625e-05 1.6951570740e+00 -2.9360981789e+00 1.6951570740e+00 2.9360981789e+00 
33300 5.3271378324e+00 7.2166170580e-05 1.6951570740e+00 -2.9360981789e+00 1.6951570740e+00 2.9360981789e+00 
33400 5.3271378680e+00 7.3823164723e-05 1.6951549454e+00 -2.9360944921e+00 1.6951549454e+00 2.9360944921e+00 
33500 5.3271379030e+00 7.5537546409e-05 1.6951527679e+00 -2.9360907206e+00 1.6951527679e+00 2.9360907206e+00 
33600 5.3271379374e+00 7.7298678493e-05 1.6951505399e+00 -2.9360868615e+00 1.6951505399e+00 2.9360868615e+00 
33700 5.3271379713e+00 7.9096342525e-05 1.6951482599e+00 -2.9360829124e+00 1.6951482599e+00 2.9360829124e+00 
33800 5.3271380045e+00 8.0920741179e-05 1.6951459268e+00 -2.9360788715e+00 1.6951459268e+00 2.9360788715e+00 
33900 5.3271380373e+00 8.2762499812e-05 1.6951435400e+00 -2.9360747374e+00 1.6951435400e+00 2.9360747374e+00 
34000 5.3271380694e+00 8.4612667155e-05 1.6951410988e+00 -2.9360705092e+00 1.6951410988e+00 2.9360705092e+00 
34100 5.3271381010e+00 8.6462715174e-05 1.6951386031e+00 -2.9360661864e+00 1.6951386031e+00 2.9360661864e+00 
34200 5.3271381320e+00 8.8304538120e-05 1.6951360528e+00 -2.9360617692e+00 1.6951360528e+00 2.9360617692e+00 
34300 5.3271381624e+00 9.0130450822e-05 1.6951334481e+00 -2.9360572578e+00 1.6951334481e+00 2.9360572578e+00 
34400 5.3271381923e+00 9.1933186231e-05 1.6951307896e+00 -2.9360526531e+00 1.6951307896e+00 2.9360526531e+00 
34500 5.3271382217e+00 9.3705892255e-05 1.6951280780e+00 -2.9360479563e+00 1.6951280780e+00 2.9360479563e+00 
34600 5.3271382505e+00 9.5442127895e-05 1.6951253140e+00 -2.9360431690e+00 1.6951253140e+00 2.9360431690e+00 
34700 5.3271382787e+00 9.7135858762e-05 1.6951224988e+00 -2.9360382929e+00 1.6951224988e+00 2.9360382929e+00 
34800 5.3271383064e+00 9.8781451966e-05 1.6951196336e+00 -2.9360333303e+00 1.6951196336e+00 2.9360333303e+00 
34900 5.3271383336e+00 1.0037367040e-04 1.6951167199e+00 -2.9360282837e+00 1.6951167199e+00 2.9360282837e+00 
35000 5.3271383602e+00 1.0190766651e-04 1.6951137593e+00 -2.9360231556e+00 1.6951137593e+00 2.9360231556e+00 
35100 5.3271383864e+00 1.0337897552e-04 1.6951107533e+00 -2.9360179492e+00 1.6951107533e+00 2.9360179492e+00 
35200 5.3271384120e+00 1.0478350814e-04 1.6951077040e+00 -2.9360126676e+00 1.6951077040e+00 2.9360126676e+00 
35300 5.3271384371e+00 1.0611754291e-04 1.6951046132e+00 -2.9360073143e+00 1.6951046132e+00 2.9360073143e+00 
35400 5.3271384617e+00 1.0737771801e-04 1.6951014831e+00 -2.9360018928e+00 1.6951014831e+00 2.9360018928e+00 
35500 5.3271384858e+00 1.0856102276e-04 1.6950983158e+00 -2.9359964068e+00 1.6950983158e+00 2.9359964068e+00 
35600 5.3271385094e+00 1.0966478872e-04 1.6950951136e+00 -2.9359908605e+00 1.6950951136e+00 2.9359908605e+00 
35700 5.3271385325e+00 1.1068668045e-04 1.6950918789e+00 -2.9359852577e+00 1.6950918789e+00 2.9359852577e+00 
35800 5.3271385552e+00 1.1162468603e-04 1.6950886139e+00 -2.9359796027e+00 1.6950886139e+00 2.9359796027e+00 
35900 5.3271385774e+00 1.1247710721e-04 1.6950853214e+00 -2.9359738998e+00 1.6950853214e+00 2.9359738998e+00 
36000 5.3271385992e+00 1.1324254946e-04 1.6950820036e+00 -2.9359681533e+00 1.6950820036e+00 2.9359681533e+00 
36100 5.3271386205e+00 1.1391991163e-04 1.6950786633e+00 -2.9359623676e+00 1.6950786633e+00 2.9359623676e+00 
36200 5.3271386414e+00 1.1450837564e-04 1.6950753030e+00 -2.9359565474e+00 1.6950753030e+00 2.9359565474e+00 
36300 5.3271386619e+00 1.1500739579e-04 1.6950719253e+00 -2.9359506971e+00 1.6950719253e+00 2.9359506971e+00 
36400 5.3271386820e+00 1.1541668814e-04 1.6950685329e+00 -2.9359448213e+00 1.6950685329e+00 2.9359448213e+00 
36500 5.3271387017e+00 1.1573621966e-04 1.6950651284e+00 -2.9359389245e+00 1.6950651284e+00 2.9359389245e+00 
36600 5.3271387210e+00 1.1596619738e-04 1.6950617145e+00 -2.9359330115e+00 1.6950617145e+00 2.9359330115e+00 
36700 5.3271387398e+00 1.1610705742e-04 1.6950582938e+00 -2.9359270866e+00 1.6950582938e+00 2.9359270866e+00 
36800 5.3271387584e+00 1.1615945404e-04 1.6950548689e+00 -2.9359211546e+00 1.6950548689e+00 2.9359211546e+00 
36900 5.3271387765e+00 1.1612424872e-04 1.6950514425e+00 -2.9359152199e+00 1.6950514425e+00 2.9359152199e+00 
37000 5.3271387943e+00 1.1600249916e-04 1.6950480171e+00 -2.9359092869e+00 1.6950480171e+00 2.9359092869e+00 
37100 5.3271388118e+00 1.1579544840e-04 1.6950445953e+00 -2.9359033602e+00 1.6950445953e+00 2.9359033602e+00 
37200 5.3271388289e+00 1.1550451397e-04 1.6950411796e+00 -2.9358974440e+00 1.6950411796e+00 2.9358974440e+00 
37300 5.3271388457e+00 1.1513127717e-04 1.6950377725e+00 -2.9358915427e+00 1.6950377725e+00 2.9358915427e+00 
37400 5.3271388622e+00 1.1467747232e-04 1.6950343764e+00 -2.9358856604e+00 1.6950343764e+00 2.9358856604e+00 
37500 5.3271388784e+00 1.1414497629e-04 1.6950309936e+00 -2.9358798013e+00 1.6950309936e+00 2.9358798013e+00 
37600 5.3271388943e+00 1.1353579807e-04 1.6950276266e+00 -2.9358739694e+00 1.6950276266e+00 2.9358739694e+00 
37700 5.3271389099e+00 1.1285206848e-04 1.6950242775e+00 -2.9358681687e+00 1.6950242775e+00 2.9358681687e+00 
37800 5.3271389252e+00 1.1209603010e-04 1.6950209486e+00 -2.9358624028e+00 1.6950209486e+00 2.9358624028e+00 
37900 5.3271389402e+00 1.1127002734e-04 1.6950176419e+00 -2.9358566755e+00 1.6950176419e+00 2.9358566755e+00 
38000 5.3271389550e+00 1.1037649673e-04 1.6950143597e+00 -2.9358509905e+00 1.6950143597e+00 2.9358509905e+00 
38100 5.3271389694e+00 1.0941795738e-04 1.6950111037e+00 -2.9358453511e+00 1.6950111037e+00 2.9358453511e+00 
38200 5.3271389837e+00 1.0839700170e-04 1.6950078761e+00 -2.9358397606e+00 1.6950078761e+00 2.9358397606e+00 
38300 5.3271389977e+00 1.0731628630e-04 1.6950046786e+00 -2.9358342223e+00 1.6950046786e+00 2.9358342223e+00 
38400 5.3271390114e+00 1.0617852318e-04 1.6950015129e+00 -2.9358287393e+00 1.6950015129e+00 2.9358287393e+00 
38500 5.3271390249e+00 1.0498647110e-04 1.6949983808e+00 -2.9358233143e+00 1.6949983808e+00 2.9358233143e+00 
38600 5.3271390382e+00 1.0374292730e-04 1.6949952838e+00 -2.9358179502e+00 1.6949952838e+00 2.9358179502e+00 
38700 5.3271390513e+00 1.0245071935e-04 1.6949922236e+00 -2.9358126497e+00 1.6949922236e+00 2.9358126497e+00 
38800 5.3271390641e+00 1.0111269741e-04 1.6949892014e+00 -2.9358074151e+00 1.6949892014e+00 2.9358074151e+00 
38900 5.3271390767e+00 9.9731726643e-05 1.6949862187e+00 -2.9358022490e+00 1.6949862187e+00 2.9358022490e+00 
39000 5.3271390891e+00 9.8310679998e-05 1.6949832768e+00 -2.9357971533e+00 1.6949832768e+00 2.9357971533e+00 
39100 5.3271391013e+00 9.6852431200e-05 1.6949803767e+00 -2.9357921303e+00 1.6949803767e+00 2.9357921303e+00 
39200 5.3271391133e+00 9.5359848089e-05 1.6949775197e+00 -2.9357871818e+00 1.6949775197e+00 2.9357871818e+00 
39300 5.3271391251e+00 9.3835786202e-05 1.6949747067e+00 -2.9357823095e+00 1.6949747067e+00 2.9357823095e+00 
39400 5.3271391367e+00 9.2283082663e-05 1.6949719386e+00 -2.9357775151e+00 1.6949719386e+00 2.9357775151e+00 
39500 5.3271391482e+00 9.0704550371e-05 1.6949692164e+00 -2.9357728000e+00 1.6949692164e+00 2.9357728000e+00 
39600 5.3271391594e+00 8.9102972469e-05 1.6949665407e+00 -2.9357681655e+00 1.6949665407e+00 2.9357681655e+00 
39700 5.3271391705e+00 8.7481097101e-05 1.6949639122e+00 -2.9357636129e+00 1.6949639122e+00 2.9357636129e+00 
39800 5.3271391813e+00 8.5841632480e-05 1.6949613316e+00 -2.9357591432e+00 1.6949613316e+00 2.9357591432e+00 
39900 5.3271391920e+00 8.4187242214e-05 1.6949587993e+00 -2.9357547572e+00 1.6949587993e+00 2.9357547572e+00 
40000 5.3271392026e+00 8.2520540959e-05 1.6949563159e+00 -2.9357504557e+00 1.6949563159e+00 2.9357504557e+00 
40100 5.3271392129e+00 8.0844090329e-05 1.6949538816e+00 -2.9357462394e+00 1.6949538816e+00 2.9357462394e+00 
40200 5.3271392231e+00 7.9160395088e-05 1.6949514967e+00 -2.9357421087e+00 1.6949514967e+00 2.9357421087e+00 
40300 5.3271392331e+00 7.7471899648e-05 1.6949491615e+00 -2.9357380640e+00 1.6949491615e+00 2.9357380640e+00 
40400 5.3271392430e+00 7.5780984819e-05 1.6949468762e+00 -2.9357341056e+00 1.6949468762e+00 2.9357341056e+00 
40500 5.3271392527e+00 7.4089964830e-05 1.6949446407e+00 -2.9357302336e+00 1.6949446407e+00 2.9357302336e+00 
40600 5.3271392622e+00 7.2401084645e-05 1.6949424550e+00 -2.9357264481e+00 1.6949424550e+00 2.9357264481e+00 
40700 5.3271392716e+00 7.0716517498e-05 1.6949403193e+00 -2.9357227487e+00 1.6949403193e+00 2.9357227487e+00 
40800 5.3271392809e+00 6.9038362717e-05 1.6949382331e+00 -2.9357191355e+00 1.6949382331e+00 2.9357191355e+00 
40900 5.3271392901e+00 6.9359621582e-05 1.6949382331e+00 -2.9357191355e+00 1.6949382331e+00 2.9357191355e+00 
41000 5.3271392992e+00 6.9656210127e-05 1.6949382331e+00 -2.9357191355e+00 1.6949382331e+00 2.9357191355e+00 
41100 5.3271393082e+00 6.9930711698e-05 1.6949382331e+00 -2.9357191355e+00 1.6949382331e+00 2.9357191355e+00 
41200 5.3271393170e+00 7.0185605337e-05 1.6949382331e+00 -2.9357191355e+00 1.6949382331e+00 2.9357191355e+00 
41300 5.3271393256e+00 7.0423266029e-05 1.6949382331e+00 -2.9357191355e+00 1.6949382331e+00 2.9357191355e+00 
41400 5.3271393341e+00 7.0645965141e-05 1.6949382331e+00 -2.9357191355e+00 1.6949382331e+00 2.9357191355e+00 
41500 5.3271393425e+00 7.0855871036e-05 1.6949382331e+00 -2.9357191355e+00 1.6949382331e+00 2.9357191355e+00 
41600 5.3271393505e+00 6.9011692341e-05 1.6949361429e+00 -2.9357155151e+00 1.6949361429e+00 2.9357155151e+00 
41700 5.3271393586e+00 6.9188665082e-05 1.6949361429e+00 -2.9357155151e+00 1.6949361429e+00 2.9357155151e+00 
41800 5.3271393665e+00 6.9357987072e-05 1.6949361429e+00 -2.9357155151e+00 1.6949361429e+00 2.9357155151e+00 
41900 5.3271393743e+00 6.9521487958e-05 1.6949361429e+00 -2.9357155151e+00 1.6949361429e+00 2.9357155151e+00 
42000 5.3271393820e+00 6.9680898257e-05 1.6949361429e+00 -2.9357155151e+00 1.6949361429e+00 2.9357155151e+00 
42100 5.3271393895e+00 6.9837850818e-05 1.6949361429e+00 -2.9357155151e+00 1.6949361429e+00 2.9357155151e+00 
42200 5.3271393970e+00 6.9993882421e-05 1.6949361429e+00 -2.9357155151e+00 1.6949361429e+00 2.9357155151e+00 
42300 5.3271394042e+00 7.0150435477e-05 1.6949361429e+00 -2.9357155151e+00 1.6949361429e+00 2.9357155151e+00 
42400 5.3271394114e+00 7.0308859851e-05 1.6949361429e+00 -2.9357155151e+00 1.6949361429e+00 2.9357155151e+00 
42500 5.3271394184e+00 7.0470414766e-05 1.6949361429e+00 -2.9357155151e+00 1.6949361429e+00 2.9357155151e+00 
42600 5.3271394253e+00 7.0636270806e-05 1.6949361429e+00 -2.9357155151e+00 1.6949361429e+00 2.9357155151e+00 
42700 5.3271394321e+00 7.0807512004e-05 1.6949361429e+00 -2.9357155151e+00 1.6949361429e+00 2.9357155151e+00 
42800 5.3271394387e+00 6.8943217603e-05 1.6949340541e+00 -2.9357118972e+00 1.6949340541e+00 2.9357118972e+00 
42900 5.3271394452e+00 6.9114709432e-05 1.6949340541e+00 -2.9357118972e+00 1.6949340541e+00 2.9357118972e+00 
43000 5.3271394517e+00 6.9293588351e-05 1.6949340541e+00 -2.9357118972e+00 1.6949340541e+00 2.9357118972e+00 
43100 5.3271394580e+00 6.9480678106e-05 1.6949340541e+00 -2.9357118972e+00 1.6949340541e+00 2.9357118972e+00 
43200 5.3271394643e+00 6.9676725631e-05 1.6949340541e+00 -2.9357118972e+00 1.6949340541e+00 2.9357118972e+00 
43300 5.3271394704e+00 6.9882403416e-05 1.6949340541e+00 -2.9357118972e+00 1.6949340541e+00 2.9357118972e+00 
43400 5.3271394765e+00 7.0098311918e-05 1.6949340541e+00 -2.9357118972e+00 1.6949340541e+00 2.9357118972e+00 
43500 5.3271394824e+00 7.0324981992e-05 1.6949340541e+00 -2.9357118972e+00 1.6949340541e+00 2.9357118972e+00 
43600 5.3271394883e+00 7.0562877350e-05 1.6949340541e+00 -2.9357118972e+00 1.6949340541e+00 2.9357118972e+00 
43700 5.3271394940e+00 7.0812397037e-05 1.6949340541e+00 -2.9357118972e+00 1.6949340541e+00 2.9357118972e+00 
43800 5.3271394995e+00 6.9031839879e-05 1.6949319652e+00 -2.9357082791e+00 1.6949319652e+00 2.9357082791e+00 
43900 5.3271395050e+00 6.9292120514e-05 1.6949319652e+00 -2.9357082791e+00 1.6949319652e+00 2.9357082791e+00 
44000 5.3271395105e+00 6.9564106857e-05 1.6949319652e+00 -2.9357082791e+00 1.6949319652e+00 2.9357082791e+00 
44100 5.3271395159e+00 6.9848027963e-05 1.6949319652e+00 -2.9357082791e+00 1.6949319652e+00 2.9357082791e+00 
44200 5.3271395212e+00 7.0144059051e-05 1.6949319652e+00 -2.9357082791e+00 1.6949319652e+00 2.9357082791e+00 
44300 5.3271395264e+00 7.0452323933e-05 1.6949319652e+00 -2.9357082791e+00 1.6949319652e+00 2.9357082791e+00 
44400 5.3271395315e+00 7.0772897419e-05 1.6949319652e+00 -2.9357082791e+00 1.6949319652e+00 2.9357082791e+00 
44500 5.3271395363e+00 6.9064916823e-05 1.6949298774e+00 -2.9357046629e+00 1.6949298774e+00 2.9357046629e+00 
44600 5.3271395413e+00 6.9396716018e-05 1.6949298774e+00 -2.9357046629e+00 1.6949298774e+00 2.9357046629e+00 
44700 5.3271395462e+00 6.9740025945e-05 1.6949298774e+00 -2.9357046629e+00 1.6949298774e+00 2.9357046629e+00 
44800 5.3271395510e+00 7.0094812878e-05 1.6949298774e+00 -2.9357046629e+00 1.6949298774e+00 2.9357046629e+00 
44900 5.3271395557e+00 7.0461004209e-05 1.6949298774e+00 -2.9357046629e+00 1.6949298774e+00 2.9357046629e+00 
45000 5.3271395603e+00 7.0838490663e-05 1.6949298774e+00 -2.9357046629e+00 1.6949298774e+00 2.9357046629e+00 
45100 5.3271395647e+00 6.9184348519e-05 1.6949277877e+00 -2.9357010434e+00 1.6949277877e+00 2.9357010434e+00 
45200 5.3271395692e+00 6.9570516624e-05 1.6949277877e+00 -2.9357010434e+00 1.6949277877e+00 2.9357010434e+00 
45300 5.3271395736e+00 6.9966700785e-05 1.6949277877e+00 -2.9357010434e+00 1.6949277877e+00 2.9357010434e+00 
45400 5.3271395780e+00 7.0372730246e-05 1.6949277877e+00 -2.9357010434e+00 1.6949277877e+00 2.9357010434e+00 
45500 5.3271395823e+00 7.0788406480e-05 1.6949277877e+00 -2.9357010434e+00 1.6949277877e+00 2.9357010434e+00 
45600 5.3271395863e+00 6.9172168217e-05 1.6949256995e+00 -2.9356974265e+00 1.6949256995e+00 2.9356974265e+00 
45700 5.3271395904e+00 6.9593005136e-05 1.6949256995e+00 -2.9356974265e+00 1.6949256995e+00 2.9356974265e+00 
45800 5.3271395945e+00 7.0021993502e-05 1.6949256995e+00 -2.9356974265e+00 1.6949256995e+00 2.9356974265e+00 
45900 5.3271395985e+00 7.0458906345e-05 1.6949256995e+00 -2.9356974265e+00 1.6949256995e+00 2.9356974265e+00 
46000 5.3271396025e+00 7.0903496549e-05 1.6949256995e+00 -2.9356974265e+00 1.6949256995e+00 2.9356974265e+00 
46100 5.3271396062e+00 6.9310839988e-05 1.6949236078e+00 -2.9356938037e+00 1.6949236078e+00 2.9356938037e+00 
46200 5.3271396101e+00 6.9756513225e-05 1.6949236078e+00 -2.9356938037e+00 1.6949236078e+00 2.9356938037e+00 
46300 5.3271396138e+00 7.0208264556e-05 1.6949236078e+00 -2.9356938037e+00 1.6949236078e+00 2.9356938037e+00 
46400 5.3271396175e+00 7.0665846296e-05 1.6949236078e+00 -2.9356938037e+00 1.6949236078e+00 2.9356938037e+00 
46500 5.3271396212e+00 7.1128996871e-05 1.6949236078e+00 -2.9356938037e+00 1.6949236078e+00 2.9356938037e+00 
46600 5.3271396246e+00 6.9546276869e-05 1.6949215095e+00 -2.9356901693e+00 1.6949215095e+00 2.9356901693e+00 
46700 5.3271396281e+00 7.0006230603e-05 1.6949215095e+00 -2.9356901693e+00 1.6949215095e+00 2.9356901693e+00 
46800 5.3271396316e+00 7.0470142964e-05 1.6949215095e+00 -2.9356901693e+00 1.6949215095e+00 2.9356901693e+00 
46900 5.3271396350e+00 7.0937774303e-05 1.6949215095e+00 -2.9356901693e+00 1.6949215095e+00 2.9356901693e+00 
47000 5.3271396382e+00 6.9363219491e-05 1.6949194169e+00 -2.9356865447e+00 1.6949194169e+00 2.9356865447e+00 
47100 5.3271396416e+00 6.9824069976e-05 1.6949194169e+00 -2.9356865447e+00 1.6949194169e+00 2.9356865447e+00 
47200 5.3271396448e+00 7.0287117190e-05 1.6949194169e+00 -2.9356865447e+00 1.6949194169e+00 2.9356865447e+00 
47300 5.3271396481e+00 7.0752155916e-05 1.6949194169e+00 -2.9356865447e+00 1.6949194169e+00 2.9356865447e+00 
47400 5.3271396510e+00 6.9178664945e-05 1.6949173297e+00 -2.9356829296e+00 1.6949173297e+00 2.9356829296e+00 
47500 5.3271396542e+00 6.9633616622e-05 1.6949173297e+00 -2.9356829296e+00 1.6949173297e+00 2.9356829296e+00 
47600 5.3271396572e+00 7.0089157844e-05 1.6949173297e+00 -2.9356829296e+00 1.6949173297e+00 2.9356829296e+00 
47700 5.3271396602e+00 7.0545126979e-05 1.6949173297e+00 -2.9356829296e+00 1.6949173297e+00 2.9356829296e+00 
47800 5.3271396632e+00 7.1001357863e-05 1.6949173297e+00 -2.9356829296e+00 1.6949173297e+00 2.9356829296e+00 
47900 5.3271396660e+00 6.9410178712e-05 1.6949152351e+00 -2.9356793018e+00 1.6949152351e+00 2.9356793018e+00 
48000 5.3271396688e+00 6.9852942802e-05 1.6949152351e+00 -2.9356793018e+00 1.6949152351e+00 2.9356793018e+00 
48100 5.3271396717e+00 7.0294695803e-05 1.6949152351e+00 -2.9356793018e+00 1.6949152351e+00 2.9356793018e+00 
48200 5.3271396745e+00 7.0735324369e-05 1.6949152351e+00 -2.9356793018e+00 1.6949152351e+00 2.9356793018e+00 
48300 5.3271396770e+00 6.9134875737e-05 1.6949131484e+00 -2.9356756875e+00 1.6949131484e+00 2.9356756875e+00 
48400 5.3271396797e+00 6.9559477858e-05 1.6949131484e+00 -2.9356756875e+00 1.6949131484e+00 2.9356756875e+00 
48500 5.3271396824e+00 6.9981849358e-05 1.6949131484e+00 -2.9356756875e+00 1.6949131484e+00 2.9356756875e+00 
48600 5.3271396850e+00 7.0401932513e-05 1.6949131484e+00 -2.9356756875e+00 1.6949131484e+00 2.9356756875e+00 
48700 5.3271396876e+00 7.0819667186e-05 1.6949131484e+00 -2.9356756875e+00 1.6949131484e+00 2.9356756875e+00 
48800 5.3271396900e+00 6.9192716009e-05 1.6949110593e+00 -2.9356720690e+00 1.6949110593e+00 2.9356720690e+00 
48900 5.3271396925e+00 6.9592122648e-05 1.6949110593e+00 -2.9356720690e+00 1.6949110593e+00 2.9356720690e+00 
49000 5.3271396949e+00 6.9988237462e-05 1.6949110593e+00 -2.9356720690e+00 1.6949110593e+00 2.9356720690e+00 
49100 5.3271396974e+00 7.0381058216e-05 1.6949110593e+00 -2.9356720690e+00 1.6949110593e+00 2.9356720690e+00 
49200 5.3271396997e+00 7.0770580456e-05 1.6949110593e+00 -2.9356720690e+00 1.6949110593e+00 2.9356720690e+00 
49300 5.3271397019e+00 6.9115931626e-05 1.6949089715e+00 -2.9356684529e+00 1.6949089715e+00 2.9356684529e+00 
49400 5.3271397042e+00 6.9485402153e-05 1.6949089715e+00 -2.9356684529e+00 1.6949089715e+00 2.9356684529e+00 
49500 5.3271397065e+00 6.9850798233e-05 1.6949089715e+00 -2.9356684529e+00 1.6949089715e+00 2.9356684529e+00 
49600 5.3271397087e+00 7.0212172745e-05 1.6949089715e+00 -2.9356684529e+00 1.6949089715e+00 2.9356684529e+00 
49700 5.3271397109e+00 7.0569575934e-05 1.6949089715e+00 -2.9356684529e+00 1.6949089715e+00 2.9356684529e+00 
49800 5.3271397131e+00 7.0923055571e-05 1.6949089715e+00 -2.9356684529e+00 1.6949089715e+00 2.9356684529e+00 
49900 5.3271397151e+00 6.9227387685e-05 1.6949068793e+00 -2.9356648290e+00 1.6949068793e+00 2.9356648290e+00 
50000 5.3271397172e+00 6.9559691620e-05 1.6949068793e+00 -2.9356648290e+00 1.6949068793e+00 2.9356648290e+00 
50100 5.3271397193e+00 6.9887448564e-05 1.6949068793e+00 -2.9356648290e+00 1.6949068793e+00 2.9356648290e+00 
50200 5.3271397213e+00 7.0210761715e-05 1.6949068793e+00 -2.9356648290e+00 1.6949068793e+00 2.9356648290e+00 
50300 5.3271397233e+00 7.0529730904e-05 1.6949068793e+00 -2.9356648290e+00 1.6949068793e+00 2.9356648290e+00 
50400 5.3271397253e+00 7.0844452660e-05 1.6949068793e+00 -2.9356648290e+00 1.6949068793e+00 2.9356648290e+00 
50500 5.3271397271e+00 6.9112011446e-05 1.6949047894e+00 -2.9356612092e+00 1.6949047894e+00 2.9356612092e+00 
50600 5.3271397290e+00 6.9405067268e-05 1.6949047894e+00 -2.9356612092e+00 1.6949047894e+00 2.9356612092e+00 
50700 5.3271397309e+00 6.9693393754e-05 1.6949047894e+00 -2.9356612092e+00 1.6949047894e+00 2.9356612092e+00 
50800 5.3271397327e+00 6.9977138846e-05 1.6949047894e+00 -2.9356612092e+00 1.6949047894e+00 2.9356612092e+00 
50900 5.3271397346e+00 7.0256445981e-05 1.6949047894e+00 -2.9356612092e+00 1.6949047894e+00 2.9356612092e+00 
51000 5.3271397364e+00 7.0531454126e-05 1.6949047894e+00 -2.9356612092e+00 1.6949047894e+00 2.9356612092e+00 
51100 5.3271397381e+00 7.0802297816e-05 1.6949047894e+00 -2.9356612092e+00 1.6949047894e+00 2.9356612092e+00 
51200 5.3271397397e+00 6.9027308274e-05 1.6949027007e+00 -2.9356575915e+00 1.6949027007e+00 2.9356575915e+00 
51300 5.3271397414e+00 6.9276769204e-05 1.6949027007e+00 -2.9356575915e+00 1.6949027007e+00 2.9356575915e+00 
51400 5.3271397431e+00 6.9521691083e-05 1.6949027007e+00 -2.9356575915e+00 1.6949027007e+00 2.9356575915e+00 
51500 5.3271397448e+00 6.9762254930e-05 1.6949027007e+00 -2.9356575915e+00 1.6949027007e+00 2.9356575915e+00 
51600 5.3271397464e+00 6.9998635979e-05 1.6949027007e+00 -2.9356575915e+00 1.6949027007e+00 2.9356575915e+00 
51700 5.3271397481e+00 7.0231003692e-05 1.6949027007e+00 -2.9356575915e+00 1.6949027007e+00 2.9356575915e+00 
51800 5.3271397497e+00 7.0459521786e-05 1.6949027007e+00 -2.9356575915e+00 1.6949027007e+00 2.9356575915e+00 
51900 5.3271397512e+00 7.0684348273e-05 1.6949027007e+00 -2.9356575915e+00 1.6949027007e+00 2.9356575915e+00 
52000 5.3271397528e+00 7.0905635490e-05 1.6949027007e+00 -2.9356575915e+00 1.6949027007e+00 2.9356575915e+00 
52100 5.3271397541e+00 6.9078746271e-05 1.6949006090e+00 -2.9356539685e+00 1.6949006090e+00 2.9356539685e+00 
52200 5.3271397556e+00 6.9279929880e-05 1.6949006090e+00 -2.9356539685e+00 1.6949006090e+00 2.9356539685e+00 
52300 5.3271397571e+00 6.9477244601e-05 1.6949006090e+00 -2.9356539685e+00 1.6949006090e+00 2.9356539685e+00 
52400 5.3271397586e+00 6.9670884474e-05 1.6949006090e+00 -2.9356539685e+00 1.6949006090e+00 2.9356539685e+00 
52500 5.3271397600e+00 6.9861036562e-05 1.6949006090e+00 -2.9356539685e+00 1.6949006090e+00 2.9356539685e+00 
52600 5.3271397614e+00 7.0047880984e-05 1.6949006090e+00 -2.9356539685e+00 1.6949006090e+00 2.9356539685e+00 
52700 5.3271397628e+00 7.0231590960e-05 1.6949006090e+00 -2.9356539685e+00 1.6949006090e+00 2.9356539685e+00 
52800 5.3271397642e+00 7.0412332864e-05 1.6949006090e+00 -2.9356539685e+00 1.6949006090e+00 2.9356539685e+00 
52900 5.3271397655e+00 7.0590266296e-05 1.6949006090e+00 -2.9356539685e+00 1.6949006090e+00 2.9356539685e+00 
53000 5.3271397668e+00 7.0765544144e-05 1.6949006090e+00 -2.9356539685e+00 1.6949006090e+00 2.9356539685e+00 
53100 5.3271397680e+00 6.8897564343e-05 1.6948985214e+00 -2.9356503527e+00 1.6948985214e+00 2.9356503527e+00 
53200 5.3271397693e+00 6.9054530094e-05 1.6948985214e+00 -2.9356503527e+00 1.6948985214e+00 2.9356503527e+00 
53300 5.3271397705e+00 6.9208507898e-05 1.6948985214e+00 -2.9356503527e+00 1.6948985214e+00 2.9356503527e+00 
53400 5.3271397718e+00 6.9359688392e-05 1.6948985214e+00 -2.9356503527e+00 1.6948985214e+00 2.9356503527e+00 
53500 5.3271397730e+00 6.9508254365e-05 1.6948985214e+00 -2.9356503527e+00 1.6948985214e+00 2.9356503527e+00 
53600 5.3271397742e+00 6.9654380836e-05 1.6948985214e+00 -2.9356503527e+00 1.6948985214e+00 2.9356503527e+00 
53700 5.3271397754e+00 6.9798235131e-05 1.6948985214e+00 -2.9356503527e+00 1.6948985214e+00 2.9356503527e+00 
53800 5.3271397766e+00 6.9939976969e-05 1.6948985214e+00 -2.9356503527e+00 1.6948985214e+00 2.9356503527e+00 
53900 5.3271397778e+00 7.0079758570e-05 1.6948985214e+00 -2.9356503527e+00 1.6948985214e+00 2.9356503527e+00 
54000 5.3271397789e+00 7.0217724766e-05 1.6948985214e+00 -2.9356503527e+00 1.6948985214e+00 2.9356503527e+00 
54100 5.3271397800e+00 7.0354013104e-05 1.6948985214e+00 -2.9356503527e+00 1.6948985214e+00 2.9356503527e+00 
54200 5.3271397811e+00 7.0488753992e-05 1.6948985214e+00 -2.9356503527e+00 1.6948985214e+00 2.9356503527e+00 
54300 5.3271397822e+00 7.0622070816e-05 1.6948985214e+00 -2.9356503527e+00 1.6948985214e+00 2.9356503527e+00 
54400 5.3271397833e+00 7.0754080085e-05 1.6948985214e+00 -2.9356503527e+00 1.6948985214e+00 2.9356503527e+00 
54500 5.3271397842e+00 6.8844470829e-05 1.6948964341e+00 -2.9356467374e+00 1.6948964341e+00 2.9356467374e+00 
54600 5.3271397852e+00 6.8960756552e-05 1.6948964341e+00 -2.9356467374e+00 1.6948964341e+00 2.9356467374e+00 
54700 5.3271397863e+00 6.9075292978e-05 1.6948964341e+00 -2.9356467374e+00 1.6948964341e+00 2.9356467374e+00 
54800 5.3271397873e+00 6.9188234290e-05 1.6948964341e+00 -2.9356467374e+00 1.6948964341e+00 2.9356467374e+00 
54900 5.3271397883e+00 6.9299726949e-05 1.6948964341e+00 -2.9356467374e+00 1.6948964341e+00 2.9356467374e+00 
55000 5.3271397892e+00 6.9409909828e-05 1.6948964341e+00 -2.9356467374e+00 1.6948964341e+00 2.9356467374e+00 
55100 5.3271397902e+00 6.9518914328e-05 1.6948964341e+00 -2.9356467374e+00 1.6948964341e+00 2.9356467374e+00 
55200 5.3271397912e+00 6.9626864531e-05 1.6948964341e+00 -2.9356467374e+00 1.6948964341e+00 2.9356467374e+00 
55300 5.3271397921e+00 6.9733877340e-05 1.6948964341e+00 -2.9356467374e+00 1.6948964341e+00 2.9356467374e+00 
55400 5.3271397930e+00 6.9840062624e-05 1.6948964341e+00 -2.9356467374e+00 1.6948964341e+00 2.9356467374e+00 
55500 5.3271397939e+00 6.9945523390e-05 1.6948964341e+00 -2.9356467374e+00 1.6948964341e+00 2.9356467374e+00 
55600 5.3271397948e+00 7.0050355937e-05 1.6948964341e+00 -2.9356467374e+00 1.6948964341e+00 2.9356467374e+00 
55700 5.3271397957e+00 7.0154650027e-05 1.6948964341e+00 -2.9356467374e+00 1.6948964341e+00 2.9356467374e+00 
55800 5.3271397966e+00 7.0258489055e-05 1.6948964341e+00 -2.9356467374e+00 1.6948964341e+00 2.9356467374e+00 
55900 5.3271397975e+00 7.0361950229e-05 1.6948964341e+00 -2.9356467374e+00 1.6948964341e+00 2.9356467374e+00 
56000 5.3271397983e+00 7.0465104751e-05 1.6948964341e+00 -2.9356467374e+00 1.6948964341e+00 2.9356467374e+00 
56100 5.3271397991e+00 7.0568017993e-05 1.6948964341e+00 -2.9356467374e+00 1.6948964341e+00 2.9356467374e+00 
56200 5.3271398000e+00 7.0670749687e-05 1.6948964341e+00 -2.9356467374e+00 1.6948964341e+00 2.9356467374e+00 
56300 5.3271398008e+00 7.0773354109e-05 1.6948964341e+00 -2.9356467374e+00 1.6948964341e+00 2.9356467374e+00 
56400 5.3271398014e+00 6.8834901523e-05 1.6948943463e+00 -2.9356431212e+00 1.6948943463e+00 2.9356431212e+00 
56500 5.3271398022e+00 6.8923958232e-05 1.6948943463e+00 -2.9356431212e+00 1.6948943463e+00 2.9356431212e+00 
56600 5.3271398030e+00 6.9012268002e-05 1.6948943463e+00 -2.9356431212e+00 1.6948943463e+00 2.9356431212e+00 
56700 5.3271398037e+00 6.9099928866e-05 1.6948943463e+00 -2.9356431212e+00 1.6948943463e+00 2.9356431212e+00 
56800 5.3271398045e+00 6.9187032736e-05 1.6948943463e+00 -2.9356431212e+00 1.6948943463e+00 2.9356431212e+00 
56900 5.3271398052e+00 6.9273665542e-05 1.6948943463e+00 -2.9356431212e+00 1.6948943463e+00 2.9356431212e+00 
57000 5.3271398059e+00 6.9359907381e-05 1.6948943463e+00 -2.9356431212e+00 1.6948943463e+00 2.9356431212e+00 
57100 5.3271398067e+00 6.9445832667e-05 1.6948943463e+00 -2.9356431212e+00 1.6948943463e+00 2.9356431212e+00 
57200 5.3271398074e+00 6.9531510292e-05 1.6948943463e+00 -2.9356431212e+00 1.6948943463e+00 2.9356431212e+00 
57300 5.3271398081e+00 6.9617003782e-05 1.6948943463e+00 -2.9356431212e+00 1.6948943463e+00 2.9356431212e+00 
57400 5.3271398087e+00 6.9702371454e-05 1.6948943463e+00 -2.9356431212e+00 1.6948943463e+00 2.9356431212e+00 
57500 5.3271398094e+00 6.9787666589e-05 1.6948943463e+00 -2.9356431212e+00 1.6948943463e+00 2.9356431212e+00 
57600 5.3271398101e+00 6.9872937588e-05 1.6948943463e+00 -2.9356431212e+00 1.6948943463e+00 2.9356431212e+00 
57700 5.3271398107e+00 6.9958228146e-05 1.6948943463e+00 -2.9356431212e+00 1.6948943463e+00 2.9356431212e+00 
57800 5.3271398114e+00 7.0043577411e-05 1.6948943463e+00 -2.9356431212e+00 1.6948943463e+00 2.9356431212e+00 
57900 5.3271398120e+00 7.0129020160e-05 1.6948943463e+00 -2.9356431212e+00 1.6948943463e+00 2.9356431212e+00 
58000 5.3271398127e+00 7.0214586965e-05 1.6948943463e+00 -2.9356431212e+00 1.6948943463e+00 2.9356431212e+00 
58100 5.3271398133e+00 7.0300304359e-05 1.6948943463e+00 -2.9356431212e+00 1.6948943463e+00 2.9356431212e+00 
58200 5.3271398139e+00 7.0386195004e-05 1.6948943463e+00 -2.9356431212e+00 1.6948943463e+00 2.9356431212e+00 
58300 5.3271398145e+00 7.0472277866e-05 1.6948943463e+00 -2.9356431212e+00 1.6948943463e+00 2.9356431212e+00 
58400 5.3271398151e+00 7.0558568370e-05 1.6948943463e+00 -2.9356431212e+00 1.6948943463e+00 2.9356431212e+00 
58500 5.3271398157e+00 7.0645078573e-05 1.6948943463e+00 -2.9356431212e+00 1.6948943463e+00 2.9356431212e+00 
58600 5.3271398162e+00 7.0731817322e-05 1.6948943463e+00 -2.9356431212e+00 1.6948943463e+00 2.9356431212e+00 
58700 5.3271398166e+00 6.8779006679e-05 1.6948922596e+00 -2.9356395071e+00 1.6948922596e+00 2.9356395071e+00 
58800 5.3271398172e+00 6.8852789514e-05 1.6948922596e+00 -2.9356395071e+00 1.6948922596e+00 2.9356395071e+00 
58900 5.3271398178e+00 6.8926058630e-05 1.6948922596e+00 -2.9356395071e+00 1.6948922596e+00 2.9356395071e+00 
59000 5.3271398183e+00 6.8998875296e-05 1.6948922596e+00 -2.9356395071e+00 1.6948922596e+00 2.9356395071e+00 
59100 5.3271398188e+00 6.9071296741e-05 1.6948922596e+00 -2.9356395071e+00 1.6948922596e+00 2.9356395071e+00 
59200 5.3271398194e+00 6.9143376270e-05 1.6948922596e+00 -2.9356395071e+00 1.6948922596e+00 2.9356395071e+00 
59300 5.3271398199e+00 6.9215163359e-05 1.6948922596e+00 -2.9356395071e+00 1.6948922596e+00 2.9356395071e+00 
59400 5.3271398204e+00 6.9286703771e-05 1.6948922596e+00 -2.9356395071e+00 1.6948922596e+00 2.9356395071e+00 
59500 5.3271398209e+00 6.9358039666e-05 1.6948922596e+00 -2.9356395071e+00 1.6948922596e+00 2.9356395071e+00 
59600 5.3271398214e+00 6.9429209706e-05 1.6948922596e+00 -2.9356395071e+00 1.6948922596e+00 2.9356395071e+00 
59700 5.3271398219e+00 6.9500249182e-05 1.6948922596e+00 -2.9356395071e+00 1.6948922596e+00 2.9356395071e+00 
59800 5.3271398224e+00 6.9571190114e-05 1.6948922596e+00 -2.9356395071e+00 1.6948922596e+00 2.9356395071e+00 
59900 5.3271398228e+00 6.9642061376e-05 1.6948922596e+00 -2.9356395071e+00 1.6948922596e+00 2.9356395071e+00 
60000 5.3271398233e+00 6.9712888803e-05 1.6948922596e+00 -2.9356395071e+00 1.6948922596e+00 2.9356395071e+00 
60100 5.3271398238e+00 6.9783695319e-05 1.6948922596e+00 -2.9356395071e+00 1.6948922596e+00 2.9356395071e+00 
60200 5.3271398242e+00 6.9854501030e-05 1.6948922596e+00 -2.9356395071e+00 1.6948922596e+00 2.9356395071e+00 
60300 5.3271398247e+00 6.9925323368e-05 1.6948922596e+00 -2.9356395071e+00 1.6948922596e+00 2.9356395071e+00 
60400 5.3271398251e+00 6.9996177178e-05 1.6948922596e+00 -2.9356395071e+00 1.6948922596e+00 2.9356395071e+00 
60500 5.3271398256e+00 7.0067074854e-05 1.6948922596e+00 -2.9356395071e+00 1.6948922596e+00 2.9356395071e+00 
60600 5.3271398260e+00 7.0138026436e-05 1.6948922596e+00 -2.9356395071e+00 1.6948922596e+00 2.9356395071e+00 
60700 5.3271398264e+00 7.0209039731e-05 1.6948922596e+00 -2.9356395071e+00 1.6948922596e+00 2.9356395071e+00 
60800 5.3271398268e+00 7.0280120422e-05 1.6948922596e+00 -2.9356395071e+00 1.6948922596e+00 2.9356395071e+00 
60900 5.3271398272e+00 7.0351272174e-05 1.6948922596e+00 -2.9356395071e+00 1.6948922596e+00 2.9356395071e+00 
61000 5.3271398276e+00 7.0422496748e-05 1.6948922596e+00 -2.9356395071e+00 1.6948922596e+00 2.9356395071e+00 
61100 5.3271398280e+00 7.0493794102e-05 1.6948922596e+00 -2.9356395071e+00 1.6948922596e+00 2.9356395071e+00 
61200 5.3271398284e+00 7.0565162497e-05 1.6948922596e+00 -2.9356395071e+00 1.6948922596e+00 2.9356395071e+00 
61300 5.3271398288e+00 7.0636598606e-05 1.6948922596e+00 -2.9356395071e+00 1.6948922596e+00 2.9356395071e+00 
61400 5.3271398292e+00 7.0708097605e-05 1.6948922596e+00 -2.9356395071e+00 1.6948922596e+00 2.9356395071e+00 
61500 5.3271398296e+00 7.0779653276e-05 1.6948922596e+00 -2.9356395071e+00 1.6948922596e+00 2.9356395071e+00 
61600 5.3271398298e+00 6.8810091057e-05 1.6948901716e+00 -2.9356358905e+00 1.6948901716e+00 2.9356358905e+00 
61700 5.3271398301e+00 6.8868299427e-05 1.6948901716e+00 -2.9356358905e+00 1.6948901716e+00 2.9356358905e+00 
61800 5.3271398305e+00 6.8925786762e-05 1.6948901716e+00 -2.9356358905e+00 1.6948901716e+00 2.9356358905e+00 
61900 5.3271398309e+00 6.8982605903e-05 1.6948901716e+00 -2.9356358905e+00 1.6948901716e+00 2.9356358905e+00 
62000 5.3271398312e+00 6.9038807142e-05 1.6948901716e+00 -2.9356358905e+00 1.6948901716e+00 2.9356358905e+00 
62100 5.3271398316e+00 6.9094438256e-05 1.6948901716e+00 -2.9356358905e+00 1.6948901716e+00 2.9356358905e+00 
62200 5.3271398319e+00 6.9149544559e-05 1.6948901716e+00 -2.9356358905e+00 1.6948901716e+00 2.9356358905e+00 
62300 5.3271398322e+00 6.9204168930e-05 1.6948901716e+00 -2.9356358905e+00 1.6948901716e+00 2.9356358905e+00 
62400 5.3271398326e+00 6.9258351877e-05 1.6948901716e+00 -2.9356358905e+00 1.6948901716e+00 2.9356358905e+00 
62500 5.3271398329e+00 6.9312131575e-05 1.6948901716e+00 -2.9356358905e+00 1.6948901716e+00 2.9356358905e+00 
62600 5.3271398332e+00 6.9365543919e-05 1.6948901716e+00 -2.9356358905e+00 1.6948901716e+00 2.9356358905e+00 
62700 5.3271398335e+00 6.9418622581e-05 1.6948901716e+00 -2.9356358905e+00 1.6948901716e+00 2.9356358905e+00 
62800 5.3271398338e+00 6.9471399056e-05 1.6948901716e+00 -2.9356358905e+00 1.6948901716e+00 2.9356358905e+00 
62900 5.3271398342e+00 6.9523902726e-05 1.6948901716e+00 -2.9356358905e+00 1.6948901716e+00 2.9356358905e+00 
63000 5.3271398345e+00 6.9576160911e-05 1.6948901716e+00 -2.9356358905e+00 1.6948901716e+00 2.9356358905e+00 
63100 5.3271398348e+00 6.9628198929e-05 1.6948901716e+00 -2.9356358905e+00 1.6948901716e+00 2.9356358905e+00 
63200 5.3271398350e+00 6.9680040153e-05 1.6948901716e+00 -2.9356358905e+00 1.6948901716e+00 2.9356358905e+00 
63300 5.3271398353e+00 6.9731706075e-05 1.6948901716e+00 -2.9356358905e+00 1.6948901716e+00 2.9356358905e+00 
63400 5.3271398356e+00 6.9783216358e-05 1.6948901716e+00 -2.9356358905e+00 1.6948901716e+00 2.9356358905e+00 
63500 5.3271398359e+00 6.9834588904e-05 1.6948901716e+00 -2.9356358905e+00 1.6948901716e+00 2.9356358905e+00 
63600 5.3271398362e+00 6.9885839917e-05 1.6948901716e+00 -2.9356358905e+00 1.6948901716e+00 2.9356358905e+00 
63700 5.3271398365e+00 6.9936983953e-05 1.6948901716e+00 -2.9356358905e+00 1.6948901716e+00 2.9356358905e+00 
63800 5.3271398367e+00 6.9988033994e-05 1.6948901716e+00 -2.9356358905e+00 1.6948901716e+00 2.9356358905e+00 
63900 5.3271398370e+00 7.0039001502e-05 1.6948901716e+00 -2.9356358905e+00 1.6948901716e+00 2.9356358905e+00 
64000 5.3271398373e+00 7.0089896482e-05 1.6948901716e+00 -2.9356358905e+00 1.6948901716e+00 2.9356358905e+00 
64100 5.3271398375e+00 7.0140727542e-05 1.6948901716e+00 -2.9356358905e+00 1.6948901716e+00 2.9356358905e+00 
64200 5.3271398378e+00 7.0191501961e-05 1.6948901716e+00 -2.9356358905e+00 1.6948901716e+00 2.9356358905e+00 
64300 5.3271398380e+00 7.0242225738e-05 1.6948901716e+00 -2.9356358905e+00 1.6948901716e+00 2.9356358905e+00 
64400 5.3271398383e+00 7.0292903660e-05 1.6948901716e+00 -2.9356358905e+00 1.6948901716e+00 2.9356358905e+00 
64500 5.3271398385e+00 7.0343539359e-05 1.6948901716e+00 -2.9356358905e+00 1.6948901716e+00 2.9356358905e+00 
64600 5.3271398388e+00 7.0394135370e-05 1.6948901716e+00 -2.9356358905e+00 1.6948901716e+00 2.9356358905e+00 
64700 5.3271398390e+00 7.0444693189e-05 1.6948901716e+00 -2.9356358905e+00 1.6948901716e+00 2.9356358905e+00 
64800 5.3271398392e+00 7.0495213333e-05 1.6948901716e+00 -2.9356358905e+00 1.6948901716e+00 2.9356358905e+00 
64900 5.3271398395e+00 7.0545695390e-05 1.6948901716e+00 -2.9356358905e+00 1.6948901716e+00 2.9356358905e+00 
65000 5.3271398397e+00 7.0596138080e-05 1.6948901716e+00 -2.9356358905e+00 1.6948901716e+00 2.9356358905e+00 
65100 5.3271398399e+00 7.0646539308e-05 1.6948901716e+00 -2.9356358905e+00 1.6948901716e+00 2.9356358905e+00 
65200 5.3271398401e+00 7.0696896214e-05 1.6948901716e+00 -2.9356358905e+00 1.6948901716e+00 2.9356358905e+00 
65300 5.3271398404e+00 7.0747205227e-05 1.6948901716e+00 -2.9356358905e+00 1.6948901716e+00 2.9356358905e+00 
65400 5.3271398404e+00 6.8757226478e-05 1.6948880845e+00 -2.9356322756e+00 1.6948880845e+00 2.9356322756e+00 
65500 5.3271398406e+00 6.8793995401e-05 1.6948880845e+00 -2.9356322756e+00 1.6948880845e+00 2.9356322756e+00 
65600 5.3271398408e+00 6.8829950683e-05 1.6948880845e+00 -2.9356322756e+00 1.6948880845e+00 2.9356322756e+00 
65700 5.3271398410e+00 6.8865150066e-05 1.6948880845e+00 -2.9356322756e+00 1.6948880845e+00 2.9356322756e+00 
65800 5.3271398412e+00 6.8899649202e-05 1.6948880845e+00 -2.9356322756e+00 1.6948880845e+00 2.9356322756e+00 
65900 5.3271398414e+00 6.8933501662e-05 1.6948880845e+00 -2.9356322756e+00 1.6948880845e+00 2.9356322756e+00 
66000 5.3271398416e+00 6.8966758922e-05 1.6948880845e+00 -2.9356322756e+00 1.6948880845e+00 2.9356322756e+00 
66100 5.3271398418e+00 6.8999470390e-05 1.6948880845e+00 -2.9356322756e+00 1.6948880845e+00 2.9356322756e+00 
66200 5.3271398420e+00 6.9031683401e-05 1.6948880845e+00 -2.9356322756e+00 1.6948880845e+00 2.9356322756e+00 
66300 5.3271398422e+00 6.9063443236e-05 1.6948880845e+00 -2.9356322756e+00 1.6948880845e+00 2.9356322756e+00 
66400 5.3271398424e+00 6.9094793141e-05 1.6948880845e+00 -2.9356322756e+00 1.6948880845e+00 2.9356322756e+00 
66500 5.3271398426e+00 6.9125774339e-05 1.6948880845e+00 -2.9356322756e+00 1.6948880845e+00 2.9356322756e+00 
66600 5.3271398428e+00 6.9156426060e-05 1.6948880845e+00 -2.9356322756e+00 1.6948880845e+00 2.9356322756e+00 
66700 5.3271398429e+00 6.9186785562e-05 1.6948880845e+00 -2.9356322756e+00 1.6948880845e+00 2.9356322756e+00 
66800 5.3271398431e+00 6.9216888157e-05 1.6948880845e+00 -2.9356322756e+00 1.6948880845e+00 2.9356322756e+00 
66900 5.3271398433e+00 6.9246767247e-05 1.6948880845e+00 -2.9356322756e+00 1.6948880845e+00 2.9356322756e+00 
67000 5.3271398435e+00 6.9276454348e-05 1.6948880845e+00 -2.9356322756e+00 1.6948880845e+00 2.9356322756e+00 
67100 5.3271398436e+00 6.9305979132e-05 1.6948880845e+00 -2.9356322756e+00 1.6948880845e+00 2.9356322756e+00 
67200 5.3271398438e+00 6.9335369457e-05 1.6948880845e+00 -2.9356322756e+00 1.6948880845e+00 2.9356322756e+00 
67300 5.3271398440e+00 6.9364651408e-05 1.6948880845e+00 -2.9356322756e+00 1.6948880845e+00 2.9356322756e+00 
67400 5.3271398441e+00 6.9393849332e-05 1.6948880845e+00 -2.9356322756e+00 1.6948880845e+00 2.9356322756e+00 
67500 5.3271398443e+00 6.9422985885e-05 1.6948880845e+00 -2.9356322756e+00 1.6948880845e+00 2.9356322756e+00 
67600 5.3271398444e+00 6.9452082068e-05 1.6948880845e+00 -2.9356322756e+00 1.6948880845e+00 2.9356322756e+00 
67700 5.3271398446e+00 6.9481157274e-05 1.6948880845e+00 -2.9356322756e+00 1.6948880845e+00 2.9356322756e+00 
67800 5.3271398447e+00 6.9510229333e-05 1.6948880845e+00 -2.9356322756e+00 1.6948880845e+00 2.9356322756e+00 
67900 5.3271398449e+00 6.9539314552e-05 1.6948880845e+00 -2.9356322756e+00 1.6948880845e+00 2.9356322756e+00 
68000 5.3271398450e+00 6.9568427766e-05 1.6948880845e+00 -2.9356322756e+00 1.6948880845e+00 2.9356322756e+00 
68100 5.3271398452e+00 6.9597582380e-05 1.6948880845e+00 -2.9356322756e+00 1.6948880845e+00 2.9356322756e+00 
68200 5.3271398453e+00 6.9626790422e-05 1.6948880845e+00 -2.9356322756e+00 1.6948880845e+00 2.9356322756e+00 
68300 5.3271398455e+00 6.9656062585e-05 1.6948880845e+00 -2.9356322756e+00 1.6948880845e+00 2.9356322756e+00 
68400 5.3271398456e+00 6.9685408276e-05 1.6948880845e+00 -2.9356322756e+00 1.6948880845e+00 2.9356322756e+00 
68500 5.3271398458e+00 6.9714835666e-05 1.6948880845e+00 -2.9356322756e+00 1.6948880845e+00 2.9356322756e+00 
68600 5.3271398459e+00 6.9744351740e-05 1.6948880845e+00 -2.9356322756e+00 1.6948880845e+00 2.9356322756e+00 
68700 5.3271398460e+00 6.9773962337e-05 1.6948880845e+00 -2.9356322756e+00 1.6948880845e+00 2.9356322756e+00 
68800 5.3271398462e+00 6.9803672205e-05 1.6948880845e+00 -2.9356322756e+00 1.6948880845e+00 2.9356322756e+00 
68900 5.3271398463e+00 6.9833485051e-05 1.6948880845e+00 -2.9356322756e+00 1.6948880845e+00 2.9356322756e+00 
69000 5.3271398464e+00 6.9863403580e-05 1.6948880845e+00 -2.9356322756e+00 1.6948880845e+00 2.9356322756e+00 
69100 5.3271398465e+00 6.9893429551e-05 1.6948880845e+00 -2.9356322756e+00 1.6948880845e+00 2.9356322756e+00 
69200 5.3271398467e+00 6.9923563817e-05 1.6948880845e+00 -2.9356322756e+00 1.6948880845e+00 2.9356322756e+00 
69300 5.3271398468e+00 6.9953806378e-05 1.6948880845e+00 -2.9356322756e+00 1.6948880845e+00 2.9356322756e+00 
69400 5.3271398469e+00 6.9984156423e-05 1.6948880845e+00 -2.9356322756e+00 1.6948880845e+00 2.9356322756e+00 
69500 5.3271398470e+00 7.0014612372e-05 1.6948880845e+00 -2.9356322756e+00 1.6948880845e+00 2.9356322756e+00 
69600 5.3271398472e+00 7.0045171933e-05 1.6948880845e+00 -2.9356322756e+00 1.6948880845e+00 2.9356322756e+00 
69700 5.3271398473e+00 7.0075832129e-05 1.6948880845e+00 -2.9356322756e+00 1.6948880845e+00 2.9356322756e+00 
69800 5.3271398474e+00 7.0106589355e-05 1.6948880845e+00 -2.9356322756e+00 1.6948880845e+00 2.9356322756e+00 
69900 5.3271398475e+00 7.0137439415e-05 1.6948880845e+00 -2.9356322756e+00 1.6948880845e+00 2.9356322756e+00 
70000 5.3271398476e+00 7.0168377560e-05 1.6948880845e+00 -2.9356322756e+00 1.6948880845e+00 2.9356322756e+00 
70100 5.3271398477e+00 7.0199398537e-05 1.6948880845e+00 -2.9356322756e+00 1.6948880845e+00 2.9356322756e+00 
70200 5.3271398478e+00 7.0230496621e-05 1.6948880845e+00 -2.9356322756e+00 1.6948880845e+00 2.9356322756e+00 
70300 5.3271398479e+00 7.0261665657e-05 1.6948880845e+00 -2.9356322756e+00 1.6948880845e+00 2.9356322756e+00 
70400 5.3271398480e+00 7.0292899096e-05 1.6948880845e+00 -2.9356322756e+00 1.6948880845e+00 2.9356322756e+00 
70500 5.3271398482e+00 7.0324190036e-05 1.6948880845e+00 -2.9356322756e+00 1.6948880845e+00 2.9356322756e+00 
70600 5.3271398483e+00 7.0355531254e-05 1.6948880845e+00 -2.9356322756e+00 1.6948880845e+00 2.9356322756e+00 
70700 5.3271398484e+00 7.0386915239e-05 1.6948880845e+00 -2.9356322756e+00 1.6948880845e+00 2.9356322756e+00 
70800 5.3271398485e+00 7.0418334230e-05 1.6948880845e+00 -2.9356322756e+00 1.6948880845e+00 2.9356322756e+00 
70900 5.3271398486e+00 7.0449780240e-05 1.6948880845e+00 -2.9356322756e+00 1.6948880845e+00 2.9356322756e+00 
71000 5.3271398487e+00 7.0481245099e-05 1.6948880845e+00 -2.9356322756e+00 1.6948880845e+00 2.9356322756e+00 
71100 5.3271398488e+00 7.0512720474e-05 1.6948880845e+00 -2.9356322756e+00 1.6948880845e+00 2.9356322756e+00 
71200 5.3271398488e+00 7.0544197904e-05 1.6948880845e+00 -2.9356322756e+00 1.6948880845e+00 2.9356322756e+00 
71300 5.3271398489e+00 7.0575668825e-05 1.6948880845e+00 -2.9356322756e+00 1.6948880845e+00 2.9356322756e+00 
71400 5.3271398490e+00 7.0607124598e-05 1.6948880845e+00 -2.9356322756e+00 1.6948880845e+00 2.9356322756e+00 
71500 5.3271398491e+00 7.0638556530e-05 1.6948880845e+00 -2.9356322756e+00 1.6948880845e+00 2.9356322756e+00 
71600 5.3271398492e+00 7.0669955907e-05 1.6948880845e+00 -2.9356322756e+00 1.6948880845e+00 2.9356322756e+00 
71700 5.3271398493e+00 7.0701314005e-05 1.6948880845e+00 -2.9356322756e+00 1.6948880845e+00 2.9356322756e+00 
71800 5.3271398494e+00 7.0732622128e-05 1.6948880845e+00 -2.9356322756e+00 1.6948880845e+00 2.9356322756e+00 
71900 5.3271398493e+00 6.8724052502e-05 1.6948859979e+00 -2.9356286614e+00 1.6948859979e+00 2.9356286614e+00 
72000 5.3271398494e+00 6.8741806209e-05 1.6948859979e+00 -2.9356286614e+00 1.6948859979e+00 2.9356286614e+00 
72100 5.3271398495e+00 6.8758733080e-05 1.6948859979e+00 -2.9356286614e+00 1.6948859979e+00 2.9356286614e+00 
72200 5.3271398496e+00 6.8774888336e-05 1.6948859979e+00 -2.9356286614e+00 1.6948859979e+00 2.9356286614e+00 
72300 5.3271398496e+00 6.8790325690e-05 1.6948859979e+00 -2.9356286614e+00 1.6948859979e+00 2.9356286614e+00 
72400 5.3271398497e+00 6.8805097327e-05 1.6948859979e+00 -2.9356286614e+00 1.6948859979e+00 2.9356286614e+00 
72500 5.3271398498e+00 6.8819253870e-05 1.6948859979e+00 -2.9356286614e+00 1.6948859979e+00 2.9356286614e+00 
72600 5.3271398499e+00 6.8832844366e-05 1.6948859979e+00 -2.9356286614e+00 1.6948859979e+00 2.9356286614e+00 
72700 5.3271398499e+00 6.8845916259e-05 1.6948859979e+00 -2.9356286614e+00 1.6948859979e+00 2.9356286614e+00 
72800 5.3271398500e+00 6.8858515385e-05 1.6948859979e+00 -2.9356286614e+00 1.6948859979e+00 2.9356286614e+00 
72900 5.3271398501e+00 6.8870685957e-05 1.6948859979e+00 -2.9356286614e+00 1.6948859979e+00 2.9356286614e+00 
73000 5.3271398502e+00 6.8882470560e-05 1.6948859979e+00 -2.9356286614e+00 1.6948859979e+00 2.9356286614e+00 
73100 5.3271398502e+00 6.8893910147e-05 1.6948859979e+00 -2.9356286614e+00 1.6948859979e+00 2.9356286614e+00 
73200 5.3271398503e+00 6.8905044035e-05 1.6948859979e+00 -2.9356286614e+00 1.6948859979e+00 2.9356286614e+00 
73300 5.3271398504e+00 6.8915909919e-05 1.6948859979e+00 -2.9356286614e+00 1.6948859979e+00 2.9356286614e+00 
73400 5.3271398505e+00 6.8926543864e-05 1.6948859979e+00 -2.9356286614e+00 1.6948859979e+00 2.9356286614e+00 
73500 5.3271398505e+00 6.8936980323e-05 1.6948859979e+00 -2.9356286614e+00 1.6948859979e+00 2.9356286614e+00 
73600 5.3271398506e+00 6.8947252145e-05 1.6948859979e+00 -2.9356286614e+00 1.6948859979e+00 2.9356286614e+00 
73700 5.3271398507e+00 6.8957390590e-05 1.6948859979e+00 -2.9356286614e+00 1.6948859979e+00 2.9356286614e+00 
73800 5.3271398507e+00 6.8967425343e-05 1.6948859979e+00 -2.9356286614e+00 1.6948859979e+00 2.9356286614e+00 
73900 5.3271398508e+00 6.8977384534e-05 1.6948859979e+00 -2.9356286614e+00 1.6948859979e+00 2.9356286614e+00 
74000 5.3271398509e+00 6.8987294758e-05 1.6948859979e+00 -2.9356286614e+00 1.6948859979e+00 2.9356286614e+00 
74100 5.3271398509e+00 6.8997181099e-05 1.6948859979e+00 -2.9356286614e+00 1.6948859979e+00 2.9356286614e+00 
74200 5.3271398510e+00 6.9007067154e-05 1.6948859979e+00 -2.9356286614e+00 1.6948859979e+00 2.9356286614e+00 
74300 5.3271398510e+00 6.9016975055e-05 1.6948859979e+00 -2.9356286614e+00 1.6948859979e+00 2.9356286614e+00 
74400 5.3271398511e+00 6.9026925507e-05 1.6948859979e+00 -2.9356286614e+00 1.6948859979e+00 2.9356286614e+00 
74500 5.3271398512e+00 6.9036937799e-05 1.6948859979e+00 -2.9356286614e+00 1.6948859979e+00 2.9356286614e+00 
74600 5.3271398512e+00 6.9047029859e-05 1.6948859979e+00 -2.9356286614e+00 1.6948859979e+00 2.9356286614e+00 
74700 5.3271398513e+00 6.9057218264e-05 1.6948859979e+00 -2.9356286614e+00 1.6948859979e+00 2.9356286614e+00 
74800 5.3271398513e+00 6.9067518283e-05 1.6948859979e+00 -2.9356286614e+00 1.6948859979e+00 2.9356286614e+00 
74900 5.3271398514e+00 6.9077943911e-05 1.6948859979e+00 -2.9356286614e+00 1.6948859979e+00 2.9356286614e+00 
75000 5.3271398515e+00 6.9088507902e-05 1.6948859979e+00 -2.9356286614e+00 1.6948859979e+00 2.9356286614e+00 
75100 5.3271398515e+00 6.9099221807e-05 1.6948859979e+00 -2.9356286614e+00 1.6948859979e+00 2.9356286614e+00 
75200 5.3271398516e+00 6.9110096003e-05 1.6948859979e+00 -2.9356286614e+00 1.6948859979e+00 2.9356286614e+00 
75300 5.3271398516e+00 6.9121139740e-05 1.6948859979e+00 -2.9356286614e+00 1.6948859979e+00 2.9356286614e+00 
75400 5.3271398517e+00 6.9132361169e-05 1.6948859979e+00 -2.9356286614e+00 1.6948859979e+00 2.9356286614e+00 
75500 5.3271398517e+00 6.9143767390e-05 1.6948859979e+00 -2.9356286614e+00 1.6948859979e+00 2.9356286614e+00 
75600 5.3271398518e+00 6.9155364477e-05 1.6948859979e+00 -2.9356286614e+00 1.6948859979e+00 2.9356286614e+00 
75700 5.3271398518e+00 6.9167157528e-05 1.6948859979e+00 -2.9356286614e+00 1.6948859979e+00 2.9356286614e+00 
75800 5.3271398519e+00 6.9179150702e-05 1.6948859979e+00 -2.9356286614e+00 1.6948859979e+00 2.9356286614e+00 
75900 5.3271398519e+00 6.9191347246e-05 1.6948859979e+00 -2.9356286614e+00 1.6948859979e+00 2.9356286614e+00 
75900 5.3271398519e+00 6.9191347246e-05 1.6948859979e+00 -2.9356286614e+00 1.6948859979e+00 2.9356286614e+00 
