# step Hamiltonian StressXX CellTensor1 CellTensor2 CellTensor3 CellTensor4 
0 6.8447364912e+00 5.1955881807e-02 1.8596955775e+00 -3.2210872269e+00 1.8596955775e+00 3.2210872269e+00 
100 6.8456972649e+00 6.2725379280e-02 1.8596955775e+00 -3.2210872269e+00 1.8596955775e+00 3.2210872269e+00 
200 6.8460870800e+00 7.1795812509e-02 1.8580093905e+00 -3.2181666654e+00 1.8580093905e+00 3.2181666654e+00 
300 6.8460319028e+00 8.0130996030e-02 1.8560776630e+00 -3.2148208152e+00 1.8560776630e+00 3.2148208152e+00 
400 6.8455752417e+00 8.7763732777e-02 1.8539194709e+00 -3.2110827167e+00 1.8539194709e+00 3.2110827167e+00 
500 6.8447581099e+00 9.4724401847e-02 1.8515529972e+00 -3.2069838640e+00 1.8515529972e+00 3.2069838640e+00 
600 6.8436192067e+00 1.0104136265e-01 1.8489956153e+00 -3.2025543487e+00 1.8489956153e+00 3.2025543487e+00 
700 6.8421950679e+00 1.0674129429e-01 1.8462639582e+00 -3.1978229798e+00 1.8462639582e+00 3.1978229798e+00 
800 6.8405201908e+00 1.1184948034e-01 1.8433739761e+00 -3.1928173839e+00 1.8433739761e+00 3.1928173839e+00 
900 6.8386271374e+00 1.1639004745e-01 1.8403409847e+00 -3.1875640887e+00 1.8403409847e+00 3.1875640887e+00 
1000 6.8365466202e+00 1.2038616468e-01 1.8371797048e+00 -3.1820885913e+00 1.8371797048e+00 3.1820885913e+00 
1100 6.8343075738e+00 1.2386020926e-01 1.8339042952e+00 -3.1764154156e+00 1.8339042952e+00 3.1764154156e+00 
1200 6.8319372148e+00 1.2683390336e-01 1.8305283795e+00 -3.1705681580e+00 1.8305283795e+00 3.1705681580e+00 
1300 6.8294610922e+00 1.2932842578e-01 1.8270650675e+00 -3.1645695256e+00 1.8270650675e+00 3.1645695256e+00 
1400 6.8269031304e+00 1.3136450175e-01 1.8235269726e+00 -3.1584413655e+00 1.8235269726e+00 3.1584413655e+00 
1500 6.8242856670e+00 1.3296247346e-01 1.8199262260e+00 -3.1522046895e+00 1.8199262260e+00 3.1522046895e+00 
1600 6.8216294856e+00 1.3414235393e-01 1.8162744872e+00 -3.1458796924e+00 1.8162744872e+00 3.1458796924e+00 
1700 6.8189538472e+00 1.3492386606e-01 1.8125829525e+00 -3.1394857667e+00 1.8125829525e+00 3.1394857667e+00 
1800 6.8162765186e+00 1.3532646895e-01 1.8088623615e+00 -3.1330415141e+00 1.8088623615e+00 3.1330415141e+00 
1900 6.8136138012e+00 1.3536937320e-01 1.8051230021e+00 -3.1265647536e+00 1.8051230021e+00 3.1265647536e+00 
2000 6.8109805600e+00 1.3507154666e-01 1.8013747143e+00 -3.1200725286e+00 1.8013747143e+00 3.1200725286e+00 
2100 6.8083902541e+00 1.3445171240e-01 1.7976268934e+00 -3.1135811124e+00 1.7976268934e+00 3.1135811124e+00 
2200 6.8058549678e+00 1.3352833994e-01 1.7938884926e+00 -3.1071060122e+00 1.7938884926e+00 3.1071060122e+00 
2300 6.8033854461e+00 1.3231963134e-01 1.7901680252e+00 -3.1006619737e+00 1.7901680252e+00 3.1006619737e+00 
2400 6.8009911311e+00 1.3084350311e-01 1.7864735673e+00 -3.0942629849e+00 1.7864735673e+00 3.0942629849e+00 
2500 6.7986802022e+00 1.2911756512e-01 1.7828127600e+00 -3.0879222807e+00 1.7828127600e+00 3.0879222807e+00 
2600 6.7964596197e+00 1.2715909743e-01 1.7791928126e+00 -3.0816523479e+00 1.7791928126e+00 3.0816523479e+00 
2700 6.7943351708e+00 1.2498502595e-01 1.7756205060e+00 -3.0754649314e+00 1.7756205060e+00 3.0754649314e+00 
2800 6.7923115196e+00 1.2261189769e-01 1.7721021964e+00 -3.0693710403e+00 1.7721021964e+00 3.0693710403e+00 
2900 6.7903922593e+00 1.2005585626e-01 1.7686438200e+00 -3.0633809568e+00 1.7686438200e+00 3.0633809568e+00 
3000 6.7885799679e+00 1.1733261819e-01 1.7652508988e+00 -3.0575042448e+00 1.7652508988e+00 3.0575042448e+00 
3100 6.7868762653e+00 1.1445745060e-01 1.7619285458e+00 -3.0517497606e+00 1.7619285458e+00 3.0517497606e+00 
3200 6.7852818740e+00 1.1144515059e-01 1.7586814726e+00 -3.0461256648e+00 1.7586814726e+00 3.0461256648e+00 
3300 6.7837966801e+00 1.0831002664e-01 1.7555139966e+00 -3.0406394355e+00 1.7555139966e+00 3.0406394355e+00 
3400 6.7824197964e+00 1.0506588241e-01 1.7524300494e+00 -3.0352978822e+00 1.7524300494e+00 3.0352978822e+00 
3500 6.7811496263e+00 1.0172600294e-01 1.7494331858e+00 -3.0301071622e+00 1.7494331858e+00 3.0301071622e+00 
3600 6.7799839282e+00 9.8303143472e-02 1.7465265935e+00 -3.0250727967e+00 1.7465265935e+00 3.0250727967e+00 
3700 6.7789198794e+00 9.4809520991e-02 1.7437131035e+00 -3.0201996891e+00 1.7437131035e+00 3.0201996891e+00 
3800 6.7779541407e+00 9.1256808400e-02 1.7409952010e+00 -3.0154921438e+00 1.7409952010e+00 3.0154921438e+00 
3900 6.7770829189e+00 8.7656131373e-02 1.7383750364e+00 -3.0109538857e+00 1.7383750364e+00 3.0109538857e+00 
4000 6.7763020291e+00 8.4018067794e-02 1.7358544379e+00 -3.0065880809e+00 1.7358544379e+00 3.0065880809e+00 
4100 6.7756069551e+00 8.0352649673e-02 1.7334349228e+00 -3.0023973579e+00 1.7334349228e+00 3.0023973579e+00 
4200 6.7749929074e+00 7.6669367426e-02 1.7311177110e+00 -2.9983838293e+00 1.7311177110e+00 2.9983838293e+00 
4300 6.7744548803e+00 7.2977176344e-02 1.7289037367e+00 -2.9945491134e+00 1.7289037367e+00 2.9945491134e+00 
4400 6.7739877048e+00 6.9284505103e-02 1.7267936623e+00 -2.9908943573e+00 1.7267936623e+00 2.9908943573e+00 
4500 6.7735861006e+00 6.5599266111e-02 1.7247878907e+00 -2.9874202590e+00 1.7247878907e+00 2.9874202590e+00 
4600 6.7732447237e+00 6.1928867516e-02 1.7228865787e+00 -2.9841270900e+00 1.7228865787e+00 2.9841270900e+00 
4700 6.7729582119e+00 5.8280226660e-02 1.7210896499e+00 -2.9810147180e+00 1.7210896499e+00 2.9810147180e+00 
4800 6.7727212268e+00 5.4659784792e-02 1.7193968078e+00 -2.9780826294e+00 1.7193968078e+00 2.9780826294e+00 
4900 6.7725284926e+00 5.1073522833e-02 1.7178075482e+00 -2.9753299512e+00 1.7178075482e+00 2.9753299512e+00 
5000 6.7723748314e+00 4.7526977999e-02 1.7163211725e+00 -2.9727554729e+00 1.7163211725e+00 2.9727554729e+00 
5100 6.7722551956e+00 4.4025261103e-02 1.7149367992e+00 -2.9703576680e+00 1.7149367992e+00 2.9703576680e+00 
5200 6.7721646965e+00 4.0573074342e-02 1.7136533769e+00 -2.9681347153e+00 1.7136533769e+00 2.9681347153e+00 
5300 6.7720986300e+00 3.7174729410e-02 1.7124696952e+00 -2.9660845186e+00 1.7124696952e+00 2.9660845186e+00 
5400 6.7720524984e+00 3.3834165780e-02 1.7113843972e+00 -2.9642047273e+00 1.7113843972e+00 2.9642047273e+00 
5500 6.7720220302e+00 3.0554969000e-02 1.7103959896e+00 -2.9624927551e+00 1.7103959896e+00 2.9624927551e+00 
5600 6.7720031954e+00 2.7340388887e-02 1.7095028541e+00 -2.9609457990e+00 1.7095028541e+00 2.9609457990e+00 
5700 6.7719922188e+00 2.4193357483e-02 1.7087032574e+00 -2.9595608569e+00 1.7087032574e+00 2.9595608569e+00 
5800 6.7719855904e+00 2.1116506684e-02 1.7079953613e+00 -2.9583347449e+00 1.7079953613e+00 2.9583347449e+00 
5900 6.7719800724e+00 1.8112185443e-02 1.7073772323e+00 -2.9572641140e+00 1.7073772323e+00 2.9572641140e+00 
6000 6.7719727047e+00 1.5182476464e-02 1.7068468501e+00 -2.9563454652e+00 1.7068468501e+00 2.9563454652e+00 
6100 6.7719608069e+00 1.2329212342e-02 1.7064021173e+00 -2.9555751653e+00 1.7064021173e+00 2.9555751653e+00 
6200 6.7719419791e+00 9.5539910665e-03 1.7060408666e+00 -2.9549494608e+00 1.7060408666e+00 2.9549494608e+00 
6300 6.7719140996e+00 6.8581908791e-03 1.7057608696e+00 -2.9544644916e+00 1.7057608696e+00 2.9544644916e+00 
6400 6.7718753216e+00 4.2429844269e-03 1.7055598432e+00 -2.9541163038e+00 1.7055598432e+00 2.9541163038e+00 
6500 6.7718240675e+00 1.7093522099e-03 1.7054354579e+00 -2.9539008621e+00 1.7054354579e+00 2.9539008621e+00 
6600 6.7717590222e+00 -7.4190469877e-04 1.7053853433e+00 -2.9538140611e+00 1.7053853433e+00 2.9538140611e+00 
6700 6.7716791244e+00 -3.1101526616e-03 1.7054070952e+00 -2.9538517364e+00 1.7054070952e+00 2.9538517364e+00 
6800 6.7715835571e+00 -5.3949142098e-03 1.7054982810e+00 -2.9540096750e+00 1.7054982810e+00 2.9540096750e+00 
6900 6.7714717368e+00 -7.5958574924e-03 1.7056564459e+00 -2.9542836246e+00 1.7056564459e+00 2.9542836246e+00 
7000 6.7713433017e+00 -9.7127864267e-03 1.7058791174e+00 -2.9546693030e+00 1.7058791174e+00 2.9546693030e+00 
7100 6.7711980997e+00 -1.1745631529e-02 1.7061638110e+00 -2.9551624067e+00 1.7061638110e+00 2.9551624067e+00 
7200 6.7710361747e+00 -1.3694441402e-02 1.7065080343e+00 -2.9557586189e+00 1.7065080343e+00 2.9557586189e+00 
7300 6.7708577533e+00 -1.5559374856e-02 1.7069092916e+00 -2.9564536170e+00 1.7069092916e+00 2.9564536170e+00 
7400 6.7706632307e+00 -1.7340693629e-02 1.7073650882e+00 -2.9572430798e+00 1.7073650882e+00 2.9572430798e+00 
7500 6.7704531565e+00 -1.9038755680e-02 1.7078729337e+00 -2.9581226940e+00 1.7078729337e+00 2.9581226940e+00 
7600 6.7702282202e+00 -2.0654009018e-02 1.7084303461e+00 -2.9590881606e+00 1.7084303461e+00 2.9590881606e+00 
7700 6.7699892370e+00 -2.2186986041e-02 1.7090348550e+00 -2.9601352007e+00 1.7090348550e+00 2.9601352007e+00 
7800 6.7697371330e+00 -2.3638298342e-02 1.7096840047e+00 -2.9612595610e+00 1.7096840047e+00 2.9612595610e+00 
7900 6.7694729312e+00 -2.5008631961e-02 1.7103753573e+00 -2.9624570189e+00 1.7103753573e+00 2.9624570189e+00 
8000 6.7691977375e+00 -2.6298743032e-02 1.7111064954e+00 -2.9637233873e+00 1.7111064954e+00 2.9637233873e+00 
8100 6.7689127268e+00 -2.7509453816e-02 1.7118750248e+00 -2.9650545191e+00 1.7118750248e+00 2.9650545191e+00 
8200 6.7686191299e+00 -2.8641649067e-02 1.7126785766e+00 -2.9664463116e+00 1.7126785766e+00 2.9664463116e+00 
8300 6.7683182203e+00 -2.9696272710e-02 1.7135148099e+00 -2.9678947103e+00 1.7135148099e+00 2.9678947103e+00 
8400 6.7680113021e+00 -3.0674324803e-02 1.7143814139e+00 -2.9693957124e+00 1.7143814139e+00 2.9693957124e+00 
8500 6.7676996980e+00 -3.1576858751e-02 1.7152761095e+00 -2.9709453707e+00 1.7152761095e+00 2.9709453707e+00 
8600 6.7673847378e+00 -3.2404978747e-02 1.7161966517e+00 -2.9725397965e+00 1.7161966517e+00 2.9725397965e+00 
8700 6.7670677479e+00 -3.3159837415e-02 1.7171408310e+00 -2.9741751631e+00 1.7171408310e+00 2.9741751631e+00 
8800 6.7667500414e+00 -3.3842633629e-02 1.7181064753e+00 -2.9758477080e+00 1.7181064753e+00 2.9758477080e+00 
8900 6.7664329085e+00 -3.4454610489e-02 1.7190914511e+00 -2.9775537361e+00 1.7190914511e+00 2.9775537361e+00 
9000 6.7661176077e+00 -3.4997053427e-02 1.7200936652e+00 -2.9792896219e+00 1.7200936652e+00 2.9792896219e+00 
9100 6.7658053580e+00 -3.5471288437e-02 1.7211110662e+00 -2.9810518122e+00 1.7211110662e+00 2.9810518122e+00 
9200 6.7654973317e+00 -3.5878680390e-02 1.7221416455e+00 -2.9828368278e+00 1.7221416455e+00 2.9828368278e+00 
9300 6.7651946476e+00 -3.6220631440e-02 1.7231834383e+00 -2.9846412658e+00 1.7231834383e+00 2.9846412658e+00 
9400 6.7648983652e+00 -3.6498579488e-02 1.7242345252e+00 -2.9864618018e+00 1.7242345252e+00 2.9864618018e+00 
9500 6.7646094794e+00 -3.6713996698e-02 1.7252930329e+00 -2.9882951909e+00 1.7252930329e+00 2.9882951909e+00 
9600 6.7643289164e+00 -3.6868388056e-02 1.7263571353e+00 -2.9901382703e+00 1.7263571353e+00 2.9901382703e+00 
9700 6.7640575293e+00 -3.6963289950e-02 1.7274250541e+00 -2.9919879600e+00 1.7274250541e+00 2.9919879600e+00 
9800 6.7637960957e+00 -3.7000268768e-02 1.7284950601e+00 -2.9938412647e+00 1.7284950601e+00 2.9938412647e+00 
9900 6.7635453147e+00 -3.6980919502e-02 1.7295654735e+00 -2.9956952751e+00 1.7295654735e+00 2.9956952751e+00 
10000 6.7633058053e+00 -3.6906864353e-02 1.7306346648e+00 -2.9975471687e+00 1.7306346648e+00 2.9975471687e+00 
10100 6.7630781050e+00 -3.6779751323e-02 1.7317010554e+00 -2.9993942115e+00 1.7317010554e+00 2.9993942115e+00 
10200 6.7628626695e+00 -3.6601252791e-02 1.7327631183e+00 -3.0012337584e+00 1.7327631183e+00 3.0012337584e+00 
10300 6.7626598723e+00 -3.6373064068e-02 1.7338193783e+00 -3.0030632544e+00 1.7338193783e+00 3.0030632544e+00 
10400 6.7624700055e+00 -3.6096901924e-02 1.7348684129e+00 -3.0048802356e+00 1.7348684129e+00 3.0048802356e+00 
10500 6.7622932805e+00 -3.5774503082e-02 1.7359088523e+00 -3.0066823294e+00 1.7359088523e+00 3.0066823294e+00 
10600 6.7621298296e+00 -3.5407622680e-02 1.7369393799e+00 -3.0084672556e+00 1.7369393799e+00 3.0084672556e+00 
10700 6.7619797079e+00 -3.4998032686e-02 1.7379587328e+00 -3.0102328266e+00 1.7379587328e+00 3.0102328266e+00 
10800 6.7618428958e+00 -3.4547520284e-02 1.7389657017e+00 -3.0119769480e+00 1.7389657017e+00 3.0119769480e+00 
10900 6.7617193013e+00 -3.4057886201e-02 1.7399591315e+00 -3.0136976189e+00 1.7399591315e+00 3.0136976189e+00 
11000 6.7616087637e+00 -3.3530943005e-02 1.7409379211e+00 -3.0153929322e+00 1.7409379211e+00 3.0153929322e+00 
11100 6.7615110562e+00 -3.2968513343e-02 1.7419010236e+00 -3.0170610746e+00 1.7419010236e+00 3.0170610746e+00 
11200 6.7614258903e+00 -3.2372428145e-02 1.7428474464e+00 -3.0187003270e+00 1.7428474464e+00 3.0187003270e+00 
11300 6.7613529193e+00 -3.1744524773e-02 1.7437762512e+00 -3.0203090641e+00 1.7437762512e+00 3.0203090641e+00 
11400 6.7612917426e+00 -3.1086645127e-02 1.7446865539e+00 -3.0218857547e+00 1.7446865539e+00 3.0218857547e+00 
11500 6.7612419101e+00 -3.0400633714e-02 1.7455775245e+00 -3.0234289610e+00 1.7455775245e+00 3.0234289610e+00 
11600 6.7612029263e+00 -2.9688335660e-02 1.7464483870e+00 -3.0249373391e+00 1.7464483870e+00 3.0249373391e+00 
11700 6.7611742553e+00 -2.8951594696e-02 1.7472984191e+00 -3.0264096379e+00 1.7472984191e+00 3.0264096379e+00 
11800 6.7611553256e+00 -2.8192251098e-02 1.7481269519e+00 -3.0278446988e+00 1.7481269519e+00 3.0278446988e+00 
11900 6.7611455342e+00 -2.7412139589e-02 1.7489333698e+00 -3.0292414556e+00 1.7489333698e+00 3.0292414556e+00 
12000 6.7611442521e+00 -2.6613087222e-02 1.7497171100e+00 -3.0305989333e+00 1.7497171100e+00 3.0305989333e+00 
12100 6.7611508284e+00 -2.5796911219e-02 1.7504776619e+00 -3.0319162479e+00 1.7504776619e+00 3.0319162479e+00 
12200 6.7611645955e+00 -2.4965416800e-02 1.7512145670e+00 -3.0331926051e+00 1.7512145670e+00 3.0331926051e+00 
12300 6.7611848739e+00 -2.4120394981e-02 1.7519274183e+00 -3.0344272996e+00 1.7519274183e+00 3.0344272996e+00 
12400 6.7612109759e+00 -2.3263620371e-02 1.7526158593e+00 -3.0356197145e+00 1.7526158593e+00 3.0356197145e+00 
12500 6.7612422112e+00 -2.2396848948e-02 1.7532795840e+00 -3.0367693193e+00 1.7532795840e+00 3.0367693193e+00 
12600 6.7612778904e+00 -2.1521815840e-02 1.7539183357e+00 -3.0378756698e+00 1.7539183357e+00 3.0378756698e+00 
12700 6.7613173297e+00 -2.0640233105e-02 1.7545319068e+00 -3.0389384061e+00 1.7545319068e+00 3.0389384061e+00 
12800 6.7613598544e+00 -1.9753787523e-02 1.7551201374e+00 -3.0399572513e+00 1.7551201374e+00 3.0399572513e+00 
12900 6.7614048031e+00 -1.8864138403e-02 1.7556829149e+00 -3.0409320105e+00 1.7556829149e+00 3.0409320105e+00 
13000 6.7614515314e+00 -1.7972915412e-02 1.7562201730e+00 -3.0418625690e+00 1.7562201730e+00 3.0418625690e+00 
13100 6.7614994146e+00 -1.7081716433e-02 1.7567318910e+00 -3.0427488905e+00 1.7567318910e+00 3.0427488905e+00 
13200 6.7615478516e+00 -1.6192105463e-02 1.7572180922e+00 -3.0435910157e+00 1.7572180922e+00 3.0435910157e+00 
13300 6.7615962672e+00 -1.5305610553e-02 1.7576788436e+00 -3.0443890605e+00 1.7576788436e+00 3.0443890605e+00 
13400 6.7616441149e+00 -1.4423721795e-02 1.7581142543e+00 -3.0451432139e+00 1.7581142543e+00 3.0451432139e+00 
13500 6.7616908794e+00 -1.3547889378e-02 1.7585244746e+00 -3.0458537363e+00 1.7585244746e+00 3.0458537363e+00 
13600 6.7617360783e+00 -1.2679521696e-02 1.7589096948e+00 -3.0465209573e+00 1.7589096948e+00 3.0465209573e+00 
13700 6.7617792641e+00 -1.1819983543e-02 1.7592701441e+00 -3.0471452737e+00 1.7592701441e+00 3.0471452737e+00 
13800 6.7618200255e+00 -1.0970594373e-02 1.7596060890e+00 -3.0477271475e+00 1.7596060890e+00 3.0477271475e+00 
13900 6.7618579888e+00 -1.0132626658e-02 1.7599178326e+00 -3.0482671033e+00 1.7599178326e+00 3.0482671033e+00 
14000 6.7618928188e+00 -9.3073043326e-03 1.7602057126e+00 -3.0487657260e+00 1.7602057126e+00 3.0487657260e+00 
14100 6.7619242191e+00 -8.4958013389e-03 1.7604701004e+00 -3.0492236591e+00 1.7604701004e+00 3.0492236591e+00 
14200 6.7619519328e+00 -7.6992402767e-03 1.7607113995e+00 -3.0496416013e+00 1.7607113995e+00 3.0496416013e+00 
14300 6.7619757425e+00 -6.9186911629e-03 1.7609300440e+00 -3.0500203048e+00 1.7609300440e+00 3.0500203048e+00 
14400 6.7619954700e+00 -6.1551703062e-03 1.7611264976e+00 -3.0503605724e+00 1.7611264976e+00 3.0503605724e+00 
14500 6.7620109759e+00 -5.4096393010e-03 1.7613012514e+00 -3.0506632549e+00 1.7613012514e+00 3.0506632549e+00 
14600 6.7620221592e+00 -4.6830041454e-03 1.7614548230e+00 -3.0509292487e+00 1.7614548230e+00 3.0509292487e+00 
14700 6.7620289557e+00 -3.9761144850e-03 1.7615877547e+00 -3.0511594932e+00 1.7615877547e+00 3.0511594932e+00 
14800 6.7620313378e+00 -3.2897629873e-03 1.7617006119e+00 -3.0513549676e+00 1.7617006119e+00 3.0513549676e+00 
14900 6.7620293125e+00 -2.6246848476e-03 1.7617939817e+00 -3.0515166888e+00 1.7617939817e+00 3.0515166888e+00 
15000 6.7620229201e+00 -1.9815574281e-03 1.7618684712e+00 -3.0516457084e+00 1.7618684712e+00 3.0516457084e+00 
15100 6.7620122326e+00 -1.3610000320e-03 1.7619247061e+00 -3.0517431100e+00 1.7619247061e+00 3.0517431100e+00 
15200 6.7619973517e+00 -7.6357381223e-04 1.7619633287e+00 -3.0518100064e+00 1.7619633287e+00 3.0518100064e+00 
15300 6.7619784073e+00 -1.8978181464e-04 1.7619849970e+00 -3.0518475370e+00 1.7619849970e+00 3.0518475370e+00 
15400 6.7619555546e+00 3.5993084489e-04 1.7619903825e+00 -3.0518568649e+00 1.7619903825e+00 3.0518568649e+00 
15500 6.7619289729e+00 8.8517667131e-04 1.7619801687e+00 -3.0518391742e+00 1.7619801687e+00 3.0518391742e+00 
15600 6.7618988625e+00 1.3856253512e-03 1.7619550500e+00 -3.0517956673e+00 1.7619550500e+00 3.0517956673e+00 
15700 6.7618654429e+00 1.8610031859e-03 1.7619157295e+00 -3.0517275621e+00 1.7619157295e+00 3.0517275621e+00 
15800 6.7618289506e+00 2.3110924013e-03 1.7618629178e+00 -3.0516360896e+00 1.7618629178e+00 3.0516360896e+00 
15900 6.7617896359e+00 2.7357303365e-03 1.7617973316e+00 -3.0515224910e+00 1.7617973316e+00 3.0515224910e+00 
16000 6.7617477616e+00 3.1348085168e-03 1.7617196919e+00 -3.0513880150e+00 1.7617196919e+00 3.0513880150e+00 
16100 6.7617035999e+00 3.5082716152e-03 1.7616307225e+00 -3.0512339155e+00 1.7616307225e+00 3.0512339155e+00 
16200 6.7616574302e+00 3.8561163085e-03 1.7615311489e+00 -3.0510614490e+00 1.7615311489e+00 3.0510614490e+00 
16300 6.7616095369e+00 4.1783900318e-03 1.7614216965e+00 -3.0508718718e+00 1.7614216965e+00 3.0508718718e+00 
16400 6.7615602074e+00 4.4751896391e-03 1.7613030893e+00 -3.0506664383e+00 1.7613030893e+00 3.0506664383e+00 
16500 6.7615097294e+00 4.7466599750e-03 1.7611760489e+00 -3.0504463977e+00 1.7611760489e+00 3.0504463977e+00 
16600 6.7614583892e+00 4.9929923646e-03 1.7610412923e+00 -3.0502129925e+00 1.7610412923e+00 3.0502129925e+00 
16700 6.7614064696e+00 5.2144230279e-03 1.7608995317e+00 -3.0499674560e+00 1.7608995317e+00 3.0499674560e+00 
16800 6.7613542481e+00 5.4112314253e-03 1.7607514725e+00 -3.0497110098e+00 1.7607514725e+00 3.0497110098e+00 
16900 6.7613019949e+00 5.5837385421e-03 1.7605978121e+00 -3.0494448623e+00 1.7605978121e+00 3.0494448623e+00 
17000 6.7612499716e+00 5.7323051172e-03 1.7604392394e+00 -3.0491702064e+00 1.7604392394e+00 3.0491702064e+00 
17100 6.7611984295e+00 5.8573298249e-03 1.7602764330e+00 -3.0488882173e+00 1.7602764330e+00 3.0488882173e+00 
17200 6.7611476083e+00 5.9592474154e-03 1.7601100604e+00 -3.0486000514e+00 1.7601100604e+00 3.0486000514e+00 
17300 6.7610977347e+00 6.0385268212e-03 1.7599407768e+00 -3.0483068438e+00 1.7599407768e+00 3.0483068438e+00 
17400 6.7610490215e+00 6.0956692373e-03 1.7597692248e+00 -3.0480097070e+00 1.7597692248e+00 3.0480097070e+00 
17500 6.7610016667e+00 6.1312061796e-03 1.7595960325e+00 -3.0477097291e+00 1.7595960325e+00 3.0477097291e+00 
17600 6.7609558524e+00 6.1456975300e-03 1.7594218134e+00 -3.0474079728e+00 1.7594218134e+00 3.0474079728e+00 
17700 6.7609117447e+00 6.1397295741e-03 1.7592471652e+00 -3.0471054733e+00 1.7592471652e+00 3.0471054733e+00 
17800 6.7608694926e+00 6.1139130367e-03 1.7590726694e+00 -3.0468032375e+00 1.7590726694e+00 3.0468032375e+00 
17900 6.7608292279e+00 6.0688811213e-03 1.7588988899e+00 -3.0465022427e+00 1.7588988899e+00 3.0465022427e+00 
18000 6.7607910652e+00 6.0052875604e-03 1.7587263734e+00 -3.0462034354e+00 1.7587263734e+00 3.0462034354e+00 
18100 6.7607551014e+00 5.9238046792e-03 1.7585556479e+00 -3.0459077301e+00 1.7585556479e+00 3.0459077301e+00 
18200 6.7607214161e+00 5.8251214806e-03 1.7583872224e+00 -3.0456160087e+00 1.7583872224e+00 3.0456160087e+00 
18300 6.7606900716e+00 5.7099417540e-03 1.7582215869e+00 -3.0453291194e+00 1.7582215869e+00 3.0453291194e+00 
18400 6.7606611130e+00 5.5789822130e-03 1.7580592110e+00 -3.0450478762e+00 1.7580592110e+00 3.0450478762e+00 
18500 6.7606345692e+00 5.4329706665e-03 1.7579005446e+00 -3.0447730580e+00 1.7579005446e+00 3.0447730580e+00 
18600 6.7606104527e+00 5.2726442253e-03 1.7577460168e+00 -3.0445054079e+00 1.7577460168e+00 3.0445054079e+00 
18700 6.7605887605e+00 5.0987475500e-03 1.7575960358e+00 -3.0442456332e+00 1.7575960358e+00 3.0442456332e+00 
18800 6.7605694750e+00 4.9120311401e-03 1.7574509889e+00 -3.0439944046e+00 1.7574509889e+00 3.0439944046e+00 
18900 6.7605525642e+00 4.7132496702e-03 1.7573112420e+00 -3.0437523559e+00 1.7573112420e+00 3.0437523559e+00 
19000 6.7605379832e+00 4.5031603731e-03 1.7571771397e+00 -3.0435200839e+00 1.7571771397e+00 3.0435200839e+00 
19100 6.7605256744e+00 4.2825214731e-03 1.7570490051e+00 -3.0432981482e+00 1.7570490051e+00 3.0432981482e+00 
19200 6.7605155688e+00 4.0520906716e-03 1.7569271396e+00 -3.0430870710e+00 1.7569271396e+00 3.0430870710e+00 
19300 6.7605075872e+00 3.8126236853e-03 1.7568118233e+00 -3.0428873373e+00 1.7568118233e+00 3.0428873373e+00 
19400 6.7605016406e+00 3.5648728393e-03 1.7567033147e+00 -3.0426993949e+00 1.7567033147e+00 3.0426993949e+00 
19500 6.7604976317e+00 3.3095857156e-03 1.7566018508e+00 -3.0425236543e+00 1.7566018508e+00 3.0425236543e+00 
19600 6.7604954555e+00 3.0475038577e-03 1.7565076475e+00 -3.0423604893e+00 1.7565076475e+00 3.0423604893e+00 
19700 6.7604950011e+00 2.7793615318e-03 1.7564208992e+00 -3.0422102369e+00 1.7564208992e+00 3.0422102369e+00 
19800 6.7604961517e+00 2.5058845456e-03 1.7563417798e+00 -3.0420731981e+00 1.7563417798e+00 3.0420731981e+00 
19900 6.7604987865e+00 2.2277891234e-03 1.7562704421e+00 -3.0419496375e+00 1.7562704421e+00 3.0419496375e+00 
20000 6.7605027814e+00 1.9457808391e-03 1.7562070186e+00 -3.0418397848e+00 1.7562070186e+00 3.0418397848e+00 
20100 6.7605080097e+00 1.6605536050e-03 1.7561516217e+00 -3.0417438345e+00 1.7561516217e+00 3.0417438345e+00 
20200 6.7605143437e+00 1.3727887177e-03 1.7561043437e+00 -3.0416619466e+00 1.7561043437e+00 3.0416619466e+00 
20300 6.7605216549e+00 1.0831539600e-03 1.7560652576e+00 -3.0415942476e+00 1.7560652576e+00 3.0415942476e+00 
20400 6.7605298154e+00 7.9230275773e-04 1.7560344173e+00 -3.0415408307e+00 1.7560344173e+00 3.0415408307e+00 
20500 6.7605386987e+00 5.0087339083e-04 1.7560118580e+00 -3.0415017567e+00 1.7560118580e+00 3.0415017567e+00 
20600 6.7605481801e+00 2.0948825884e-04 1.7559975963e+00 -3.0414770548e+00 1.7559975963e+00 3.0414770548e+00 
20700 6.7605581378e+00 -8.1246801344e-05 1.7559916314e+00 -3.0414667232e+00 1.7559916314e+00 3.0414667232e+00 
20800 6.7605684536e+00 -3.7074314573e-04 1.7559939448e+00 -3.0414707302e+00 1.7559939448e+00 3.0414707302e+00 
20900 6.7605790134e+00 -6.5842990279e-04 1.7560045013e+00 -3.0414890146e+00 1.7560045013e+00 3.0414890146e+00 
21000 6.7605897076e+00 -9.4375450321e-04 1.7560232493e+00 -3.0415214870e+00 1.7560232493e+00 3.0415214870e+00 
21100 6.7606004320e+00 -1.2261831612e-03 1.7560501213e+00 -3.0415680307e+00 1.7560501213e+00 3.0415680307e+00 
21200 6.7606110880e+00 -1.5052013082e-03 1.7560850345e+00 -3.0416285022e+00 1.7560850345e+00 3.0416285022e+00 
21300 6.7606215829e+00 -1.7803139806e-03 1.7561278914e+00 -3.0417027325e+00 1.7561278914e+00 3.0417027325e+00 
21400 6.7606318305e+00 -2.0510461617e-03 1.7561785803e+00 -3.0417905282e+00 1.7561785803e+00 3.0417905282e+00 
21500 6.7606417512e+00 -2.3169430810e-03 1.7562369757e+00 -3.0418916721e+00 1.7562369757e+00 3.0418916721e+00 
21600 6.7606512722e+00 -2.5775704691e-03 1.7563029394e+00 -3.0420059246e+00 1.7563029394e+00 3.0420059246e+00 
21700 6.7606603277e+00 -2.8325147728e-03 1.7563763205e+00 -3.0421330244e+00 1.7563763205e+00 3.0421330244e+00 
21800 6.7606688591e+00 -3.0813833283e-03 1.7564569563e+00 -3.0422726897e+00 1.7564569563e+00 3.0422726897e+00 
21900 6.7606768147e+00 -3.3238044967e-03 1.7565446729e+00 -3.0424246193e+00 1.7565446729e+00 3.0424246193e+00 
22000 6.7606841500e+00 -3.5594277602e-03 1.7566392858e+00 -3.0425884936e+00 1.7566392858e+00 3.0425884936e+00 
22100 6.7606908278e+00 -3.7879237824e-03 1.7567406003e+00 -3.0427639755e+00 1.7567406003e+00 3.0427639755e+00 
22200 6.7606968174e+00 -4.0089844321e-03 1.7568484126e+00 -3.0429507118e+00 1.7568484126e+00 3.0429507118e+00 
22300 6.7607020953e+00 -4.2223227737e-03 1.7569625097e+00 -3.0431483338e+00 1.7569625097e+00 3.0431483338e+00 
22400 6.7607066445e+00 -4.4276730226e-03 1.7570826708e+00 -3.0433564590e+00 1.7570826708e+00 3.0433564590e+00 
22500 6.7607104543e+00 -4.6247904698e-03 1.7572086673e+00 -3.0435746913e+00 1.7572086673e+00 3.0435746913e+00 
22600 6.7607135202e+00 -4.8134513737e-03 1.7573402638e+00 -3.0438026231e+00 1.7573402638e+00 3.0438026231e+00 
22700 6.7607158437e+00 -4.9934528231e-03 1.7574772183e+00 -3.0440398352e+00 1.7574772183e+00 3.0440398352e+00 
22800 6.7607174315e+00 -5.1646125700e-03 1.7576192833e+00 -3.0442858990e+00 1.7576192833e+00 3.0442858990e+00 
22900 6.7607182959e+00 -5.3267688347e-03 1.7577662060e+00 -3.0445403767e+00 1.7577662060e+00 3.0445403767e+00 
23000 6.7607184539e+00 -5.4797800838e-03 1.7579177292e+00 -3.0448028225e+00 1.7579177292e+00 3.0448028225e+00 
23100 6.7607179268e+00 -5.6235247819e-03 1.7580735915e+00 -3.0450727839e+00 1.7580735915e+00 3.0450727839e+00 
23200 6.7607167404e+00 -5.7579011182e-03 1.7582335282e+00 -3.0453498024e+00 1.7582335282e+00 3.0453498024e+00 
23300 6.7607149238e+00 -5.8828267093e-03 1.7583972718e+00 -3.0456334146e+00 1.7583972718e+00 3.0456334146e+00 
23400 6.7607125098e+00 -5.9982382783e-03 1.7585645525e+00 -3.0459231534e+00 1.7585645525e+00 3.0459231534e+00 
23500 6.7607095338e+00 -6.1040913126e-03 1.7587350989e+00 -3.0462185483e+00 1.7587350989e+00 3.0462185483e+00 
23600 6.7607060338e+00 -6.2003596991e-03 1.7589086381e+00 -3.0465191271e+00 1.7589086381e+00 3.0465191271e+00 
23700 6.7607020501e+00 -6.2870353405e-03 1.7590848970e+00 -3.0468244164e+00 1.7590848970e+00 3.0468244164e+00 
23800 6.7606976245e+00 -6.3641277518e-03 1.7592636019e+00 -3.0471339423e+00 1.7592636019e+00 3.0471339423e+00 
23900 6.7606928004e+00 -6.4316636379e-03 1.7594444797e+00 -3.0474472320e+00 1.7594444797e+00 3.0474472320e+00 
24000 6.7606876218e+00 -6.4896864547e-03 1.7596272583e+00 -3.0477638137e+00 1.7596272583e+00 3.0477638137e+00 
24100 6.7606821336e+00 -6.5382559529e-03 1.7598116667e+00 -3.0480832184e+00 1.7598116667e+00 3.0480832184e+00 
24200 6.7606763808e+00 -6.5774477070e-03 1.7599974357e+00 -3.0484049798e+00 1.7599974357e+00 3.0484049798e+00 
24300 6.7606704085e+00 -6.6073526287e-03 1.7601842986e+00 -3.0487286359e+00 1.7601842986e+00 3.0487286359e+00 
24400 6.7606642612e+00 -6.6280764678e-03 1.7603719912e+00 -3.0490537289e+00 1.7603719912e+00 3.0490537289e+00 
24500 6.7606579829e+00 -6.6397392995e-03 1.7605602524e+00 -3.0493798069e+00 1.7605602524e+00 3.0493798069e+00 
24600 6.7606516165e+00 -6.6424750001e-03 1.7607488246e+00 -3.0497064237e+00 1.7607488246e+00 3.0497064237e+00 
24700 6.7606452037e+00 -6.6364307118e-03 1.7609374544e+00 -3.0500331400e+00 1.7609374544e+00 3.0500331400e+00 
24800 6.7606387847e+00 -6.6217662980e-03 1.7611258924e+00 -3.0503595241e+00 1.7611258924e+00 3.0503595241e+00 
24900 6.7606323982e+00 -6.5986537889e-03 1.7613138938e+00 -3.0506851522e+00 1.7613138938e+00 3.0506851522e+00 
25000 6.7606260807e+00 -6.5672768191e-03 1.7615012191e+00 -3.0510096090e+00 1.7615012191e+00 3.0510096090e+00 
25100 6.7606198671e+00 -6.5278300591e-03 1.7616876337e+00 -3.0513324887e+00 1.7616876337e+00 3.0513324887e+00 
25200 6.7606137897e+00 -6.4805186388e-03 1.7618729090e+00 -3.0516533949e+00 1.7618729090e+00 3.0516533949e+00 
25300 6.7606078786e+00 -6.4255575672e-03 1.7620568222e+00 -3.0519719418e+00 1.7620568222e+00 3.0519719418e+00 
25400 6.7606021618e+00 -6.3631711475e-03 1.7622391565e+00 -3.0522877541e+00 1.7622391565e+00 3.0522877541e+00 
25500 6.7605966643e+00 -6.2935923876e-03 1.7624197018e+00 -3.0526004677e+00 1.7624197018e+00 3.0526004677e+00 
25600 6.7605914089e+00 -6.2170624100e-03 1.7625982545e+00 -3.0529097302e+00 1.7625982545e+00 3.0529097302e+00 
25700 6.7605864157e+00 -6.1338298580e-03 1.7627746182e+00 -3.0532152010e+00 1.7627746182e+00 3.0532152010e+00 
25800 6.7605817022e+00 -6.0441503034e-03 1.7629486033e+00 -3.0535165521e+00 1.7629486033e+00 3.0535165521e+00 
25900 6.7605772831e+00 -5.9482856523e-03 1.7631200277e+00 -3.0538134679e+00 1.7631200277e+00 3.0538134679e+00 
26000 6.7605731708e+00 -5.8465035537e-03 1.7632887168e+00 -3.0541056459e+00 1.7632887168e+00 3.0541056459e+00 
26100 6.7605693750e+00 -5.7390768090e-03 1.7634545034e+00 -3.0543927968e+00 1.7634545034e+00 3.0543927968e+00 
26200 6.7605659028e+00 -5.6262827851e-03 1.7636172285e+00 -3.0546746449e+00 1.7636172285e+00 3.0546746449e+00 
26300 6.7605627590e+00 -5.5084028307e-03 1.7637767407e+00 -3.0549509280e+00 1.7637767407e+00 3.0549509280e+00 
26400 6.7605599460e+00 -5.3857216977e-03 1.7639328966e+00 -3.0552213980e+00 1.7639328966e+00 3.0552213980e+00 
26500 6.7605574637e+00 -5.2585269678e-03 1.7640855611e+00 -3.0554858207e+00 1.7640855611e+00 3.0554858207e+00 
26600 6.7605553102e+00 -5.1271084852e-03 1.7642346072e+00 -3.0557439761e+00 1.7642346072e+00 3.0557439761e+00 
26700 6.7605534813e+00 -4.9917577970e-03 1.7643799161e+00 -3.0559956585e+00 1.7643799161e+00 3.0559956585e+00 
26800 6.7605519709e+00 -4.8527676011e-03 1.7645213772e+00 -3.0562406764e+00 1.7645213772e+00 3.0562406764e+00 
26900 6.7605507712e+00 -4.7104312023e-03 1.7646588885e+00 -3.0564788529e+00 1.7646588885e+00 3.0564788529e+00 
27000 6.7605498725e+00 -4.5650419793e-03 1.7647923559e+00 -3.0567100253e+00 1.7647923559e+00 3.0567100253e+00 
27100 6.7605492638e+00 -4.4168928602e-03 1.7649216940e+00 -3.0569340454e+00 1.7649216940e+00 3.0569340454e+00 
27200 6.7605489326e+00 -4.2662758103e-03 1.7650468255e+00 -3.0571507795e+00 1.7650468255e+00 3.0571507795e+00 
27300 6.7605488653e+00 -4.1134813304e-03 1.7651676813e+00 -3.0573601080e+00 1.7651676813e+00 3.0573601080e+00 
27400 6.7605490470e+00 -3.9587979681e-03 1.7652842008e+00 -3.0575619255e+00 1.7652842008e+00 3.0575619255e+00 
27500 6.7605494620e+00 -3.8025118419e-03 1.7653963312e+00 -3.0577561411e+00 1.7653963312e+00 3.0577561411e+00 
27600 6.7605500938e+00 -3.6449061786e-03 1.7655040280e+00 -3.0579426774e+00 1.7655040280e+00 3.0579426774e+00 
27700 6.7605509252e+00 -3.4862608649e-03 1.7656072546e+00 -3.0581214712e+00 1.7656072546e+00 3.0581214712e+00 
27800 6.7605519387e+00 -3.3268520140e-03 1.7657059825e+00 -3.0582924729e+00 1.7657059825e+00 3.0582924729e+00 
27900 6.7605531163e+00 -3.1669515466e-03 1.7658001908e+00 -3.0584556464e+00 1.7658001908e+00 3.0584556464e+00 
28000 6.7605544397e+00 -3.0068267886e-03 1.7658898662e+00 -3.0586109688e+00 1.7658898662e+00 3.0586109688e+00 
28100 6.7605558907e+00 -2.8467400846e-03 1.7659750032e+00 -3.0587584304e+00 1.7659750032e+00 3.0587584304e+00 
28200 6.7605574512e+00 -2.6869484271e-03 1.7660556035e+00 -3.0588980342e+00 1.7660556035e+00 3.0588980342e+00 
28300 6.7605591029e+00 -2.5277031043e-03 1.7661316760e+00 -3.0590297958e+00 1.7661316760e+00 3.0590297958e+00 
28400 6.7605608283e+00 -2.3692493639e-03 1.7662032370e+00 -3.0591537429e+00 1.7662032370e+00 3.0591537429e+00 
28500 6.7605626100e+00 -2.2118260952e-03 1.7662703092e+00 -3.0592699154e+00 1.7662703092e+00 3.0592699154e+00 
28600 6.7605644310e+00 -2.0556655288e-03 1.7663329225e+00 -3.0593783648e+00 1.7663329225e+00 3.0593783648e+00 
28700 6.7605662752e+00 -1.9009929547e-03 1.7663911130e+00 -3.0594791538e+00 1.7663911130e+00 3.0594791538e+00 
28800 6.7605681269e+00 -1.7480264588e-03 1.7664449234e+00 -3.0595723560e+00 1.7664449234e+00 3.0595723560e+00 
28900 6.7605699713e+00 -1.5969766778e-03 1.7664944022e+00 -3.0596580560e+00 1.7664944022e+00 3.0596580560e+00 
29000 6.7605717942e+00 -1.4480465725e-03 1.7665396043e+00 -3.0597363482e+00 1.7665396043e+00 3.0597363482e+00 
29100 6.7605735827e+00 -1.3014312210e-03 1.7665805899e+00 -3.0598073373e+00 1.7665805899e+00 3.0598073373e+00 
29200 6.7605753244e+00 -1.1573176289e-03 1.7666174247e+00 -3.0598711372e+00 1.7666174247e+00 3.0598711372e+00 
29300 6.7605770079e+00 -1.0158845603e-03 1.7666501800e+00 -3.0599278710e+00 1.7666501800e+00 3.0599278710e+00 
29400 6.7605786231e+00 -8.7730238579e-04 1.7666789318e+00 -3.0599776706e+00 1.7666789318e+00 3.0599776706e+00 
29500 6.7605801607e+00 -7.4173295078e-04 1.7667037610e+00 -3.0600206760e+00 1.7667037610e+00 3.0600206760e+00 
29600 6.7605816123e+00 -6.0932946125e-04 1.7667247531e+00 -3.0600570353e+00 1.7667247531e+00 3.0600570353e+00 
29700 6.7605829709e+00 -4.8023638866e-04 1.7667419977e+00 -3.0600869039e+00 1.7667419977e+00 3.0600869039e+00 
29800 6.7605842301e+00 -3.5458939299e-04 1.7667555887e+00 -3.0601104442e+00 1.7667555887e+00 3.0601104442e+00 
29900 6.7605853850e+00 -2.3251526390e-04 1.7667656238e+00 -3.0601278254e+00 1.7667656238e+00 3.0601278254e+00 
30000 6.7605864313e+00 -1.1413187978e-04 1.7667722040e+00 -3.0601392228e+00 1.7667722040e+00 3.0601392228e+00 
30100 6.7605873660e+00 4.5181559662e-07 1.7667754340e+00 -3.0601448172e+00 1.7667754340e+00 3.0601448172e+00 
30200 6.7605881870e+00 1.1114988581e-04 1.7667754340e+00 -3.0601448172e+00 1.7667754340e+00 3.0601448172e+00 
30300 6.7605888930e+00 2.1784276090e-04 1.7667722884e+00 -3.0601393690e+00 1.7667722884e+00 3.0601393690e+00 
30400 6.7605894838e+00 3.2046271370e-04 1.7667661234e+00 -3.0601286909e+00 1.7667661234e+00 3.0601286909e+00 
30500 6.7605899599e+00 4.1893643150e-04 1.7667570543e+00 -3.0601129826e+00 1.7667570543e+00 3.0601129826e+00 
30600 6.7605903228e+00 5.1319940107e-04 1.7667451982e+00 -3.0600924473e+00 1.7667451982e+00 3.0600924473e+00 
30700 6.7605905746e+00 6.0319583402e-04 1.7667306743e+00 -3.0600672913e+00 1.7667306743e+00 3.0600672913e+00 
30800 6.7605907182e+00 6.8887857739e-04 1.7667136034e+00 -3.0600377235e+00 1.7667136034e+00 3.0600377235e+00 
30900 6.7605907573e+00 7.7020900989e-04 1.7666941074e+00 -3.0600039555e+00 1.7666941074e+00 3.0600039555e+00 
31000 6.7605906958e+00 8.4715692436e-04 1.7666723094e+00 -3.0599662002e+00 1.7666723094e+00 3.0599662002e+00 
31100 6.7605905387e+00 9.1970039695e-04 1.7666483334e+00 -3.0599246726e+00 1.7666483334e+00 3.0599246726e+00 
31200 6.7605902910e+00 9.8782564371e-04 1.7666223039e+00 -3.0598795882e+00 1.7666223039e+00 3.0598795882e+00 
31300 6.7605899584e+00 1.0515268649e-03 1.7665943460e+00 -3.0598311636e+00 1.7665943460e+00 3.0598311636e+00 
31400 6.7605895469e+00 1.1108060780e-03 1.7665645847e+00 -3.0597796155e+00 1.7665645847e+00 3.0597796155e+00 
31500 6.7605890628e+00 1.1656729393e-03 1.7665331450e+00 -3.0597251604e+00 1.7665331450e+00 3.0597251604e+00 
31600 6.7605885128e+00 1.2161445562e-03 1.7665001519e+00 -3.0596680147e+00 1.7665001519e+00 3.0596680147e+00 
31700 6.7605879035e+00 1.2622452882e-03 1.7664657296e+00 -3.0596083935e+00 1.7664657296e+00 3.0596083935e+00 
31800 6.7605872418e+00 1.3040065405e-03 1.7664300017e+00 -3.0595465110e+00 1.7664300017e+00 3.0595465110e+00 
31900 6.7605865348e+00 1.3414665480e-03 1.7663930910e+00 -3.0594825798e+00 1.7663930910e+00 3.0594825798e+00 
32000 6.7605857894e+00 1.3746701518e-03 1.7663551193e+00 -3.0594168108e+00 1.7663551193e+00 3.0594168108e+00 
32100 6.7605850125e+00 1.4036685688e-03 1.7663162068e+00 -3.0593494124e+00 1.7663162068e+00 3.0593494124e+00 
32200 6.7605842112e+00 1.4285191541e-03 1.7662764726e+00 -3.0592805907e+00 1.7662764726e+00 3.0592805907e+00 
32300 6.7605833921e+00 1.4492851584e-03 1.7662360340e+00 -3.0592105491e+00 1.7662360340e+00 3.0592105491e+00 
32400 6.7605825619e+00 1.4660354790e-03 1.7661950067e+00 -3.0591394876e+00 1.7661950067e+00 3.0591394876e+00 
32500 6.7605817270e+00 1.4788444073e-03 1.7661535042e+00 -3.0590676032e+00 1.7661535042e+00 3.0590676032e+00 
32600 6.7605808936e+00 1.4877913710e-03 1.7661116381e+00 -3.0589950890e+00 1.7661116381e+00 3.0589950890e+00 
32700 6.7605800675e+00 1.4929606739e-03 1.7660695177e+00 -3.0589221344e+00 1.7660695177e+00 3.0589221344e+00 
32800 6.7605792544e+00 1.4944412323e-03 1.7660272500e+00 -3.0588489246e+00 1.7660272500e+00 3.0588489246e+00 
32900 6.7605784595e+00 1.4923263095e-03 1.7659849394e+00 -3.0587756404e+00 1.7659849394e+00 3.0587756404e+00 
33000 6.7605776878e+00 1.4867132480e-03 1.7659426876e+00 -3.0587024581e+00 1.7659426876e+00 3.0587024581e+00 
33100 6.7605769438e+00 1.4777032011e-03 1.7659005937e+00 -3.0586295494e+00 1.7659005937e+00 3.0586295494e+00 
33200 6.7605762316e+00 1.4654008641e-03 1.7658587539e+00 -3.0585570808e+00 1.7658587539e+00 3.0585570808e+00 
33300 6.7605755551e+00 1.4499142050e-03 1.7658172615e+00 -3.0584852138e+00 1.7658172615e+00 3.0584852138e+00 
33400 6.7605749176e+00 1.4313541955e-03 1.7657762066e+00 -3.0584141047e+00 1.7657762066e+00 3.0584141047e+00 
33500 6.7605743220e+00 1.4098345442e-03 1.7657356763e+00 -3.0583439041e+00 1.7657356763e+00 3.0583439041e+00 
33600 6.7605737709e+00 1.3854714297e-03 1.7656957545e+00 -3.0582747574e+00 1.7656957545e+00 3.0582747574e+00 
33700 6.7605732664e+00 1.3583832369e-03 1.7656565216e+00 -3.0582068041e+00 1.7656565216e+00 3.0582068041e+00 
33800 6.7605728101e+00 1.3286902950e-03 1.7656180549e+00 -3.0581401779e+00 1.7656180549e+00 3.0581401779e+00 
33900 6.7605724035e+00 1.2965146187e-03 1.7655804283e+00 -3.0580750066e+00 1.7655804283e+00 3.0580750066e+00 
34000 6.7605720473e+00 1.2619796527e-03 1.7655437120e+00 -3.0580114122e+00 1.7655437120e+00 3.0580114122e+00 
34100 6.7605717421e+00 1.2252100197e-03 1.7655079730e+00 -3.0579495105e+00 1.7655079730e+00 3.0579495105e+00 
34200 6.7605714881e+00 1.1863312722e-03 1.7654732746e+00 -3.0578894111e+00 1.7654732746e+00 3.0578894111e+00 
34300 6.7605712851e+00 1.1454696494e-03 1.7654396766e+00 -3.0578312176e+00 1.7654396766e+00 3.0578312176e+00 
34400 6.7605711324e+00 1.1027518382e-03 1.7654072352e+00 -3.0577750275e+00 1.7654072352e+00 3.0577750275e+00 
34500 6.7605710292e+00 1.0583047395e-03 1.7653760031e+00 -3.0577209319e+00 1.7653760031e+00 3.0577209319e+00 
34600 6.7605709744e+00 1.0122552401e-03 1.7653460293e+00 -3.0576690157e+00 1.7653460293e+00 3.0576690157e+00 
34700 6.7605709665e+00 9.6472998983e-04 1.7653173592e+00 -3.0576193576e+00 1.7653173592e+00 3.0576193576e+00 
34800 6.7605710038e+00 9.1585518469e-04 1.7652900347e+00 -3.0575720302e+00 1.7652900347e+00 3.0575720302e+00 
34900 6.7605710843e+00 8.6575635639e-04 1.7652640941e+00 -3.0575270998e+00 1.7652640941e+00 3.0575270998e+00 
35000 6.7605712060e+00 8.1455816801e-04 1.7652395722e+00 -3.0574846266e+00 1.7652395722e+00 3.0574846266e+00 
35100 6.7605713664e+00 7.6238421627e-04 1.7652165001e+00 -3.0574446645e+00 1.7652165001e+00 3.0574446645e+00 
35200 6.7605715631e+00 7.0935684064e-04 1.7651949055e+00 -3.0574072615e+00 1.7651949055e+00 3.0574072615e+00 
35300 6.7605717935e+00 6.5559693930e-04 1.7651748126e+00 -3.0573724597e+00 1.7651748126e+00 3.0573724597e+00 
35400 6.7605720548e+00 6.0122379214e-04 1.7651562424e+00 -3.0573402951e+00 1.7651562424e+00 3.0573402951e+00 
35500 6.7605723441e+00 5.4635489110e-04 1.7651392121e+00 -3.0573107977e+00 1.7651392121e+00 3.0573107977e+00 
35600 6.7605726586e+00 4.9110577762e-04 1.7651237358e+00 -3.0572839921e+00 1.7651237358e+00 3.0572839921e+00 
35700 6.7605729953e+00 4.3558988766e-04 1.7651098245e+00 -3.0572598969e+00 1.7651098245e+00 3.0572598969e+00 
35800 6.7605733513e+00 3.7991840418e-04 1.7650974856e+00 -3.0572385254e+00 1.7650974856e+00 3.0572385254e+00 
35900 6.7605737235e+00 3.2420011706e-04 1.7650867236e+00 -3.0572198851e+00 1.7650867236e+00 3.0572198851e+00 
36000 6.7605741092e+00 2.6854129079e-04 1.7650775400e+00 -3.0572039785e+00 1.7650775400e+00 3.0572039785e+00 
36100 6.7605745053e+00 2.1304553964e-04 1.7650699329e+00 -3.0571908027e+00 1.7650699329e+00 3.0571908027e+00 
36200 6.7605749090e+00 1.5781371059e-04 1.7650638979e+00 -3.0571803497e+00 1.7650638979e+00 3.0571803497e+00 
36300 6.7605753176e+00 1.0294377385e-04 1.7650594274e+00 -3.0571726066e+00 1.7650594274e+00 3.0571726066e+00 
36400 6.7605757283e+00 4.8530721103e-05 1.7650565112e+00 -3.0571675557e+00 1.7650565112e+00 3.0571675557e+00 
36500 6.7605761385e+00 -3.8152761479e-06 1.7650565112e+00 -3.0571675557e+00 1.7650565112e+00 3.0571675557e+00 
36600 6.7605765459e+00 -5.7201072544e-05 1.7650565112e+00 -3.0571675557e+00 1.7650565112e+00 3.0571675557e+00 
36700 6.7605769483e+00 -1.1152916060e-04 1.7650565112e+00 -3.0571675557e+00 1.7650565112e+00 3.0571675557e+00 
36800 6.7605773433e+00 -1.6321445995e-04 1.7650596706e+00 -3.0571730278e+00 1.7650596706e+00 3.0571730278e+00 
36900 6.7605777289e+00 -2.1401615370e-04 1.7650642941e+00 -3.0571810360e+00 1.7650642941e+00 3.0571810360e+00 
37000 6.7605781032e+00 -2.6385881013e-04 1.7650703566e+00 -3.0571915366e+00 1.7650703566e+00 3.0571915366e+00 
37100 6.7605784646e+00 -3.1267047873e-04 1.7650778311e+00 -3.0572044828e+00 1.7650778311e+00 3.0572044828e+00 
37200 6.7605788113e+00 -3.6038273256e-04 1.7650866882e+00 -3.0572198238e+00 1.7650866882e+00 3.0572198238e+00 
37300 6.7605791421e+00 -4.0693070361e-04 1.7650968969e+00 -3.0572375057e+00 1.7650968969e+00 3.0572375057e+00 
37400 6.7605794558e+00 -4.5225311112e-04 1.7651084240e+00 -3.0572574713e+00 1.7651084240e+00 3.0572574713e+00 
37500 6.7605797512e+00 -4.9629228318e-04 1.7651212350e+00 -3.0572796605e+00 1.7651212350e+00 3.0572796605e+00 
37600 6.7605800276e+00 -5.3899417163e-04 1.7651352933e+00 -3.0573040102e+00 1.7651352933e+00 3.0573040102e+00 
37700 6.7605802841e+00 -5.8030836042e-04 1.7651505611e+00 -3.0573304548e+00 1.7651505611e+00 3.0573304548e+00 
37800 6.7605805203e+00 -6.2018806759e-04 1.7651669991e+00 -3.0573589262e+00 1.7651669991e+00 3.0573589262e+00 
37900 6.7605807358e+00 -6.5859014098e-04 1.7651845665e+00 -3.0573893539e+00 1.7651845665e+00 3.0573893539e+00 
38000 6.7605809304e+00 -6.9547504794e-04 1.7652032215e+00 -3.0574216654e+00 1.7652032215e+00 3.0574216654e+00 
38100 6.7605811040e+00 -7.3080685900e-04 1.7652229211e+00 -3.0574557861e+00 1.7652229211e+00 3.0574557861e+00 
38200 6.7605812566e+00 -7.6455322593e-04 1.7652436213e+00 -3.0574916398e+00 1.7652436213e+00 3.0574916398e+00 
38300 6.7605813885e+00 -7.9668535410e-04 1.7652652771e+00 -3.0575291488e+00 1.7652652771e+00 3.0575291488e+00 
38400 6.7605815000e+00 -8.2717796959e-04 1.7652878427e+00 -3.0575682336e+00 1.7652878427e+00 3.0575682336e+00 
38500 6.7605815916e+00 -8.5600928091e-04 1.7653112718e+00 -3.0576088139e+00 1.7653112718e+00 3.0576088139e+00 
38600 6.7605816638e+00 -8.8316093587e-04 1.7653355171e+00 -3.0576508080e+00 1.7653355171e+00 3.0576508080e+00 
38700 6.7605817173e+00 -9.0861797349e-04 1.7653605311e+00 -3.0576941336e+00 1.7653605311e+00 3.0576941336e+00 
38800 6.7605817530e+00 -9.3236877135e-04 1.7653862658e+00 -3.0577387074e+00 1.7653862658e+00 3.0577387074e+00 
38900 6.7605817715e+00 -9.5440498838e-04 1.7654126728e+00 -3.0577844457e+00 1.7654126728e+00 3.0577844457e+00 
39000 6.7605817740e+00 -9.7472150354e-04 1.7654397035e+00 -3.0578312642e+00 1.7654397035e+00 3.0578312642e+00 
39100 6.7605817613e+00 -9.9331635036e-04 1.7654673092e+00 -3.0578790787e+00 1.7654673092e+00 3.0578790787e+00 
39200 6.7605817346e+00 -1.0101906476e-03 1.7654954411e+00 -3.0579278046e+00 1.7654954411e+00 3.0579278046e+00 
39300 6.7605816949e+00 -1.0253485264e-03 1.7655240505e+00 -3.0579773574e+00 1.7655240505e+00 3.0579773574e+00 
39400 6.7605816433e+00 -1.0387970538e-03 1.7655530886e+00 -3.0580276530e+00 1.7655530886e+00 3.0580276530e+00 
39500 6.7605815810e+00 -1.0505461530e-03 1.7655825072e+00 -3.0580786074e+00 1.7655825072e+00 3.0580786074e+00 
39600 6.7605815092e+00 -1.0606085211e-03 1.7656122580e+00 -3.0581301373e+00 1.7656122580e+00 3.0581301373e+00 
39700 6.7605814291e+00 -1.0689995432e-03 1.7656422932e+00 -3.0581821598e+00 1.7656422932e+00 3.0581821598e+00 
39800 6.7605813418e+00 -1.0757372042e-03 1.7656725655e+00 -3.0582345931e+00 1.7656725655e+00 3.0582345931e+00 
39900 6.7605812486e+00 -1.0808419987e-03 1.7657030282e+00 -3.0582873559e+00 1.7657030282e+00 3.0582873559e+00 
40000 6.7605811505e+00 -1.0843368380e-03 1.7657336348e+00 -3.0583403681e+00 1.7657336348e+00 3.0583403681e+00 
40100 6.7605810487e+00 -1.0862469551e-03 1.7657643399e+00 -3.0583935509e+00 1.7657643399e+00 3.0583935509e+00 
40200 6.7605809444e+00 -1.0865998083e-03 1.7657950985e+00 -3.0584468264e+00 1.7657950985e+00 3.0584468264e+00 
40300 6.7605808385e+00 -1.0854249831e-03 1.7658258666e+00 -3.0585001183e+00 1.7658258666e+00 3.0585001183e+00 
40400 6.7605807321e+00 -1.0827540924e-03 1.7658566009e+00 -3.0585533517e+00 1.7658566009e+00 3.0585533517e+00 
40500 6.7605806262e+00 -1.0786206757e-03 1.7658872591e+00 -3.0586064531e+00 1.7658872591e+00 3.0586064531e+00 
40600 6.7605805218e+00 -1.0730600969e-03 1.7659177996e+00 -3.0586593509e+00 1.7659177996e+00 3.0586593509e+00 
40700 6.7605804196e+00 -1.0661094425e-03 1.7659481822e+00 -3.0587119751e+00 1.7659481822e+00 3.0587119751e+00 
40800 6.7605803205e+00 -1.0578074171e-03 1.7659783675e+00 -3.0587642575e+00 1.7659783675e+00 3.0587642575e+00 
40900 6.7605802253e+00 -1.0481942404e-03 1.7660083172e+00 -3.0588161319e+00 1.7660083172e+00 3.0588161319e+00 
41000 6.7605801346e+00 -1.0373115429e-03 1.7660379942e+00 -3.0588675340e+00 1.7660379942e+00 3.0588675340e+00 
41100 6.7605800490e+00 -1.0252022615e-03 1.7660673626e+00 -3.0589184016e+00 1.7660673626e+00 3.0589184016e+00 
41200 6.7605799692e+00 -1.0119105359e-03 1.7660963877e+00 -3.0589686745e+00 1.7660963877e+00 3.0589686745e+00 
41300 6.7605798955e+00 -9.9748160419e-04 1.7661250360e+00 -3.0590182948e+00 1.7661250360e+00 3.0590182948e+00 
41400 6.7605798285e+00 -9.8196169993e-04 1.7661532753e+00 -3.0590672068e+00 1.7661532753e+00 3.0590672068e+00 
41500 6.7605797685e+00 -9.6539794909e-04 1.7661810749e+00 -3.0591153570e+00 1.7661810749e+00 3.0591153570e+00 
41600 6.7605797157e+00 -9.4783826805e-04 1.7662084050e+00 -3.0591626942e+00 1.7662084050e+00 3.0591626942e+00 
41700 6.7605796703e+00 -9.2933126249e-04 1.7662352377e+00 -3.0592091697e+00 1.7662352377e+00 3.0592091697e+00 
41800 6.7605796326e+00 -9.0992612727e-04 1.7662615460e+00 -3.0592547371e+00 1.7662615460e+00 3.0592547371e+00 
41900 6.7605796026e+00 -8.8967254758e-04 1.7662873046e+00 -3.0592993523e+00 1.7662873046e+00 3.0592993523e+00 
42000 6.7605795803e+00 -8.6862060137e-04 1.7663124894e+00 -3.0593429738e+00 1.7663124894e+00 3.0593429738e+00 
42100 6.7605795658e+00 -8.4682066340e-04 1.7663370780e+00 -3.0593855625e+00 1.7663370780e+00 3.0593855625e+00 
42200 6.7605795588e+00 -8.2432331073e-04 1.7663610492e+00 -3.0594270817e+00 1.7663610492e+00 3.0594270817e+00 
42300 6.7605795594e+00 -8.0117923012e-04 1.7663843832e+00 -3.0594674974e+00 1.7663843832e+00 3.0594674974e+00 
42400 6.7605795673e+00 -7.7743912722e-04 1.7664070617e+00 -3.0595067778e+00 1.7664070617e+00 3.0595067778e+00 
42500 6.7605795824e+00 -7.5315363771e-04 1.7664290680e+00 -3.0595448938e+00 1.7664290680e+00 3.0595448938e+00 
42600 6.7605796042e+00 -7.2837324063e-04 1.7664503866e+00 -3.0595818186e+00 1.7664503866e+00 3.0595818186e+00 
42700 6.7605796326e+00 -7.0314817386e-04 1.7664710035e+00 -3.0596175281e+00 1.7664710035e+00 3.0596175281e+00 
42800 6.7605796671e+00 -6.7752835183e-04 1.7664909062e+00 -3.0596520006e+00 1.7664909062e+00 3.0596520006e+00 
42900 6.7605797075e+00 -6.5156328576e-04 1.7665100834e+00 -3.0596852166e+00 1.7665100834e+00 3.0596852166e+00 
43000 6.7605797533e+00 -6.2530200626e-04 1.7665285256e+00 -3.0597171593e+00 1.7665285256e+00 3.0597171593e+00 
43100 6.7605798042e+00 -5.9879298851e-04 1.7665462242e+00 -3.0597478142e+00 1.7665462242e+00 3.0597478142e+00 
43200 6.7605798596e+00 -5.7208408013e-04 1.7665631724e+00 -3.0597771693e+00 1.7665631724e+00 3.0597771693e+00 
43300 6.7605799192e+00 -5.4522243171e-04 1.7665793644e+00 -3.0598052147e+00 1.7665793644e+00 3.0598052147e+00 
43400 6.7605799825e+00 -5.1825443004e-04 1.7665947960e+00 -3.0598319431e+00 1.7665947960e+00 3.0598319431e+00 
43500 6.7605800490e+00 -4.9122563431e-04 1.7666094642e+00 -3.0598573491e+00 1.7666094642e+00 3.0598573491e+00 
43600 6.7605801183e+00 -4.6418071500e-04 1.7666233673e+00 -3.0598814300e+00 1.7666233673e+00 3.0598814300e+00 
43700 6.7605801898e+00 -4.3716339587e-04 1.7666365048e+00 -3.0599041848e+00 1.7666365048e+00 3.0599041848e+00 
43800 6.7605802632e+00 -4.1021639875e-04 1.7666488776e+00 -3.0599256151e+00 1.7666488776e+00 3.0599256151e+00 
43900 6.7605803380e+00 -3.8338139139e-04 1.7666604876e+00 -3.0599457243e+00 1.7666604876e+00 3.0599457243e+00 
44000 6.7605804138e+00 -3.5669893833e-04 1.7666713381e+00 -3.0599645178e+00 1.7666713381e+00 3.0599645178e+00 
44100 6.7605804900e+00 -3.3020845474e-04 1.7666814333e+00 -3.0599820033e+00 1.7666814333e+00 3.0599820033e+00 
44200 6.7605805664e+00 -3.0394816342e-04 1.7666907788e+00 -3.0599981901e+00 1.7666907788e+00 3.0599981901e+00 
44300 6.7605806424e+00 -2.7795505471e-04 1.7666993810e+00 -3.0600130895e+00 1.7666993810e+00 3.0600130895e+00 
44400 6.7605807177e+00 -2.5226484962e-04 1.7667072475e+00 -3.0600267147e+00 1.7667072475e+00 3.0600267147e+00 
44500 6.7605807920e+00 -2.2691196589e-04 1.7667143869e+00 -3.0600390805e+00 1.7667143869e+00 3.0600390805e+00 
44600 6.7605808649e+00 -2.0192948714e-04 1.7667208087e+00 -3.0600502035e+00 1.7667208087e+00 3.0600502035e+00 
44700 6.7605809361e+00 -1.7734913515e-04 1.7667265236e+00 -3.0600601019e+00 1.7667265236e+00 3.0600601019e+00 
44800 6.7605810053e+00 -1.5320124498e-04 1.7667315427e+00 -3.0600687953e+00 1.7667315427e+00 3.0600687953e+00 
44900 6.7605810722e+00 -1.2951474329e-04 1.7667358784e+00 -3.0600763050e+00 1.7667358784e+00 3.0600763050e+00 
45000 6.7605811366e+00 -1.0631712948e-04 1.7667395438e+00 -3.0600826536e+00 1.7667395438e+00 3.0600826536e+00 
45100 6.7605811983e+00 -8.3634459816e-05 1.7667425527e+00 -3.0600878651e+00 1.7667425527e+00 3.0600878651e+00 
45200 6.7605812571e+00 -6.1491334516e-05 1.7667449196e+00 -3.0600919647e+00 1.7667449196e+00 3.0600919647e+00 
45300 6.7605813129e+00 -4.1826457849e-05 1.7667449196e+00 -3.0600919647e+00 1.7667449196e+00 3.0600919647e+00 
45400 6.7605813653e+00 -2.2083598331e-05 1.7667449196e+00 -3.0600919647e+00 1.7667449196e+00 3.0600919647e+00 
45500 6.7605814145e+00 -2.2982579683e-06 1.7667449196e+00 -3.0600919647e+00 1.7667449196e+00 3.0600919647e+00 
45600 6.7605814602e+00 1.7495063824e-05 1.7667449196e+00 -3.0600919647e+00 1.7667449196e+00 3.0600919647e+00 
45700 6.7605815025e+00 3.7262896737e-05 1.7667449196e+00 -3.0600919647e+00 1.7667449196e+00 3.0600919647e+00 
45800 6.7605815415e+00 5.6972823596e-05 1.7667449196e+00 -3.0600919647e+00 1.7667449196e+00 3.0600919647e+00 
45900 6.7605815772e+00 7.6593501972e-05 1.7667449196e+00 -3.0600919647e+00 1.7667449196e+00 3.0600919647e+00 
46000 6.7605816093e+00 9.3708369366e-05 1.7667427519e+00 -3.0600882102e+00 1.7667427519e+00 3.0600882102e+00 
46100 6.7605816380e+00 1.1012894962e-04 1.7667400999e+00 -3.0600836168e+00 1.7667400999e+00 3.0600836168e+00 
46200 6.7605816633e+00 1.2584530323e-04 1.7667369832e+00 -3.0600782185e+00 1.7667369832e+00 3.0600782185e+00 
46300 6.7605816854e+00 1.4084891237e-04 1.7667334217e+00 -3.0600720498e+00 1.7667334217e+00 3.0600720498e+00 
46400 6.7605817043e+00 1.5513266341e-04 1.7667294355e+00 -3.0600651456e+00 1.7667294355e+00 3.0600651456e+00 
46500 6.7605817202e+00 1.6869082730e-04 1.7667250451e+00 -3.0600575412e+00 1.7667250451e+00 3.0600575412e+00 
46600 6.7605817331e+00 1.8151903805e-04 1.7667202710e+00 -3.0600492722e+00 1.7667202710e+00 3.0600492722e+00 
46700 6.7605817433e+00 1.9361426917e-04 1.7667151339e+00 -3.0600403743e+00 1.7667151339e+00 3.0600403743e+00 
46800 6.7605817508e+00 2.0497480842e-04 1.7667096544e+00 -3.0600308836e+00 1.7667096544e+00 3.0600308836e+00 
46900 6.7605817559e+00 2.1560023073e-04 1.7667038533e+00 -3.0600208359e+00 1.7667038533e+00 3.0600208359e+00 
47000 6.7605817586e+00 2.2549136948e-04 1.7666977516e+00 -3.0600102673e+00 1.7666977516e+00 3.0600102673e+00 
47100 6.7605817592e+00 2.3465028624e-04 1.7666913699e+00 -3.0599992139e+00 1.7666913699e+00 3.0599992139e+00 
47200 6.7605817578e+00 2.4308023908e-04 1.7666847289e+00 -3.0599877114e+00 1.7666847289e+00 3.0599877114e+00 
47300 6.7605817547e+00 2.5078564939e-04 1.7666778494e+00 -3.0599757957e+00 1.7666778494e+00 3.0599757957e+00 
47400 6.7605817501e+00 2.5777206750e-04 1.7666707517e+00 -3.0599635022e+00 1.7666707517e+00 3.0599635022e+00 
47500 6.7605817440e+00 2.6404613709e-04 1.7666634563e+00 -3.0599508662e+00 1.7666634563e+00 3.0599508662e+00 
47600 6.7605817367e+00 2.6961555850e-04 1.7666559833e+00 -3.0599379225e+00 1.7666559833e+00 3.0599379225e+00 
47700 6.7605817285e+00 2.7448905095e-04 1.7666483526e+00 -3.0599247058e+00 1.7666483526e+00 3.0599247058e+00 
47800 6.7605817194e+00 2.7867631394e-04 1.7666405840e+00 -3.0599112501e+00 1.7666405840e+00 3.0599112501e+00 
47900 6.7605817096e+00 2.8218798780e-04 1.7666326968e+00 -3.0598975892e+00 1.7666326968e+00 3.0598975892e+00 
48000 6.7605816994e+00 2.8503561340e-04 1.7666247102e+00 -3.0598837560e+00 1.7666247102e+00 3.0598837560e+00 
48100 6.7605816889e+00 2.8723159136e-04 1.7666166430e+00 -3.0598697831e+00 1.7666166430e+00 3.0598697831e+00 
48200 6.7605816782e+00 2.8878914057e-04 1.7666085135e+00 -3.0598557025e+00 1.7666085135e+00 3.0598557025e+00 
48300 6.7605816676e+00 2.8972225627e-04 1.7666003400e+00 -3.0598415456e+00 1.7666003400e+00 3.0598415456e+00 
48400 6.7605816571e+00 2.9004566781e-04 1.7665921400e+00 -3.0598273428e+00 1.7665921400e+00 3.0598273428e+00 
48500 6.7605816469e+00 2.8977479597e-04 1.7665839308e+00 -3.0598131240e+00 1.7665839308e+00 3.0598131240e+00 
48600 6.7605816371e+00 2.8892571018e-04 1.7665757293e+00 -3.0597989185e+00 1.7665757293e+00 3.0597989185e+00 
48700 6.7605816279e+00 2.8751508552e-04 1.7665675517e+00 -3.0597847546e+00 1.7665675517e+00 3.0597847546e+00 
48800 6.7605816193e+00 2.8556015971e-04 1.7665594141e+00 -3.0597706597e+00 1.7665594141e+00 3.0597706597e+00 
48900 6.7605816115e+00 2.8307869008e-04 1.7665513317e+00 -3.0597566606e+00 1.7665513317e+00 3.0597566606e+00 
49000 6.7605816045e+00 2.8008891065e-04 1.7665433195e+00 -3.0597427831e+00 1.7665433195e+00 3.0597427831e+00 
49100 6.7605815984e+00 2.7660948936e-04 1.7665353919e+00 -3.0597290522e+00 1.7665353919e+00 3.0597290522e+00 
49200 6.7605815933e+00 2.7265948558e-04 1.7665275628e+00 -3.0597154917e+00 1.7665275628e+00 3.0597154917e+00 
49300 6.7605815892e+00 2.6825830788e-04 1.7665198454e+00 -3.0597021248e+00 1.7665198454e+00 3.0597021248e+00 
49400 6.7605815862e+00 2.6342567221e-04 1.7665122525e+00 -3.0596889736e+00 1.7665122525e+00 3.0596889736e+00 
49500 6.7605815842e+00 2.5818156050e-04 1.7665047965e+00 -3.0596760593e+00 1.7665047965e+00 3.0596760593e+00 
49600 6.7605815834e+00 2.5254617977e-04 1.7664974888e+00 -3.0596634020e+00 1.7664974888e+00 3.0596634020e+00 
49700 6.7605815837e+00 2.4653992184e-04 1.7664903405e+00 -3.0596510209e+00 1.7664903405e+00 3.0596510209e+00 
49800 6.7605815852e+00 2.4018332360e-04 1.7664833623e+00 -3.0596389342e+00 1.7664833623e+00 3.0596389342e+00 
49900 6.7605815878e+00 2.3349702799e-04 1.7664765640e+00 -3.0596271592e+00 1.7664765640e+00 3.0596271592e+00 
50000 6.7605815915e+00 2.2650174575e-04 1.7664699549e+00 -3.0596157119e+00 1.7664699549e+00 3.0596157119e+00 
50100 6.7605815963e+00 2.1921821788e-04 1.7664635437e+00 -3.0596046074e+00 1.7664635437e+00 3.0596046074e+00 
50200 6.7605816022e+00 2.1166717897e-04 1.7664573387e+00 -3.0595938601e+00 1.7664573387e+00 3.0595938601e+00 
50300 6.7605816091e+00 2.0386932140e-04 1.7664513474e+00 -3.0595834829e+00 1.7664513474e+00 3.0595834829e+00 
50400 6.7605816170e+00 1.9584526045e-04 1.7664455768e+00 -3.0595734879e+00 1.7664455768e+00 3.0595734879e+00 
50500 6.7605816258e+00 1.8761550040e-04 1.7664400334e+00 -3.0595638863e+00 1.7664400334e+00 3.0595638863e+00 
50600 6.7605816355e+00 1.7920040155e-04 1.7664347228e+00 -3.0595546882e+00 1.7664347228e+00 3.0595546882e+00 
50700 6.7605816460e+00 1.7062014833e-04 1.7664296504e+00 -3.0595459026e+00 1.7664296504e+00 3.0595459026e+00 
50800 6.7605816573e+00 1.6189471846e-04 1.7664248209e+00 -3.0595375376e+00 1.7664248209e+00 3.0595375376e+00 
50900 6.7605816693e+00 1.5304385317e-04 1.7664202384e+00 -3.0595296004e+00 1.7664202384e+00 3.0595296004e+00 
51000 6.7605816819e+00 1.4408702858e-04 1.7664159063e+00 -3.0595220971e+00 1.7664159063e+00 3.0595220971e+00 
51100 6.7605816950e+00 1.3504342815e-04 1.7664118278e+00 -3.0595150329e+00 1.7664118278e+00 3.0595150329e+00 
51200 6.7605817087e+00 1.2593191637e-04 1.7664080053e+00 -3.0595084121e+00 1.7664080053e+00 3.0595084121e+00 
51300 6.7605817228e+00 1.1677101355e-04 1.7664044407e+00 -3.0595022379e+00 1.7664044407e+00 3.0595022379e+00 
51400 6.7605817372e+00 1.0757887187e-04 1.7664011353e+00 -3.0594965129e+00 1.7664011353e+00 3.0594965129e+00 
51500 6.7605817518e+00 9.8373252620e-05 1.7663980902e+00 -3.0594912386e+00 1.7663980902e+00 3.0594912386e+00 
51600 6.7605817667e+00 8.9171504602e-05 1.7663953056e+00 -3.0594864156e+00 1.7663953056e+00 3.0594864156e+00 
51700 6.7605817817e+00 7.9990543839e-05 1.7663927815e+00 -3.0594820437e+00 1.7663927815e+00 3.0594820437e+00 
51800 6.7605817967e+00 7.0846834473e-05 1.7663905173e+00 -3.0594781219e+00 1.7663905173e+00 3.0594781219e+00 
51900 6.7605818118e+00 6.1756370923e-05 1.7663885119e+00 -3.0594746485e+00 1.7663885119e+00 3.0594746485e+00 
52000 6.7605818268e+00 5.4660338512e-05 1.7663885119e+00 -3.0594746485e+00 1.7663885119e+00 3.0594746485e+00 
52100 6.7605818417e+00 4.7376675370e-05 1.7663885119e+00 -3.0594746485e+00 1.7663885119e+00 3.0594746485e+00 
52200 6.7605818563e+00 3.9921655925e-05 1.7663885119e+00 -3.0594746485e+00 1.7663885119e+00 3.0594746485e+00 
52300 6.7605818707e+00 3.2311373725e-05 1.7663885119e+00 -3.0594746485e+00 1.7663885119e+00 3.0594746485e+00 
52400 6.7605818847e+00 2.4561720056e-05 1.7663885119e+00 -3.0594746485e+00 1.7663885119e+00 3.0594746485e+00 
52500 6.7605818983e+00 1.6688363530e-05 1.7663885119e+00 -3.0594746485e+00 1.7663885119e+00 3.0594746485e+00 
52600 6.7605819115e+00 8.7067306434e-06 1.7663885119e+00 -3.0594746485e+00 1.7663885119e+00 3.0594746485e+00 
52700 6.7605819243e+00 6.3198732756e-07 1.7663885119e+00 -3.0594746485e+00 1.7663885119e+00 3.0594746485e+00 
52800 6.7605819366e+00 -7.5209785372e-06 1.7663885119e+00 -3.0594746485e+00 1.7663885119e+00 3.0594746485e+00 
52900 6.7605819484e+00 -1.5737573617e-05 1.7663885119e+00 -3.0594746485e+00 1.7663885119e+00 3.0594746485e+00 
53000 6.7605819598e+00 -2.4003514632e-05 1.7663885119e+00 -3.0594746485e+00 1.7663885119e+00 3.0594746485e+00 
53100 6.7605819706e+00 -3.2304842916e-05 1.7663885119e+00 -3.0594746485e+00 1.7663885119e+00 3.0594746485e+00 
53200 6.7605819809e+00 -4.0627937972e-05 1.7663885119e+00 -3.0594746485e+00 1.7663885119e+00 3.0594746485e+00 
53300 6.7605819907e+00 -4.8959530090e-05 1.7663885119e+00 -3.0594746485e+00 1.7663885119e+00 3.0594746485e+00 
53400 6.7605819999e+00 -5.7286711993e-05 1.7663885119e+00 -3.0594746485e+00 1.7663885119e+00 3.0594746485e+00 
53500 6.7605820086e+00 -6.5596949544e-05 1.7663885119e+00 -3.0594746485e+00 1.7663885119e+00 3.0594746485e+00 
53600 6.7605820168e+00 -7.3878091510e-05 1.7663885119e+00 -3.0594746485e+00 1.7663885119e+00 3.0594746485e+00 
53700 6.7605820242e+00 -7.9815015751e-05 1.7663906031e+00 -3.0594782706e+00 1.7663906031e+00 3.0594782706e+00 
53800 6.7605820311e+00 -8.5502775005e-05 1.7663928624e+00 -3.0594821837e+00 1.7663928624e+00 3.0594821837e+00 
53900 6.7605820373e+00 -9.0936490736e-05 1.7663952826e+00 -3.0594863757e+00 1.7663952826e+00 3.0594863757e+00 
54000 6.7605820430e+00 -9.6111861873e-05 1.7663978567e+00 -3.0594908342e+00 1.7663978567e+00 3.0594908342e+00 
54100 6.7605820482e+00 -1.0102515832e-04 1.7664005773e+00 -3.0594955463e+00 1.7664005773e+00 3.0594955463e+00 
54200 6.7605820528e+00 -1.0567321365e-04 1.7664034369e+00 -3.0595004993e+00 1.7664034369e+00 3.0595004993e+00 
54300 6.7605820569e+00 -1.1005341697e-04 1.7664064281e+00 -3.0595056803e+00 1.7664064281e+00 3.0595056803e+00 
54400 6.7605820604e+00 -1.1416370404e-04 1.7664095433e+00 -3.0595110759e+00 1.7664095433e+00 3.0595110759e+00 
54500 6.7605820636e+00 -1.1800254764e-04 1.7664127748e+00 -3.0595166731e+00 1.7664127748e+00 3.0595166731e+00 
54600 6.7605820662e+00 -1.2156894727e-04 1.7664161150e+00 -3.0595224584e+00 1.7664161150e+00 3.0595224584e+00 
54700 6.7605820685e+00 -1.2486241813e-04 1.7664195561e+00 -3.0595284186e+00 1.7664195561e+00 3.0595284186e+00 
54800 6.7605820703e+00 -1.2788297951e-04 1.7664230904e+00 -3.0595345403e+00 1.7664230904e+00 3.0595345403e+00 
54900 6.7605820718e+00 -1.3063114256e-04 1.7664267102e+00 -3.0595408100e+00 1.7664267102e+00 3.0595408100e+00 
55000 6.7605820730e+00 -1.3310789751e-04 1.7664304079e+00 -3.0595472144e+00 1.7664304079e+00 3.0595472144e+00 
55100 6.7605820739e+00 -1.3531470036e-04 1.7664341756e+00 -3.0595537403e+00 1.7664341756e+00 3.0595537403e+00 
55200 6.7605820745e+00 -1.3725345907e-04 1.7664380057e+00 -3.0595603743e+00 1.7664380057e+00 3.0595603743e+00 
55300 6.7605820748e+00 -1.3892651933e-04 1.7664418908e+00 -3.0595671034e+00 1.7664418908e+00 3.0595671034e+00 
55400 6.7605820750e+00 -1.4033664978e-04 1.7664458232e+00 -3.0595739145e+00 1.7664458232e+00 3.0595739145e+00 
55500 6.7605820749e+00 -1.4148702708e-04 1.7664497954e+00 -3.0595807947e+00 1.7664497954e+00 3.0595807947e+00 
55600 6.7605820747e+00 -1.4238122035e-04 1.7664538003e+00 -3.0595877313e+00 1.7664538003e+00 3.0595877313e+00 
55700 6.7605820744e+00 -1.4302317555e-04 1.7664578304e+00 -3.0595947117e+00 1.7664578304e+00 3.0595947117e+00 
55800 6.7605820740e+00 -1.4341719934e-04 1.7664618787e+00 -3.0596017236e+00 1.7664618787e+00 3.0596017236e+00 
55900 6.7605820736e+00 -1.4356794292e-04 1.7664659382e+00 -3.0596087548e+00 1.7664659382e+00 3.0596087548e+00 
56000 6.7605820731e+00 -1.4348038547e-04 1.7664700019e+00 -3.0596157933e+00 1.7664700019e+00 3.0596157933e+00 
56100 6.7605820726e+00 -1.4315981751e-04 1.7664740631e+00 -3.0596228276e+00 1.7664740631e+00 3.0596228276e+00 
56200 6.7605820721e+00 -1.4261182410e-04 1.7664781152e+00 -3.0596298461e+00 1.7664781152e+00 3.0596298461e+00 
56300 6.7605820716e+00 -1.4184226788e-04 1.7664821519e+00 -3.0596368377e+00 1.7664821519e+00 3.0596368377e+00 
56400 6.7605820712e+00 -1.4085727209e-04 1.7664861667e+00 -3.0596437916e+00 1.7664861667e+00 3.0596437916e+00 
56500 6.7605820709e+00 -1.3966320347e-04 1.7664901536e+00 -3.0596506971e+00 1.7664901536e+00 3.0596506971e+00 
56600 6.7605820706e+00 -1.3826665523e-04 1.7664941068e+00 -3.0596575442e+00 1.7664941068e+00 3.0596575442e+00 
56700 6.7605820705e+00 -1.3667442989e-04 1.7664980203e+00 -3.0596643227e+00 1.7664980203e+00 3.0596643227e+00 
56800 6.7605820704e+00 -1.3489352235e-04 1.7665018889e+00 -3.0596710232e+00 1.7665018889e+00 3.0596710232e+00 
56900 6.7605820705e+00 -1.3293110280e-04 1.7665057070e+00 -3.0596776363e+00 1.7665057070e+00 3.0596776363e+00 
57000 6.7605820708e+00 -1.3079449995e-04 1.7665094695e+00 -3.0596841532e+00 1.7665094695e+00 3.0596841532e+00 
57100 6.7605820712e+00 -1.2849118420e-04 1.7665131716e+00 -3.0596905654e+00 1.7665131716e+00 3.0596905654e+00 
57200 6.7605820717e+00 -1.2602875107e-04 1.7665168084e+00 -3.0596968646e+00 1.7665168084e+00 3.0596968646e+00 
57300 6.7605820724e+00 -1.2341490476e-04 1.7665203756e+00 -3.0597030431e+00 1.7665203756e+00 3.0597030431e+00 
57400 6.7605820733e+00 -1.2065744192e-04 1.7665238687e+00 -3.0597090934e+00 1.7665238687e+00 3.0597090934e+00 
57500 6.7605820743e+00 -1.1776423561e-04 1.7665272839e+00 -3.0597150086e+00 1.7665272839e+00 3.0597150086e+00 
57600 6.7605820755e+00 -1.1474321958e-04 1.7665306171e+00 -3.0597207819e+00 1.7665306171e+00 3.0597207819e+00 
57700 6.7605820769e+00 -1.1160237271e-04 1.7665338648e+00 -3.0597264071e+00 1.7665338648e+00 3.0597264071e+00 
57800 6.7605820784e+00 -1.0834970384e-04 1.7665370236e+00 -3.0597318783e+00 1.7665370236e+00 3.0597318783e+00 
57900 6.7605820801e+00 -1.0499323685e-04 1.7665400903e+00 -3.0597371900e+00 1.7665400903e+00 3.0597371900e+00 
58000 6.7605820820e+00 -1.0154099604e-04 1.7665430620e+00 -3.0597423372e+00 1.7665430620e+00 3.0597423372e+00 
58100 6.7605820839e+00 -9.8000991955e-05 1.7665459360e+00 -3.0597473151e+00 1.7665459360e+00 3.0597473151e+00 
58200 6.7605820861e+00 -9.4381207441e-05 1.7665487098e+00 -3.0597521195e+00 1.7665487098e+00 3.0597521195e+00 
58300 6.7605820883e+00 -9.0689584180e-05 1.7665513812e+00 -3.0597567464e+00 1.7665513812e+00 3.0597567464e+00 
58400 6.7605820907e+00 -8.6934009560e-05 1.7665539480e+00 -3.0597611923e+00 1.7665539480e+00 3.0597611923e+00 
58500 6.7605820932e+00 -8.3122303983e-05 1.7665564086e+00 -3.0597654541e+00 1.7665564086e+00 3.0597654541e+00 
58600 6.7605820959e+00 -7.9262208546e-05 1.7665587612e+00 -3.0597695290e+00 1.7665587612e+00 3.0597695290e+00 
58700 6.7605820986e+00 -7.5361373206e-05 1.7665610046e+00 -3.0597734147e+00 1.7665610046e+00 3.0597734147e+00 
58800 6.7605821014e+00 -7.1427345345e-05 1.7665631376e+00 -3.0597771092e+00 1.7665631376e+00 3.0597771092e+00 
58900 6.7605821042e+00 -6.7467558797e-05 1.7665651593e+00 -3.0597806108e+00 1.7665651593e+00 3.0597806108e+00 
59000 6.7605821073e+00 -6.5591844205e-05 1.7665651593e+00 -3.0597806108e+00 1.7665651593e+00 3.0597806108e+00 
59100 6.7605821104e+00 -6.3591745132e-05 1.7665651593e+00 -3.0597806108e+00 1.7665651593e+00 3.0597806108e+00 
59200 6.7605821135e+00 -6.1473982044e-05 1.7665651593e+00 -3.0597806108e+00 1.7665651593e+00 3.0597806108e+00 
59300 6.7605821166e+00 -5.9245270015e-05 1.7665651593e+00 -3.0597806108e+00 1.7665651593e+00 3.0597806108e+00 
59400 6.7605821197e+00 -5.6912307778e-05 1.7665651593e+00 -3.0597806108e+00 1.7665651593e+00 3.0597806108e+00 
59500 6.7605821228e+00 -5.4481767158e-05 1.7665651593e+00 -3.0597806108e+00 1.7665651593e+00 3.0597806108e+00 
59600 6.7605821258e+00 -5.1960282829e-05 1.7665651593e+00 -3.0597806108e+00 1.7665651593e+00 3.0597806108e+00 
59700 6.7605821288e+00 -4.9354442452e-05 1.7665651593e+00 -3.0597806108e+00 1.7665651593e+00 3.0597806108e+00 
59800 6.7605821318e+00 -4.6670777184e-05 1.7665651593e+00 -3.0597806108e+00 1.7665651593e+00 3.0597806108e+00 
59900 6.7605821347e+00 -4.3915752554e-05 1.7665651593e+00 -3.0597806108e+00 1.7665651593e+00 3.0597806108e+00 
60000 6.7605821376e+00 -4.1095759725e-05 1.7665651593e+00 -3.0597806108e+00 1.7665651593e+00 3.0597806108e+00 
60100 6.7605821404e+00 -3.8217107127e-05 1.7665651593e+00 -3.0597806108e+00 1.7665651593e+00 3.0597806108e+00 
60200 6.7605821431e+00 -3.5286012496e-05 1.7665651593e+00 -3.0597806108e+00 1.7665651593e+00 3.0597806108e+00 
60300 6.7605821458e+00 -3.2308595267e-05 1.7665651593e+00 -3.0597806108e+00 1.7665651593e+00 3.0597806108e+00 
60400 6.7605821484e+00 -2.9290869383e-05 1.7665651593e+00 -3.0597806108e+00 1.7665651593e+00 3.0597806108e+00 
60500 6.7605821509e+00 -2.6238736486e-05 1.7665651593e+00 -3.0597806108e+00 1.7665651593e+00 3.0597806108e+00 
60600 6.7605821533e+00 -2.3157979480e-05 1.7665651593e+00 -3.0597806108e+00 1.7665651593e+00 3.0597806108e+00 
60700 6.7605821556e+00 -2.0054256506e-05 1.7665651593e+00 -3.0597806108e+00 1.7665651593e+00 3.0597806108e+00 
60800 6.7605821578e+00 -1.6933095277e-05 1.7665651593e+00 -3.0597806108e+00 1.7665651593e+00 3.0597806108e+00 
60900 6.7605821599e+00 -1.3799887823e-05 1.7665651593e+00 -3.0597806108e+00 1.7665651593e+00 3.0597806108e+00 
61000 6.7605821620e+00 -1.0659885591e-05 1.7665651593e+00 -3.0597806108e+00 1.7665651593e+00 3.0597806108e+00 
61100 6.7605821639e+00 -7.5181949454e-06 1.7665651593e+00 -3.0597806108e+00 1.7665651593e+00 3.0597806108e+00 
61200 6.7605821658e+00 -4.3797730275e-06 1.7665651593e+00 -3.0597806108e+00 1.7665651593e+00 3.0597806108e+00 
61300 6.7605821675e+00 -1.2494239981e-06 1.7665651593e+00 -3.0597806108e+00 1.7665651593e+00 3.0597806108e+00 
61400 6.7605821692e+00 1.8682043696e-06 1.7665651593e+00 -3.0597806108e+00 1.7665651593e+00 3.0597806108e+00 
61500 6.7605821708e+00 4.9686237260e-06 1.7665651593e+00 -3.0597806108e+00 1.7665651593e+00 3.0597806108e+00 
61600 6.7605821723e+00 8.0475078310e-06 1.7665651593e+00 -3.0597806108e+00 1.7665651593e+00 3.0597806108e+00 
61700 6.7605821737e+00 1.1100694883e-05 1.7665651593e+00 -3.0597806108e+00 1.7665651593e+00 3.0597806108e+00 
61800 6.7605821750e+00 1.4124189521e-05 1.7665651593e+00 -3.0597806108e+00 1.7665651593e+00 3.0597806108e+00 
61900 6.7605821762e+00 1.7114164475e-05 1.7665651593e+00 -3.0597806108e+00 1.7665651593e+00 3.0597806108e+00 
62000 6.7605821774e+00 2.0066961903e-05 1.7665651593e+00 -3.0597806108e+00 1.7665651593e+00 3.0597806108e+00 
62100 6.7605821785e+00 2.2979094400e-05 1.7665651593e+00 -3.0597806108e+00 1.7665651593e+00 3.0597806108e+00 
62200 6.7605821795e+00 2.5847245684e-05 1.7665651593e+00 -3.0597806108e+00 1.7665651593e+00 3.0597806108e+00 
62300 6.7605821805e+00 2.8668271003e-05 1.7665651593e+00 -3.0597806108e+00 1.7665651593e+00 3.0597806108e+00 
62400 6.7605821814e+00 3.1439197217e-05 1.7665651593e+00 -3.0597806108e+00 1.7665651593e+00 3.0597806108e+00 
62500 6.7605821822e+00 3.4157222618e-05 1.7665651593e+00 -3.0597806108e+00 1.7665651593e+00 3.0597806108e+00 
62600 6.7605821830e+00 3.6819716445e-05 1.7665651593e+00 -3.0597806108e+00 1.7665651593e+00 3.0597806108e+00 
62700 6.7605821837e+00 3.9424218158e-05 1.7665651593e+00 -3.0597806108e+00 1.7665651593e+00 3.0597806108e+00 
62800 6.7605821844e+00 4.1968436425e-05 1.7665651593e+00 -3.0597806108e+00 1.7665651593e+00 3.0597806108e+00 
62900 6.7605821850e+00 4.4450247878e-05 1.7665651593e+00 -3.0597806108e+00 1.7665651593e+00 3.0597806108e+00 
63000 6.7605821856e+00 4.6867695610e-05 1.7665651593e+00 -3.0597806108e+00 1.7665651593e+00 3.0597806108e+00 
63100 6.7605821862e+00 4.9218987455e-05 1.7665651593e+00 -3.0597806108e+00 1.7665651593e+00 3.0597806108e+00 
63200 6.7605821867e+00 5.1502494039e-05 1.7665651593e+00 -3.0597806108e+00 1.7665651593e+00 3.0597806108e+00 
63300 6.7605821872e+00 5.3716746618e-05 1.7665651593e+00 -3.0597806108e+00 1.7665651593e+00 3.0597806108e+00 
63400 6.7605821877e+00 5.5860434715e-05 1.7665651593e+00 -3.0597806108e+00 1.7665651593e+00 3.0597806108e+00 
63500 6.7605821882e+00 5.7932403565e-05 1.7665651593e+00 -3.0597806108e+00 1.7665651593e+00 3.0597806108e+00 
63600 6.7605821886e+00 5.9931651378e-05 1.7665651593e+00 -3.0597806108e+00 1.7665651593e+00 3.0597806108e+00 
63700 6.7605821890e+00 6.1857326423e-05 1.7665651593e+00 -3.0597806108e+00 1.7665651593e+00 3.0597806108e+00 
63800 6.7605821895e+00 6.3708723957e-05 1.7665651593e+00 -3.0597806108e+00 1.7665651593e+00 3.0597806108e+00 
63900 6.7605821899e+00 6.5485283003e-05 1.7665651593e+00 -3.0597806108e+00 1.7665651593e+00 3.0597806108e+00 
64000 6.7605821903e+00 6.7186582974e-05 1.7665651593e+00 -3.0597806108e+00 1.7665651593e+00 3.0597806108e+00 
64100 6.7605821907e+00 6.8812340181e-05 1.7665651593e+00 -3.0597806108e+00 1.7665651593e+00 3.0597806108e+00 
64200 6.7605821911e+00 7.0362404193e-05 1.7665651593e+00 -3.0597806108e+00 1.7665651593e+00 3.0597806108e+00 
64300 6.7605821915e+00 7.1836754117e-05 1.7665651593e+00 -3.0597806108e+00 1.7665651593e+00 3.0597806108e+00 
64400 6.7605821917e+00 7.0996616960e-05 1.7665631261e+00 -3.0597770891e+00 1.7665631261e+00 3.0597770891e+00 
64500 6.7605821919e+00 7.0095698042e-05 1.7665611166e+00 -3.0597736086e+00 1.7665611166e+00 3.0597736086e+00 
64600 6.7605821923e+00 7.1320283122e-05 1.7665611166e+00 -3.0597736086e+00 1.7665611166e+00 3.0597736086e+00 
64700 6.7605821926e+00 7.0246081074e-05 1.7665590980e+00 -3.0597701123e+00 1.7665590980e+00 3.0597701123e+00 
64800 6.7605821930e+00 7.1307834356e-05 1.7665590980e+00 -3.0597701123e+00 1.7665590980e+00 3.0597701123e+00 
64900 6.7605821932e+00 7.0071828452e-05 1.7665570797e+00 -3.0597666165e+00 1.7665570797e+00 3.0597666165e+00 
65000 6.7605821937e+00 7.0972289877e-05 1.7665570797e+00 -3.0597666165e+00 1.7665570797e+00 3.0597666165e+00 
65100 6.7605821939e+00 6.9586559675e-05 1.7665550709e+00 -3.0597631372e+00 1.7665550709e+00 3.0597631372e+00 
65200 6.7605821944e+00 7.0328242606e-05 1.7665550709e+00 -3.0597631372e+00 1.7665550709e+00 3.0597631372e+00 
65300 6.7605821949e+00 7.0997264091e-05 1.7665550709e+00 -3.0597631372e+00 1.7665550709e+00 3.0597631372e+00 
65400 6.7605821952e+00 6.9382159234e-05 1.7665530615e+00 -3.0597596567e+00 1.7665530615e+00 3.0597596567e+00 
65500 6.7605821957e+00 6.9898386120e-05 1.7665530615e+00 -3.0597596567e+00 1.7665530615e+00 3.0597596567e+00 
65600 6.7605821962e+00 7.0345357296e-05 1.7665530615e+00 -3.0597596567e+00 1.7665530615e+00 3.0597596567e+00 
65700 6.7605821967e+00 7.0724624567e-05 1.7665530615e+00 -3.0597596567e+00 1.7665530615e+00 3.0597596567e+00 
65800 6.7605821970e+00 6.8833536536e-05 1.7665510597e+00 -3.0597561895e+00 1.7665510597e+00 3.0597561895e+00 
65900 6.7605821976e+00 6.9070918762e-05 1.7665510597e+00 -3.0597561895e+00 1.7665510597e+00 3.0597561895e+00 
66000 6.7605821981e+00 6.9244919186e-05 1.7665510597e+00 -3.0597561895e+00 1.7665510597e+00 3.0597561895e+00 
66100 6.7605821987e+00 6.9357357551e-05 1.7665510597e+00 -3.0597561895e+00 1.7665510597e+00 3.0597561895e+00 
66200 6.7605821993e+00 6.9410101659e-05 1.7665510597e+00 -3.0597561895e+00 1.7665510597e+00 3.0597561895e+00 
66300 6.7605821998e+00 6.9405062832e-05 1.7665510597e+00 -3.0597561895e+00 1.7665510597e+00 3.0597561895e+00 
66400 6.7605822004e+00 6.9344191419e-05 1.7665510597e+00 -3.0597561895e+00 1.7665510597e+00 3.0597561895e+00 
66500 6.7605822010e+00 6.9229472373e-05 1.7665510597e+00 -3.0597561895e+00 1.7665510597e+00 3.0597561895e+00 
66600 6.7605822016e+00 6.9062920910e-05 1.7665510597e+00 -3.0597561895e+00 1.7665510597e+00 3.0597561895e+00 
66700 6.7605822022e+00 6.8846578239e-05 1.7665510597e+00 -3.0597561895e+00 1.7665510597e+00 3.0597561895e+00 
66800 6.7605822028e+00 6.8582507382e-05 1.7665510597e+00 -3.0597561895e+00 1.7665510597e+00 3.0597561895e+00 
66900 6.7605822034e+00 6.8272789076e-05 1.7665510597e+00 -3.0597561895e+00 1.7665510597e+00 3.0597561895e+00 
67000 6.7605822040e+00 6.7919517770e-05 1.7665510597e+00 -3.0597561895e+00 1.7665510597e+00 3.0597561895e+00 
67100 6.7605822046e+00 6.7524797722e-05 1.7665510597e+00 -3.0597561895e+00 1.7665510597e+00 3.0597561895e+00 
67200 6.7605822052e+00 6.7090739189e-05 1.7665510597e+00 -3.0597561895e+00 1.7665510597e+00 3.0597561895e+00 
67300 6.7605822058e+00 6.6619454727e-05 1.7665510597e+00 -3.0597561895e+00 1.7665510597e+00 3.0597561895e+00 
67400 6.7605822064e+00 6.6113055594e-05 1.7665510597e+00 -3.0597561895e+00 1.7665510597e+00 3.0597561895e+00 
67500 6.7605822070e+00 6.5573648262e-05 1.7665510597e+00 -3.0597561895e+00 1.7665510597e+00 3.0597561895e+00 
67600 6.7605822075e+00 6.5003331042e-05 1.7665510597e+00 -3.0597561895e+00 1.7665510597e+00 3.0597561895e+00 
67700 6.7605822081e+00 6.4404190821e-05 1.7665510597e+00 -3.0597561895e+00 1.7665510597e+00 3.0597561895e+00 
67800 6.7605822087e+00 6.3778299923e-05 1.7665510597e+00 -3.0597561895e+00 1.7665510597e+00 3.0597561895e+00 
67900 6.7605822092e+00 6.3127713069e-05 1.7665510597e+00 -3.0597561895e+00 1.7665510597e+00 3.0597561895e+00 
68000 6.7605822098e+00 6.2454464486e-05 1.7665510597e+00 -3.0597561895e+00 1.7665510597e+00 3.0597561895e+00 
68100 6.7605822103e+00 6.1760565108e-05 1.7665510597e+00 -3.0597561895e+00 1.7665510597e+00 3.0597561895e+00 
68200 6.7605822108e+00 6.1047999915e-05 1.7665510597e+00 -3.0597561895e+00 1.7665510597e+00 3.0597561895e+00 
68300 6.7605822114e+00 6.0318725390e-05 1.7665510597e+00 -3.0597561895e+00 1.7665510597e+00 3.0597561895e+00 
68400 6.7605822119e+00 5.9574667098e-05 1.7665510597e+00 -3.0597561895e+00 1.7665510597e+00 3.0597561895e+00 
68500 6.7605822124e+00 5.8817717398e-05 1.7665510597e+00 -3.0597561895e+00 1.7665510597e+00 3.0597561895e+00 
68600 6.7605822128e+00 5.8049733264e-05 1.7665510597e+00 -3.0597561895e+00 1.7665510597e+00 3.0597561895e+00 
68700 6.7605822133e+00 5.7272534233e-05 1.7665510597e+00 -3.0597561895e+00 1.7665510597e+00 3.0597561895e+00 
68800 6.7605822138e+00 5.6487900497e-05 1.7665510597e+00 -3.0597561895e+00 1.7665510597e+00 3.0597561895e+00 
68900 6.7605822142e+00 5.5697571078e-05 1.7665510597e+00 -3.0597561895e+00 1.7665510597e+00 3.0597561895e+00 
69000 6.7605822146e+00 5.4903242167e-05 1.7665510597e+00 -3.0597561895e+00 1.7665510597e+00 3.0597561895e+00 
69100 6.7605822151e+00 5.4106565561e-05 1.7665510597e+00 -3.0597561895e+00 1.7665510597e+00 3.0597561895e+00 
69200 6.7605822155e+00 5.3309147224e-05 1.7665510597e+00 -3.0597561895e+00 1.7665510597e+00 3.0597561895e+00 
69300 6.7605822159e+00 5.2512545965e-05 1.7665510597e+00 -3.0597561895e+00 1.7665510597e+00 3.0597561895e+00 
69400 6.7605822162e+00 5.1718272247e-05 1.7665510597e+00 -3.0597561895e+00 1.7665510597e+00 3.0597561895e+00 
69500 6.7605822166e+00 5.0927787097e-05 1.7665510597e+00 -3.0597561895e+00 1.7665510597e+00 3.0597561895e+00 
69600 6.7605822170e+00 5.0142501138e-05 1.7665510597e+00 -3.0597561895e+00 1.7665510597e+00 3.0597561895e+00 
69700 6.7605822173e+00 4.9363773732e-05 1.7665510597e+00 -3.0597561895e+00 1.7665510597e+00 3.0597561895e+00 
69800 6.7605822176e+00 4.8592912238e-05 1.7665510597e+00 -3.0597561895e+00 1.7665510597e+00 3.0597561895e+00 
69900 6.7605822180e+00 4.7831171373e-05 1.7665510597e+00 -3.0597561895e+00 1.7665510597e+00 3.0597561895e+00 
70000 6.7605822183e+00 4.7079752684e-05 1.7665510597e+00 -3.0597561895e+00 1.7665510597e+00 3.0597561895e+00 
70100 6.7605822186e+00 4.6339804123e-05 1.7665510597e+00 -3.0597561895e+00 1.7665510597e+00 3.0597561895e+00 
70200 6.7605822189e+00 4.5612419724e-05 1.7665510597e+00 -3.0597561895e+00 1.7665510597e+00 3.0597561895e+00 
70300 6.7605822191e+00 4.4898639381e-05 1.7665510597e+00 -3.0597561895e+00 1.7665510597e+00 3.0597561895e+00 
70400 6.7605822194e+00 4.4199448721e-05 1.7665510597e+00 -3.0597561895e+00 1.7665510597e+00 3.0597561895e+00 
70500 6.7605822197e+00 4.3515779070e-05 1.7665510597e+00 -3.0597561895e+00 1.7665510597e+00 3.0597561895e+00 
70600 6.7605822199e+00 4.2848507516e-05 1.7665510597e+00 -3.0597561895e+00 1.7665510597e+00 3.0597561895e+00 
70700 6.7605822202e+00 4.2198457060e-05 1.7665510597e+00 -3.0597561895e+00 1.7665510597e+00 3.0597561895e+00 
70800 6.7605822204e+00 4.1566396841e-05 1.7665510597e+00 -3.0597561895e+00 1.7665510597e+00 3.0597561895e+00 
70900 6.7605822207e+00 4.0953042465e-05 1.7665510597e+00 -3.0597561895e+00 1.7665510597e+00 3.0597561895e+00 
71000 6.7605822209e+00 4.0359056393e-05 1.7665510597e+00 -3.0597561895e+00 1.7665510597e+00 3.0597561895e+00 
71100 6.7605822211e+00 3.9785048420e-05 1.7665510597e+00 -3.0597561895e+00 1.7665510597e+00 3.0597561895e+00 
71200 6.7605822213e+00 3.9231576223e-05 1.7665510597e+00 -3.0597561895e+00 1.7665510597e+00 3.0597561895e+00 
71300 6.7605822215e+00 3.8699145976e-05 1.7665510597e+00 -3.0597561895e+00 1.7665510597e+00 3.0597561895e+00 
71400 6.7605822217e+00 3.8188213039e-05 1.7665510597e+00 -3.0597561895e+00 1.7665510597e+00 3.0597561895e+00 
71500 6.7605822219e+00 3.7699182713e-05 1.7665510597e+00 -3.0597561895e+00 1.7665510597e+00 3.0597561895e+00 
71600 6.7605822221e+00 3.7232411037e-05 1.7665510597e+00 -3.0597561895e+00 1.7665510597e+00 3.0597561895e+00 
71700 6.7605822223e+00 3.6788205674e-05 1.7665510597e+00 -3.0597561895e+00 1.7665510597e+00 3.0597561895e+00 
71800 6.7605822225e+00 3.6366826830e-05 1.7665510597e+00 -3.0597561895e+00 1.7665510597e+00 3.0597561895e+00 
71900 6.7605822227e+00 3.5968488230e-05 1.7665510597e+00 -3.0597561895e+00 1.7665510597e+00 3.0597561895e+00 
72000 6.7605822229e+00 3.5593358140e-05 1.7665510597e+00 -3.0597561895e+00 1.7665510597e+00 3.0597561895e+00 
72100 6.7605822230e+00 3.5241560440e-05 1.7665510597e+00 -3.0597561895e+00 1.7665510597e+00 3.0597561895e+00 
72200 6.7605822232e+00 3.4913175739e-05 1.7665510597e+00 -3.0597561895e+00 1.7665510597e+00 3.0597561895e+00 
72300 6.7605822234e+00 3.4608242525e-05 1.7665510597e+00 -3.0597561895e+00 1.7665510597e+00 3.0597561895e+00 
72400 6.7605822235e+00 3.4326758351e-05 1.7665510597e+00 -3.0597561895e+00 1.7665510597e+00 3.0597561895e+00 
72500 6.7605822237e+00 3.4068681052e-05 1.7665510597e+00 -3.0597561895e+00 1.7665510597e+00 3.0597561895e+00 
72600 6.7605822239e+00 3.3833930011e-05 1.7665510597e+00 -3.0597561895e+00 1.7665510597e+00 3.0597561895e+00 
72700 6.7605822241e+00 3.3622387416e-05 1.7665510597e+00 -3.0597561895e+00 1.7665510597e+00 3.0597561895e+00 
72800 6.7605822242e+00 3.3433899577e-05 1.7665510597e+00 -3.0597561895e+00 1.7665510597e+00 3.0597561895e+00 
72900 6.7605822244e+00 3.3268278242e-05 1.7665510597e+00 -3.0597561895e+00 1.7665510597e+00 3.0597561895e+00 
73000 6.7605822246e+00 3.3125301939e-05 1.7665510597e+00 -3.0597561895e+00 1.7665510597e+00 3.0597561895e+00 
73100 6.7605822247e+00 3.3004717337e-05 1.7665510597e+00 -3.0597561895e+00 1.7665510597e+00 3.0597561895e+00 
73200 6.7605822249e+00 3.2906240606e-05 1.7665510597e+00 -3.0597561895e+00 1.7665510597e+00 3.0597561895e+00 
73300 6.7605822250e+00 3.2829558810e-05 1.7665510597e+00 -3.0597561895e+00 1.7665510597e+00 3.0597561895e+00 
73400 6.7605822252e+00 3.2774331283e-05 1.7665510597e+00 -3.0597561895e+00 1.7665510597e+00 3.0597561895e+00 
73500 6.7605822254e+00 3.2740191023e-05 1.7665510597e+00 -3.0597561895e+00 1.7665510597e+00 3.0597561895e+00 
73600 6.7605822255e+00 3.2726746092e-05 1.7665510597e+00 -3.0597561895e+00 1.7665510597e+00 3.0597561895e+00 
73700 6.7605822257e+00 3.2733581006e-05 1.7665510597e+00 -3.0597561895e+00 1.7665510597e+00 3.0597561895e+00 
73800 6.7605822258e+00 3.2760258132e-05 1.7665510597e+00 -3.0597561895e+00 1.7665510597e+00 3.0597561895e+00 
73900 6.7605822260e+00 3.2806319068e-05 1.7665510597e+00 -3.0597561895e+00 1.7665510597e+00 3.0597561895e+00 
74000 6.7605822262e+00 3.2871286035e-05 1.7665510597e+00 -3.0597561895e+00 1.7665510597e+00 3.0597561895e+00 
74100 6.7605822263e+00 3.2954663242e-05 1.7665510597e+00 -3.0597561895e+00 1.7665510597e+00 3.0597561895e+00 
74200 6.7605822265e+00 3.3055938253e-05 1.7665510597e+00 -3.0597561895e+00 1.7665510597e+00 3.0597561895e+00 
74300 6.7605822266e+00 3.3174583331e-05 1.7665510597e+00 -3.0597561895e+00 1.7665510597e+00 3.0597561895e+00 
74400 6.7605822268e+00 3.3310056779e-05 1.7665510597e+00 -3.0597561895e+00 1.7665510597e+00 3.0597561895e+00 
74500 6.7605822269e+00 3.3461804249e-05 1.7665510597e+00 -3.0597561895e+00 1.7665510597e+00 3.0597561895e+00 
74600 6.7605822271e+00 3.3629260056e-05 1.7665510597e+00 -3.0597561895e+00 1.7665510597e+00 3.0597561895e+00 
74700 6.7605822272e+00 3.3811848440e-05 1.7665510597e+00 -3.0597561895e+00 1.7665510597e+00 3.0597561895e+00 
74800 6.7605822274e+00 3.4008984844e-05 1.7665510597e+00 -3.0597561895e+00 1.7665510597e+00 3.0597561895e+00 
74900 6.7605822276e+00 3.4220077136e-05 1.7665510597e+00 -3.0597561895e+00 1.7665510597e+00 3.0597561895e+00 
75000 6.7605822277e+00 3.4444526827e-05 1.7665510597e+00 -3.0597561895e+00 1.7665510597e+00 3.0597561895e+00 
75100 6.7605822278e+00 3.4681730260e-05 1.7665510597e+00 -3.0597561895e+00 1.7665510597e+00 3.0597561895e+00 
75200 6.7605822280e+00 3.4931079765e-05 1.7665510597e+00 -3.0597561895e+00 1.7665510597e+00 3.0597561895e+00 
75300 6.7605822281e+00 3.5191964792e-05 1.7665510597e+00 -3.0597561895e+00 1.7665510597e+00 3.0597561895e+00 
75400 6.7605822283e+00 3.5463773016e-05 1.7665510597e+00 -3.0597561895e+00 1.7665510597e+00 3.0597561895e+00 
75500 6.7605822284e+00 3.5745891413e-05 1.7665510597e+00 -3.0597561895e+00 1.7665510597e+00 3.0597561895e+00 
75600 6.7605822286e+00 3.6037707292e-05 1.7665510597e+00 -3.0597561895e+00 1.7665510597e+00 3.0597561895e+00 
75700 6.7605822287e+00 3.6338609324e-05 1.7665510597e+00 -3.0597561895e+00 1.7665510597e+00 3.0597561895e+00 
75800 6.7605822288e+00 3.6647988499e-05 1.7665510597e+00 -3.0597561895e+00 1.7665510597e+00 3.0597561895e+00 
75900 6.7605822290e+00 3.6965239092e-05 1.7665510597e+00 -3.0597561895e+00 1.7665510597e+00 3.0597561895e+00 
76000 6.7605822291e+00 3.7289759558e-05 1.7665510597e+00 -3.0597561895e+00 1.7665510597e+00 3.0597561895e+00 
76100 6.7605822292e+00 3.7620953425e-05 1.7665510597e+00 -3.0597561895e+00 1.7665510597e+00 3.0597561895e+00 
76200 6.7605822294e+00 3.7958230123e-05 1.7665510597e+00 -3.0597561895e+00 1.7665510597e+00 3.0597561895e+00 
76300 6.7605822295e+00 3.8301005805e-05 1.7665510597e+00 -3.0597561895e+00 1.7665510597e+00 3.0597561895e+00 
76400 6.7605822296e+00 3.8648704112e-05 1.7665510597e+00 -3.0597561895e+00 1.7665510597e+00 3.0597561895e+00 
76500 6.7605822298e+00 3.9000756915e-05 1.7665510597e+00 -3.0597561895e+00 1.7665510597e+00 3.0597561895e+00 
76600 6.7605822299e+00 3.9356605016e-05 1.7665510597e+00 -3.0597561895e+00 1.7665510597e+00 3.0597561895e+00 
76700 6.7605822300e+00 3.9715698808e-05 1.7665510597e+00 -3.0597561895e+00 1.7665510597e+00 3.0597561895e+00 
76800 6.7605822301e+00 4.0077498918e-05 1.7665510597e+00 -3.0597561895e+00 1.7665510597e+00 3.0597561895e+00 
76900 6.7605822302e+00 4.0441476792e-05 1.7665510597e+00 -3.0597561895e+00 1.7665510597e+00 3.0597561895e+00 
77000 6.7605822303e+00 4.0807115250e-05 1.7665510597e+00 -3.0597561895e+00 1.7665510597e+00 3.0597561895e+00 
77100 6.7605822305e+00 4.1173909027e-05 1.7665510597e+00 -3.0597561895e+00 1.7665510597e+00 3.0597561895e+00 
77200 6.7605822306e+00 4.1541365241e-05 1.7665510597e+00 -3.0597561895e+00 1.7665510597e+00 3.0597561895e+00 
77300 6.7605822307e+00 4.1909003854e-05 1.7665510597e+00 -3.0597561895e+00 1.7665510597e+00 3.0597561895e+00 
77400 6.7605822308e+00 4.2276358091e-05 1.7665510597e+00 -3.0597561895e+00 1.7665510597e+00 3.0597561895e+00 
77500 6.7605822309e+00 4.2642974821e-05 1.7665510597e+00 -3.0597561895e+00 1.7665510597e+00 3.0597561895e+00 
77600 6.7605822310e+00 4.3008414908e-05 1.7665510597e+00 -3.0597561895e+00 1.7665510597e+00 3.0597561895e+00 
77700 6.7605822311e+00 4.3372253520e-05 1.7665510597e+00 -3.0597561895e+00 1.7665510597e+00 3.0597561895e+00 
77800 6.7605822312e+00 4.3734080423e-05 1.7665510597e+00 -3.0597561895e+00 1.7665510597e+00 3.0597561895e+00 
77900 6.7605822313e+00 4.4093500218e-05 1.7665510597e+00 -3.0597561895e+00 1.7665510597e+00 3.0597561895e+00 
78000 6.7605822314e+00 4.4450132562e-05 1.7665510597e+00 -3.0597561895e+00 1.7665510597e+00 3.0597561895e+00 
78100 6.7605822315e+00 4.4803612359e-05 1.7665510597e+00 -3.0597561895e+00 1.7665510597e+00 3.0597561895e+00 
78200 6.7605822315e+00 4.5153589909e-05 1.7665510597e+00 -3.0597561895e+00 1.7665510597e+00 3.0597561895e+00 
78300 6.7605822316e+00 4.5499731029e-05 1.7665510597e+00 -3.0597561895e+00 1.7665510597e+00 3.0597561895e+00 
78400 6.7605822317e+00 4.5841717157e-05 1.7665510597e+00 -3.0597561895e+00 1.7665510597e+00 3.0597561895e+00 
78500 6.7605822318e+00 4.6179245413e-05 1.7665510597e+00 -3.0597561895e+00 1.7665510597e+00 3.0597561895e+00 
78600 6.7605822319e+00 4.6512028639e-05 1.7665510597e+00 -3.0597561895e+00 1.7665510597e+00 3.0597561895e+00 
78700 6.7605822320e+00 4.6839795401e-05 1.7665510597e+00 -3.0597561895e+00 1.7665510597e+00 3.0597561895e+00 
78800 6.7605822321e+00 4.7162289983e-05 1.7665510597e+00 -3.0597561895e+00 1.7665510597e+00 3.0597561895e+00 
78900 6.7605822321e+00 4.7479272341e-05 1.7665510597e+00 -3.0597561895e+00 1.7665510597e+00 3.0597561895e+00 
79000 6.7605822322e+00 4.7790518040e-05 1.7665510597e+00 -3.0597561895e+00 1.7665510597e+00 3.0597561895e+00 
79100 6.7605822323e+00 4.8095818156e-05 1.7665510597e+00 -3.0597561895e+00 1.7665510597e+00 3.0597561895e+00 
79200 6.7605822324e+00 4.8394979168e-05 1.7665510597e+00 -3.0597561895e+00 1.7665510597e+00 3.0597561895e+00 
79300 6.7605822324e+00 4.8687822822e-05 1.7665510597e+00 -3.0597561895e+00 1.7665510597e+00 3.0597561895e+00 
79400 6.7605822325e+00 4.8974185969e-05 1.7665510597e+00 -3.0597561895e+00 1.7665510597e+00 3.0597561895e+00 
79500 6.7605822326e+00 4.9253920387e-05 1.7665510597e+00 -3.0597561895e+00 1.7665510597e+00 3.0597561895e+00 
79600 6.7605822326e+00 4.9526892594e-05 1.7665510597e+00 -3.0597561895e+00 1.7665510597e+00 3.0597561895e+00 
79700 6.7605822327e+00 4.9792983617e-05 1.7665510597e+00 -3.0597561895e+00 1.7665510597e+00 3.0597561895e+00 
79800 6.7605822328e+00 5.0052088768e-05 1.7665510597e+00 -3.0597561895e+00 1.7665510597e+00 3.0597561895e+00 
79900 6.7605822328e+00 5.0304117387e-05 1.7665510597e+00 -3.0597561895e+00 1.7665510597e+00 3.0597561895e+00 
80000 6.7605822329e+00 5.0548992580e-05 1.7665510597e+00 -3.0597561895e+00 1.7665510597e+00 3.0597561895e+00 
80100 6.7605822330e+00 5.0786650936e-05 1.7665510597e+00 -3.0597561895e+00 1.7665510597e+00 3.0597561895e+00 
80200 6.7605822330e+00 5.1017042230e-05 1.7665510597e+00 -3.0597561895e+00 1.7665510597e+00 3.0597561895e+00 
80300 6.7605822331e+00 5.1240129112e-05 1.7665510597e+00 -3.0597561895e+00 1.7665510597e+00 3.0597561895e+00 
80400 6.7605822332e+00 5.1455886792e-05 1.7665510597e+00 -3.0597561895e+00 1.7665510597e+00 3.0597561895e+00 
80500 6.7605822332e+00 5.1664302701e-05 1.7665510597e+00 -3.0597561895e+00 1.7665510597e+00 3.0597561895e+00 
80600 6.7605822333e+00 5.1865376153e-05 1.7665510597e+00 -3.0597561895e+00 1.7665510597e+00 3.0597561895e+00 
80700 6.7605822334e+00 5.2059117985e-05 1.7665510597e+00 -3.0597561895e+00 1.7665510597e+00 3.0597561895e+00 
80800 6.7605822334e+00 5.2245550208e-05 1.7665510597e+00 -3.0597561895e+00 1.7665510597e+00 3.0597561895e+00 
80900 6.7605822335e+00 5.2424705625e-05 1.7665510597e+00 -3.0597561895e+00 1.7665510597e+00 3.0597561895e+00 
81000 6.7605822335e+00 5.2596627465e-05 1.7665510597e+00 -3.0597561895e+00 1.7665510597e+00 3.0597561895e+00 
81100 6.7605822336e+00 5.2761368989e-05 1.7665510597e+00 -3.0597561895e+00 1.7665510597e+00 3.0597561895e+00 
81200 6.7605822336e+00 5.2918993118e-05 1.7665510597e+00 -3.0597561895e+00 1.7665510597e+00 3.0597561895e+00 
81300 6.7605822337e+00 5.3069572028e-05 1.7665510597e+00 -3.0597561895e+00 1.7665510597e+00 3.0597561895e+00 
81400 6.7605822338e+00 5.3213186760e-05 1.7665510597e+00 -3.0597561895e+00 1.7665510597e+00 3.0597561895e+00 
81500 6.7605822338e+00 5.3349926818e-05 1.7665510597e+00 -3.0597561895e+00 1.7665510597e+00 3.0597561895e+00 
81600 6.7605822339e+00 5.3479889773e-05 1.7665510597e+00 -3.0597561895e+00 1.7665510597e+00 3.0597561895e+00 
81700 6.7605822339e+00 5.3603180853e-05 1.7665510597e+00 -3.0597561895e+00 1.7665510597e+00 3.0597561895e+00 
81800 6.7605822340e+00 5.3719912548e-05 1.7665510597e+00 -3.0597561895e+00 1.7665510597e+00 3.0597561895e+00 
81900 6.7605822340e+00 5.3830204201e-05 1.7665510597e+00 -3.0597561895e+00 1.7665510597e+00 3.0597561895e+00 
82000 6.7605822341e+00 5.3934181608e-05 1.7665510597e+00 -3.0597561895e+00 1.7665510597e+00 3.0597561895e+00 
82100 6.7605822341e+00 5.4031976617e-05 1.7665510597e+00 -3.0597561895e+00 1.7665510597e+00 3.0597561895e+00 
82200 6.7605822342e+00 5.4123726726e-05 1.7665510597e+00 -3.0597561895e+00 1.7665510597e+00 3.0597561895e+00 
82300 6.7605822342e+00 5.4209574684e-05 1.7665510597e+00 -3.0597561895e+00 1.7665510597e+00 3.0597561895e+00 
82400 6.7605822343e+00 5.4289668109e-05 1.7665510597e+00 -3.0597561895e+00 1.7665510597e+00 3.0597561895e+00 
82500 6.7605822343e+00 5.4364159081e-05 1.7665510597e+00 -3.0597561895e+00 1.7665510597e+00 3.0597561895e+00 
82600 6.7605822344e+00 5.4433203770e-05 1.7665510597e+00 -3.0597561895e+00 1.7665510597e+00 3.0597561895e+00 
82700 6.7605822344e+00 5.4496962045e-05 1.7665510597e+00 -3.0597561895e+00 1.7665510597e+00 3.0597561895e+00 
82800 6.7605822345e+00 5.4555597106e-05 1.7665510597e+00 -3.0597561895e+00 1.7665510597e+00 3.0597561895e+00 
82900 6.7605822345e+00 5.4609275106e-05 1.7665510597e+00 -3.0597561895e+00 1.7665510597e+00 3.0597561895e+00 
83000 6.7605822346e+00 5.4658164793e-05 1.7665510597e+00 -3.0597561895e+00 1.7665510597e+00 3.0597561895e+00 
83100 6.7605822346e+00 5.4702437151e-05 1.7665510597e+00 -3.0597561895e+00 1.7665510597e+00 3.0597561895e+00 
83200 6.7605822346e+00 5.4742265045e-05 1.7665510597e+00 -3.0597561895e+00 1.7665510597e+00 3.0597561895e+00 
83300 6.7605822347e+00 5.4777822883e-05 1.7665510597e+00 -3.0597561895e+00 1.7665510597e+00 3.0597561895e+00 
83400 6.7605822347e+00 5.4809286281e-05 1.7665510597e+00 -3.0597561895e+00 1.7665510597e+00 3.0597561895e+00 
83500 6.7605822348e+00 5.4836831728e-05 1.7665510597e+00 -3.0597561895e+00 1.7665510597e+00 3.0597561895e+00 
83600 6.7605822348e+00 5.4860636273e-05 1.7665510597e+00 -3.0597561895e+00 1.7665510597e+00 3.0597561895e+00 
83700 6.7605822348e+00 5.4863680477e-05 1.7665510597e+00 -3.0597561895e+00 1.7665510597e+00 3.0597561895e+00 
83700 6.7605822348e+00 5.4863680478e-05 1.7665510597e+00 -3.0597561895e+00 1.7665510597e+00 3.0597561895e+00 
