# step Hamiltonian StressXX CellTensor1 CellTensor2 CellTensor3 CellTensor4 
0 5.5845465015e+00 7.8980624551e-02 2.8378601290e+00 -4.9153179282e+00 2.8378601290e+00 4.9153179282e+00 
100 5.5895207555e+00 9.1190703196e-02 2.8378601290e+00 -4.9153179282e+00 2.8378601290e+00 4.9153179282e+00 
200 5.5948495028e+00 1.0325512643e-01 2.8362536000e+00 -4.9125353383e+00 2.8362536000e+00 4.9125353383e+00 
300 5.6005032631e+00 1.1529209995e-01 2.8344335216e+00 -4.9093828701e+00 2.8344335216e+00 4.9093828701e+00 
400 5.6063756857e+00 1.2730585164e-01 2.8323999883e+00 -4.9058606870e+00 2.8323999883e+00 4.9058606870e+00 
500 5.6123620827e+00 1.3929257127e-01 2.8301529715e+00 -4.9019687399e+00 2.8301529715e+00 4.9019687399e+00 
600 5.6183608711e+00 1.5124125637e-01 2.8276924620e+00 -4.8977070124e+00 2.8276924620e+00 4.8977070124e+00 
700 5.6242748672e+00 1.6313448090e-01 2.8250185964e+00 -4.8930757412e+00 2.8250185964e+00 4.8930757412e+00 
800 5.6300124668e+00 1.7494915198e-01 2.8221317718e+00 -4.8880756143e+00 2.8221317718e+00 4.8880756143e+00 
900 5.6354887316e+00 1.8665730816e-01 2.8190327476e+00 -4.8827079470e+00 2.8190327476e+00 4.8827079470e+00 
1000 5.6406263881e+00 1.9822699857e-01 2.8157227341e+00 -4.8769748354e+00 2.8157227341e+00 4.8769748354e+00 
1100 5.6453567290e+00 2.0962326552e-01 2.8122034663e+00 -4.8708792848e+00 2.8122034663e+00 4.8708792848e+00 
1200 5.6496203985e+00 2.2080923196e-01 2.8084772618e+00 -4.8644253094e+00 2.8084772618e+00 4.8644253094e+00 
1300 5.6533680261e+00 2.3174727109e-01 2.8045470600e+00 -4.8576180002e+00 2.8045470600e+00 4.8576180002e+00 
1400 5.6565606704e+00 2.4240021104e-01 2.8004164414e+00 -4.8504635589e+00 2.8004164414e+00 4.8504635589e+00 
1500 5.6591700312e+00 2.5273250621e-01 2.7960896264e+00 -4.8429692955e+00 2.7960896264e+00 4.8429692955e+00 
1600 5.6611783971e+00 2.6271129409e-01 2.7915714538e+00 -4.8351435909e+00 2.7915714538e+00 4.8351435909e+00 
1700 5.6625783087e+00 2.7230725519e-01 2.7868673405e+00 -4.8269958277e+00 2.7868673405e+00 4.8269958277e+00 
1800 5.6633719418e+00 2.8149520777e-01 2.7819832266e+00 -4.8185362942e+00 2.7819832266e+00 4.8185362942e+00 
1900 5.6635702367e+00 2.9025439528e-01 2.7769255086e+00 -4.8097760697e+00 2.7769255086e+00 4.8097760697e+00 
2000 5.6631918275e+00 2.9856846032e-01 2.7717009683e+00 -4.8007269006e+00 2.7717009683e+00 4.8007269006e+00 
2100 5.6622618411e+00 3.0642513650e-01 2.7663167011e+00 -4.7914010761e+00 2.7663167011e+00 4.7914010761e+00 
2200 5.6608106461e+00 3.1381572172e-01 2.7607800487e+00 -4.7818113128e+00 2.7607800487e+00 4.7818113128e+00 
2300 5.6588726296e+00 3.2073441676e-01 2.7550985416e+00 -4.7719706539e+00 2.7550985416e+00 4.7719706539e+00 
2400 5.6564850693e+00 3.2717761941e-01 2.7492798524e+00 -4.7618923886e+00 2.7492798524e+00 4.7618923886e+00 
2500 5.6536871477e+00 3.3314325638e-01 2.7433317612e+00 -4.7515899925e+00 2.7433317612e+00 4.7515899925e+00 
2600 5.6505191359e+00 3.3863021702e-01 2.7372621328e+00 -4.7410770876e+00 2.7372621328e+00 4.7410770876e+00 
2700 5.6470217505e+00 3.4363792908e-01 2.7310789034e+00 -4.7303674202e+00 2.7310789034e+00 4.7303674202e+00 
2800 5.6432356696e+00 3.4816609251e-01 2.7247900757e+00 -4.7194748511e+00 2.7247900757e+00 4.7194748511e+00 
2900 5.6392011847e+00 3.5221456640e-01 2.7184037174e+00 -4.7084133541e+00 2.7184037174e+00 4.7084133541e+00 
3000 5.6349579539e+00 3.5578338854e-01 2.7119279623e+00 -4.6971970172e+00 2.7119279623e+00 4.6971970172e+00 
3100 5.6305448255e+00 3.5887289784e-01 2.7053710106e+00 -4.6858400437e+00 2.7053710106e+00 4.6858400437e+00 
3200 5.6259997005e+00 3.6148392596e-01 2.6987411270e+00 -4.6743567484e+00 2.6987411270e+00 4.6743567484e+00 
3300 5.6213594101e+00 3.6361802506e-01 2.6920466345e+00 -4.6627615473e+00 2.6920466345e+00 4.6627615473e+00 
3400 5.6166595904e+00 3.6527770220e-01 2.6852959044e+00 -4.6510689397e+00 2.6852959044e+00 4.6510689397e+00 
3500 5.6119345425e+00 3.6646663659e-01 2.6784973406e+00 -4.6392934818e+00 2.6784973406e+00 4.6392934818e+00 
3600 5.6072170759e+00 3.6718986159e-01 2.6716593602e+00 -4.6274497524e+00 2.6716593602e+00 4.6274497524e+00 
3700 5.6025383332e+00 3.6745390015e-01 2.6647903699e+00 -4.6155523122e+00 2.6647903699e+00 4.6155523122e+00 
3800 5.5979276040e+00 3.6726684765e-01 2.6578987389e+00 -4.6036156572e+00 2.6578987389e+00 4.6036156572e+00 
3900 5.5934121336e+00 3.6663840115e-01 2.6509927700e+00 -4.5916541682e+00 2.6509927700e+00 4.5916541682e+00 
4000 5.5890169367e+00 3.6557983792e-01 2.6440806692e+00 -4.5796820583e+00 2.6440806692e+00 4.5796820583e+00 
4100 5.5847646253e+00 3.6410394880e-01 2.6371705148e+00 -4.5677133198e+00 2.6371705148e+00 4.5677133198e+00 
4200 5.5806752597e+00 3.6222493395e-01 2.6302702276e+00 -4.5557616718e+00 2.6302702276e+00 4.5557616718e+00 
4300 5.5767662288e+00 3.5995826916e-01 2.6233875417e+00 -4.5438405101e+00 2.6233875417e+00 4.5438405101e+00 
4400 5.5730521679e+00 3.5732055138e-01 2.6165299775e+00 -4.5319628606e+00 2.6165299775e+00 4.5319628606e+00 
4500 5.5695449152e+00 3.5432933120e-01 2.6097048172e+00 -4.5201413361e+00 2.6097048172e+00 4.5201413361e+00 
4600 5.5662535102e+00 3.5100293975e-01 2.6029190821e+00 -4.5083880982e+00 2.6029190821e+00 4.5083880982e+00 
4700 5.5631842340e+00 3.4736031589e-01 2.5961795140e+00 -4.4967148238e+00 2.5961795140e+00 4.4967148238e+00 
4800 5.5603406894e+00 3.4342083862e-01 2.5894925582e+00 -4.4851326767e+00 2.5894925582e+00 4.4851326767e+00 
4900 5.5577239176e+00 3.3920416852e-01 2.5828643505e+00 -4.4736522841e+00 2.5828643505e+00 4.4736522841e+00 
5000 5.5553325484e+00 3.3473010073e-01 2.5763007058e+00 -4.4622837180e+00 2.5763007058e+00 4.4622837180e+00 
5100 5.5531629778e+00 3.3001843120e-01 2.5698071108e+00 -4.4510364815e+00 2.5698071108e+00 4.4510364815e+00 
5200 5.5512095689e+00 3.2508883709e-01 2.5633887175e+00 -4.4399194982e+00 2.5633887175e+00 4.4399194982e+00 
5300 5.5494648701e+00 3.1996077149e-01 2.5570503406e+00 -4.4289411074e+00 2.5570503406e+00 4.4289411074e+00 
5400 5.5479198455e+00 3.1465337226e-01 2.5507964556e+00 -4.4181090608e+00 2.5507964556e+00 4.4181090608e+00 
5500 5.5465641113e+00 3.0918538427e-01 2.5446311996e+00 -4.4074305243e+00 2.5446311996e+00 4.4074305243e+00 
5600 5.5453861752e+00 3.0357509427e-01 2.5385583734e+00 -4.3969120807e+00 2.5385583734e+00 4.3969120807e+00 
5700 5.5443736726e+00 2.9784027736e-01 2.5325814449e+00 -4.3865597368e+00 2.5325814449e+00 4.3865597368e+00 
5800 5.5435135964e+00 2.9199815382e-01 2.5267035538e+00 -4.3763789309e+00 2.5267035538e+00 4.3763789309e+00 
5900 5.5427925172e+00 2.8606535543e-01 2.5209275180e+00 -4.3663745434e+00 2.5209275180e+00 4.3663745434e+00 
6000 5.5421967905e+00 2.8005789990e-01 2.5152558396e+00 -4.3565509081e+00 2.5152558396e+00 4.3565509081e+00 
6100 5.5417127491e+00 2.7399117256e-01 2.5096907126e+00 -4.3469118256e+00 2.5096907126e+00 4.3469118256e+00 
6200 5.5413268787e+00 2.6787991431e-01 2.5042340316e+00 -4.3374605768e+00 2.5042340316e+00 4.3374605768e+00 
6300 5.5410259752e+00 2.6173821477e-01 2.4988873997e+00 -4.3281999387e+00 2.4988873997e+00 4.3281999387e+00 
6400 5.5407972840e+00 2.5557950997e-01 2.4936521378e+00 -4.3191321991e+00 2.4936521378e+00 4.3191321991e+00 
6500 5.5406286190e+00 2.4941658385e-01 2.4885292943e+00 -4.3102591739e+00 2.4885292943e+00 4.3102591739e+00 
6600 5.5405084635e+00 2.4326157280e-01 2.4835196546e+00 -4.3015822234e+00 2.4835196546e+00 4.3015822234e+00 
6700 5.5404260518e+00 2.3712597284e-01 2.4786237509e+00 -4.2931022694e+00 2.4786237509e+00 4.2931022694e+00 
6800 5.5403714328e+00 2.3102064881e-01 2.4738418723e+00 -4.2848198128e+00 2.4738418723e+00 4.2848198128e+00 
6900 5.5403355164e+00 2.2495584528e-01 2.4691740753e+00 -4.2767349511e+00 2.4691740753e+00 4.2767349511e+00 
7000 5.5403101039e+00 2.1894119879e-01 2.4646201932e+00 -4.2688473960e+00 2.4646201932e+00 4.2688473960e+00 
7100 5.5402879029e+00 2.1298575110e-01 2.4601798474e+00 -4.2611564915e+00 2.4601798474e+00 4.2611564915e+00 
7200 5.5402625293e+00 2.0709796326e-01 2.4558524568e+00 -4.2536612311e+00 2.4558524568e+00 4.2536612311e+00 
7300 5.5402284966e+00 2.0128573028e-01 2.4516372484e+00 -4.2463602759e+00 2.4516372484e+00 4.2463602759e+00 
7400 5.5401811943e+00 1.9555639620e-01 2.4475332672e+00 -4.2392519720e+00 2.4475332672e+00 4.2392519720e+00 
7500 5.5401168572e+00 1.8991676949e-01 2.4435393867e+00 -4.2323343680e+00 2.4435393867e+00 4.2323343680e+00 
7600 5.5400325265e+00 1.8437313870e-01 2.4396543183e+00 -4.2256052322e+00 2.4396543183e+00 4.2256052322e+00 
7700 5.5399260046e+00 1.7893128807e-01 2.4358766218e+00 -4.2190620700e+00 2.4358766218e+00 4.2190620700e+00 
7800 5.5397958037e+00 1.7359651333e-01 2.4322047147e+00 -4.2127021403e+00 2.4322047147e+00 4.2127021403e+00 
7900 5.5396410914e+00 1.6837363740e-01 2.4286368818e+00 -4.2065224725e+00 2.4286368818e+00 4.2065224725e+00 
8000 5.5394616327e+00 1.6326702597e-01 2.4251712850e+00 -4.2005198827e+00 2.4251712850e+00 4.2005198827e+00 
8100 5.5392577300e+00 1.5828060305e-01 2.4218059721e+00 -4.1946909897e+00 2.4218059721e+00 4.1946909897e+00 
8200 5.5390301628e+00 1.5341786630e-01 2.4185388862e+00 -4.1890322311e+00 2.4185388862e+00 4.1890322311e+00 
8300 5.5387801267e+00 1.4868190217e-01 2.4153678748e+00 -4.1835398781e+00 2.4153678748e+00 4.1835398781e+00 
8400 5.5385091732e+00 1.4407540080e-01 2.4122906979e+00 -4.1782100514e+00 2.4122906979e+00 4.1782100514e+00 
8500 5.5382191511e+00 1.3960067078e-01 2.4093050370e+00 -4.1730387351e+00 2.4093050370e+00 4.1730387351e+00 
8600 5.5379121500e+00 1.3525965344e-01 2.4064085035e+00 -4.1680217917e+00 2.4064085035e+00 4.1680217917e+00 
8700 5.5375904455e+00 1.3105393706e-01 2.4035986461e+00 -4.1631549760e+00 2.4035986461e+00 4.1631549760e+00 
8800 5.5372564482e+00 1.2698477059e-01 2.4008729594e+00 -4.1584339482e+00 2.4008729594e+00 4.1584339482e+00 
8900 5.5369126549e+00 1.2305307713e-01 2.3982288913e+00 -4.1538542879e+00 2.3982288913e+00 4.1538542879e+00 
9000 5.5365616042e+00 1.1925946710e-01 2.3956638502e+00 -4.1494115063e+00 2.3956638502e+00 4.1494115063e+00 
9100 5.5362058350e+00 1.1560425093e-01 2.3931752123e+00 -4.1451010592e+00 2.3931752123e+00 4.1451010592e+00 
9200 5.5358478492e+00 1.1208745154e-01 2.3907603288e+00 -4.1409183583e+00 2.3907603288e+00 4.1409183583e+00 
9300 5.5354900776e+00 1.0870881633e-01 2.3884165323e+00 -4.1368587836e+00 2.3884165323e+00 4.1368587836e+00 
9400 5.5351348505e+00 1.0546782892e-01 2.3861411432e+00 -4.1329176941e+00 2.3861411432e+00 4.1329176941e+00 
9500 5.5347843715e+00 1.0236372043e-01 2.3839314765e+00 -4.1290904391e+00 2.3839314765e+00 4.1290904391e+00 
9600 5.5344406953e+00 9.9395480466e-02 2.3817848473e+00 -4.1253723681e+00 2.3817848473e+00 4.1253723681e+00 
9700 5.5341057092e+00 9.6561867779e-02 2.3796985766e+00 -4.1217588414e+00 2.3796985766e+00 4.1217588414e+00 
9800 5.5337811180e+00 9.3861420539e-02 2.3776699976e+00 -4.1182452394e+00 2.3776699976e+00 4.1182452394e+00 
9900 5.5334684328e+00 9.1292466350e-02 2.3756964599e+00 -4.1148269720e+00 2.3756964599e+00 4.1148269720e+00 
10000 5.5331689623e+00 8.8853131955e-02 2.3737753359e+00 -4.1114994876e+00 2.3737753359e+00 4.1114994876e+00 
10100 5.5328838081e+00 8.6541352686e-02 2.3719040247e+00 -4.1082582815e+00 2.3719040247e+00 4.1082582815e+00 
10200 5.5326138619e+00 8.4354881668e-02 2.3700799574e+00 -4.1050989043e+00 2.3700799574e+00 4.1050989043e+00 
10300 5.5323598069e+00 8.2291298818e-02 2.3683006015e+00 -4.1020169694e+00 2.3683006015e+00 4.1020169694e+00 
10400 5.5321221198e+00 8.0348019658e-02 2.3665634650e+00 -4.0990081607e+00 2.3665634650e+00 4.0990081607e+00 
10500 5.5319010768e+00 7.8522303992e-02 2.3648661007e+00 -4.0960682394e+00 2.3648661007e+00 4.0960682394e+00 
10600 5.5316967606e+00 7.6811264447e-02 2.3632061101e+00 -4.0931930514e+00 2.3632061101e+00 4.0931930514e+00 
10700 5.5315090701e+00 7.5211874949e-02 2.3615811470e+00 -4.0903785327e+00 2.3615811470e+00 4.0903785327e+00 
10800 5.5313377307e+00 7.3720979134e-02 2.3599889210e+00 -4.0876207164e+00 2.3599889210e+00 4.0876207164e+00 
10900 5.5311823070e+00 7.2335298742e-02 2.3584272009e+00 -4.0849157379e+00 2.3584272009e+00 4.0849157379e+00 
11000 5.5310422163e+00 7.1051442022e-02 2.3568938177e+00 -4.0822598402e+00 2.3568938177e+00 4.0822598402e+00 
11100 5.5309167432e+00 6.9865912175e-02 2.3553866674e+00 -4.0796493794e+00 2.3553866674e+00 4.0796493794e+00 
11200 5.5308050547e+00 6.8775115860e-02 2.3539037139e+00 -4.0770808286e+00 2.3539037139e+00 4.0770808286e+00 
11300 5.5307062163e+00 6.7775371781e-02 2.3524429915e+00 -4.0745507832e+00 2.3524429915e+00 4.0745507832e+00 
11400 5.5306192079e+00 6.6862919393e-02 2.3510026070e+00 -4.0720559640e+00 2.3510026070e+00 4.0720559640e+00 
11500 5.5305429408e+00 6.6033927721e-02 2.3495807418e+00 -4.0695932213e+00 2.3495807418e+00 4.0695932213e+00 
11600 5.5304762739e+00 6.5284504314e-02 2.3481756541e+00 -4.0671595380e+00 2.3481756541e+00 4.0671595380e+00 
11700 5.5304180297e+00 6.4610704345e-02 2.3467856801e+00 -4.0647520325e+00 2.3467856801e+00 4.0647520325e+00 
11800 5.5303670108e+00 6.4008539854e-02 2.3454092361e+00 -4.0623679614e+00 2.3454092361e+00 4.0623679614e+00 
11900 5.5303220145e+00 6.3473989128e-02 2.3440448190e+00 -4.0600047217e+00 2.3440448190e+00 4.0600047217e+00 
12000 5.5302818486e+00 6.3003006221e-02 2.3426910079e+00 -4.0576598522e+00 2.3426910079e+00 4.0576598522e+00 
12100 5.5302453443e+00 6.2591530590e-02 2.3413464649e+00 -4.0553310354e+00 2.3413464649e+00 4.0553310354e+00 
12200 5.5302113701e+00 6.2235496841e-02 2.3400099355e+00 -4.0530160984e+00 2.3400099355e+00 4.0530160984e+00 
12300 5.5301788432e+00 6.1930844545e-02 2.3386802488e+00 -4.0507130136e+00 2.3386802488e+00 4.0507130136e+00 
12400 5.5301467408e+00 6.1673528119e-02 2.3373563184e+00 -4.0484198989e+00 2.3373563184e+00 4.0484198989e+00 
12500 5.5301141096e+00 6.1459526715e-02 2.3360371417e+00 -4.0461350177e+00 2.3360371417e+00 4.0461350177e+00 
12600 5.5300800744e+00 6.1284854100e-02 2.3347217997e+00 -4.0438567785e+00 2.3347217997e+00 4.0438567785e+00 
12700 5.5300438450e+00 6.1145568480e-02 2.3334094568e+00 -4.0415837341e+00 2.3334094568e+00 4.0415837341e+00 
12800 5.5300047221e+00 6.1037782220e-02 2.3320993601e+00 -4.0393145799e+00 2.3320993601e+00 4.0393145799e+00 
12900 5.5299621016e+00 6.0957671425e-02 2.3307908380e+00 -4.0370481532e+00 2.3307908380e+00 4.0370481532e+00 
13000 5.5299154778e+00 6.0901485322e-02 2.3294832996e+00 -4.0347834303e+00 2.3294832996e+00 4.0347834303e+00 
13100 5.5298644449e+00 6.0865555407e-02 2.3281762332e+00 -4.0325195249e+00 2.3281762332e+00 4.0325195249e+00 
13200 5.5298086973e+00 6.0846304298e-02 2.3268692047e+00 -4.0302556851e+00 2.3268692047e+00 4.0302556851e+00 
13300 5.5297480290e+00 6.0840254247e-02 2.3255618557e+00 -4.0279912901e+00 2.3255618557e+00 4.0279912901e+00 
13400 5.5296823310e+00 6.0844035270e-02 2.3242539019e+00 -4.0257258478e+00 2.3242539019e+00 4.0257258478e+00 
13500 5.5296115884e+00 6.0854392835e-02 2.3229451309e+00 -4.0234589899e+00 2.3229451309e+00 4.0234589899e+00 
13600 5.5295358758e+00 6.0868195082e-02 2.3216353998e+00 -4.0211904691e+00 2.3216353998e+00 4.0211904691e+00 
13700 5.5294553521e+00 6.0882439511e-02 2.3203246327e+00 -4.0189201540e+00 2.3203246327e+00 4.0189201540e+00 
13800 5.5293702542e+00 6.0894259126e-02 2.3190128185e+00 -4.0166480250e+00 2.3190128185e+00 4.0166480250e+00 
13900 5.5292808902e+00 6.0900927977e-02 2.3177000075e+00 -4.0143741697e+00 2.3177000075e+00 4.0143741697e+00 
14000 5.5291876321e+00 6.0899866093e-02 2.3163863092e+00 -4.0120987775e+00 2.3163863092e+00 4.0120987775e+00 
14100 5.5290909073e+00 6.0888643761e-02 2.3150718889e+00 -4.0098221348e+00 2.3150718889e+00 4.0098221348e+00 
14200 5.5289911904e+00 6.0864985148e-02 2.3137569648e+00 -4.0075446195e+00 2.3137569648e+00 4.0075446195e+00 
14300 5.5288889946e+00 6.0826771248e-02 2.3124418048e+00 -4.0052666954e+00 2.3124418048e+00 4.0052666954e+00 
14400 5.5287848631e+00 6.0772042137e-02 2.3111267230e+00 -4.0029889069e+00 2.3111267230e+00 4.0029889069e+00 
14500 5.5286793599e+00 6.0698998552e-02 2.3098120768e+00 -4.0007118730e+00 2.3098120768e+00 4.0007118730e+00 
14600 5.5285730615e+00 6.0606002773e-02 2.3084982634e+00 -3.9984362815e+00 2.3084982634e+00 3.9984362815e+00 
14700 5.5284665487e+00 6.0491578835e-02 2.3071857163e+00 -3.9961628831e+00 2.3071857163e+00 3.9961628831e+00 
14800 5.5283603977e+00 6.0354412082e-02 2.3058749019e+00 -3.9938924859e+00 2.3058749019e+00 3.9938924859e+00 
14900 5.5282551737e+00 6.0193348065e-02 2.3045663161e+00 -3.9916259490e+00 2.3045663161e+00 3.9916259490e+00 
15000 5.5281514225e+00 6.0007390824e-02 2.3032604813e+00 -3.9893641767e+00 2.3032604813e+00 3.9893641767e+00 
15100 5.5280496652e+00 5.9795700575e-02 2.3019579423e+00 -3.9871081130e+00 2.3019579423e+00 3.9871081130e+00 
15200 5.5279503914e+00 5.9557590824e-02 2.3006592636e+00 -3.9848587355e+00 2.3006592636e+00 3.9848587355e+00 
15300 5.5278540546e+00 5.9292524959e-02 2.2993650258e+00 -3.9826170499e+00 2.2993650258e+00 3.9826170499e+00 
15400 5.5277610675e+00 5.9000112333e-02 2.2980758225e+00 -3.9803840843e+00 2.2980758225e+00 3.9803840843e+00 
15500 5.5276717988e+00 5.8680103899e-02 2.2967922570e+00 -3.9781608836e+00 2.2967922570e+00 3.9781608836e+00 
15600 5.5275865695e+00 5.8332387421e-02 2.2955149395e+00 -3.9759485047e+00 2.2955149395e+00 3.9759485047e+00 
15700 5.5275056520e+00 5.7956982305e-02 2.2942444837e+00 -3.9737480108e+00 2.2942444837e+00 3.9737480108e+00 
15800 5.5274292676e+00 5.7554034101e-02 2.2929815045e+00 -3.9715604666e+00 2.2929815045e+00 3.9715604666e+00 
15900 5.5273575867e+00 5.7123808699e-02 2.2917266147e+00 -3.9693869338e+00 2.2917266147e+00 3.9693869338e+00 
16000 5.5272907287e+00 5.6666686287e-02 2.2904804227e+00 -3.9672284659e+00 2.2904804227e+00 3.9672284659e+00 
16100 5.5272287630e+00 5.6183155083e-02 2.2892435297e+00 -3.9650861044e+00 2.2892435297e+00 3.9650861044e+00 
16200 5.5271717101e+00 5.5673804903e-02 2.2880165276e+00 -3.9629608744e+00 2.2880165276e+00 3.9629608744e+00 
16300 5.5271195438e+00 5.5139320594e-02 2.2867999965e+00 -3.9608537806e+00 2.2867999965e+00 3.9608537806e+00 
16400 5.5270721938e+00 5.4580475379e-02 2.2855945025e+00 -3.9587658038e+00 2.2855945025e+00 3.9587658038e+00 
16500 5.5270295487e+00 5.3998124125e-02 2.2844005960e+00 -3.9566978971e+00 2.2844005960e+00 3.9566978971e+00 
16600 5.5269914590e+00 5.3393196609e-02 2.2832188097e+00 -3.9546509833e+00 2.2832188097e+00 3.9546509833e+00 
16700 5.5269577414e+00 5.2766690773e-02 2.2820496569e+00 -3.9526259511e+00 2.2820496569e+00 3.9526259511e+00 
16800 5.5269281819e+00 5.2119666024e-02 2.2808936296e+00 -3.9506236531e+00 2.2808936296e+00 3.9506236531e+00 
16900 5.5269025405e+00 5.1453236596e-02 2.2797511977e+00 -3.9486449030e+00 2.2797511977e+00 3.9486449030e+00 
17000 5.5268805552e+00 5.0768565004e-02 2.2786228072e+00 -3.9466904734e+00 2.2786228072e+00 3.9466904734e+00 
17100 5.5268619461e+00 5.0066855613e-02 2.2775088794e+00 -3.9447610939e+00 2.2775088794e+00 3.9447610939e+00 
17200 5.5268464196e+00 4.9349348337e-02 2.2764098096e+00 -3.9428574490e+00 2.2764098096e+00 3.9428574490e+00 
17300 5.5268336728e+00 4.8617312499e-02 2.2753259663e+00 -3.9409801774e+00 2.2753259663e+00 3.9409801774e+00 
17400 5.5268233973e+00 4.7872040857e-02 2.2742576906e+00 -3.9391298697e+00 2.2742576906e+00 3.9391298697e+00 
17500 5.5268152829e+00 4.7114843823e-02 2.2732052957e+00 -3.9373070682e+00 2.2732052957e+00 3.9373070682e+00 
17600 5.5268090214e+00 4.6347043877e-02 2.2721690659e+00 -3.9355122655e+00 2.2721690659e+00 3.9355122655e+00 
17700 5.5268043101e+00 4.5569970197e-02 2.2711492567e+00 -3.9337459042e+00 2.2711492567e+00 3.9337459042e+00 
17800 5.5268008547e+00 4.4784953506e-02 2.2701460947e+00 -3.9320083766e+00 2.2701460947e+00 3.9320083766e+00 
17900 5.5267983720e+00 4.3993321154e-02 2.2691597769e+00 -3.9303000241e+00 2.2691597769e+00 3.9303000241e+00 
18000 5.5267965926e+00 4.3196392434e-02 2.2681904713e+00 -3.9286211375e+00 2.2681904713e+00 3.9286211375e+00 
18100 5.5267952631e+00 4.2395474143e-02 2.2672383165e+00 -3.9269719570e+00 2.2672383165e+00 3.9269719570e+00 
18200 5.5267941476e+00 4.1591856380e-02 2.2663034223e+00 -3.9253526728e+00 2.2663034223e+00 3.9253526728e+00 
18300 5.5267930297e+00 4.0786808607e-02 2.2653858698e+00 -3.9237634252e+00 2.2653858698e+00 3.9237634252e+00 
18400 5.5267917131e+00 3.9981575946e-02 2.2644857117e+00 -3.9222043057e+00 2.2644857117e+00 3.9222043057e+00 
18500 5.5267900228e+00 3.9177375737e-02 2.2636029732e+00 -3.9206753577e+00 2.2636029732e+00 3.9206753577e+00 
18600 5.5267878055e+00 3.8375394339e-02 2.2627376518e+00 -3.9191765772e+00 2.2627376518e+00 3.9191765772e+00 
18700 5.5267849298e+00 3.7576784187e-02 2.2618897189e+00 -3.9177079142e+00 2.2618897189e+00 3.9177079142e+00 
18800 5.5267812862e+00 3.6782661086e-02 2.2610591195e+00 -3.9162692739e+00 2.2610591195e+00 3.9162692739e+00 
18900 5.5267767869e+00 3.5994101758e-02 2.2602457738e+00 -3.9148605178e+00 2.2602457738e+00 3.9148605178e+00 
19000 5.5267713650e+00 3.5212141622e-02 2.2594495775e+00 -3.9134814653e+00 2.2594495775e+00 3.9134814653e+00 
19100 5.5267649739e+00 3.4437772814e-02 2.2586704028e+00 -3.9121318952e+00 2.2586704028e+00 3.9121318952e+00 
19200 5.5267575864e+00 3.3671942435e-02 2.2579080996e+00 -3.9108115473e+00 2.2579080996e+00 3.9108115473e+00 
19300 5.5267491933e+00 3.2915551025e-02 2.2571624960e+00 -3.9095201240e+00 2.2571624960e+00 3.9095201240e+00 
19400 5.5267398026e+00 3.2169451255e-02 2.2564333996e+00 -3.9082572921e+00 2.2564333996e+00 3.9082572921e+00 
19500 5.5267294377e+00 3.1434446834e-02 2.2557205987e+00 -3.9070226846e+00 2.2557205987e+00 3.9070226846e+00 
19600 5.5267181362e+00 3.0711291621e-02 2.2550238628e+00 -3.9058159027e+00 2.2550238628e+00 3.9058159027e+00 
19700 5.5267059484e+00 3.0000688937e-02 2.2543429444e+00 -3.9046365174e+00 2.2543429444e+00 3.9046365174e+00 
19800 5.5266929354e+00 2.9303291070e-02 2.2536775795e+00 -3.9034840717e+00 2.2536775795e+00 3.9034840717e+00 
19900 5.5266791681e+00 2.8619698959e-02 2.2530274892e+00 -3.9023580821e+00 2.2530274892e+00 3.9023580821e+00 
20000 5.5266647251e+00 2.7950462067e-02 2.2523923803e+00 -3.9012580413e+00 2.2523923803e+00 3.9012580413e+00 
20100 5.5266496914e+00 2.7296078411e-02 2.2517719472e+00 -3.9001834196e+00 2.2517719472e+00 3.9001834196e+00 
20200 5.5266341568e+00 2.6656994759e-02 2.2511658722e+00 -3.8991336669e+00 2.2511658722e+00 3.8991336669e+00 
20300 5.5266182144e+00 2.6033606982e-02 2.2505738273e+00 -3.8981082150e+00 2.2505738273e+00 3.8981082150e+00 
20400 5.5266019594e+00 2.5426260550e-02 2.2499954749e+00 -3.8971064794e+00 2.2499954749e+00 3.8971064794e+00 
20500 5.5265854875e+00 2.4835251165e-02 2.2494304695e+00 -3.8961278612e+00 2.2494304695e+00 3.8961278612e+00 
20600 5.5265688939e+00 2.4260825522e-02 2.2488784578e+00 -3.8951717490e+00 2.2488784578e+00 3.8951717490e+00 
20700 5.5265522717e+00 2.3703182199e-02 2.2483390811e+00 -3.8942375211e+00 2.2483390811e+00 3.8942375211e+00 
20800 5.5265357118e+00 2.3162472649e-02 2.2478119752e+00 -3.8933245469e+00 2.2478119752e+00 3.8933245469e+00 
20900 5.5265193007e+00 2.2638802312e-02 2.2472967722e+00 -3.8924321892e+00 2.2472967722e+00 3.8924321892e+00 
21000 5.5265031209e+00 2.2132231815e-02 2.2467931014e+00 -3.8915598057e+00 2.2467931014e+00 3.8915598057e+00 
21100 5.5264872493e+00 2.1642778264e-02 2.2463005900e+00 -3.8907067510e+00 2.2463005900e+00 3.8907067510e+00 
21200 5.5264717571e+00 2.1170416624e-02 2.2458188645e+00 -3.8898723780e+00 2.2458188645e+00 3.8898723780e+00 
21300 5.5264567090e+00 2.0715081175e-02 2.2453475515e+00 -3.8890560398e+00 2.2453475515e+00 3.8890560398e+00 
21400 5.5264421631e+00 2.0276667026e-02 2.2448862783e+00 -3.8882570912e+00 2.2448862783e+00 3.8882570912e+00 
21500 5.5264281703e+00 1.9855031710e-02 2.2444346744e+00 -3.8874748904e+00 2.2444346744e+00 3.8874748904e+00 
21600 5.5264147746e+00 1.9449996813e-02 2.2439923720e+00 -3.8867088000e+00 2.2439923720e+00 3.8867088000e+00 
21700 5.5264020124e+00 1.9061349669e-02 2.2435590066e+00 -3.8859581892e+00 2.2435590066e+00 3.8859581892e+00 
21800 5.5263899131e+00 1.8688845083e-02 2.2431342184e+00 -3.8852224345e+00 2.2431342184e+00 3.8852224345e+00 
21900 5.5263784989e+00 1.8332207100e-02 2.2427176525e+00 -3.8845009211e+00 2.2427176525e+00 3.8845009211e+00 
22000 5.5263677849e+00 1.7991130798e-02 2.2423089597e+00 -3.8837930444e+00 2.2423089597e+00 3.8837930444e+00 
22100 5.5263577794e+00 1.7665284102e-02 2.2419077974e+00 -3.8830982110e+00 2.2419077974e+00 3.8830982110e+00 
22200 5.5263484846e+00 1.7354309621e-02 2.2415138301e+00 -3.8824158397e+00 2.2415138301e+00 3.8824158397e+00 
22300 5.5263398962e+00 1.7057826494e-02 2.2411267299e+00 -3.8817453624e+00 2.2411267299e+00 3.8817453624e+00 
22400 5.5263320045e+00 1.6775432240e-02 2.2407461771e+00 -3.8810862255e+00 2.2407461771e+00 3.8810862255e+00 
22500 5.5263247943e+00 1.6506704616e-02 2.2403718606e+00 -3.8804378904e+00 2.2403718606e+00 3.8804378904e+00 
22600 5.5263182460e+00 1.6251203462e-02 2.2400034786e+00 -3.8797998341e+00 2.2400034786e+00 3.8797998341e+00 
22700 5.5263123353e+00 1.6008472543e-02 2.2396407389e+00 -3.8791715504e+00 2.2396407389e+00 3.8791715504e+00 
22800 5.5263070345e+00 1.5778041377e-02 2.2392833591e+00 -3.8785525505e+00 2.2392833591e+00 3.8785525505e+00 
22900 5.5263023124e+00 1.5559427042e-02 2.2389310672e+00 -3.8779423630e+00 2.2389310672e+00 3.8779423630e+00 
23000 5.5262981353e+00 1.5352135963e-02 2.2385836017e+00 -3.8773405352e+00 2.2385836017e+00 3.8773405352e+00 
23100 5.5262944671e+00 1.5155665669e-02 2.2382407121e+00 -3.8767466328e+00 2.2382407121e+00 3.8767466328e+00 
23200 5.5262912703e+00 1.4969506525e-02 2.2379021586e+00 -3.8761602410e+00 2.2379021586e+00 3.8761602410e+00 
23300 5.5262885058e+00 1.4793143425e-02 2.2375677129e+00 -3.8755809641e+00 2.2375677129e+00 3.8755809641e+00 
23400 5.5262861343e+00 1.4626057443e-02 2.2372371580e+00 -3.8750084263e+00 2.2372371580e+00 3.8750084263e+00 
23500 5.5262841159e+00 1.4467727455e-02 2.2369102883e+00 -3.8744422713e+00 2.2369102883e+00 3.8744422713e+00 
23600 5.5262824110e+00 1.4317631701e-02 2.2365869097e+00 -3.8738821631e+00 2.2365869097e+00 3.8738821631e+00 
23700 5.5262809807e+00 1.4175249311e-02 2.2362668396e+00 -3.8733277855e+00 2.2362668396e+00 3.8733277855e+00 
23800 5.5262797868e+00 1.4040061773e-02 2.2359499071e+00 -3.8727788423e+00 2.2359499071e+00 3.8727788423e+00 
23900 5.5262787926e+00 1.3911554354e-02 2.2356359525e+00 -3.8722350570e+00 2.2356359525e+00 3.8722350570e+00 
24000 5.5262779630e+00 1.3789217457e-02 2.2353248278e+00 -3.8716961732e+00 2.2353248278e+00 3.8716961732e+00 
24100 5.5262772646e+00 1.3672547927e-02 2.2350163961e+00 -3.8711619539e+00 2.2350163961e+00 3.8711619539e+00 
24200 5.5262766662e+00 1.3561050295e-02 2.2347105318e+00 -3.8706321813e+00 2.2347105318e+00 3.8706321813e+00 
24300 5.5262761388e+00 1.3454237959e-02 2.2344071202e+00 -3.8701066569e+00 2.2344071202e+00 3.8701066569e+00 
24400 5.5262756559e+00 1.3351634304e-02 2.2341060574e+00 -3.8695852009e+00 2.2341060574e+00 3.8695852009e+00 
24500 5.5262751933e+00 1.3252773752e-02 2.2338072503e+00 -3.8690676518e+00 2.2338072503e+00 3.8690676518e+00 
24600 5.5262747296e+00 1.3157202754e-02 2.2335106159e+00 -3.8685538660e+00 2.2335106159e+00 3.8685538660e+00 
24700 5.5262742460e+00 1.3064480707e-02 2.2332160815e+00 -3.8680437175e+00 2.2332160815e+00 3.8680437175e+00 
24800 5.5262737262e+00 1.2974180812e-02 2.2329235842e+00 -3.8675370972e+00 2.2329235842e+00 3.8675370972e+00 
24900 5.5262731566e+00 1.2885890853e-02 2.2326330704e+00 -3.8670339127e+00 2.2326330704e+00 3.8670339127e+00 
25000 5.5262725263e+00 1.2799213918e-02 2.2323444961e+00 -3.8665340872e+00 2.2323444961e+00 3.8665340872e+00 
25100 5.5262718268e+00 1.2713769044e-02 2.2320578257e+00 -3.8660375596e+00 2.2320578257e+00 3.8660375596e+00 
25200 5.5262710518e+00 1.2629191799e-02 2.2317730325e+00 -3.8655442832e+00 2.2317730325e+00 3.8655442832e+00 
25300 5.5262701975e+00 1.2545134792e-02 2.2314900977e+00 -3.8650542258e+00 2.2314900977e+00 3.8650542258e+00 
25400 5.5262692622e+00 1.2461268114e-02 2.2312090104e+00 -3.8645673683e+00 2.2312090104e+00 3.8645673683e+00 
25500 5.5262682460e+00 1.2377279719e-02 2.2309297670e+00 -3.8640837045e+00 2.2309297670e+00 3.8640837045e+00 
25600 5.5262671511e+00 1.2292875730e-02 2.2306523709e+00 -3.8636032404e+00 2.2306523709e+00 3.8636032404e+00 
25700 5.5262659811e+00 1.2207780687e-02 2.2303768322e+00 -3.8631259933e+00 2.2303768322e+00 3.8631259933e+00 
25800 5.5262647411e+00 1.2121737725e-02 2.2301031670e+00 -3.8626519913e+00 2.2301031670e+00 3.8626519913e+00 
25900 5.5262634375e+00 1.2034508698e-02 2.2298313972e+00 -3.8621812723e+00 2.2298313972e+00 3.8621812723e+00 
26000 5.5262620777e+00 1.1945874230e-02 2.2295615502e+00 -3.8617138836e+00 2.2295615502e+00 3.8617138836e+00 
26100 5.5262606701e+00 1.1855633720e-02 2.2292936582e+00 -3.8612498810e+00 2.2292936582e+00 3.8612498810e+00 
26200 5.5262592236e+00 1.1763605277e-02 2.2290277579e+00 -3.8607893281e+00 2.2290277579e+00 3.8607893281e+00 
26300 5.5262577478e+00 1.1669625612e-02 2.2287638901e+00 -3.8603322957e+00 2.2287638901e+00 3.8603322957e+00 
26400 5.5262562525e+00 1.1573549865e-02 2.2285020993e+00 -3.8598788607e+00 2.2285020993e+00 3.8598788607e+00 
26500 5.5262547478e+00 1.1475251388e-02 2.2282424333e+00 -3.8594291060e+00 2.2282424333e+00 3.8594291060e+00 
26600 5.5262532436e+00 1.1374621479e-02 2.2279849427e+00 -3.8589831192e+00 2.2279849427e+00 3.8589831192e+00 
26700 5.5262517498e+00 1.1271569065e-02 2.2277296805e+00 -3.8585409922e+00 2.2277296805e+00 3.8585409922e+00 
26800 5.5262502760e+00 1.1166020344e-02 2.2274767020e+00 -3.8581028205e+00 2.2274767020e+00 3.8581028205e+00 
26900 5.5262488314e+00 1.1057918388e-02 2.2272260639e+00 -3.8576687026e+00 2.2272260639e+00 3.8576687026e+00 
27000 5.5262474247e+00 1.0947222700e-02 2.2269778243e+00 -3.8572387390e+00 2.2269778243e+00 3.8572387390e+00 
27100 5.5262460640e+00 1.0833908743e-02 2.2267320423e+00 -3.8568130321e+00 2.2267320423e+00 3.8568130321e+00 
27200 5.5262447565e+00 1.0717967427e-02 2.2264887775e+00 -3.8563916851e+00 2.2264887775e+00 3.8563916851e+00 
27300 5.5262435091e+00 1.0599404573e-02 2.2262480897e+00 -3.8559748015e+00 2.2262480897e+00 3.8559748015e+00 
27400 5.5262423274e+00 1.0478240344e-02 2.2260100386e+00 -3.8555624850e+00 2.2260100386e+00 3.8555624850e+00 
27500 5.5262412165e+00 1.0354508648e-02 2.2257746835e+00 -3.8551548380e+00 2.2257746835e+00 3.8551548380e+00 
27600 5.5262401805e+00 1.0228256526e-02 2.2255420829e+00 -3.8547519620e+00 2.2255420829e+00 3.8547519620e+00 
27700 5.5262392226e+00 1.0099543512e-02 2.2253122944e+00 -3.8543539566e+00 2.2253122944e+00 3.8543539566e+00 
27800 5.5262383451e+00 9.9684409804e-03 2.2250853741e+00 -3.8539609191e+00 2.2250853741e+00 3.8539609191e+00 
27900 5.5262375497e+00 9.8350314739e-03 2.2248613765e+00 -3.8535729440e+00 2.2248613765e+00 3.8535729440e+00 
28000 5.5262368367e+00 9.6994080246e-03 2.2246403545e+00 -3.8531901225e+00 2.2246403545e+00 3.8531901225e+00 
28100 5.5262362062e+00 9.5616734602e-03 2.2244223586e+00 -3.8528125425e+00 2.2244223586e+00 3.8528125425e+00 
28200 5.5262356572e+00 9.4219397052e-03 2.2242074372e+00 -3.8524402878e+00 2.2242074372e+00 3.8524402878e+00 
28300 5.5262351879e+00 9.2803270772e-03 2.2239956361e+00 -3.8520734375e+00 2.2239956361e+00 3.8520734375e+00 
28400 5.5262347960e+00 9.1369635793e-03 2.2237869985e+00 -3.8517120666e+00 2.2237869985e+00 3.8517120666e+00 
28500 5.5262344785e+00 8.9919841930e-03 2.2235815647e+00 -3.8513562448e+00 2.2235815647e+00 3.8513562448e+00 
28600 5.5262342320e+00 8.8455301731e-03 2.2233793718e+00 -3.8510060364e+00 2.2233793718e+00 3.8510060364e+00 
28700 5.5262340524e+00 8.6977483458e-03 2.2231804539e+00 -3.8506615005e+00 2.2231804539e+00 3.8506615005e+00 
28800 5.5262339353e+00 8.5487904134e-03 2.2229848418e+00 -3.8503226904e+00 2.2229848418e+00 3.8503226904e+00 
28900 5.5262338761e+00 8.3988122664e-03 2.2227925627e+00 -3.8499896533e+00 2.2227925627e+00 3.8499896533e+00 
29000 5.5262338696e+00 8.2479733060e-03 2.2226036406e+00 -3.8496624306e+00 2.2226036406e+00 3.8496624306e+00 
29100 5.5262339108e+00 8.0964357771e-03 2.2224180957e+00 -3.8493410573e+00 2.2224180957e+00 3.8493410573e+00 
29200 5.5262339942e+00 7.9443641159e-03 2.2222359444e+00 -3.8490255621e+00 2.2222359444e+00 3.8490255621e+00 
29300 5.5262341144e+00 7.7919243109e-03 2.2220571997e+00 -3.8487159672e+00 2.2220571997e+00 3.8487159672e+00 
29400 5.5262342661e+00 7.6392832807e-03 2.2218818707e+00 -3.8484122884e+00 2.2218818707e+00 3.8484122884e+00 
29500 5.5262344440e+00 7.4866082698e-03 2.2217099627e+00 -3.8481145351e+00 2.2217099627e+00 3.8481145351e+00 
29600 5.5262346428e+00 7.3340662621e-03 2.2215414773e+00 -3.8478227098e+00 2.2215414773e+00 3.8478227098e+00 
29700 5.5262348575e+00 7.1818234155e-03 2.2213764123e+00 -3.8475368088e+00 2.2213764123e+00 3.8475368088e+00 
29800 5.5262350833e+00 7.0300445173e-03 2.2212147617e+00 -3.8472568218e+00 2.2212147617e+00 3.8472568218e+00 
29900 5.5262353156e+00 6.8788924608e-03 2.2210565158e+00 -3.8469827319e+00 2.2210565158e+00 3.8469827319e+00 
30000 5.5262355502e+00 6.7285277462e-03 2.2209016613e+00 -3.8467145160e+00 2.2209016613e+00 3.8467145160e+00 
30100 5.5262357831e+00 6.5791080038e-03 2.2207501812e+00 -3.8464521447e+00 2.2207501812e+00 3.8464521447e+00 
30200 5.5262360107e+00 6.4307875425e-03 2.2206020547e+00 -3.8461955822e+00 2.2206020547e+00 3.8461955822e+00 
30300 5.5262362297e+00 6.2837169228e-03 2.2204572580e+00 -3.8459447869e+00 2.2204572580e+00 3.8459447869e+00 
30400 5.5262364374e+00 6.1380425551e-03 2.2203157635e+00 -3.8456997113e+00 2.2203157635e+00 3.8456997113e+00 
30500 5.5262366313e+00 5.9939063238e-03 2.2201775404e+00 -3.8454603018e+00 2.2201775404e+00 3.8454603018e+00 
30600 5.5262368093e+00 5.8514452380e-03 2.2200425547e+00 -3.8452264997e+00 2.2200425547e+00 3.8452264997e+00 
30700 5.5262369698e+00 5.7107911074e-03 2.2199107692e+00 -3.8449982405e+00 2.2199107692e+00 3.8449982405e+00 
30800 5.5262371114e+00 5.5720702456e-03 2.2197821439e+00 -3.8447754549e+00 2.2197821439e+00 3.8447754549e+00 
30900 5.5262372333e+00 5.4354031996e-03 2.2196566357e+00 -3.8445580683e+00 2.2196566357e+00 3.8445580683e+00 
31000 5.5262373350e+00 5.3009045055e-03 2.2195341988e+00 -3.8443460015e+00 2.2195341988e+00 3.8443460015e+00 
31100 5.5262374161e+00 5.1686824704e-03 2.2194147851e+00 -3.8441391709e+00 2.2194147851e+00 3.8441391709e+00 
31200 5.5262374769e+00 5.0388389809e-03 2.2192983437e+00 -3.8439374884e+00 2.2192983437e+00 3.8439374884e+00 
31300 5.5262375178e+00 4.9114693371e-03 2.2191848214e+00 -3.8437408621e+00 2.2191848214e+00 3.8437408621e+00 
31400 5.5262375395e+00 4.7866621126e-03 2.2190741630e+00 -3.8435491961e+00 2.2190741630e+00 3.8435491961e+00 
31500 5.5262375430e+00 4.6644990386e-03 2.2189663112e+00 -3.8433623913e+00 2.2189663112e+00 3.8433623913e+00 
31600 5.5262375294e+00 4.5450549141e-03 2.2188612068e+00 -3.8431803451e+00 2.2188612068e+00 3.8431803451e+00 
31700 5.5262375000e+00 4.4283975392e-03 2.2187587890e+00 -3.8430029522e+00 2.2187587890e+00 3.8430029522e+00 
31800 5.5262374565e+00 4.3145876727e-03 2.2186589952e+00 -3.8428301044e+00 2.2186589952e+00 3.8428301044e+00 
31900 5.5262374005e+00 4.2036790124e-03 2.2185617618e+00 -3.8426616912e+00 2.2185617618e+00 3.8426616912e+00 
32000 5.5262373338e+00 4.0957181979e-03 2.2184670236e+00 -3.8424975999e+00 2.2184670236e+00 3.8424975999e+00 
32100 5.5262372582e+00 3.9907448349e-03 2.2183747146e+00 -3.8423377160e+00 2.2183747146e+00 3.8423377160e+00 
32200 5.5262371755e+00 3.8887915405e-03 2.2182847677e+00 -3.8421819234e+00 2.2182847677e+00 3.8421819234e+00 
32300 5.5262370878e+00 3.7898840089e-03 2.2181971152e+00 -3.8420301047e+00 2.2181971152e+00 3.8420301047e+00 
32400 5.5262369969e+00 3.6940410961e-03 2.2181116886e+00 -3.8418821416e+00 2.2181116886e+00 3.8418821416e+00 
32500 5.5262369048e+00 3.6012749229e-03 2.2180284192e+00 -3.8417379147e+00 2.2180284192e+00 3.8417379147e+00 
32600 5.5262368131e+00 3.5115909960e-03 2.2179472378e+00 -3.8415973044e+00 2.2179472378e+00 3.8415973044e+00 
32700 5.5262367237e+00 3.4249883455e-03 2.2178680752e+00 -3.8414601907e+00 2.2178680752e+00 3.8414601907e+00 
32800 5.5262366383e+00 3.3414596779e-03 2.2177908621e+00 -3.8413264537e+00 2.2177908621e+00 3.8413264537e+00 
32900 5.5262365584e+00 3.2609915446e-03 2.2177155295e+00 -3.8411959738e+00 2.2177155295e+00 3.8411959738e+00 
33000 5.5262364855e+00 3.1835645235e-03 2.2176420085e+00 -3.8410686317e+00 2.2176420085e+00 3.8410686317e+00 
33100 5.5262364208e+00 3.1091534142e-03 2.2175702307e+00 -3.8409443089e+00 2.2175702307e+00 3.8409443089e+00 
33200 5.5262363656e+00 3.0377274446e-03 2.2175001284e+00 -3.8408228881e+00 2.2175001284e+00 3.8408228881e+00 
33300 5.5262363208e+00 2.9692504886e-03 2.2174316343e+00 -3.8407042529e+00 2.2174316343e+00 3.8407042529e+00 
33400 5.5262362874e+00 2.9036812940e-03 2.2173646822e+00 -3.8405882884e+00 2.2173646822e+00 3.8405882884e+00 
33500 5.5262362660e+00 2.8409737191e-03 2.2172992065e+00 -3.8404748813e+00 2.2172992065e+00 3.8404748813e+00 
33600 5.5262362573e+00 2.7810769774e-03 2.2172351430e+00 -3.8403639200e+00 2.2172351430e+00 3.8403639200e+00 
33700 5.5262362616e+00 2.7239358894e-03 2.2171724283e+00 -3.8402552950e+00 2.2171724283e+00 3.8402552950e+00 
33800 5.5262362792e+00 2.6694911402e-03 2.2171110005e+00 -3.8401488988e+00 2.2171110005e+00 3.8401488988e+00 
33900 5.5262363103e+00 2.6176795427e-03 2.2170507987e+00 -3.8400446264e+00 2.2170507987e+00 3.8400446264e+00 
34000 5.5262363548e+00 2.5684343042e-03 2.2169917638e+00 -3.8399423749e+00 2.2169917638e+00 3.8399423749e+00 
34100 5.5262364125e+00 2.5216852974e-03 2.2169338380e+00 -3.8398420444e+00 2.2169338380e+00 3.8398420444e+00 
34200 5.5262364832e+00 2.4773593324e-03 2.2168769649e+00 -3.8397435374e+00 2.2168769649e+00 3.8397435374e+00 
34300 5.5262365665e+00 2.4353804311e-03 2.2168210902e+00 -3.8396467595e+00 2.2168210902e+00 3.8396467595e+00 
34400 5.5262366618e+00 2.3956701019e-03 2.2167661608e+00 -3.8395516191e+00 2.2167661608e+00 3.8395516191e+00 
34500 5.5262367687e+00 2.3581476139e-03 2.2167121258e+00 -3.8394580277e+00 2.2167121258e+00 3.8394580277e+00 
34600 5.5262368864e+00 2.3227302706e-03 2.2166589358e+00 -3.8393658999e+00 2.2166589358e+00 3.8393658999e+00 
34700 5.5262370141e+00 2.2893336810e-03 2.2166065434e+00 -3.8392751536e+00 2.2166065434e+00 3.8392751536e+00 
34800 5.5262371511e+00 2.2578720287e-03 2.2165549031e+00 -3.8391857100e+00 2.2165549031e+00 3.8391857100e+00 
34900 5.5262372965e+00 2.2282583372e-03 2.2165039713e+00 -3.8390974935e+00 2.2165039713e+00 3.8390974935e+00 
35000 5.5262374494e+00 2.2004047315e-03 2.2164537063e+00 -3.8390104320e+00 2.2164537063e+00 3.8390104320e+00 
35100 5.5262376090e+00 2.1742226946e-03 2.2164040686e+00 -3.8389244569e+00 2.2164040686e+00 3.8389244569e+00 
35200 5.5262377742e+00 2.1496233193e-03 2.2163550203e+00 -3.8388395028e+00 2.2163550203e+00 3.8388395028e+00 
35300 5.5262379442e+00 2.1265175530e-03 2.2163065259e+00 -3.8387555081e+00 2.2163065259e+00 3.8387555081e+00 
35400 5.5262381180e+00 2.1048164373e-03 2.2162585518e+00 -3.8386724144e+00 2.2162585518e+00 3.8386724144e+00 
35500 5.5262382947e+00 2.0844313390e-03 2.2162110661e+00 -3.8385901668e+00 2.2162110661e+00 3.8385901668e+00 
35600 5.5262384734e+00 2.0652741754e-03 2.2161640394e+00 -3.8385087141e+00 2.2161640394e+00 3.8385087141e+00 
35700 5.5262386534e+00 2.0472576299e-03 2.2161174438e+00 -3.8384280083e+00 2.2161174438e+00 3.8384280083e+00 
35800 5.5262388337e+00 2.0302953603e-03 2.2160712538e+00 -3.8383480048e+00 2.2160712538e+00 3.8383480048e+00 
35900 5.5262390137e+00 2.0143021980e-03 2.2160254455e+00 -3.8382686625e+00 2.2160254455e+00 3.8382686625e+00 
36000 5.5262391925e+00 1.9991943380e-03 2.2159799972e+00 -3.8381899436e+00 2.2159799972e+00 3.8381899436e+00 
36100 5.5262393696e+00 1.9848895195e-03 2.2159348887e+00 -3.8381118135e+00 2.2159348887e+00 3.8381118135e+00 
36200 5.5262395444e+00 1.9713071972e-03 2.2158901021e+00 -3.8380342409e+00 2.2158901021e+00 3.8380342409e+00 
36300 5.5262397163e+00 1.9583687021e-03 2.2158456211e+00 -3.8379571975e+00 2.2158456211e+00 3.8379571975e+00 
36400 5.5262398848e+00 1.9459973925e-03 2.2158014312e+00 -3.8378806583e+00 2.2158014312e+00 3.8378806583e+00 
36500 5.5262400495e+00 1.9341187949e-03 2.2157575195e+00 -3.8378046010e+00 2.2157575195e+00 3.8378046010e+00 
36600 5.5262402101e+00 1.9226607345e-03 2.2157138750e+00 -3.8377290066e+00 2.2157138750e+00 3.8377290066e+00 
36700 5.5262403663e+00 1.9115534548e-03 2.2156704882e+00 -3.8376538584e+00 2.2156704882e+00 3.8376538584e+00 
36800 5.5262405180e+00 1.9007297273e-03 2.2156273512e+00 -3.8375791430e+00 2.2156273512e+00 3.8375791430e+00 
36900 5.5262406648e+00 1.8901249504e-03 2.2155844577e+00 -3.8375048491e+00 2.2155844577e+00 3.8375048491e+00 
37000 5.5262408067e+00 1.8796772378e-03 2.2155418026e+00 -3.8374309683e+00 2.2155418026e+00 3.8374309683e+00 
37100 5.5262409438e+00 1.8693274965e-03 2.2154993824e+00 -3.8373574945e+00 2.2154993824e+00 3.8373574945e+00 
37200 5.5262410759e+00 1.8590194945e-03 2.2154571951e+00 -3.8372844239e+00 2.2154571951e+00 3.8372844239e+00 
37300 5.5262412032e+00 1.8486999181e-03 2.2154152395e+00 -3.8372117548e+00 2.2154152395e+00 3.8372117548e+00 
37400 5.5262413257e+00 1.8383184191e-03 2.2153735161e+00 -3.8371394877e+00 2.2153735161e+00 3.8371394877e+00 
37500 5.5262414436e+00 1.8278276523e-03 2.2153320262e+00 -3.8370676250e+00 2.2153320262e+00 3.8370676250e+00 
37600 5.5262415571e+00 1.8171833027e-03 2.2152907723e+00 -3.8369961712e+00 2.2152907723e+00 3.8369961712e+00 
37700 5.5262416663e+00 1.8063441038e-03 2.2152497579e+00 -3.8369251321e+00 2.2152497579e+00 3.8369251321e+00 
37800 5.5262417716e+00 1.7952718459e-03 2.2152089873e+00 -3.8368545155e+00 2.2152089873e+00 3.8368545155e+00 
37900 5.5262418731e+00 1.7839313762e-03 2.2151684660e+00 -3.8367843304e+00 2.2151684660e+00 3.8367843304e+00 
38000 5.5262419711e+00 1.7722905889e-03 2.2151281998e+00 -3.8367145874e+00 2.2151281998e+00 3.8367145874e+00 
38100 5.5262420660e+00 1.7603204080e-03 2.2150881957e+00 -3.8366452982e+00 2.2150881957e+00 3.8366452982e+00 
38200 5.5262421579e+00 1.7479947612e-03 2.2150484610e+00 -3.8365764758e+00 2.2150484610e+00 3.8365764758e+00 
38300 5.5262422473e+00 1.7352905462e-03 2.2150090039e+00 -3.8365081340e+00 2.2150090039e+00 3.8365081340e+00 
38400 5.5262423344e+00 1.7221875895e-03 2.2149698328e+00 -3.8364402877e+00 2.2149698328e+00 3.8364402877e+00 
38500 5.5262424195e+00 1.7086685979e-03 2.2149309569e+00 -3.8363729525e+00 2.2149309569e+00 3.8363729525e+00 
38600 5.5262425028e+00 1.6947191031e-03 2.2148923854e+00 -3.8363061448e+00 2.2148923854e+00 3.8363061448e+00 
38700 5.5262425848e+00 1.6803274004e-03 2.2148541281e+00 -3.8362398812e+00 2.2148541281e+00 3.8362398812e+00 
38800 5.5262426655e+00 1.6654844809e-03 2.2148161951e+00 -3.8361741793e+00 2.2148161951e+00 3.8361741793e+00 
38900 5.5262427454e+00 1.6501839579e-03 2.2147785965e+00 -3.8361090566e+00 2.2147785965e+00 3.8361090566e+00 
39000 5.5262428246e+00 1.6344219885e-03 2.2147413427e+00 -3.8360445311e+00 2.2147413427e+00 3.8360445311e+00 
39100 5.5262429033e+00 1.6181971902e-03 2.2147044440e+00 -3.8359806208e+00 2.2147044440e+00 3.8359806208e+00 
39200 5.5262429817e+00 1.6015105528e-03 2.2146679111e+00 -3.8359173440e+00 2.2146679111e+00 3.8359173440e+00 
39300 5.5262430601e+00 1.5843653463e-03 2.2146317543e+00 -3.8358547185e+00 2.2146317543e+00 3.8358547185e+00 
39400 5.5262431385e+00 1.5667670255e-03 2.2145959840e+00 -3.8357927625e+00 2.2145959840e+00 3.8357927625e+00 
39500 5.5262432171e+00 1.5487231309e-03 2.2145606105e+00 -3.8357314937e+00 2.2145606105e+00 3.8357314937e+00 
39600 5.5262432960e+00 1.5302431865e-03 2.2145256437e+00 -3.8356709296e+00 2.2145256437e+00 3.8356709296e+00 
39700 5.5262433752e+00 1.5113385963e-03 2.2144910937e+00 -3.8356110872e+00 2.2144910937e+00 3.8356110872e+00 
39800 5.5262434550e+00 1.4920225372e-03 2.2144569699e+00 -3.8355519831e+00 2.2144569699e+00 3.8355519831e+00 
39900 5.5262435352e+00 1.4723098509e-03 2.2144232818e+00 -3.8354936335e+00 2.2144232818e+00 3.8354936335e+00 
40000 5.5262436159e+00 1.4522169351e-03 2.2143900382e+00 -3.8354360540e+00 2.2143900382e+00 3.8354360540e+00 
40100 5.5262436971e+00 1.4317616321e-03 2.2143572479e+00 -3.8353792594e+00 2.2143572479e+00 3.8353792594e+00 
40200 5.5262437789e+00 1.4109631186e-03 2.2143249189e+00 -3.8353232640e+00 2.2143249189e+00 3.8353232640e+00 
40300 5.5262438611e+00 1.3898417937e-03 2.2142930591e+00 -3.8352680811e+00 2.2142930591e+00 3.8352680811e+00 
40400 5.5262439438e+00 1.3684191682e-03 2.2142616757e+00 -3.8352137236e+00 2.2142616757e+00 3.8352137236e+00 
40500 5.5262440268e+00 1.3467177535e-03 2.2142307757e+00 -3.8351602031e+00 2.2142307757e+00 3.8351602031e+00 
40600 5.5262441101e+00 1.3247609511e-03 2.2142003652e+00 -3.8351075307e+00 2.2142003652e+00 3.8351075307e+00 
40700 5.5262441936e+00 1.3025729441e-03 2.2141704502e+00 -3.8350557163e+00 2.2141704502e+00 3.8350557163e+00 
40800 5.5262442773e+00 1.2801785890e-03 2.2141410358e+00 -3.8350047691e+00 2.2141410358e+00 3.8350047691e+00 
40900 5.5262443610e+00 1.2576033094e-03 2.2141121267e+00 -3.8349546971e+00 2.2141121267e+00 3.8349546971e+00 
41000 5.5262444446e+00 1.2348729918e-03 2.2140837270e+00 -3.8349055074e+00 2.2140837270e+00 3.8349055074e+00 
41100 5.5262445280e+00 1.2120138832e-03 2.2140558403e+00 -3.8348572062e+00 2.2140558403e+00 3.8348572062e+00 
41200 5.5262446112e+00 1.1890524910e-03 2.2140284695e+00 -3.8348097985e+00 2.2140284695e+00 3.8348097985e+00 
41300 5.5262446940e+00 1.1660154858e-03 2.2140016168e+00 -3.8347632884e+00 2.2140016168e+00 3.8347632884e+00 
41400 5.5262447763e+00 1.1429296066e-03 2.2139752841e+00 -3.8347176788e+00 2.2139752841e+00 3.8347176788e+00 
41500 5.5262448579e+00 1.1198215690e-03 2.2139494725e+00 -3.8346729717e+00 2.2139494725e+00 3.8346729717e+00 
41600 5.5262449389e+00 1.0967179768e-03 2.2139241824e+00 -3.8346291680e+00 2.2139241824e+00 3.8346291680e+00 
41700 5.5262450191e+00 1.0736452366e-03 2.2138994138e+00 -3.8345862675e+00 2.2138994138e+00 3.8345862675e+00 
41800 5.5262450984e+00 1.0506294757e-03 2.2138751660e+00 -3.8345442691e+00 2.2138751660e+00 3.8345442691e+00 
41900 5.5262451767e+00 1.0276964644e-03 2.2138514378e+00 -3.8345031706e+00 2.2138514378e+00 3.8345031706e+00 
42000 5.5262452540e+00 1.0048715408e-03 2.2138282272e+00 -3.8344629687e+00 2.2138282272e+00 3.8344629687e+00 
42100 5.5262453301e+00 9.8217953999e-04 2.2138055319e+00 -3.8344236593e+00 2.2138055319e+00 3.8344236593e+00 
42200 5.5262454051e+00 9.5964472764e-04 2.2137833489e+00 -3.8343852372e+00 2.2137833489e+00 3.8343852372e+00 
42300 5.5262454788e+00 9.3729073641e-04 2.2137616746e+00 -3.8343476963e+00 2.2137616746e+00 3.8343476963e+00 
42400 5.5262455513e+00 9.1514050722e-04 2.2137405050e+00 -3.8343110294e+00 2.2137405050e+00 3.8343110294e+00 
42500 5.5262456224e+00 8.9321623427e-04 2.2137198355e+00 -3.8342752288e+00 2.2137198355e+00 3.8342752288e+00 
42600 5.5262456923e+00 8.7153931415e-04 2.2136996609e+00 -3.8342402855e+00 2.2136996609e+00 3.8342402855e+00 
42700 5.5262457607e+00 8.5013029911e-04 2.2136799758e+00 -3.8342061899e+00 2.2136799758e+00 3.8342061899e+00 
42800 5.5262458278e+00 8.2900885442e-04 2.2136607741e+00 -3.8341729315e+00 2.2136607741e+00 3.8341729315e+00 
42900 5.5262458935e+00 8.0819371982e-04 2.2136420493e+00 -3.8341404992e+00 2.2136420493e+00 3.8341404992e+00 
43000 5.5262459579e+00 7.8770267511e-04 2.2136237945e+00 -3.8341088809e+00 2.2136237945e+00 3.8341088809e+00 
43100 5.5262460209e+00 7.6755250973e-04 2.2136060024e+00 -3.8340780640e+00 2.2136060024e+00 3.8340780640e+00 
43200 5.5262460826e+00 7.4775899639e-04 2.2135886652e+00 -3.8340480353e+00 2.2135886652e+00 3.8340480353e+00 
43300 5.5262461429e+00 7.2833686873e-04 2.2135717751e+00 -3.8340187806e+00 2.2135717751e+00 3.8340187806e+00 
43400 5.5262462020e+00 7.0929980275e-04 2.2135553235e+00 -3.8339902856e+00 2.2135553235e+00 3.8339902856e+00 
43500 5.5262462599e+00 6.9066040221e-04 2.2135393018e+00 -3.8339625352e+00 2.2135393018e+00 3.8339625352e+00 
43600 5.5262463165e+00 6.7243018774e-04 2.2135237010e+00 -3.8339355138e+00 2.2135237010e+00 3.8339355138e+00 
43700 5.5262463720e+00 6.5461958958e-04 2.2135085118e+00 -3.8339092055e+00 2.2135085118e+00 3.8339092055e+00 
43800 5.5262464264e+00 6.3723794393e-04 2.2134937249e+00 -3.8338835938e+00 2.2134937249e+00 3.8338835938e+00 
43900 5.5262464798e+00 6.2029349280e-04 2.2134793306e+00 -3.8338586620e+00 2.2134793306e+00 3.8338586620e+00 
44000 5.5262465321e+00 6.0379338715e-04 2.2134653188e+00 -3.8338343930e+00 2.2134653188e+00 3.8338343930e+00 
44100 5.5262465835e+00 5.8774369330e-04 2.2134516798e+00 -3.8338107694e+00 2.2134516798e+00 3.8338107694e+00 
44200 5.5262466340e+00 5.7214940250e-04 2.2134384031e+00 -3.8337877737e+00 2.2134384031e+00 3.8337877737e+00 
44300 5.5262466836e+00 5.5701444341e-04 2.2134254787e+00 -3.8337653879e+00 2.2134254787e+00 3.8337653879e+00 
44400 5.5262467324e+00 5.4234169751e-04 2.2134128961e+00 -3.8337435941e+00 2.2134128961e+00 3.8337435941e+00 
44500 5.5262467805e+00 5.2813301720e-04 2.2134006448e+00 -3.8337223744e+00 2.2134006448e+00 3.8337223744e+00 
44600 5.5262468278e+00 5.1438924643e-04 2.2133887145e+00 -3.8337017104e+00 2.2133887145e+00 3.8337017104e+00 
44700 5.5262468746e+00 5.0111024389e-04 2.2133770946e+00 -3.8336815841e+00 2.2133770946e+00 3.8336815841e+00 
44800 5.5262469207e+00 4.8829490834e-04 2.2133657745e+00 -3.8336619772e+00 2.2133657745e+00 3.8336619772e+00 
44900 5.5262469662e+00 4.7594120619e-04 2.2133547439e+00 -3.8336428717e+00 2.2133547439e+00 3.8336428717e+00 
45000 5.5262470112e+00 4.6404620102e-04 2.2133439924e+00 -3.8336242494e+00 2.2133439924e+00 3.8336242494e+00 
45100 5.5262470557e+00 4.5260608494e-04 2.2133335095e+00 -3.8336060925e+00 2.2133335095e+00 3.8336060925e+00 
45200 5.5262470998e+00 4.4161621163e-04 2.2133232849e+00 -3.8335883831e+00 2.2133232849e+00 3.8335883831e+00 
45300 5.5262471434e+00 4.3107113094e-04 2.2133133086e+00 -3.8335711036e+00 2.2133133086e+00 3.8335711036e+00 
45400 5.5262471866e+00 4.2096462486e-04 2.2133035705e+00 -3.8335542367e+00 2.2133035705e+00 3.8335542367e+00 
45500 5.5262472294e+00 4.1128974465e-04 2.2132940606e+00 -3.8335377651e+00 2.2132940606e+00 3.8335377651e+00 
45600 5.5262472718e+00 4.0203884917e-04 2.2132847693e+00 -3.8335216720e+00 2.2132847693e+00 3.8335216720e+00 
45700 5.5262473139e+00 3.9320364407e-04 2.2132756869e+00 -3.8335059408e+00 2.2132756869e+00 3.8335059408e+00 
45800 5.5262473557e+00 3.8477522173e-04 2.2132668040e+00 -3.8334905553e+00 2.2132668040e+00 3.8334905553e+00 
45900 5.5262473971e+00 3.7674410190e-04 2.2132581116e+00 -3.8334754995e+00 2.2132581116e+00 3.8334754995e+00 
46000 5.5262474382e+00 3.6910027282e-04 2.2132496005e+00 -3.8334607579e+00 2.2132496005e+00 3.8334607579e+00 
46100 5.5262474789e+00 3.6183323265e-04 2.2132412621e+00 -3.8334463154e+00 2.2132412621e+00 3.8334463154e+00 
46200 5.5262475194e+00 3.5493203122e-04 2.2132330878e+00 -3.8334321571e+00 2.2132330878e+00 3.8334321571e+00 
46300 5.5262475595e+00 3.4838531173e-04 2.2132250694e+00 -3.8334182688e+00 2.2132250694e+00 3.8334182688e+00 
46400 5.5262475993e+00 3.4218135257e-04 2.2132171989e+00 -3.8334046367e+00 2.2132171989e+00 3.8334046367e+00 
46500 5.5262476387e+00 3.3630810882e-04 2.2132094685e+00 -3.8333912472e+00 2.2132094685e+00 3.8333912472e+00 
46600 5.5262476778e+00 3.3075325358e-04 2.2132018707e+00 -3.8333780875e+00 2.2132018707e+00 3.8333780875e+00 
46700 5.5262477166e+00 3.2550421887e-04 2.2131943985e+00 -3.8333651452e+00 2.2131943985e+00 3.8333651452e+00 
46800 5.5262477550e+00 3.2054823597e-04 2.2131870447e+00 -3.8333524082e+00 2.2131870447e+00 3.8333524082e+00 
46900 5.5262477930e+00 3.1587237526e-04 2.2131798030e+00 -3.8333398650e+00 2.2131798030e+00 3.8333398650e+00 
47000 5.5262478306e+00 3.1146358521e-04 2.2131726668e+00 -3.8333275048e+00 2.2131726668e+00 3.8333275048e+00 
47100 5.5262478678e+00 3.0730873065e-04 2.2131656302e+00 -3.8333153171e+00 2.2131656302e+00 3.8333153171e+00 
47200 5.5262479047e+00 3.0339463013e-04 2.2131586875e+00 -3.8333032919e+00 2.2131586875e+00 3.8333032919e+00 
47300 5.5262479411e+00 2.9970809230e-04 2.2131518332e+00 -3.8332914199e+00 2.2131518332e+00 3.8332914199e+00 
47400 5.5262479770e+00 2.9623595117e-04 2.2131450621e+00 -3.8332796921e+00 2.2131450621e+00 3.8332796921e+00 
47500 5.5262480125e+00 2.9296510031e-04 2.2131383695e+00 -3.8332681001e+00 2.2131383695e+00 3.8332681001e+00 
47600 5.5262480476e+00 2.8988252584e-04 2.2131317507e+00 -3.8332566360e+00 2.2131317507e+00 3.8332566360e+00 
47700 5.5262480822e+00 2.8697533810e-04 2.2131252015e+00 -3.8332452926e+00 2.2131252015e+00 3.8332452926e+00 
47800 5.5262481164e+00 2.8423080208e-04 2.2131187181e+00 -3.8332340629e+00 2.2131187181e+00 3.8332340629e+00 
47900 5.5262481500e+00 2.8163636641e-04 2.2131122966e+00 -3.8332229405e+00 2.2131122966e+00 3.8332229405e+00 
48000 5.5262481832e+00 2.7917969100e-04 2.2131059337e+00 -3.8332119196e+00 2.2131059337e+00 3.8332119196e+00 
48100 5.5262482159e+00 2.7684867317e-04 2.2130996262e+00 -3.8332009949e+00 2.2130996262e+00 3.8332009949e+00 
48200 5.5262482481e+00 2.7463147236e-04 2.2130933715e+00 -3.8331901613e+00 2.2130933715e+00 3.8331901613e+00 
48300 5.5262482797e+00 2.7251653327e-04 2.2130871668e+00 -3.8331794144e+00 2.2130871668e+00 3.8331794144e+00 
48400 5.5262483109e+00 2.7049260748e-04 2.2130810099e+00 -3.8331687503e+00 2.2130810099e+00 3.8331687503e+00 
48500 5.5262483416e+00 2.6854877357e-04 2.2130748986e+00 -3.8331581654e+00 2.2130748986e+00 3.8331581654e+00 
48600 5.5262483718e+00 2.6667445559e-04 2.2130688313e+00 -3.8331476565e+00 2.2130688313e+00 3.8331476565e+00 
48700 5.5262484015e+00 2.6485944002e-04 2.2130628063e+00 -3.8331372209e+00 2.2130628063e+00 3.8331372209e+00 
48800 5.5262484307e+00 2.6309389117e-04 2.2130568223e+00 -3.8331268563e+00 2.2130568223e+00 3.8331268563e+00 
48900 5.5262484594e+00 2.6136836492e-04 2.2130508782e+00 -3.8331165608e+00 2.2130508782e+00 3.8331165608e+00 
49000 5.5262484876e+00 2.5967382104e-04 2.2130449730e+00 -3.8331063327e+00 2.2130449730e+00 3.8331063327e+00 
49100 5.5262485154e+00 2.5800163381e-04 2.2130391062e+00 -3.8330961710e+00 2.2130391062e+00 3.8330961710e+00 
49200 5.5262485427e+00 2.5634360124e-04 2.2130332770e+00 -3.8330860747e+00 2.2130332770e+00 3.8330860747e+00 
49300 5.5262485695e+00 2.5469195270e-04 2.2130274854e+00 -3.8330760432e+00 2.2130274854e+00 3.8330760432e+00 
49400 5.5262485959e+00 2.5303935503e-04 2.2130217310e+00 -3.8330660763e+00 2.2130217310e+00 3.8330660763e+00 
49500 5.5262486218e+00 2.5137891733e-04 2.2130160139e+00 -3.8330561741e+00 2.2130160139e+00 3.8330561741e+00 
49600 5.5262486474e+00 2.4970419414e-04 2.2130103344e+00 -3.8330463368e+00 2.2130103344e+00 3.8330463368e+00 
49700 5.5262486725e+00 2.4800918740e-04 2.2130046926e+00 -3.8330365651e+00 2.2130046926e+00 3.8330365651e+00 
49800 5.5262486972e+00 2.4628834688e-04 2.2129990892e+00 -3.8330268596e+00 2.2129990892e+00 3.8330268596e+00 
49900 5.5262487215e+00 2.4453656946e-04 2.2129935246e+00 -3.8330172215e+00 2.2129935246e+00 3.8330172215e+00 
50000 5.5262487454e+00 2.4274919703e-04 2.2129879996e+00 -3.8330076519e+00 2.2129879996e+00 3.8330076519e+00 
50100 5.5262487689e+00 2.4092201318e-04 2.2129825150e+00 -3.8329981522e+00 2.2129825150e+00 3.8329981522e+00 
50200 5.5262487921e+00 2.3905123879e-04 2.2129770716e+00 -3.8329887240e+00 2.2129770716e+00 3.8329887240e+00 
50300 5.5262488150e+00 2.3713352635e-04 2.2129716705e+00 -3.8329793689e+00 2.2129716705e+00 3.8329793689e+00 
50400 5.5262488375e+00 2.3516595334e-04 2.2129663127e+00 -3.8329700890e+00 2.2129663127e+00 3.8329700890e+00 
50500 5.5262488597e+00 2.3314601453e-04 2.2129609993e+00 -3.8329608859e+00 2.2129609993e+00 3.8329608859e+00 
50600 5.5262488815e+00 2.3107161328e-04 2.2129557316e+00 -3.8329517620e+00 2.2129557316e+00 3.8329517620e+00 
50700 5.5262489031e+00 2.2894105201e-04 2.2129505107e+00 -3.8329427191e+00 2.2129505107e+00 3.8329427191e+00 
50800 5.5262489244e+00 2.2675302176e-04 2.2129453379e+00 -3.8329337597e+00 2.2129453379e+00 3.8329337597e+00 
50900 5.5262489454e+00 2.2450659095e-04 2.2129402146e+00 -3.8329248858e+00 2.2129402146e+00 3.8329248858e+00 
51000 5.5262489661e+00 2.2220119343e-04 2.2129351420e+00 -3.8329160998e+00 2.2129351420e+00 3.8329160998e+00 
51100 5.5262489865e+00 2.1983661584e-04 2.2129301215e+00 -3.8329074040e+00 2.2129301215e+00 3.8329074040e+00 
51200 5.5262490067e+00 2.1741298434e-04 2.2129251544e+00 -3.8328988008e+00 2.2129251544e+00 3.8328988008e+00 
51300 5.5262490266e+00 2.1493075083e-04 2.2129202421e+00 -3.8328902924e+00 2.2129202421e+00 3.8328902924e+00 
51400 5.5262490463e+00 2.1239067858e-04 2.2129153858e+00 -3.8328818811e+00 2.2129153858e+00 3.8328818811e+00 
51500 5.5262490658e+00 2.0979382749e-04 2.2129105869e+00 -3.8328735691e+00 2.2129105869e+00 3.8328735691e+00 
51600 5.5262490850e+00 2.0714153893e-04 2.2129058467e+00 -3.8328653588e+00 2.2129058467e+00 3.8328653588e+00 
51700 5.5262491040e+00 2.0443542031e-04 2.2129011664e+00 -3.8328572523e+00 2.2129011664e+00 3.8328572523e+00 
51800 5.5262491228e+00 2.0167732925e-04 2.2128965472e+00 -3.8328492517e+00 2.2128965472e+00 3.8328492517e+00 
51900 5.5262491413e+00 1.9886935769e-04 2.2128919904e+00 -3.8328413590e+00 2.2128919904e+00 3.8328413590e+00 
52000 5.5262491596e+00 1.9601381572e-04 2.2128874969e+00 -3.8328335761e+00 2.2128874969e+00 3.8328335761e+00 
52100 5.5262491777e+00 1.9311321538e-04 2.2128830680e+00 -3.8328259050e+00 2.2128830680e+00 3.8328259050e+00 
52200 5.5262491956e+00 1.9017025435e-04 2.2128787046e+00 -3.8328183474e+00 2.2128787046e+00 3.8328183474e+00 
52300 5.5262492133e+00 1.8718779967e-04 2.2128744077e+00 -3.8328109050e+00 2.2128744077e+00 3.8328109050e+00 
52400 5.5262492308e+00 1.8416887148e-04 2.2128701782e+00 -3.8328035792e+00 2.2128701782e+00 3.8328035792e+00 
52500 5.5262492481e+00 1.8111662684e-04 2.2128660169e+00 -3.8327963716e+00 2.2128660169e+00 3.8327963716e+00 
52600 5.5262492652e+00 1.7803434375e-04 2.2128619246e+00 -3.8327892835e+00 2.2128619246e+00 3.8327892835e+00 
52700 5.5262492820e+00 1.7492540528e-04 2.2128579018e+00 -3.8327823159e+00 2.2128579018e+00 3.8327823159e+00 
52800 5.5262492987e+00 1.7179328392e-04 2.2128539494e+00 -3.8327754700e+00 2.2128539494e+00 3.8327754700e+00 
52900 5.5262493151e+00 1.6864152625e-04 2.2128500677e+00 -3.8327687467e+00 2.2128500677e+00 3.8327687467e+00 
53000 5.5262493314e+00 1.6547373787e-04 2.2128462571e+00 -3.8327621467e+00 2.2128462571e+00 3.8327621467e+00 
53100 5.5262493474e+00 1.6229356864e-04 2.2128425182e+00 -3.8327556707e+00 2.2128425182e+00 3.8327556707e+00 
53200 5.5262493633e+00 1.5910469832e-04 2.2128388511e+00 -3.8327493191e+00 2.2128388511e+00 3.8327493191e+00 
53300 5.5262493789e+00 1.5591082262e-04 2.2128352561e+00 -3.8327430923e+00 2.2128352561e+00 3.8327430923e+00 
53400 5.5262493944e+00 1.5271563966e-04 2.2128317332e+00 -3.8327369905e+00 2.2128317332e+00 3.8327369905e+00 
53500 5.5262494096e+00 1.4952283684e-04 2.2128282825e+00 -3.8327310138e+00 2.2128282825e+00 3.8327310138e+00 
53600 5.5262494246e+00 1.4633607825e-04 2.2128249040e+00 -3.8327251620e+00 2.2128249040e+00 3.8327251620e+00 
53700 5.5262494395e+00 1.4315899261e-04 2.2128215975e+00 -3.8327194349e+00 2.2128215975e+00 3.8327194349e+00 
53800 5.5262494541e+00 1.3999516159e-04 2.2128183627e+00 -3.8327138321e+00 2.2128183627e+00 3.8327138321e+00 
53900 5.5262494685e+00 1.3684810884e-04 2.2128151994e+00 -3.8327083532e+00 2.2128151994e+00 3.8327083532e+00 
54000 5.5262494828e+00 1.3372128946e-04 2.2128121072e+00 -3.8327029974e+00 2.2128121072e+00 3.8327029974e+00 
54100 5.5262494968e+00 1.3061808009e-04 2.2128090857e+00 -3.8326977639e+00 2.2128090857e+00 3.8326977639e+00 
54200 5.5262495106e+00 1.2754176952e-04 2.2128061343e+00 -3.8326926519e+00 2.2128061343e+00 3.8326926519e+00 
54300 5.5262495243e+00 1.2449555000e-04 2.2128032524e+00 -3.8326876603e+00 2.2128032524e+00 3.8326876603e+00 
54400 5.5262495377e+00 1.2148250905e-04 2.2128004393e+00 -3.8326827879e+00 2.2128004393e+00 3.8326827879e+00 
54500 5.5262495510e+00 1.1850562190e-04 2.2127976943e+00 -3.8326780335e+00 2.2127976943e+00 3.8326780335e+00 
54600 5.5262495641e+00 1.1556774453e-04 2.2127950166e+00 -3.8326733955e+00 2.2127950166e+00 3.8326733955e+00 
54700 5.5262495770e+00 1.1267160736e-04 2.2127924053e+00 -3.8326688725e+00 2.2127924053e+00 3.8326688725e+00 
54800 5.5262495897e+00 1.0981980946e-04 2.2127898593e+00 -3.8326644629e+00 2.2127898593e+00 3.8326644629e+00 
54900 5.5262496022e+00 1.0701481347e-04 2.2127873779e+00 -3.8326601648e+00 2.2127873779e+00 3.8326601648e+00 
55000 5.5262496145e+00 1.0425894103e-04 2.2127849598e+00 -3.8326559765e+00 2.2127849598e+00 3.8326559765e+00 
55100 5.5262496267e+00 1.0155436885e-04 2.2127826039e+00 -3.8326518961e+00 2.2127826039e+00 3.8326518961e+00 
55200 5.5262496386e+00 9.8903125350e-05 2.2127803092e+00 -3.8326479216e+00 2.2127803092e+00 3.8326479216e+00 
55300 5.5262496504e+00 9.6307087921e-05 2.2127780744e+00 -3.8326440507e+00 2.2127780744e+00 3.8326440507e+00 
55400 5.5262496621e+00 9.3767980664e-05 2.2127758982e+00 -3.8326402815e+00 2.2127758982e+00 3.8326402815e+00 
55500 5.5262496736e+00 9.1287372775e-05 2.2127737795e+00 -3.8326366117e+00 2.2127737795e+00 3.8326366117e+00 
55600 5.5262496849e+00 8.8866677435e-05 2.2127717167e+00 -3.8326330389e+00 2.2127717167e+00 3.8326330389e+00 
55700 5.5262496960e+00 8.6507151219e-05 2.2127697087e+00 -3.8326295609e+00 2.2127697087e+00 3.8326295609e+00 
55800 5.5262497070e+00 8.4209894050e-05 2.2127677540e+00 -3.8326261752e+00 2.2127677540e+00 3.8326261752e+00 
55900 5.5262497178e+00 8.1975849612e-05 2.2127658511e+00 -3.8326228794e+00 2.2127658511e+00 3.8326228794e+00 
56000 5.5262497285e+00 7.9805806281e-05 2.2127639988e+00 -3.8326196711e+00 2.2127639988e+00 3.8326196711e+00 
56100 5.5262497390e+00 7.7700398488e-05 2.2127621955e+00 -3.8326165477e+00 2.2127621955e+00 3.8326165477e+00 
56200 5.5262497494e+00 7.5660108550e-05 2.2127604398e+00 -3.8326135067e+00 2.2127604398e+00 3.8326135067e+00 
56300 5.5262497597e+00 7.3685268900e-05 2.2127587301e+00 -3.8326105455e+00 2.2127587301e+00 3.8326105455e+00 
56400 5.5262497698e+00 7.1776064726e-05 2.2127570651e+00 -3.8326076616e+00 2.2127570651e+00 3.8326076616e+00 
56500 5.5262497798e+00 6.9932537015e-05 2.2127554433e+00 -3.8326048524e+00 2.2127554433e+00 3.8326048524e+00 
56600 5.5262497897e+00 6.8893179114e-05 2.2127554433e+00 -3.8326048524e+00 2.2127554433e+00 3.8326048524e+00 
56700 5.5262497995e+00 6.7908871460e-05 2.2127554433e+00 -3.8326048524e+00 2.2127554433e+00 3.8326048524e+00 
56800 5.5262498091e+00 6.6979967233e-05 2.2127554433e+00 -3.8326048524e+00 2.2127554433e+00 3.8326048524e+00 
56900 5.5262498187e+00 6.6106680314e-05 2.2127554433e+00 -3.8326048524e+00 2.2127554433e+00 3.8326048524e+00 
57000 5.5262498281e+00 6.5289086728e-05 2.2127554433e+00 -3.8326048524e+00 2.2127554433e+00 3.8326048524e+00 
57100 5.5262498373e+00 6.4527126631e-05 2.2127554433e+00 -3.8326048524e+00 2.2127554433e+00 3.8326048524e+00 
57200 5.5262498465e+00 6.3820606837e-05 2.2127554433e+00 -3.8326048524e+00 2.2127554433e+00 3.8326048524e+00 
57300 5.5262498555e+00 6.3169203817e-05 2.2127554433e+00 -3.8326048524e+00 2.2127554433e+00 3.8326048524e+00 
57400 5.5262498644e+00 6.2572467145e-05 2.2127554433e+00 -3.8326048524e+00 2.2127554433e+00 3.8326048524e+00 
57500 5.5262498732e+00 6.2029823353e-05 2.2127554433e+00 -3.8326048524e+00 2.2127554433e+00 3.8326048524e+00 
57600 5.5262498819e+00 6.1540580151e-05 2.2127554433e+00 -3.8326048524e+00 2.2127554433e+00 3.8326048524e+00 
57700 5.5262498904e+00 6.1103930999e-05 2.2127554433e+00 -3.8326048524e+00 2.2127554433e+00 3.8326048524e+00 
57800 5.5262498989e+00 6.0718959960e-05 2.2127554433e+00 -3.8326048524e+00 2.2127554433e+00 3.8326048524e+00 
57900 5.5262499073e+00 6.0384646838e-05 2.2127554433e+00 -3.8326048524e+00 2.2127554433e+00 3.8326048524e+00 
58000 5.5262499155e+00 6.0099872549e-05 2.2127554433e+00 -3.8326048524e+00 2.2127554433e+00 3.8326048524e+00 
58100 5.5262499237e+00 5.9863424695e-05 2.2127554433e+00 -3.8326048524e+00 2.2127554433e+00 3.8326048524e+00 
58200 5.5262499317e+00 5.9674003313e-05 2.2127554433e+00 -3.8326048524e+00 2.2127554433e+00 3.8326048524e+00 
58300 5.5262499396e+00 5.9530226773e-05 2.2127554433e+00 -3.8326048524e+00 2.2127554433e+00 3.8326048524e+00 
58400 5.5262499475e+00 5.9430637788e-05 2.2127554433e+00 -3.8326048524e+00 2.2127554433e+00 3.8326048524e+00 
58500 5.5262499552e+00 5.9373709518e-05 2.2127554433e+00 -3.8326048524e+00 2.2127554433e+00 3.8326048524e+00 
58600 5.5262499629e+00 5.9357851733e-05 2.2127554433e+00 -3.8326048524e+00 2.2127554433e+00 3.8326048524e+00 
58700 5.5262499704e+00 5.9381417019e-05 2.2127554433e+00 -3.8326048524e+00 2.2127554433e+00 3.8326048524e+00 
58800 5.5262499779e+00 5.9442706991e-05 2.2127554433e+00 -3.8326048524e+00 2.2127554433e+00 3.8326048524e+00 
58900 5.5262499852e+00 5.9539978505e-05 2.2127554433e+00 -3.8326048524e+00 2.2127554433e+00 3.8326048524e+00 
59000 5.5262499925e+00 5.9671449836e-05 2.2127554433e+00 -3.8326048524e+00 2.2127554433e+00 3.8326048524e+00 
59100 5.5262499997e+00 5.9835306793e-05 2.2127554433e+00 -3.8326048524e+00 2.2127554433e+00 3.8326048524e+00 
59200 5.5262500068e+00 6.0029708781e-05 2.2127554433e+00 -3.8326048524e+00 2.2127554433e+00 3.8326048524e+00 
59300 5.5262500138e+00 6.0252794756e-05 2.2127554433e+00 -3.8326048524e+00 2.2127554433e+00 3.8326048524e+00 
59400 5.5262500207e+00 6.0502689079e-05 2.2127554433e+00 -3.8326048524e+00 2.2127554433e+00 3.8326048524e+00 
59500 5.5262500275e+00 6.0777507243e-05 2.2127554433e+00 -3.8326048524e+00 2.2127554433e+00 3.8326048524e+00 
59600 5.5262500342e+00 6.1075361464e-05 2.2127554433e+00 -3.8326048524e+00 2.2127554433e+00 3.8326048524e+00 
59700 5.5262500408e+00 6.1394366112e-05 2.2127554433e+00 -3.8326048524e+00 2.2127554433e+00 3.8326048524e+00 
59800 5.5262500474e+00 6.1732642979e-05 2.2127554433e+00 -3.8326048524e+00 2.2127554433e+00 3.8326048524e+00 
59900 5.5262500538e+00 6.2088326359e-05 2.2127554433e+00 -3.8326048524e+00 2.2127554433e+00 3.8326048524e+00 
60000 5.5262500602e+00 6.2459567953e-05 2.2127554433e+00 -3.8326048524e+00 2.2127554433e+00 3.8326048524e+00 
60100 5.5262500665e+00 6.2844541558e-05 2.2127554433e+00 -3.8326048524e+00 2.2127554433e+00 3.8326048524e+00 
60200 5.5262500727e+00 6.3241447558e-05 2.2127554433e+00 -3.8326048524e+00 2.2127554433e+00 3.8326048524e+00 
60300 5.5262500788e+00 6.3648517191e-05 2.2127554433e+00 -3.8326048524e+00 2.2127554433e+00 3.8326048524e+00 
60400 5.5262500848e+00 6.4064016599e-05 2.2127554433e+00 -3.8326048524e+00 2.2127554433e+00 3.8326048524e+00 
60500 5.5262500908e+00 6.4486250642e-05 2.2127554433e+00 -3.8326048524e+00 2.2127554433e+00 3.8326048524e+00 
60600 5.5262500967e+00 6.4913566478e-05 2.2127554433e+00 -3.8326048524e+00 2.2127554433e+00 3.8326048524e+00 
60700 5.5262501025e+00 6.5344356918e-05 2.2127554433e+00 -3.8326048524e+00 2.2127554433e+00 3.8326048524e+00 
60800 5.5262501082e+00 6.5777063522e-05 2.2127554433e+00 -3.8326048524e+00 2.2127554433e+00 3.8326048524e+00 
60900 5.5262501138e+00 6.6210179462e-05 2.2127554433e+00 -3.8326048524e+00 2.2127554433e+00 3.8326048524e+00 
61000 5.5262501194e+00 6.6642252145e-05 2.2127554433e+00 -3.8326048524e+00 2.2127554433e+00 3.8326048524e+00 
61100 5.5262501249e+00 6.7071885580e-05 2.2127554433e+00 -3.8326048524e+00 2.2127554433e+00 3.8326048524e+00 
61200 5.5262501303e+00 6.7497742511e-05 2.2127554433e+00 -3.8326048524e+00 2.2127554433e+00 3.8326048524e+00 
61300 5.5262501356e+00 6.7918546305e-05 2.2127554433e+00 -3.8326048524e+00 2.2127554433e+00 3.8326048524e+00 
61400 5.5262501409e+00 6.8333082598e-05 2.2127554433e+00 -3.8326048524e+00 2.2127554433e+00 3.8326048524e+00 
61500 5.5262501461e+00 6.8740200708e-05 2.2127554433e+00 -3.8326048524e+00 2.2127554433e+00 3.8326048524e+00 
61600 5.5262501512e+00 6.9138814807e-05 2.2127554433e+00 -3.8326048524e+00 2.2127554433e+00 3.8326048524e+00 
61700 5.5262501562e+00 6.9527904866e-05 2.2127554433e+00 -3.8326048524e+00 2.2127554433e+00 3.8326048524e+00 
61800 5.5262501612e+00 6.9906517374e-05 2.2127554433e+00 -3.8326048524e+00 2.2127554433e+00 3.8326048524e+00 
61900 5.5262501662e+00 7.0273765846e-05 2.2127554433e+00 -3.8326048524e+00 2.2127554433e+00 3.8326048524e+00 
62000 5.5262501710e+00 7.0628831092e-05 2.2127554433e+00 -3.8326048524e+00 2.2127554433e+00 3.8326048524e+00 
62100 5.5262501758e+00 7.0970961307e-05 2.2127554433e+00 -3.8326048524e+00 2.2127554433e+00 3.8326048524e+00 
62200 5.5262501804e+00 7.0549903658e-05 2.2127538396e+00 -3.8326020748e+00 2.2127538396e+00 3.8326020748e+00 
62300 5.5262501851e+00 7.0855562077e-05 2.2127538396e+00 -3.8326020748e+00 2.2127538396e+00 3.8326020748e+00 
62400 5.5262501896e+00 7.0397826646e-05 2.2127522385e+00 -3.8325993017e+00 2.2127522385e+00 3.8325993017e+00 
62500 5.5262501941e+00 7.0664325110e-05 2.2127522385e+00 -3.8325993017e+00 2.2127522385e+00 3.8325993017e+00 
62600 5.5262501986e+00 7.0914643350e-05 2.2127522385e+00 -3.8325993017e+00 2.2127522385e+00 3.8325993017e+00 
62700 5.5262502029e+00 7.0399465156e-05 2.2127506361e+00 -3.8325965262e+00 2.2127506361e+00 3.8325965262e+00 
62800 5.5262502073e+00 7.0607874519e-05 2.2127506361e+00 -3.8325965262e+00 2.2127506361e+00 3.8325965262e+00 
62900 5.5262502116e+00 7.0799042317e-05 2.2127506361e+00 -3.8325965262e+00 2.2127506361e+00 3.8325965262e+00 
63000 5.5262502157e+00 7.0225072918e-05 2.2127490363e+00 -3.8325937553e+00 2.2127490363e+00 3.8325937553e+00 
63100 5.5262502199e+00 7.0372828857e-05 2.2127490363e+00 -3.8325937553e+00 2.2127490363e+00 3.8325937553e+00 
63200 5.5262502241e+00 7.0502880422e-05 2.2127490363e+00 -3.8325937553e+00 2.2127490363e+00 3.8325937553e+00 
63300 5.5262502282e+00 7.0615285930e-05 2.2127490363e+00 -3.8325937553e+00 2.2127490363e+00 3.8325937553e+00 
63400 5.5262502322e+00 7.0710161965e-05 2.2127490363e+00 -3.8325937553e+00 2.2127490363e+00 3.8325937553e+00 
63500 5.5262502362e+00 7.0787680600e-05 2.2127490363e+00 -3.8325937553e+00 2.2127490363e+00 3.8325937553e+00 
63600 5.5262502400e+00 7.0100420153e-05 2.2127474368e+00 -3.8325909848e+00 2.2127474368e+00 3.8325909848e+00 
63700 5.5262502439e+00 7.0135355914e-05 2.2127474368e+00 -3.8325909848e+00 2.2127474368e+00 3.8325909848e+00 
63800 5.5262502477e+00 7.0153503136e-05 2.2127474368e+00 -3.8325909848e+00 2.2127474368e+00 3.8325909848e+00 
63900 5.5262502515e+00 7.0155235735e-05 2.2127474368e+00 -3.8325909848e+00 2.2127474368e+00 3.8325909848e+00 
64000 5.5262502553e+00 7.0140970985e-05 2.2127474368e+00 -3.8325909848e+00 2.2127474368e+00 3.8325909848e+00 
64100 5.5262502590e+00 7.0111166364e-05 2.2127474368e+00 -3.8325909848e+00 2.2127474368e+00 3.8325909848e+00 
64200 5.5262502626e+00 7.0066316419e-05 2.2127474368e+00 -3.8325909848e+00 2.2127474368e+00 3.8325909848e+00 
64300 5.5262502662e+00 7.0006949656e-05 2.2127474368e+00 -3.8325909848e+00 2.2127474368e+00 3.8325909848e+00 
64400 5.5262502698e+00 6.9933625451e-05 2.2127474368e+00 -3.8325909848e+00 2.2127474368e+00 3.8325909848e+00 
64500 5.5262502733e+00 6.9846931002e-05 2.2127474368e+00 -3.8325909848e+00 2.2127474368e+00 3.8325909848e+00 
64600 5.5262502767e+00 6.9747478319e-05 2.2127474368e+00 -3.8325909848e+00 2.2127474368e+00 3.8325909848e+00 
64700 5.5262502802e+00 6.9635901264e-05 2.2127474368e+00 -3.8325909848e+00 2.2127474368e+00 3.8325909848e+00 
64800 5.5262502836e+00 6.9512852646e-05 2.2127474368e+00 -3.8325909848e+00 2.2127474368e+00 3.8325909848e+00 
64900 5.5262502869e+00 6.9379001365e-05 2.2127474368e+00 -3.8325909848e+00 2.2127474368e+00 3.8325909848e+00 
65000 5.5262502902e+00 6.9235029638e-05 2.2127474368e+00 -3.8325909848e+00 2.2127474368e+00 3.8325909848e+00 
65100 5.5262502934e+00 6.9081630279e-05 2.2127474368e+00 -3.8325909848e+00 2.2127474368e+00 3.8325909848e+00 
65200 5.5262502966e+00 6.8919504058e-05 2.2127474368e+00 -3.8325909848e+00 2.2127474368e+00 3.8325909848e+00 
65300 5.5262502998e+00 6.8749357149e-05 2.2127474368e+00 -3.8325909848e+00 2.2127474368e+00 3.8325909848e+00 
65400 5.5262503029e+00 6.8571898641e-05 2.2127474368e+00 -3.8325909848e+00 2.2127474368e+00 3.8325909848e+00 
65500 5.5262503060e+00 6.8387838154e-05 2.2127474368e+00 -3.8325909848e+00 2.2127474368e+00 3.8325909848e+00 
65600 5.5262503091e+00 6.8197883538e-05 2.2127474368e+00 -3.8325909848e+00 2.2127474368e+00 3.8325909848e+00 
65700 5.5262503121e+00 6.8002738667e-05 2.2127474368e+00 -3.8325909848e+00 2.2127474368e+00 3.8325909848e+00 
65800 5.5262503151e+00 6.7803101324e-05 2.2127474368e+00 -3.8325909848e+00 2.2127474368e+00 3.8325909848e+00 
65900 5.5262503180e+00 6.7599661198e-05 2.2127474368e+00 -3.8325909848e+00 2.2127474368e+00 3.8325909848e+00 
66000 5.5262503209e+00 6.7393097964e-05 2.2127474368e+00 -3.8325909848e+00 2.2127474368e+00 3.8325909848e+00 
66100 5.5262503238e+00 6.7184079484e-05 2.2127474368e+00 -3.8325909848e+00 2.2127474368e+00 3.8325909848e+00 
66200 5.5262503266e+00 6.6973260102e-05 2.2127474368e+00 -3.8325909848e+00 2.2127474368e+00 3.8325909848e+00 
66300 5.5262503294e+00 6.6761279038e-05 2.2127474368e+00 -3.8325909848e+00 2.2127474368e+00 3.8325909848e+00 
66400 5.5262503321e+00 6.6548758909e-05 2.2127474368e+00 -3.8325909848e+00 2.2127474368e+00 3.8325909848e+00 
66500 5.5262503348e+00 6.6336304335e-05 2.2127474368e+00 -3.8325909848e+00 2.2127474368e+00 3.8325909848e+00 
66600 5.5262503375e+00 6.6124500667e-05 2.2127474368e+00 -3.8325909848e+00 2.2127474368e+00 3.8325909848e+00 
66700 5.5262503402e+00 6.5913912810e-05 2.2127474368e+00 -3.8325909848e+00 2.2127474368e+00 3.8325909848e+00 
66800 5.5262503428e+00 6.5705084164e-05 2.2127474368e+00 -3.8325909848e+00 2.2127474368e+00 3.8325909848e+00 
66900 5.5262503454e+00 6.5498535659e-05 2.2127474368e+00 -3.8325909848e+00 2.2127474368e+00 3.8325909848e+00 
67000 5.5262503479e+00 6.5294764904e-05 2.2127474368e+00 -3.8325909848e+00 2.2127474368e+00 3.8325909848e+00 
67100 5.5262503504e+00 6.5094245439e-05 2.2127474368e+00 -3.8325909848e+00 2.2127474368e+00 3.8325909848e+00 
67200 5.5262503529e+00 6.4897426078e-05 2.2127474368e+00 -3.8325909848e+00 2.2127474368e+00 3.8325909848e+00 
67300 5.5262503553e+00 6.4704730364e-05 2.2127474368e+00 -3.8325909848e+00 2.2127474368e+00 3.8325909848e+00 
67400 5.5262503578e+00 6.4516556118e-05 2.2127474368e+00 -3.8325909848e+00 2.2127474368e+00 3.8325909848e+00 
67500 5.5262503602e+00 6.4333275083e-05 2.2127474368e+00 -3.8325909848e+00 2.2127474368e+00 3.8325909848e+00 
67600 5.5262503625e+00 6.4155232660e-05 2.2127474368e+00 -3.8325909848e+00 2.2127474368e+00 3.8325909848e+00 
67700 5.5262503648e+00 6.3982747746e-05 2.2127474368e+00 -3.8325909848e+00 2.2127474368e+00 3.8325909848e+00 
67800 5.5262503671e+00 6.3816112632e-05 2.2127474368e+00 -3.8325909848e+00 2.2127474368e+00 3.8325909848e+00 
67900 5.5262503694e+00 6.3655593031e-05 2.2127474368e+00 -3.8325909848e+00 2.2127474368e+00 3.8325909848e+00 
68000 5.5262503716e+00 6.3501428143e-05 2.2127474368e+00 -3.8325909848e+00 2.2127474368e+00 3.8325909848e+00 
68100 5.5262503738e+00 6.3353830828e-05 2.2127474368e+00 -3.8325909848e+00 2.2127474368e+00 3.8325909848e+00 
68200 5.5262503760e+00 6.3212987842e-05 2.2127474368e+00 -3.8325909848e+00 2.2127474368e+00 3.8325909848e+00 
68300 5.5262503782e+00 6.3079060147e-05 2.2127474368e+00 -3.8325909848e+00 2.2127474368e+00 3.8325909848e+00 
68400 5.5262503803e+00 6.2952183296e-05 2.2127474368e+00 -3.8325909848e+00 2.2127474368e+00 3.8325909848e+00 
68500 5.5262503824e+00 6.2832467877e-05 2.2127474368e+00 -3.8325909848e+00 2.2127474368e+00 3.8325909848e+00 
68600 5.5262503845e+00 6.2720000012e-05 2.2127474368e+00 -3.8325909848e+00 2.2127474368e+00 3.8325909848e+00 
68700 5.5262503865e+00 6.2614841930e-05 2.2127474368e+00 -3.8325909848e+00 2.2127474368e+00 3.8325909848e+00 
68800 5.5262503886e+00 6.2517032585e-05 2.2127474368e+00 -3.8325909848e+00 2.2127474368e+00 3.8325909848e+00 
68900 5.5262503905e+00 6.2426588314e-05 2.2127474368e+00 -3.8325909848e+00 2.2127474368e+00 3.8325909848e+00 
69000 5.5262503925e+00 6.2343503563e-05 2.2127474368e+00 -3.8325909848e+00 2.2127474368e+00 3.8325909848e+00 
69100 5.5262503945e+00 6.2267751635e-05 2.2127474368e+00 -3.8325909848e+00 2.2127474368e+00 3.8325909848e+00 
69200 5.5262503964e+00 6.2199285492e-05 2.2127474368e+00 -3.8325909848e+00 2.2127474368e+00 3.8325909848e+00 
69300 5.5262503983e+00 6.2138038577e-05 2.2127474368e+00 -3.8325909848e+00 2.2127474368e+00 3.8325909848e+00 
69400 5.5262504002e+00 6.2083925681e-05 2.2127474368e+00 -3.8325909848e+00 2.2127474368e+00 3.8325909848e+00 
69500 5.5262504020e+00 6.2036843830e-05 2.2127474368e+00 -3.8325909848e+00 2.2127474368e+00 3.8325909848e+00 
69600 5.5262504038e+00 6.1996673196e-05 2.2127474368e+00 -3.8325909848e+00 2.2127474368e+00 3.8325909848e+00 
69700 5.5262504056e+00 6.1963278028e-05 2.2127474368e+00 -3.8325909848e+00 2.2127474368e+00 3.8325909848e+00 
69800 5.5262504074e+00 6.1936507602e-05 2.2127474368e+00 -3.8325909848e+00 2.2127474368e+00 3.8325909848e+00 
69900 5.5262504092e+00 6.1916197181e-05 2.2127474368e+00 -3.8325909848e+00 2.2127474368e+00 3.8325909848e+00 
70000 5.5262504109e+00 6.1902168985e-05 2.2127474368e+00 -3.8325909848e+00 2.2127474368e+00 3.8325909848e+00 
70100 5.5262504126e+00 6.1894233173e-05 2.2127474368e+00 -3.8325909848e+00 2.2127474368e+00 3.8325909848e+00 
70200 5.5262504143e+00 6.1892188812e-05 2.2127474368e+00 -3.8325909848e+00 2.2127474368e+00 3.8325909848e+00 
70300 5.5262504160e+00 6.1895824868e-05 2.2127474368e+00 -3.8325909848e+00 2.2127474368e+00 3.8325909848e+00 
70400 5.5262504177e+00 6.1904921180e-05 2.2127474368e+00 -3.8325909848e+00 2.2127474368e+00 3.8325909848e+00 
70500 5.5262504193e+00 6.1919249427e-05 2.2127474368e+00 -3.8325909848e+00 2.2127474368e+00 3.8325909848e+00 
70600 5.5262504209e+00 6.1938574095e-05 2.2127474368e+00 -3.8325909848e+00 2.2127474368e+00 3.8325909848e+00 
70700 5.5262504225e+00 6.1962653422e-05 2.2127474368e+00 -3.8325909848e+00 2.2127474368e+00 3.8325909848e+00 
70800 5.5262504241e+00 6.1991240345e-05 2.2127474368e+00 -3.8325909848e+00 2.2127474368e+00 3.8325909848e+00 
70900 5.5262504256e+00 6.2024083408e-05 2.2127474368e+00 -3.8325909848e+00 2.2127474368e+00 3.8325909848e+00 
71000 5.5262504272e+00 6.2060927674e-05 2.2127474368e+00 -3.8325909848e+00 2.2127474368e+00 3.8325909848e+00 
71100 5.5262504287e+00 6.2101515605e-05 2.2127474368e+00 -3.8325909848e+00 2.2127474368e+00 3.8325909848e+00 
71200 5.5262504302e+00 6.2145587918e-05 2.2127474368e+00 -3.8325909848e+00 2.2127474368e+00 3.8325909848e+00 
71300 5.5262504317e+00 6.2192884422e-05 2.2127474368e+00 -3.8325909848e+00 2.2127474368e+00 3.8325909848e+00 
71400 5.5262504331e+00 6.2243144827e-05 2.2127474368e+00 -3.8325909848e+00 2.2127474368e+00 3.8325909848e+00 
71500 5.5262504346e+00 6.2296109526e-05 2.2127474368e+00 -3.8325909848e+00 2.2127474368e+00 3.8325909848e+00 
71600 5.5262504360e+00 6.2351520341e-05 2.2127474368e+00 -3.8325909848e+00 2.2127474368e+00 3.8325909848e+00 
71700 5.5262504374e+00 6.2409121255e-05 2.2127474368e+00 -3.8325909848e+00 2.2127474368e+00 3.8325909848e+00 
71800 5.5262504388e+00 6.2468659092e-05 2.2127474368e+00 -3.8325909848e+00 2.2127474368e+00 3.8325909848e+00 
71900 5.5262504401e+00 6.2529884181e-05 2.2127474368e+00 -3.8325909848e+00 2.2127474368e+00 3.8325909848e+00 
72000 5.5262504415e+00 6.2592550977e-05 2.2127474368e+00 -3.8325909848e+00 2.2127474368e+00 3.8325909848e+00 
72100 5.5262504428e+00 6.2656418654e-05 2.2127474368e+00 -3.8325909848e+00 2.2127474368e+00 3.8325909848e+00 
72200 5.5262504441e+00 6.2721251658e-05 2.2127474368e+00 -3.8325909848e+00 2.2127474368e+00 3.8325909848e+00 
72300 5.5262504455e+00 6.2786820226e-05 2.2127474368e+00 -3.8325909848e+00 2.2127474368e+00 3.8325909848e+00 
72400 5.5262504467e+00 6.2852900875e-05 2.2127474368e+00 -3.8325909848e+00 2.2127474368e+00 3.8325909848e+00 
72500 5.5262504480e+00 6.2919276848e-05 2.2127474368e+00 -3.8325909848e+00 2.2127474368e+00 3.8325909848e+00 
72600 5.5262504493e+00 6.2985738525e-05 2.2127474368e+00 -3.8325909848e+00 2.2127474368e+00 3.8325909848e+00 
72700 5.5262504505e+00 6.3052083805e-05 2.2127474368e+00 -3.8325909848e+00 2.2127474368e+00 3.8325909848e+00 
72800 5.5262504517e+00 6.3118118441e-05 2.2127474368e+00 -3.8325909848e+00 2.2127474368e+00 3.8325909848e+00 
72900 5.5262504529e+00 6.3183656350e-05 2.2127474368e+00 -3.8325909848e+00 2.2127474368e+00 3.8325909848e+00 
73000 5.5262504541e+00 6.3248519883e-05 2.2127474368e+00 -3.8325909848e+00 2.2127474368e+00 3.8325909848e+00 
73100 5.5262504553e+00 6.3312540056e-05 2.2127474368e+00 -3.8325909848e+00 2.2127474368e+00 3.8325909848e+00 
73200 5.5262504565e+00 6.3375556755e-05 2.2127474368e+00 -3.8325909848e+00 2.2127474368e+00 3.8325909848e+00 
73300 5.5262504576e+00 6.3437418900e-05 2.2127474368e+00 -3.8325909848e+00 2.2127474368e+00 3.8325909848e+00 
73400 5.5262504588e+00 6.3497984582e-05 2.2127474368e+00 -3.8325909848e+00 2.2127474368e+00 3.8325909848e+00 
73500 5.5262504599e+00 6.3557121160e-05 2.2127474368e+00 -3.8325909848e+00 2.2127474368e+00 3.8325909848e+00 
73600 5.5262504610e+00 6.3614705334e-05 2.2127474368e+00 -3.8325909848e+00 2.2127474368e+00 3.8325909848e+00 
73700 5.5262504621e+00 6.3670623186e-05 2.2127474368e+00 -3.8325909848e+00 2.2127474368e+00 3.8325909848e+00 
73800 5.5262504632e+00 6.3724770182e-05 2.2127474368e+00 -3.8325909848e+00 2.2127474368e+00 3.8325909848e+00 
73900 5.5262504642e+00 6.3777051157e-05 2.2127474368e+00 -3.8325909848e+00 2.2127474368e+00 3.8325909848e+00 
74000 5.5262504653e+00 6.3827380273e-05 2.2127474368e+00 -3.8325909848e+00 2.2127474368e+00 3.8325909848e+00 
74100 5.5262504663e+00 6.3875680936e-05 2.2127474368e+00 -3.8325909848e+00 2.2127474368e+00 3.8325909848e+00 
74200 5.5262504674e+00 6.3921885698e-05 2.2127474368e+00 -3.8325909848e+00 2.2127474368e+00 3.8325909848e+00 
74300 5.5262504684e+00 6.3965936141e-05 2.2127474368e+00 -3.8325909848e+00 2.2127474368e+00 3.8325909848e+00 
74400 5.5262504694e+00 6.4007782724e-05 2.2127474368e+00 -3.8325909848e+00 2.2127474368e+00 3.8325909848e+00 
74500 5.5262504704e+00 6.4047384618e-05 2.2127474368e+00 -3.8325909848e+00 2.2127474368e+00 3.8325909848e+00 
74600 5.5262504713e+00 6.4084709511e-05 2.2127474368e+00 -3.8325909848e+00 2.2127474368e+00 3.8325909848e+00 
74700 5.5262504723e+00 6.4119733410e-05 2.2127474368e+00 -3.8325909848e+00 2.2127474368e+00 3.8325909848e+00 
74800 5.5262504733e+00 6.4152440410e-05 2.2127474368e+00 -3.8325909848e+00 2.2127474368e+00 3.8325909848e+00 
74900 5.5262504742e+00 6.4182822445e-05 2.2127474368e+00 -3.8325909848e+00 2.2127474368e+00 3.8325909848e+00 
75000 5.5262504751e+00 6.4210879042e-05 2.2127474368e+00 -3.8325909848e+00 2.2127474368e+00 3.8325909848e+00 
75100 5.5262504761e+00 6.4236617045e-05 2.2127474368e+00 -3.8325909848e+00 2.2127474368e+00 3.8325909848e+00 
75200 5.5262504770e+00 6.4260050324e-05 2.2127474368e+00 -3.8325909848e+00 2.2127474368e+00 3.8325909848e+00 
75300 5.5262504779e+00 6.4281199488e-05 2.2127474368e+00 -3.8325909848e+00 2.2127474368e+00 3.8325909848e+00 
75400 5.5262504787e+00 6.4300091577e-05 2.2127474368e+00 -3.8325909848e+00 2.2127474368e+00 3.8325909848e+00 
75500 5.5262504796e+00 6.4316759746e-05 2.2127474368e+00 -3.8325909848e+00 2.2127474368e+00 3.8325909848e+00 
75600 5.5262504805e+00 6.4331242937e-05 2.2127474368e+00 -3.8325909848e+00 2.2127474368e+00 3.8325909848e+00 
75700 5.5262504813e+00 6.4343585565e-05 2.2127474368e+00 -3.8325909848e+00 2.2127474368e+00 3.8325909848e+00 
75800 5.5262504822e+00 6.4353837172e-05 2.2127474368e+00 -3.8325909848e+00 2.2127474368e+00 3.8325909848e+00 
75900 5.5262504830e+00 6.4362052095e-05 2.2127474368e+00 -3.8325909848e+00 2.2127474368e+00 3.8325909848e+00 
76000 5.5262504838e+00 6.4368289127e-05 2.2127474368e+00 -3.8325909848e+00 2.2127474368e+00 3.8325909848e+00 
76100 5.5262504847e+00 6.4372611170e-05 2.2127474368e+00 -3.8325909848e+00 2.2127474368e+00 3.8325909848e+00 
76200 5.5262504855e+00 6.4375084902e-05 2.2127474368e+00 -3.8325909848e+00 2.2127474368e+00 3.8325909848e+00 
76300 5.5262504863e+00 6.4375780422e-05 2.2127474368e+00 -3.8325909848e+00 2.2127474368e+00 3.8325909848e+00 
76400 5.5262504870e+00 6.4374770928e-05 2.2127474368e+00 -3.8325909848e+00 2.2127474368e+00 3.8325909848e+00 
76500 5.5262504878e+00 6.4372132364e-05 2.2127474368e+00 -3.8325909848e+00 2.2127474368e+00 3.8325909848e+00 
76600 5.5262504886e+00 6.4367943096e-05 2.2127474368e+00 -3.8325909848e+00 2.2127474368e+00 3.8325909848e+00 
76700 5.5262504893e+00 6.4362283578e-05 2.2127474368e+00 -3.8325909848e+00 2.2127474368e+00 3.8325909848e+00 
76800 5.5262504901e+00 6.4355236028e-05 2.2127474368e+00 -3.8325909848e+00 2.2127474368e+00 3.8325909848e+00 
76900 5.5262504908e+00 6.4346884115e-05 2.2127474368e+00 -3.8325909848e+00 2.2127474368e+00 3.8325909848e+00 
77000 5.5262504915e+00 6.4337312643e-05 2.2127474368e+00 -3.8325909848e+00 2.2127474368e+00 3.8325909848e+00 
77100 5.5262504923e+00 6.4326607246e-05 2.2127474368e+00 -3.8325909848e+00 2.2127474368e+00 3.8325909848e+00 
77200 5.5262504930e+00 6.4314854100e-05 2.2127474368e+00 -3.8325909848e+00 2.2127474368e+00 3.8325909848e+00 
77300 5.5262504937e+00 6.4302139627e-05 2.2127474368e+00 -3.8325909848e+00 2.2127474368e+00 3.8325909848e+00 
77400 5.5262504944e+00 6.4288550228e-05 2.2127474368e+00 -3.8325909848e+00 2.2127474368e+00 3.8325909848e+00 
77500 5.5262504950e+00 6.4274172007e-05 2.2127474368e+00 -3.8325909848e+00 2.2127474368e+00 3.8325909848e+00 
77600 5.5262504957e+00 6.4259090516e-05 2.2127474368e+00 -3.8325909848e+00 2.2127474368e+00 3.8325909848e+00 
77700 5.5262504964e+00 6.4243390515e-05 2.2127474368e+00 -3.8325909848e+00 2.2127474368e+00 3.8325909848e+00 
77800 5.5262504970e+00 6.4227155728e-05 2.2127474368e+00 -3.8325909848e+00 2.2127474368e+00 3.8325909848e+00 
77900 5.5262504977e+00 6.4210468626e-05 2.2127474368e+00 -3.8325909848e+00 2.2127474368e+00 3.8325909848e+00 
78000 5.5262504983e+00 6.4193410209e-05 2.2127474368e+00 -3.8325909848e+00 2.2127474368e+00 3.8325909848e+00 
78100 5.5262504990e+00 6.4176059816e-05 2.2127474368e+00 -3.8325909848e+00 2.2127474368e+00 3.8325909848e+00 
78200 5.5262504996e+00 6.4158494929e-05 2.2127474368e+00 -3.8325909848e+00 2.2127474368e+00 3.8325909848e+00 
78300 5.5262505002e+00 6.4140790997e-05 2.2127474368e+00 -3.8325909848e+00 2.2127474368e+00 3.8325909848e+00 
78400 5.5262505008e+00 6.4123021281e-05 2.2127474368e+00 -3.8325909848e+00 2.2127474368e+00 3.8325909848e+00 
78500 5.5262505014e+00 6.4105256697e-05 2.2127474368e+00 -3.8325909848e+00 2.2127474368e+00 3.8325909848e+00 
78600 5.5262505020e+00 6.4087565679e-05 2.2127474368e+00 -3.8325909848e+00 2.2127474368e+00 3.8325909848e+00 
78700 5.5262505026e+00 6.4070014058e-05 2.2127474368e+00 -3.8325909848e+00 2.2127474368e+00 3.8325909848e+00 
78800 5.5262505032e+00 6.4052664940e-05 2.2127474368e+00 -3.8325909848e+00 2.2127474368e+00 3.8325909848e+00 
78900 5.5262505038e+00 6.4035578618e-05 2.2127474368e+00 -3.8325909848e+00 2.2127474368e+00 3.8325909848e+00 
79000 5.5262505044e+00 6.4018812471e-05 2.2127474368e+00 -3.8325909848e+00 2.2127474368e+00 3.8325909848e+00 
79100 5.5262505049e+00 6.4002420897e-05 2.2127474368e+00 -3.8325909848e+00 2.2127474368e+00 3.8325909848e+00 
79200 5.5262505055e+00 6.3986455247e-05 2.2127474368e+00 -3.8325909848e+00 2.2127474368e+00 3.8325909848e+00 
79300 5.5262505060e+00 6.3970963768e-05 2.2127474368e+00 -3.8325909848e+00 2.2127474368e+00 3.8325909848e+00 
79400 5.5262505066e+00 6.3955991562e-05 2.2127474368e+00 -3.8325909848e+00 2.2127474368e+00 3.8325909848e+00 
79500 5.5262505071e+00 6.3941580560e-05 2.2127474368e+00 -3.8325909848e+00 2.2127474368e+00 3.8325909848e+00 
79600 5.5262505076e+00 6.3927769501e-05 2.2127474368e+00 -3.8325909848e+00 2.2127474368e+00 3.8325909848e+00 
79700 5.5262505082e+00 6.3914593923e-05 2.2127474368e+00 -3.8325909848e+00 2.2127474368e+00 3.8325909848e+00 
79800 5.5262505087e+00 6.3902086161e-05 2.2127474368e+00 -3.8325909848e+00 2.2127474368e+00 3.8325909848e+00 
79900 5.5262505092e+00 6.3890275367e-05 2.2127474368e+00 -3.8325909848e+00 2.2127474368e+00 3.8325909848e+00 
80000 5.5262505097e+00 6.3879187517e-05 2.2127474368e+00 -3.8325909848e+00 2.2127474368e+00 3.8325909848e+00 
80100 5.5262505102e+00 6.3868845452e-05 2.2127474368e+00 -3.8325909848e+00 2.2127474368e+00 3.8325909848e+00 
80200 5.5262505107e+00 6.3859268914e-05 2.2127474368e+00 -3.8325909848e+00 2.2127474368e+00 3.8325909848e+00 
80300 5.5262505112e+00 6.3850474589e-05 2.2127474368e+00 -3.8325909848e+00 2.2127474368e+00 3.8325909848e+00 
80400 5.5262505116e+00 6.3842476160e-05 2.2127474368e+00 -3.8325909848e+00 2.2127474368e+00 3.8325909848e+00 
80500 5.5262505121e+00 6.3835284377e-05 2.2127474368e+00 -3.8325909848e+00 2.2127474368e+00 3.8325909848e+00 
80600 5.5262505126e+00 6.3828907117e-05 2.2127474368e+00 -3.8325909848e+00 2.2127474368e+00 3.8325909848e+00 
80700 5.5262505131e+00 6.3823349463e-05 2.2127474368e+00 -3.8325909848e+00 2.2127474368e+00 3.8325909848e+00 
80800 5.5262505135e+00 6.3818613782e-05 2.2127474368e+00 -3.8325909848e+00 2.2127474368e+00 3.8325909848e+00 
80900 5.5262505140e+00 6.3814699816e-05 2.2127474368e+00 -3.8325909848e+00 2.2127474368e+00 3.8325909848e+00 
81000 5.5262505144e+00 6.3811604766e-05 2.2127474368e+00 -3.8325909848e+00 2.2127474368e+00 3.8325909848e+00 
81100 5.5262505148e+00 6.3809323399e-05 2.2127474368e+00 -3.8325909848e+00 2.2127474368e+00 3.8325909848e+00 
81200 5.5262505153e+00 6.3807848137e-05 2.2127474368e+00 -3.8325909848e+00 2.2127474368e+00 3.8325909848e+00 
81300 5.5262505157e+00 6.3807169168e-05 2.2127474368e+00 -3.8325909848e+00 2.2127474368e+00 3.8325909848e+00 
81400 5.5262505161e+00 6.3807274551e-05 2.2127474368e+00 -3.8325909848e+00 2.2127474368e+00 3.8325909848e+00 
81500 5.5262505166e+00 6.3808150326e-05 2.2127474368e+00 -3.8325909848e+00 2.2127474368e+00 3.8325909848e+00 
81600 5.5262505170e+00 6.3809780627e-05 2.2127474368e+00 -3.8325909848e+00 2.2127474368e+00 3.8325909848e+00 
81700 5.5262505174e+00 6.3812147797e-05 2.2127474368e+00 -3.8325909848e+00 2.2127474368e+00 3.8325909848e+00 
81800 5.5262505178e+00 6.3815232501e-05 2.2127474368e+00 -3.8325909848e+00 2.2127474368e+00 3.8325909848e+00 
81900 5.5262505182e+00 6.3819013848e-05 2.2127474368e+00 -3.8325909848e+00 2.2127474368e+00 3.8325909848e+00 
82000 5.5262505186e+00 6.3823469500e-05 2.2127474368e+00 -3.8325909848e+00 2.2127474368e+00 3.8325909848e+00 
82100 5.5262505190e+00 6.3828575801e-05 2.2127474368e+00 -3.8325909848e+00 2.2127474368e+00 3.8325909848e+00 
82200 5.5262505194e+00 6.3834307888e-05 2.2127474368e+00 -3.8325909848e+00 2.2127474368e+00 3.8325909848e+00 
82300 5.5262505197e+00 6.3840639813e-05 2.2127474368e+00 -3.8325909848e+00 2.2127474368e+00 3.8325909848e+00 
82400 5.5262505201e+00 6.3847544650e-05 2.2127474368e+00 -3.8325909848e+00 2.2127474368e+00 3.8325909848e+00 
82500 5.5262505205e+00 6.3854994628e-05 2.2127474368e+00 -3.8325909848e+00 2.2127474368e+00 3.8325909848e+00 
82600 5.5262505209e+00 6.3862961228e-05 2.2127474368e+00 -3.8325909848e+00 2.2127474368e+00 3.8325909848e+00 
82700 5.5262505212e+00 6.3871415308e-05 2.2127474368e+00 -3.8325909848e+00 2.2127474368e+00 3.8325909848e+00 
82800 5.5262505216e+00 6.3880327206e-05 2.2127474368e+00 -3.8325909848e+00 2.2127474368e+00 3.8325909848e+00 
82900 5.5262505219e+00 6.3889666853e-05 2.2127474368e+00 -3.8325909848e+00 2.2127474368e+00 3.8325909848e+00 
83000 5.5262505223e+00 6.3899403879e-05 2.2127474368e+00 -3.8325909848e+00 2.2127474368e+00 3.8325909848e+00 
83100 5.5262505226e+00 6.3909507713e-05 2.2127474368e+00 -3.8325909848e+00 2.2127474368e+00 3.8325909848e+00 
83200 5.5262505230e+00 6.3919947684e-05 2.2127474368e+00 -3.8325909848e+00 2.2127474368e+00 3.8325909848e+00 
83300 5.5262505233e+00 6.3930693121e-05 2.2127474368e+00 -3.8325909848e+00 2.2127474368e+00 3.8325909848e+00 
83400 5.5262505236e+00 6.3941713445e-05 2.2127474368e+00 -3.8325909848e+00 2.2127474368e+00 3.8325909848e+00 
83500 5.5262505240e+00 6.3952978258e-05 2.2127474368e+00 -3.8325909848e+00 2.2127474368e+00 3.8325909848e+00 
83600 5.5262505243e+00 6.3964457433e-05 2.2127474368e+00 -3.8325909848e+00 2.2127474368e+00 3.8325909848e+00 
83700 5.5262505246e+00 6.3976121190e-05 2.2127474368e+00 -3.8325909848e+00 2.2127474368e+00 3.8325909848e+00 
83800 5.5262505249e+00 6.3987940184e-05 2.2127474368e+00 -3.8325909848e+00 2.2127474368e+00 3.8325909848e+00 
83900 5.5262505252e+00 6.3999885573e-05 2.2127474368e+00 -3.8325909848e+00 2.2127474368e+00 3.8325909848e+00 
84000 5.5262505256e+00 6.4011929089e-05 2.2127474368e+00 -3.8325909848e+00 2.2127474368e+00 3.8325909848e+00 
84100 5.5262505259e+00 6.4024043106e-05 2.2127474368e+00 -3.8325909848e+00 2.2127474368e+00 3.8325909848e+00 
84200 5.5262505262e+00 6.4036200705e-05 2.2127474368e+00 -3.8325909848e+00 2.2127474368e+00 3.8325909848e+00 
84300 5.5262505265e+00 6.4048375725e-05 2.2127474368e+00 -3.8325909848e+00 2.2127474368e+00 3.8325909848e+00 
84400 5.5262505268e+00 6.4060542823e-05 2.2127474368e+00 -3.8325909848e+00 2.2127474368e+00 3.8325909848e+00 
84500 5.5262505271e+00 6.4072677520e-05 2.2127474368e+00 -3.8325909848e+00 2.2127474368e+00 3.8325909848e+00 
84600 5.5262505273e+00 6.4084756243e-05 2.2127474368e+00 -3.8325909848e+00 2.2127474368e+00 3.8325909848e+00 
84700 5.5262505276e+00 6.4096756373e-05 2.2127474368e+00 -3.8325909848e+00 2.2127474368e+00 3.8325909848e+00 
84800 5.5262505279e+00 6.4108656275e-05 2.2127474368e+00 -3.8325909848e+00 2.2127474368e+00 3.8325909848e+00 
84900 5.5262505282e+00 6.4120435329e-05 2.2127474368e+00 -3.8325909848e+00 2.2127474368e+00 3.8325909848e+00 
85000 5.5262505285e+00 6.4132073965e-05 2.2127474368e+00 -3.8325909848e+00 2.2127474368e+00 3.8325909848e+00 
85100 5.5262505287e+00 6.4143553678e-05 2.2127474368e+00 -3.8325909848e+00 2.2127474368e+00 3.8325909848e+00 
85200 5.5262505290e+00 6.4154857053e-05 2.2127474368e+00 -3.8325909848e+00 2.2127474368e+00 3.8325909848e+00 
85300 5.5262505293e+00 6.4165967778e-05 2.2127474368e+00 -3.8325909848e+00 2.2127474368e+00 3.8325909848e+00 
85400 5.5262505295e+00 6.4176870657e-05 2.2127474368e+00 -3.8325909848e+00 2.2127474368e+00 3.8325909848e+00 
85500 5.5262505298e+00 6.4187551616e-05 2.2127474368e+00 -3.8325909848e+00 2.2127474368e+00 3.8325909848e+00 
85600 5.5262505300e+00 6.4197997709e-05 2.2127474368e+00 -3.8325909848e+00 2.2127474368e+00 3.8325909848e+00 
85700 5.5262505303e+00 6.4208197114e-05 2.2127474368e+00 -3.8325909848e+00 2.2127474368e+00 3.8325909848e+00 
85800 5.5262505305e+00 6.4218139138e-05 2.2127474368e+00 -3.8325909848e+00 2.2127474368e+00 3.8325909848e+00 
85900 5.5262505308e+00 6.4227814202e-05 2.2127474368e+00 -3.8325909848e+00 2.2127474368e+00 3.8325909848e+00 
86000 5.5262505310e+00 6.4237213838e-05 2.2127474368e+00 -3.8325909848e+00 2.2127474368e+00 3.8325909848e+00 
86100 5.5262505313e+00 6.4246330671e-05 2.2127474368e+00 -3.8325909848e+00 2.2127474368e+00 3.8325909848e+00 
86200 5.5262505315e+00 6.4255158410e-05 2.2127474368e+00 -3.8325909848e+00 2.2127474368e+00 3.8325909848e+00 
86300 5.5262505317e+00 6.4263691824e-05 2.2127474368e+00 -3.8325909848e+00 2.2127474368e+00 3.8325909848e+00 
86400 5.5262505320e+00 6.4271926719e-05 2.2127474368e+00 -3.8325909848e+00 2.2127474368e+00 3.8325909848e+00 
86500 5.5262505322e+00 6.4279859924e-05 2.2127474368e+00 -3.8325909848e+00 2.2127474368e+00 3.8325909848e+00 
86600 5.5262505324e+00 6.4287489259e-05 2.2127474368e+00 -3.8325909848e+00 2.2127474368e+00 3.8325909848e+00 
86700 5.5262505327e+00 6.4294813509e-05 2.2127474368e+00 -3.8325909848e+00 2.2127474368e+00 3.8325909848e+00 
86800 5.5262505329e+00 6.4301832388e-05 2.2127474368e+00 -3.8325909848e+00 2.2127474368e+00 3.8325909848e+00 
86900 5.5262505331e+00 6.4308546519e-05 2.2127474368e+00 -3.8325909848e+00 2.2127474368e+00 3.8325909848e+00 
87000 5.5262505333e+00 6.4314957390e-05 2.2127474368e+00 -3.8325909848e+00 2.2127474368e+00 3.8325909848e+00 
87100 5.5262505335e+00 6.4321067328e-05 2.2127474368e+00 -3.8325909848e+00 2.2127474368e+00 3.8325909848e+00 
87200 5.5262505337e+00 6.4326879455e-05 2.2127474368e+00 -3.8325909848e+00 2.2127474368e+00 3.8325909848e+00 
87300 5.5262505339e+00 6.4332397654e-05 2.2127474368e+00 -3.8325909848e+00 2.2127474368e+00 3.8325909848e+00 
87400 5.5262505342e+00 6.4337626536e-05 2.2127474368e+00 -3.8325909848e+00 2.2127474368e+00 3.8325909848e+00 
87500 5.5262505344e+00 6.4342571388e-05 2.2127474368e+00 -3.8325909848e+00 2.2127474368e+00 3.8325909848e+00 
87600 5.5262505346e+00 6.4347238148e-05 2.2127474368e+00 -3.8325909848e+00 2.2127474368e+00 3.8325909848e+00 
87700 5.5262505348e+00 6.4351633354e-05 2.2127474368e+00 -3.8325909848e+00 2.2127474368e+00 3.8325909848e+00 
87800 5.5262505350e+00 6.4355764105e-05 2.2127474368e+00 -3.8325909848e+00 2.2127474368e+00 3.8325909848e+00 
87900 5.5262505351e+00 6.4359638024e-05 2.2127474368e+00 -3.8325909848e+00 2.2127474368e+00 3.8325909848e+00 
88000 5.5262505353e+00 6.4363263212e-05 2.2127474368e+00 -3.8325909848e+00 2.2127474368e+00 3.8325909848e+00 
88100 5.5262505355e+00 6.4366648207e-05 2.2127474368e+00 -3.8325909848e+00 2.2127474368e+00 3.8325909848e+00 
88200 5.5262505357e+00 6.4369801947e-05 2.2127474368e+00 -3.8325909848e+00 2.2127474368e+00 3.8325909848e+00 
88300 5.5262505359e+00 6.4372733724e-05 2.2127474368e+00 -3.8325909848e+00 2.2127474368e+00 3.8325909848e+00 
88400 5.5262505361e+00 6.4375453142e-05 2.2127474368e+00 -3.8325909848e+00 2.2127474368e+00 3.8325909848e+00 
88500 5.5262505363e+00 6.4377970084e-05 2.2127474368e+00 -3.8325909848e+00 2.2127474368e+00 3.8325909848e+00 
88600 5.5262505364e+00 6.4380294665e-05 2.2127474368e+00 -3.8325909848e+00 2.2127474368e+00 3.8325909848e+00 
88700 5.5262505366e+00 6.4382437198e-05 2.2127474368e+00 -3.8325909848e+00 2.2127474368e+00 3.8325909848e+00 
88800 5.5262505368e+00 6.4384408150e-05 2.2127474368e+00 -3.8325909848e+00 2.2127474368e+00 3.8325909848e+00 
88900 5.5262505370e+00 6.4386218110e-05 2.2127474368e+00 -3.8325909848e+00 2.2127474368e+00 3.8325909848e+00 
89000 5.5262505371e+00 6.4387877752e-05 2.2127474368e+00 -3.8325909848e+00 2.2127474368e+00 3.8325909848e+00 
89100 5.5262505373e+00 6.4389397793e-05 2.2127474368e+00 -3.8325909848e+00 2.2127474368e+00 3.8325909848e+00 
89200 5.5262505375e+00 6.4390788966e-05 2.2127474368e+00 -3.8325909848e+00 2.2127474368e+00 3.8325909848e+00 
89300 5.5262505376e+00 6.4392061983e-05 2.2127474368e+00 -3.8325909848e+00 2.2127474368e+00 3.8325909848e+00 
89400 5.5262505378e+00 6.4393227507e-05 2.2127474368e+00 -3.8325909848e+00 2.2127474368e+00 3.8325909848e+00 
89500 5.5262505380e+00 6.4394296111e-05 2.2127474368e+00 -3.8325909848e+00 2.2127474368e+00 3.8325909848e+00 
89600 5.5262505381e+00 6.4395278263e-05 2.2127474368e+00 -3.8325909848e+00 2.2127474368e+00 3.8325909848e+00 
89700 5.5262505383e+00 6.4396184286e-05 2.2127474368e+00 -3.8325909848e+00 2.2127474368e+00 3.8325909848e+00 
89800 5.5262505384e+00 6.4397024335e-05 2.2127474368e+00 -3.8325909848e+00 2.2127474368e+00 3.8325909848e+00 
89900 5.5262505386e+00 6.4397808375e-05 2.2127474368e+00 -3.8325909848e+00 2.2127474368e+00 3.8325909848e+00 
90000 5.5262505387e+00 6.4398546152e-05 2.2127474368e+00 -3.8325909848e+00 2.2127474368e+00 3.8325909848e+00 
90100 5.5262505389e+00 6.4399247176e-05 2.2127474368e+00 -3.8325909848e+00 2.2127474368e+00 3.8325909848e+00 
90200 5.5262505390e+00 6.4399920698e-05 2.2127474368e+00 -3.8325909848e+00 2.2127474368e+00 3.8325909848e+00 
90300 5.5262505392e+00 6.4400575683e-05 2.2127474368e+00 -3.8325909848e+00 2.2127474368e+00 3.8325909848e+00 
90400 5.5262505393e+00 6.4401220805e-05 2.2127474368e+00 -3.8325909848e+00 2.2127474368e+00 3.8325909848e+00 
90500 5.5262505395e+00 6.4401864425e-05 2.2127474368e+00 -3.8325909848e+00 2.2127474368e+00 3.8325909848e+00 
90600 5.5262505396e+00 6.4402514577e-05 2.2127474368e+00 -3.8325909848e+00 2.2127474368e+00 3.8325909848e+00 
90700 5.5262505397e+00 6.4403178949e-05 2.2127474368e+00 -3.8325909848e+00 2.2127474368e+00 3.8325909848e+00 
90800 5.5262505399e+00 6.4403864882e-05 2.2127474368e+00 -3.8325909848e+00 2.2127474368e+00 3.8325909848e+00 
90900 5.5262505400e+00 6.4404579351e-05 2.2127474368e+00 -3.8325909848e+00 2.2127474368e+00 3.8325909848e+00 
91000 5.5262505401e+00 6.4405328958e-05 2.2127474368e+00 -3.8325909848e+00 2.2127474368e+00 3.8325909848e+00 
91100 5.5262505403e+00 6.4406119929e-05 2.2127474368e+00 -3.8325909848e+00 2.2127474368e+00 3.8325909848e+00 
91200 5.5262505404e+00 6.4406958103e-05 2.2127474368e+00 -3.8325909848e+00 2.2127474368e+00 3.8325909848e+00 
91300 5.5262505405e+00 6.4407848932e-05 2.2127474368e+00 -3.8325909848e+00 2.2127474368e+00 3.8325909848e+00 
91400 5.5262505407e+00 6.4408797471e-05 2.2127474368e+00 -3.8325909848e+00 2.2127474368e+00 3.8325909848e+00 
91500 5.5262505408e+00 6.4409808384e-05 2.2127474368e+00 -3.8325909848e+00 2.2127474368e+00 3.8325909848e+00 
91600 5.5262505409e+00 6.4410885938e-05 2.2127474368e+00 -3.8325909848e+00 2.2127474368e+00 3.8325909848e+00 
91700 5.5262505410e+00 6.4412034006e-05 2.2127474368e+00 -3.8325909848e+00 2.2127474368e+00 3.8325909848e+00 
91800 5.5262505412e+00 6.4413256069e-05 2.2127474368e+00 -3.8325909848e+00 2.2127474368e+00 3.8325909848e+00 
91900 5.5262505413e+00 6.4414555217e-05 2.2127474368e+00 -3.8325909848e+00 2.2127474368e+00 3.8325909848e+00 
92000 5.5262505414e+00 6.4415934154e-05 2.2127474368e+00 -3.8325909848e+00 2.2127474368e+00 3.8325909848e+00 
92100 5.5262505415e+00 6.4417395207e-05 2.2127474368e+00 -3.8325909848e+00 2.2127474368e+00 3.8325909848e+00 
92200 5.5262505416e+00 6.4418940321e-05 2.2127474368e+00 -3.8325909848e+00 2.2127474368e+00 3.8325909848e+00 
92300 5.5262505417e+00 6.4420571080e-05 2.2127474368e+00 -3.8325909848e+00 2.2127474368e+00 3.8325909848e+00 
92400 5.5262505419e+00 6.4422288704e-05 2.2127474368e+00 -3.8325909848e+00 2.2127474368e+00 3.8325909848e+00 
92500 5.5262505420e+00 6.4424094066e-05 2.2127474368e+00 -3.8325909848e+00 2.2127474368e+00 3.8325909848e+00 
92600 5.5262505421e+00 6.4425987694e-05 2.2127474368e+00 -3.8325909848e+00 2.2127474368e+00 3.8325909848e+00 
92700 5.5262505422e+00 6.4427969788e-05 2.2127474368e+00 -3.8325909848e+00 2.2127474368e+00 3.8325909848e+00 
92800 5.5262505423e+00 6.4430040223e-05 2.2127474368e+00 -3.8325909848e+00 2.2127474368e+00 3.8325909848e+00 
92900 5.5262505424e+00 6.4432198569e-05 2.2127474368e+00 -3.8325909848e+00 2.2127474368e+00 3.8325909848e+00 
93000 5.5262505425e+00 6.4434444095e-05 2.2127474368e+00 -3.8325909848e+00 2.2127474368e+00 3.8325909848e+00 
93100 5.5262505426e+00 6.4436775794e-05 2.2127474368e+00 -3.8325909848e+00 2.2127474368e+00 3.8325909848e+00 
93200 5.5262505427e+00 6.4439192375e-05 2.2127474368e+00 -3.8325909848e+00 2.2127474368e+00 3.8325909848e+00 
93300 5.5262505428e+00 6.4441692298e-05 2.2127474368e+00 -3.8325909848e+00 2.2127474368e+00 3.8325909848e+00 
93400 5.5262505429e+00 6.4444273774e-05 2.2127474368e+00 -3.8325909848e+00 2.2127474368e+00 3.8325909848e+00 
93500 5.5262505430e+00 6.4446934788e-05 2.2127474368e+00 -3.8325909848e+00 2.2127474368e+00 3.8325909848e+00 
93600 5.5262505431e+00 6.4449673102e-05 2.2127474368e+00 -3.8325909848e+00 2.2127474368e+00 3.8325909848e+00 
93700 5.5262505432e+00 6.4452486283e-05 2.2127474368e+00 -3.8325909848e+00 2.2127474368e+00 3.8325909848e+00 
93800 5.5262505433e+00 6.4455371704e-05 2.2127474368e+00 -3.8325909848e+00 2.2127474368e+00 3.8325909848e+00 
93900 5.5262505434e+00 6.4458326571e-05 2.2127474368e+00 -3.8325909848e+00 2.2127474368e+00 3.8325909848e+00 
94000 5.5262505435e+00 6.4461347925e-05 2.2127474368e+00 -3.8325909848e+00 2.2127474368e+00 3.8325909848e+00 
94100 5.5262505436e+00 6.4464432667e-05 2.2127474368e+00 -3.8325909848e+00 2.2127474368e+00 3.8325909848e+00 
94200 5.5262505437e+00 6.4467577568e-05 2.2127474368e+00 -3.8325909848e+00 2.2127474368e+00 3.8325909848e+00 
94300 5.5262505438e+00 6.4470779283e-05 2.2127474368e+00 -3.8325909848e+00 2.2127474368e+00 3.8325909848e+00 
94400 5.5262505439e+00 6.4474034367e-05 2.2127474368e+00 -3.8325909848e+00 2.2127474368e+00 3.8325909848e+00 
94500 5.5262505440e+00 6.4477339285e-05 2.2127474368e+00 -3.8325909848e+00 2.2127474368e+00 3.8325909848e+00 
94600 5.5262505440e+00 6.4480690434e-05 2.2127474368e+00 -3.8325909848e+00 2.2127474368e+00 3.8325909848e+00 
94700 5.5262505441e+00 6.4484084148e-05 2.2127474368e+00 -3.8325909848e+00 2.2127474368e+00 3.8325909848e+00 
94800 5.5262505442e+00 6.4487516714e-05 2.2127474368e+00 -3.8325909848e+00 2.2127474368e+00 3.8325909848e+00 
94900 5.5262505443e+00 6.4490984391e-05 2.2127474368e+00 -3.8325909848e+00 2.2127474368e+00 3.8325909848e+00 
95000 5.5262505444e+00 6.4494483411e-05 2.2127474368e+00 -3.8325909848e+00 2.2127474368e+00 3.8325909848e+00 
95100 5.5262505445e+00 6.4498010002e-05 2.2127474368e+00 -3.8325909848e+00 2.2127474368e+00 3.8325909848e+00 
95200 5.5262505445e+00 6.4501560393e-05 2.2127474368e+00 -3.8325909848e+00 2.2127474368e+00 3.8325909848e+00 
95300 5.5262505446e+00 6.4505130830e-05 2.2127474368e+00 -3.8325909848e+00 2.2127474368e+00 3.8325909848e+00 
95400 5.5262505447e+00 6.4508717584e-05 2.2127474368e+00 -3.8325909848e+00 2.2127474368e+00 3.8325909848e+00 
95500 5.5262505448e+00 6.4512316961e-05 2.2127474368e+00 -3.8325909848e+00 2.2127474368e+00 3.8325909848e+00 
95600 5.5262505449e+00 6.4515925318e-05 2.2127474368e+00 -3.8325909848e+00 2.2127474368e+00 3.8325909848e+00 
95700 5.5262505449e+00 6.4519539061e-05 2.2127474368e+00 -3.8325909848e+00 2.2127474368e+00 3.8325909848e+00 
95800 5.5262505450e+00 6.4523154671e-05 2.2127474368e+00 -3.8325909848e+00 2.2127474368e+00 3.8325909848e+00 
95900 5.5262505451e+00 6.4526768694e-05 2.2127474368e+00 -3.8325909848e+00 2.2127474368e+00 3.8325909848e+00 
96000 5.5262505452e+00 6.4530377764e-05 2.2127474368e+00 -3.8325909848e+00 2.2127474368e+00 3.8325909848e+00 
96100 5.5262505452e+00 6.4533978600e-05 2.2127474368e+00 -3.8325909848e+00 2.2127474368e+00 3.8325909848e+00 
96200 5.5262505453e+00 6.4537568020e-05 2.2127474368e+00 -3.8325909848e+00 2.2127474368e+00 3.8325909848e+00 
96300 5.5262505454e+00 6.4541142943e-05 2.2127474368e+00 -3.8325909848e+00 2.2127474368e+00 3.8325909848e+00 
96400 5.5262505455e+00 6.4544700398e-05 2.2127474368e+00 -3.8325909848e+00 2.2127474368e+00 3.8325909848e+00 
96500 5.5262505455e+00 6.4548237531e-05 2.2127474368e+00 -3.8325909848e+00 2.2127474368e+00 3.8325909848e+00 
96600 5.5262505456e+00 6.4551751601e-05 2.2127474368e+00 -3.8325909848e+00 2.2127474368e+00 3.8325909848e+00 
96700 5.5262505457e+00 6.4555239997e-05 2.2127474368e+00 -3.8325909848e+00 2.2127474368e+00 3.8325909848e+00 
96800 5.5262505457e+00 6.4558700230e-05 2.2127474368e+00 -3.8325909848e+00 2.2127474368e+00 3.8325909848e+00 
96900 5.5262505458e+00 6.4562129944e-05 2.2127474368e+00 -3.8325909848e+00 2.2127474368e+00 3.8325909848e+00 
97000 5.5262505459e+00 6.4565526915e-05 2.2127474368e+00 -3.8325909848e+00 2.2127474368e+00 3.8325909848e+00 
97100 5.5262505459e+00 6.4568889058e-05 2.2127474368e+00 -3.8325909848e+00 2.2127474368e+00 3.8325909848e+00 
97200 5.5262505460e+00 6.4572214421e-05 2.2127474368e+00 -3.8325909848e+00 2.2127474368e+00 3.8325909848e+00 
97300 5.5262505461e+00 6.4575501193e-05 2.2127474368e+00 -3.8325909848e+00 2.2127474368e+00 3.8325909848e+00 
97400 5.5262505461e+00 6.4578747702e-05 2.2127474368e+00 -3.8325909848e+00 2.2127474368e+00 3.8325909848e+00 
97500 5.5262505462e+00 6.4581952417e-05 2.2127474368e+00 -3.8325909848e+00 2.2127474368e+00 3.8325909848e+00 
97600 5.5262505462e+00 6.4585113946e-05 2.2127474368e+00 -3.8325909848e+00 2.2127474368e+00 3.8325909848e+00 
97700 5.5262505463e+00 6.4588231035e-05 2.2127474368e+00 -3.8325909848e+00 2.2127474368e+00 3.8325909848e+00 
97800 5.5262505464e+00 6.4591302571e-05 2.2127474368e+00 -3.8325909848e+00 2.2127474368e+00 3.8325909848e+00 
97900 5.5262505464e+00 6.4594327578e-05 2.2127474368e+00 -3.8325909848e+00 2.2127474368e+00 3.8325909848e+00 
98000 5.5262505465e+00 6.4597305213e-05 2.2127474368e+00 -3.8325909848e+00 2.2127474368e+00 3.8325909848e+00 
98100 5.5262505465e+00 6.4600234771e-05 2.2127474368e+00 -3.8325909848e+00 2.2127474368e+00 3.8325909848e+00 
98200 5.5262505466e+00 6.4603115676e-05 2.2127474368e+00 -3.8325909848e+00 2.2127474368e+00 3.8325909848e+00 
98300 5.5262505466e+00 6.4605947479e-05 2.2127474368e+00 -3.8325909848e+00 2.2127474368e+00 3.8325909848e+00 
98400 5.5262505467e+00 6.4608729861e-05 2.2127474368e+00 -3.8325909848e+00 2.2127474368e+00 3.8325909848e+00 
98500 5.5262505468e+00 6.4611462621e-05 2.2127474368e+00 -3.8325909848e+00 2.2127474368e+00 3.8325909848e+00 
98600 5.5262505468e+00 6.4614145682e-05 2.2127474368e+00 -3.8325909848e+00 2.2127474368e+00 3.8325909848e+00 
98700 5.5262505469e+00 6.4616779076e-05 2.2127474368e+00 -3.8325909848e+00 2.2127474368e+00 3.8325909848e+00 
98800 5.5262505469e+00 6.4619362952e-05 2.2127474368e+00 -3.8325909848e+00 2.2127474368e+00 3.8325909848e+00 
98900 5.5262505470e+00 6.4621897564e-05 2.2127474368e+00 -3.8325909848e+00 2.2127474368e+00 3.8325909848e+00 
99000 5.5262505470e+00 6.4624383270e-05 2.2127474368e+00 -3.8325909848e+00 2.2127474368e+00 3.8325909848e+00 
99100 5.5262505471e+00 6.4626820523e-05 2.2127474368e+00 -3.8325909848e+00 2.2127474368e+00 3.8325909848e+00 
99200 5.5262505471e+00 6.4629209877e-05 2.2127474368e+00 -3.8325909848e+00 2.2127474368e+00 3.8325909848e+00 
99300 5.5262505472e+00 6.4631551968e-05 2.2127474368e+00 -3.8325909848e+00 2.2127474368e+00 3.8325909848e+00 
99400 5.5262505472e+00 6.4632567697e-05 2.2127474368e+00 -3.8325909848e+00 2.2127474368e+00 3.8325909848e+00 
99400 5.5262505472e+00 6.4632567697e-05 2.2127474368e+00 -3.8325909848e+00 2.2127474368e+00 3.8325909848e+00 
