# step Hamiltonian StressXX CellTensor1 CellTensor2 CellTensor3 CellTensor4 
0 5.7592679692e+00 1.9571236725e-01 2.8378601290e+00 -4.9153179282e+00 2.8378601290e+00 4.9153179282e+00 
100 5.7618514055e+00 2.2447015572e-01 2.8378601290e+00 -4.9153179282e+00 2.8378601290e+00 4.9153179282e+00 
200 5.7657961103e+00 2.5127002394e-01 2.8339061296e+00 -4.9084694003e+00 2.8339061296e+00 4.9084694003e+00 
300 5.7714746485e+00 2.7631305531e-01 2.8294740066e+00 -4.9007927382e+00 2.8294740066e+00 4.9007927382e+00 
400 5.7787316754e+00 2.9982048390e-01 2.8245926498e+00 -4.8923379801e+00 2.8245926498e+00 4.8923379801e+00 
500 5.7873466675e+00 3.2194304322e-01 2.8192869924e+00 -4.8831483120e+00 2.8192869924e+00 4.8831483120e+00 
600 5.7970215549e+00 3.4272874845e-01 2.8135792700e+00 -4.8732622467e+00 2.8135792700e+00 4.8732622467e+00 
700 5.8073632164e+00 3.6207711622e-01 2.8074908538e+00 -4.8627168006e+00 2.8074908538e+00 4.8627168006e+00 
800 5.8178623389e+00 3.7968175148e-01 2.8010449167e+00 -4.8515521100e+00 2.8010449167e+00 4.8515521100e+00 
900 5.8278766561e+00 3.9497693133e-01 2.7942701545e+00 -4.8398178776e+00 2.7942701545e+00 4.8398178776e+00 
1000 5.8366388675e+00 4.0713253982e-01 2.7872055189e+00 -4.8275815700e+00 2.7872055189e+00 4.8275815700e+00 
1100 5.8433236016e+00 4.1517723011e-01 2.7799051196e+00 -4.8149369074e+00 2.7799051196e+00 4.8149369074e+00 
1200 5.8472037994e+00 4.1832167624e-01 2.7724410006e+00 -4.8020086741e+00 2.7724410006e+00 4.8020086741e+00 
1300 5.8478721703e+00 4.1641605423e-01 2.7649001470e+00 -4.7889475324e+00 2.7649001470e+00 4.7889475324e+00 
1400 5.8454071061e+00 4.1023890778e-01 2.7573731751e+00 -4.7759104346e+00 2.7573731751e+00 4.7759104346e+00 
1500 5.8403387751e+00 4.0129176037e-01 2.7499375847e+00 -4.7630316143e+00 2.7499375847e+00 4.7630316143e+00 
1600 5.8334161029e+00 3.9118578516e-01 2.7426444404e+00 -4.7503995179e+00 2.7426444404e+00 4.7503995179e+00 
1700 5.8253444782e+00 3.8109667626e-01 2.7355159952e+00 -4.7380526886e+00 2.7355159952e+00 4.7380526886e+00 
1800 5.8166456904e+00 3.7160731969e-01 2.7285532407e+00 -4.7259928440e+00 2.7285532407e+00 4.7259928440e+00 
1900 5.8076492847e+00 3.6285379838e-01 2.7217464766e+00 -4.7142031828e+00 2.7217464766e+00 4.7142031828e+00 
2000 5.7985447727e+00 3.5474383395e-01 2.7150833776e+00 -4.7026623568e+00 2.7150833776e+00 4.7026623568e+00 
2100 5.7894373779e+00 3.4711479127e-01 2.7085531687e+00 -4.6913517032e+00 2.7085531687e+00 4.6913517032e+00 
2200 5.7803868053e+00 3.3981280713e-01 2.7021479483e+00 -4.6802575360e+00 2.7021479483e+00 4.6802575360e+00 
2300 5.7714294363e+00 3.3271963233e-01 2.6958625650e+00 -4.6693709328e+00 2.6958625650e+00 4.6693709328e+00 
2400 5.7625897341e+00 3.2575434304e-01 2.6896939938e+00 -4.6586866540e+00 2.6896939938e+00 4.6586866540e+00 
2500 5.7538857492e+00 3.1886620870e-01 2.6836406688e+00 -4.6482019877e+00 2.6836406688e+00 4.6482019877e+00 
2600 5.7453316883e+00 3.1202620282e-01 2.6777019397e+00 -4.6379158072e+00 2.6777019397e+00 4.6379158072e+00 
2700 5.7369391034e+00 3.0521982735e-01 2.6718776769e+00 -4.6278278879e+00 2.6718776769e+00 4.6278278879e+00 
2800 5.7287174568e+00 2.9844179604e-01 2.6661680059e+00 -4.6179384477e+00 2.6661680059e+00 4.6179384477e+00 
2900 5.7206744146e+00 2.9169235956e-01 2.6605731379e+00 -4.6082478520e+00 2.6605731379e+00 4.6082478520e+00 
3000 5.7128160290e+00 2.8497487537e-01 2.6550932662e+00 -4.5987564359e+00 2.6550932662e+00 4.5987564359e+00 
3100 5.7051468772e+00 2.7829425461e-01 2.6497285077e+00 -4.5894644017e+00 2.6497285077e+00 4.5894644017e+00 
3200 5.6976701873e+00 2.7165600157e-01 2.6444788728e+00 -4.5803717672e+00 2.6444788728e+00 4.5803717672e+00 
3300 5.6903879603e+00 2.6506564256e-01 2.6393442526e+00 -4.5714783441e+00 2.6393442526e+00 4.5714783441e+00 
3400 5.6833010921e+00 2.5852840527e-01 2.6343244180e+00 -4.5627837355e+00 2.6343244180e+00 4.5627837355e+00 
3500 5.6764094941e+00 2.5204905606e-01 2.6294190237e+00 -4.5542873435e+00 2.6294190237e+00 4.5542873435e+00 
3600 5.6697122108e+00 2.4563183439e-01 2.6246276165e+00 -4.5459883828e+00 2.6246276165e+00 4.5459883828e+00 
3700 5.6632075334e+00 2.3928044514e-01 2.6199496440e+00 -4.5378858968e+00 2.6199496440e+00 4.5378858968e+00 
3800 5.6568931065e+00 2.3299808376e-01 2.6153844644e+00 -4.5299787737e+00 2.6153844644e+00 4.5299787737e+00 
3900 5.6507660280e+00 2.2678747828e-01 2.6109313556e+00 -4.5222657630e+00 2.6109313556e+00 4.5222657630e+00 
4000 5.6448229415e+00 2.2065093865e-01 2.6065895237e+00 -4.5147454896e+00 2.6065895237e+00 4.5147454896e+00 
4100 5.6390601194e+00 2.1459040729e-01 2.6023581109e+00 -4.5074164676e+00 2.6023581109e+00 4.5074164676e+00 
4200 5.6334735387e+00 2.0860750754e-01 2.5982362022e+00 -4.5002771122e+00 2.5982362022e+00 4.5002771122e+00 
4300 5.6280589482e+00 2.0270358825e-01 2.5942228314e+00 -4.4933257501e+00 2.5942228314e+00 4.4933257501e+00 
4400 5.6228119278e+00 1.9687976363e-01 2.5903169866e+00 -4.4865606285e+00 2.5903169866e+00 4.4865606285e+00 
4500 5.6177279403e+00 1.9113694811e-01 2.5865176147e+00 -4.4799799233e+00 2.5865176147e+00 4.4799799233e+00 
4600 5.6128023773e+00 1.8547588645e-01 2.5828236252e+00 -4.4735817458e+00 2.5828236252e+00 4.4735817458e+00 
4700 5.6080305972e+00 1.7989717928e-01 2.5792338940e+00 -4.4673641490e+00 2.5792338940e+00 4.4673641490e+00 
4800 5.6034079589e+00 1.7440130467e-01 2.5757472659e+00 -4.4613251321e+00 2.5757472659e+00 4.4613251321e+00 
4900 5.5989298498e+00 1.6898863605e-01 2.5723625579e+00 -4.4554626457e+00 2.5723625579e+00 4.4554626457e+00 
5000 5.5945917087e+00 1.6365945699e-01 2.5690785607e+00 -4.4497745958e+00 2.5690785607e+00 4.4497745958e+00 
5100 5.5903890454e+00 1.5841397331e-01 2.5658940416e+00 -4.4442588469e+00 2.5658940416e+00 4.4442588469e+00 
5200 5.5863174565e+00 1.5325232284e-01 2.5628077456e+00 -4.4389132254e+00 2.5628077456e+00 4.4389132254e+00 
5300 5.5823726373e+00 1.4817458328e-01 2.5598183975e+00 -4.4337355226e+00 2.5598183975e+00 4.4337355226e+00 
5400 5.5785503920e+00 1.4318077841e-01 2.5569247033e+00 -4.4287234973e+00 2.5569247033e+00 4.4287234973e+00 
5500 5.5748466407e+00 1.3827088292e-01 2.5541253519e+00 -4.4238748783e+00 2.5541253519e+00 4.4238748783e+00 
5600 5.5712574247e+00 1.3344482622e-01 2.5514190157e+00 -4.4191873667e+00 2.5514190157e+00 4.4191873667e+00 
5700 5.5677789100e+00 1.2870249521e-01 2.5488043530e+00 -4.4146586379e+00 2.5488043530e+00 4.4146586379e+00 
5800 5.5644073891e+00 1.2404373645e-01 2.5462800080e+00 -4.4102863442e+00 2.5462800080e+00 4.4102863442e+00 
5900 5.5611392817e+00 1.1946835766e-01 2.5438446133e+00 -4.4060681167e+00 2.5438446133e+00 4.4060681167e+00 
6000 5.5579711345e+00 1.1497612886e-01 2.5414967898e+00 -4.4020015672e+00 2.5414967898e+00 4.4020015672e+00 
6100 5.5548996194e+00 1.1056678306e-01 2.5392351490e+00 -4.3980842904e+00 2.5392351490e+00 4.3980842904e+00 
6200 5.5519215319e+00 1.0624001678e-01 2.5370582933e+00 -4.3943138657e+00 2.5370582933e+00 4.3943138657e+00 
6300 5.5490337883e+00 1.0199549035e-01 2.5349648177e+00 -4.3906878597e+00 2.5349648177e+00 4.3906878597e+00 
6400 5.5462334226e+00 9.7832828124e-02 2.5329533107e+00 -4.3872038274e+00 2.5329533107e+00 4.3872038274e+00 
6500 5.5435175829e+00 9.3751618565e-02 2.5310223555e+00 -4.3838593149e+00 2.5310223555e+00 4.3838593149e+00 
6600 5.5408835277e+00 8.9751414378e-02 2.5291705312e+00 -4.3806518610e+00 2.5291705312e+00 4.3806518610e+00 
6700 5.5383286220e+00 8.5831732606e-02 2.5273964137e+00 -4.3775789994e+00 2.5273964137e+00 4.3775789994e+00 
6800 5.5358503329e+00 8.1992054768e-02 2.5256985772e+00 -4.3746382604e+00 2.5256985772e+00 4.3746382604e+00 
6900 5.5334462257e+00 7.8231827063e-02 2.5240755952e+00 -4.3718271731e+00 2.5240755952e+00 4.3718271731e+00 
7000 5.5311139595e+00 7.4550460636e-02 2.5225260415e+00 -4.3691432673e+00 2.5225260415e+00 4.3691432673e+00 
7100 5.5288512828e+00 7.0947331935e-02 2.5210484913e+00 -4.3665840752e+00 2.5210484913e+00 4.3665840752e+00 
7200 5.5266560295e+00 6.7421783160e-02 2.5196415225e+00 -4.3641471339e+00 2.5196415225e+00 4.3641471339e+00 
7300 5.5245261145e+00 6.3973122806e-02 2.5183037169e+00 -4.3618299865e+00 2.5183037169e+00 4.3618299865e+00 
7400 5.5224595301e+00 6.0600626318e-02 2.5170336607e+00 -4.3596301847e+00 2.5170336607e+00 4.3596301847e+00 
7500 5.5204543414e+00 5.7303536842e-02 2.5158299463e+00 -4.3575452902e+00 2.5158299463e+00 4.3575452902e+00 
7600 5.5185086832e+00 5.4081066076e-02 2.5146911728e+00 -4.3555728766e+00 2.5146911728e+00 4.3555728766e+00 
7700 5.5166207555e+00 5.0932395232e-02 2.5136159471e+00 -4.3537105311e+00 2.5136159471e+00 4.3537105311e+00 
7800 5.5147888207e+00 4.7856676080e-02 2.5126028852e+00 -4.3519558564e+00 2.5126028852e+00 4.3519558564e+00 
7900 5.5130111999e+00 4.4853032099e-02 2.5116506127e+00 -4.3503064720e+00 2.5116506127e+00 4.3503064720e+00 
8000 5.5112862697e+00 4.1920559697e-02 2.5107577661e+00 -4.3487600164e+00 2.5107577661e+00 4.3487600164e+00 
8100 5.5096124592e+00 3.9058329528e-02 2.5099229935e+00 -4.3473141478e+00 2.5099229935e+00 4.3473141478e+00 
8200 5.5079882471e+00 3.6265387868e-02 2.5091449555e+00 -4.3459665464e+00 2.5091449555e+00 4.3459665464e+00 
8300 5.5064121590e+00 3.3540758063e-02 2.5084223259e+00 -4.3447149153e+00 2.5084223259e+00 4.3447149153e+00 
8400 5.5048827649e+00 3.0883442032e-02 2.5077537928e+00 -4.3435569820e+00 2.5077537928e+00 4.3435569820e+00 
8500 5.5033986770e+00 2.8292421822e-02 2.5071380589e+00 -4.3424904997e+00 2.5071380589e+00 4.3424904997e+00 
8600 5.5019585470e+00 2.5766661202e-02 2.5065738427e+00 -4.3415132485e+00 2.5065738427e+00 4.3415132485e+00 
8700 5.5005610645e+00 2.3305107291e-02 2.5060598786e+00 -4.3406230365e+00 2.5060598786e+00 4.3406230365e+00 
8800 5.4992049553e+00 2.0906692212e-02 2.5055949179e+00 -4.3398177010e+00 2.5055949179e+00 4.3398177010e+00 
8900 5.4978889789e+00 1.8570334760e-02 2.5051777293e+00 -4.3390951092e+00 2.5051777293e+00 4.3390951092e+00 
9000 5.4966119278e+00 1.6294942087e-02 2.5048070994e+00 -4.3384531593e+00 2.5048070994e+00 4.3384531593e+00 
9100 5.4953726252e+00 1.4079411380e-02 2.5044818330e+00 -4.3378897814e+00 2.5044818330e+00 4.3378897814e+00 
9200 5.4941699245e+00 1.1922631540e-02 2.5042007540e+00 -4.3374029382e+00 2.5042007540e+00 4.3374029382e+00 
9300 5.4930027074e+00 9.8234848418e-03 2.5039627051e+00 -4.3369906255e+00 2.5039627051e+00 4.3369906255e+00 
9400 5.4918698833e+00 7.7808485849e-03 2.5037665489e+00 -4.3366508730e+00 2.5037665489e+00 4.3366508730e+00 
9500 5.4907703881e+00 5.7935967087e-03 2.5036111676e+00 -4.3363817448e+00 2.5036111676e+00 4.3363817448e+00 
9600 5.4897031833e+00 3.8606013823e-03 2.5034954637e+00 -4.3361813397e+00 2.5034954637e+00 4.3361813397e+00 
9700 5.4886672553e+00 1.9807345562e-03 2.5034183599e+00 -4.3360477920e+00 2.5034183599e+00 4.3360477920e+00 
9800 5.4876616148e+00 1.5286947213e-04 2.5033787994e+00 -4.3359792712e+00 2.5033787994e+00 4.3359792712e+00 
9900 5.4866852960e+00 -1.6241178730e-03 2.5033757461e+00 -4.3359739828e+00 2.5033757461e+00 4.3359739828e+00 
10000 5.4857373560e+00 -3.3513473135e-03 2.5034081848e+00 -4.3360301681e+00 2.5034081848e+00 4.3360301681e+00 
10100 5.4848168747e+00 -5.0299331550e-03 2.5034751208e+00 -4.3361461047e+00 2.5034751208e+00 4.3361461047e+00 
10200 5.4839229540e+00 -6.6609828721e-03 2.5035755805e+00 -4.3363201059e+00 2.5035755805e+00 4.3363201059e+00 
10300 5.4830547176e+00 -8.2455958652e-03 2.5037086110e+00 -4.3365505217e+00 2.5037086110e+00 4.3365505217e+00 
10400 5.4822113105e+00 -9.7848622794e-03 2.5038732805e+00 -4.3368357375e+00 2.5038732805e+00 4.3368357375e+00 
10500 5.4813918990e+00 -1.1279861888e-02 2.5040686775e+00 -4.3371741751e+00 2.5040686775e+00 4.3371741751e+00 
10600 5.4805956702e+00 -1.2731663040e-02 2.5042939116e+00 -4.3375642920e+00 2.5042939116e+00 4.3375642920e+00 
10700 5.4798218318e+00 -1.4141321675e-02 2.5045481126e+00 -4.3380045810e+00 2.5045481126e+00 4.3380045810e+00 
10800 5.4790696122e+00 -1.5509880406e-02 2.5048304307e+00 -4.3384935703e+00 2.5048304307e+00 4.3384935703e+00 
10900 5.4783382598e+00 -1.6838367665e-02 2.5051400365e+00 -4.3390298233e+00 2.5051400365e+00 4.3390298233e+00 
11000 5.4776270430e+00 -1.8127796922e-02 2.5054761204e+00 -4.3396119376e+00 2.5054761204e+00 4.3396119376e+00 
11100 5.4769352505e+00 -1.9379165967e-02 2.5058378926e+00 -4.3402385455e+00 2.5058378926e+00 4.3402385455e+00 
11200 5.4762621903e+00 -2.0593456257e-02 2.5062245829e+00 -4.3409083128e+00 2.5062245829e+00 4.3409083128e+00 
11300 5.4756071903e+00 -2.1771632335e-02 2.5066354403e+00 -4.3416199387e+00 2.5066354403e+00 4.3416199387e+00 
11400 5.4749695976e+00 -2.2914641302e-02 2.5070697328e+00 -4.3423721554e+00 2.5070697328e+00 4.3423721554e+00 
11500 5.4743487787e+00 -2.4023412360e-02 2.5075267472e+00 -4.3431637275e+00 2.5075267472e+00 4.3431637275e+00 
11600 5.4737441191e+00 -2.5098856416e-02 2.5080057885e+00 -4.3439934513e+00 2.5080057885e+00 4.3439934513e+00 
11700 5.4731550233e+00 -2.6141865741e-02 2.5085061799e+00 -4.3448601547e+00 2.5085061799e+00 4.3448601547e+00 
11800 5.4725809144e+00 -2.7153313688e-02 2.5090272623e+00 -4.3457626959e+00 2.5090272623e+00 4.3457626959e+00 
11900 5.4720212340e+00 -2.8134054462e-02 2.5095683941e+00 -4.3466999637e+00 2.5095683941e+00 4.3466999637e+00 
12000 5.4714754421e+00 -2.9084922954e-02 2.5101289507e+00 -4.3476708762e+00 2.5101289507e+00 4.3476708762e+00 
12100 5.4709430167e+00 -3.0006734610e-02 2.5107083242e+00 -4.3486743805e+00 2.5107083242e+00 4.3486743805e+00 
12200 5.4704234536e+00 -3.0900285358e-02 2.5113059230e+00 -4.3497094519e+00 2.5113059230e+00 4.3497094519e+00 
12300 5.4699162664e+00 -3.1766351580e-02 2.5119211715e+00 -4.3507750937e+00 2.5119211715e+00 4.3507750937e+00 
12400 5.4694209858e+00 -3.2605690126e-02 2.5125535099e+00 -4.3518703359e+00 2.5125535099e+00 4.3518703359e+00 
12500 5.4689371595e+00 -3.3419038365e-02 2.5132023935e+00 -4.3529942352e+00 2.5132023935e+00 4.3529942352e+00 
12600 5.4684643523e+00 -3.4207114283e-02 2.5138672924e+00 -4.3541458739e+00 2.5138672924e+00 4.3541458739e+00 
12700 5.4680021450e+00 -3.4970616609e-02 2.5145476914e+00 -4.3553243596e+00 2.5145476914e+00 4.3553243596e+00 
12800 5.4675501349e+00 -3.5710224974e-02 2.5152430894e+00 -4.3565288242e+00 2.5152430894e+00 4.3565288242e+00 
12900 5.4671079349e+00 -3.6426600112e-02 2.5159529990e+00 -4.3577584237e+00 2.5159529990e+00 4.3577584237e+00 
13000 5.4666751735e+00 -3.7120384073e-02 2.5166769463e+00 -4.3590123372e+00 2.5166769463e+00 4.3590123372e+00 
13100 5.4662514942e+00 -3.7792200475e-02 2.5174144703e+00 -4.3602897663e+00 2.5174144703e+00 4.3602897663e+00 
13200 5.4658365553e+00 -3.8442654773e-02 2.5181651230e+00 -4.3615899349e+00 2.5181651230e+00 4.3615899349e+00 
13300 5.4654300295e+00 -3.9072334551e-02 2.5189284684e+00 -4.3629120880e+00 2.5189284684e+00 4.3629120880e+00 
13400 5.4650316036e+00 -3.9681809837e-02 2.5197040827e+00 -4.3642554913e+00 2.5197040827e+00 4.3642554913e+00 
13500 5.4646409779e+00 -4.0271633429e-02 2.5204915537e+00 -4.3656194311e+00 2.5204915537e+00 4.3656194311e+00 
13600 5.4642578660e+00 -4.0842341237e-02 2.5212904804e+00 -4.3670032127e+00 2.5212904804e+00 4.3670032127e+00 
13700 5.4638819943e+00 -4.1394452646e-02 2.5221004729e+00 -4.3684061609e+00 2.5221004729e+00 4.3684061609e+00 
13800 5.4635131020e+00 -4.1928470880e-02 2.5229211519e+00 -4.3698276185e+00 2.5229211519e+00 4.3698276185e+00 
13900 5.4631509398e+00 -4.2444883382e-02 2.5237521484e+00 -4.3712669467e+00 2.5237521484e+00 4.3712669467e+00 
14000 5.4627952706e+00 -4.2944162198e-02 2.5245931034e+00 -4.3727235234e+00 2.5245931034e+00 4.3727235234e+00 
14100 5.4624458682e+00 -4.3426764372e-02 2.5254436676e+00 -4.3741967439e+00 2.5254436676e+00 4.3741967439e+00 
14200 5.4621025176e+00 -4.3893132340e-02 2.5263035012e+00 -4.3756860195e+00 2.5263035012e+00 4.3756860195e+00 
14300 5.4617650140e+00 -4.4343694335e-02 2.5271722735e+00 -4.3771907771e+00 2.5271722735e+00 4.3771907771e+00 
14400 5.4614331628e+00 -4.4778864783e-02 2.5280496624e+00 -4.3787104593e+00 2.5280496624e+00 4.3787104593e+00 
14500 5.4611067792e+00 -4.5199044711e-02 2.5289353546e+00 -4.3802445232e+00 2.5289353546e+00 4.3802445232e+00 
14600 5.4607856874e+00 -4.5604622147e-02 2.5298290450e+00 -4.3817924404e+00 2.5298290450e+00 4.3817924404e+00 
14700 5.4604697210e+00 -4.5995972524e-02 2.5307304365e+00 -4.3833536964e+00 2.5307304365e+00 4.3833536964e+00 
14800 5.4601587217e+00 -4.6373459077e-02 2.5316392399e+00 -4.3849277899e+00 2.5316392399e+00 4.3849277899e+00 
14900 5.4598525396e+00 -4.6737433238e-02 2.5325551732e+00 -4.3865142329e+00 2.5325551732e+00 4.3865142329e+00 
15000 5.4595510326e+00 -4.7088235031e-02 2.5334779620e+00 -4.3881125500e+00 2.5334779620e+00 4.3881125500e+00 
15100 5.4592540661e+00 -4.7426193455e-02 2.5344073388e+00 -4.3897222778e+00 2.5344073388e+00 4.3897222778e+00 
15200 5.4589615126e+00 -4.7751626863e-02 2.5353430429e+00 -4.3913429650e+00 2.5353430429e+00 4.3913429650e+00 
15300 5.4586732512e+00 -4.8064843346e-02 2.5362848205e+00 -4.3929741715e+00 2.5362848205e+00 4.3929741715e+00 
15400 5.4583891677e+00 -4.8366141089e-02 2.5372324237e+00 -4.3946154685e+00 2.5372324237e+00 4.3946154685e+00 
15500 5.4581091538e+00 -4.8655808742e-02 2.5381856113e+00 -4.3962664378e+00 2.5381856113e+00 4.3962664378e+00 
15600 5.4578331072e+00 -4.8934125767e-02 2.5391441478e+00 -4.3979266717e+00 2.5391441478e+00 4.3979266717e+00 
15700 5.4575609309e+00 -4.9201362785e-02 2.5401078036e+00 -4.3995957725e+00 2.5401078036e+00 4.3995957725e+00 
15800 5.4572925334e+00 -4.9457781912e-02 2.5410763547e+00 -4.4012733523e+00 2.5410763547e+00 4.4012733523e+00 
15900 5.4570278277e+00 -4.9703637092e-02 2.5420495828e+00 -4.4029590328e+00 2.5420495828e+00 4.4029590328e+00 
16000 5.4567667318e+00 -4.9939174407e-02 2.5430272746e+00 -4.4046524447e+00 2.5430272746e+00 4.4046524447e+00 
16100 5.4565091679e+00 -5.0164632397e-02 2.5440092222e+00 -4.4063532277e+00 2.5440092222e+00 4.4063532277e+00 
16200 5.4562550624e+00 -5.0380242356e-02 2.5449952224e+00 -4.4080610301e+00 2.5449952224e+00 4.4080610301e+00 
16300 5.4560043455e+00 -5.0586228625e-02 2.5459850770e+00 -4.4097755087e+00 2.5459850770e+00 4.4097755087e+00 
16400 5.4557569512e+00 -5.0782808876e-02 2.5469785926e+00 -4.4114963281e+00 2.5469785926e+00 4.4114963281e+00 
16500 5.4555128167e+00 -5.0970194384e-02 2.5479755802e+00 -4.4132231613e+00 2.5479755802e+00 4.4132231613e+00 
16600 5.4552718826e+00 -5.1148590291e-02 2.5489758552e+00 -4.4149556885e+00 2.5489758552e+00 4.4149556885e+00 
16700 5.4550340922e+00 -5.1318195864e-02 2.5499792375e+00 -4.4166935976e+00 2.5499792375e+00 4.4166935976e+00 
16800 5.4547993920e+00 -5.1479204739e-02 2.5509855510e+00 -4.4184365837e+00 2.5509855510e+00 4.4184365837e+00 
16900 5.4545677308e+00 -5.1631805156e-02 2.5519946237e+00 -4.4201843488e+00 2.5519946237e+00 4.4201843488e+00 
17000 5.4543390599e+00 -5.1776180188e-02 2.5530062875e+00 -4.4219366021e+00 2.5530062875e+00 4.4219366021e+00 
17100 5.4541133330e+00 -5.1912507961e-02 2.5540203784e+00 -4.4236930589e+00 2.5540203784e+00 4.4236930589e+00 
17200 5.4538905056e+00 -5.2040961865e-02 2.5550367358e+00 -4.4254534416e+00 2.5550367358e+00 4.4254534416e+00 
17300 5.4536705353e+00 -5.2161710749e-02 2.5560552029e+00 -4.4272174783e+00 2.5560552029e+00 4.4272174783e+00 
17400 5.4534533817e+00 -5.2274919124e-02 2.5570756265e+00 -4.4289849038e+00 2.5570756265e+00 4.4289849038e+00 
17500 5.4532390058e+00 -5.2380747339e-02 2.5580978567e+00 -4.4307554585e+00 2.5580978567e+00 4.4307554585e+00 
17600 5.4530273702e+00 -5.2479351762e-02 2.5591217472e+00 -4.4325288888e+00 2.5591217472e+00 4.4325288888e+00 
17700 5.4528184389e+00 -5.2570884950e-02 2.5601471547e+00 -4.4343049468e+00 2.5601471547e+00 4.4343049468e+00 
17800 5.4526121773e+00 -5.2655495805e-02 2.5611739394e+00 -4.4360833900e+00 2.5611739394e+00 4.4360833900e+00 
17900 5.4524085518e+00 -5.2733329735e-02 2.5622019644e+00 -4.4378639815e+00 2.5622019644e+00 4.4378639815e+00 
18000 5.4522075302e+00 -5.2804528796e-02 2.5632310959e+00 -4.4396464897e+00 2.5632310959e+00 4.4396464897e+00 
18100 5.4520090810e+00 -5.2869231830e-02 2.5642612033e+00 -4.4414306880e+00 2.5642612033e+00 4.4414306880e+00 
18200 5.4518131737e+00 -5.2927574603e-02 2.5652921586e+00 -4.4432163549e+00 2.5652921586e+00 4.4432163549e+00 
18300 5.4516197788e+00 -5.2979689927e-02 2.5663238368e+00 -4.4450032740e+00 2.5663238368e+00 4.4450032740e+00 
18400 5.4514288673e+00 -5.3025707782e-02 2.5673561157e+00 -4.4467912335e+00 2.5673561157e+00 4.4467912335e+00 
18500 5.4512404111e+00 -5.3065755430e-02 2.5683888758e+00 -4.4485800266e+00 2.5683888758e+00 4.4485800266e+00 
18600 5.4510543826e+00 -5.3099957520e-02 2.5694220004e+00 -4.4503694507e+00 2.5694220004e+00 4.4503694507e+00 
18700 5.4508707548e+00 -5.3128436193e-02 2.5704553751e+00 -4.4521593083e+00 2.5704553751e+00 4.4521593083e+00 
18800 5.4506895012e+00 -5.3151311180e-02 2.5714888884e+00 -4.4539494058e+00 2.5714888884e+00 4.4539494058e+00 
18900 5.4505105959e+00 -5.3168699888e-02 2.5725224310e+00 -4.4557395542e+00 2.5725224310e+00 4.4557395542e+00 
19000 5.4503340133e+00 -5.3180717492e-02 2.5735558964e+00 -4.4575295688e+00 2.5735558964e+00 4.4575295688e+00 
19100 5.4501597280e+00 -5.3187477015e-02 2.5745891803e+00 -4.4593192689e+00 2.5745891803e+00 4.4593192689e+00 
19200 5.4499877152e+00 -5.3189089405e-02 2.5756221807e+00 -4.4611084780e+00 2.5756221807e+00 4.4611084780e+00 
19300 5.4498179503e+00 -5.3185663606e-02 2.5766547980e+00 -4.4628970237e+00 2.5766547980e+00 4.4628970237e+00 
19400 5.4496504090e+00 -5.3177306630e-02 2.5776869349e+00 -4.4646847373e+00 2.5776869349e+00 4.4646847373e+00 
19500 5.4494850671e+00 -5.3164123618e-02 2.5787184964e+00 -4.4664714543e+00 2.5787184964e+00 4.4664714543e+00 
19600 5.4493219010e+00 -5.3146217904e-02 2.5797493896e+00 -4.4682570136e+00 2.5797493896e+00 4.4682570136e+00 
19700 5.4491608867e+00 -5.3123691069e-02 2.5807795236e+00 -4.4700412581e+00 2.5807795236e+00 4.4700412581e+00 
19800 5.4490020010e+00 -5.3096642998e-02 2.5818088099e+00 -4.4718240342e+00 2.5818088099e+00 4.4718240342e+00 
19900 5.4488452203e+00 -5.3065171928e-02 2.5828371620e+00 -4.4736051922e+00 2.5828371620e+00 4.4736051922e+00 
20000 5.4486905216e+00 -5.3029374494e-02 2.5838644952e+00 -4.4753845855e+00 2.5838644952e+00 4.4753845855e+00 
20100 5.4485378817e+00 -5.2989345779e-02 2.5848907271e+00 -4.4771620713e+00 2.5848907271e+00 4.4771620713e+00 
20200 5.4483872777e+00 -5.2945179349e-02 2.5859157771e+00 -4.4789375100e+00 2.5859157771e+00 4.4789375100e+00 
20300 5.4482386868e+00 -5.2896967297e-02 2.5869395667e+00 -4.4807107655e+00 2.5869395667e+00 4.4807107655e+00 
20400 5.4480920861e+00 -5.2844800276e-02 2.5879620190e+00 -4.4824817050e+00 2.5879620190e+00 4.4824817050e+00 
20500 5.4479474532e+00 -5.2788767537e-02 2.5889830594e+00 -4.4842501988e+00 2.5889830594e+00 4.4842501988e+00 
20600 5.4478047653e+00 -5.2728956957e-02 2.5900026147e+00 -4.4860161205e+00 2.5900026147e+00 4.4860161205e+00 
20700 5.4476640001e+00 -5.2665455072e-02 2.5910206139e+00 -4.4877793467e+00 2.5910206139e+00 4.4877793467e+00 
20800 5.4475251351e+00 -5.2598347105e-02 2.5920369875e+00 -4.4895397574e+00 2.5920369875e+00 4.4895397574e+00 
20900 5.4473881480e+00 -5.2527716988e-02 2.5930516678e+00 -4.4912972352e+00 2.5930516678e+00 4.4912972352e+00 
21000 5.4472530167e+00 -5.2453647393e-02 2.5940645889e+00 -4.4930516660e+00 2.5940645889e+00 4.4930516660e+00 
21100 5.4471197189e+00 -5.2376219752e-02 2.5950756865e+00 -4.4948029386e+00 2.5950756865e+00 4.4948029386e+00 
21200 5.4469882327e+00 -5.2295514278e-02 2.5960848982e+00 -4.4965509444e+00 2.5960848982e+00 4.4965509444e+00 
21300 5.4468585360e+00 -5.2211609984e-02 2.5970921629e+00 -4.4982955781e+00 2.5970921629e+00 4.4982955781e+00 
21400 5.4467306070e+00 -5.2124584707e-02 2.5980974214e+00 -4.5000367368e+00 2.5980974214e+00 4.5000367368e+00 
21500 5.4466044238e+00 -5.2034515120e-02 2.5991006158e+00 -4.5017743205e+00 2.5991006158e+00 4.5017743205e+00 
21600 5.4464799649e+00 -5.1941476752e-02 2.6001016900e+00 -4.5035082320e+00 2.6001016900e+00 4.5035082320e+00 
21700 5.4463572085e+00 -5.1845544004e-02 2.6011005895e+00 -4.5052383765e+00 2.6011005895e+00 4.5052383765e+00 
21800 5.4462361332e+00 -5.1746790161e-02 2.6020972609e+00 -4.5069646621e+00 2.6020972609e+00 4.5069646621e+00 
21900 5.4461167177e+00 -5.1645287408e-02 2.6030916527e+00 -4.5086869993e+00 2.6030916527e+00 4.5086869993e+00 
22000 5.4459989405e+00 -5.1541106844e-02 2.6040837147e+00 -4.5104053011e+00 2.6040837147e+00 4.5104053011e+00 
22100 5.4458827806e+00 -5.1434318491e-02 2.6050733982e+00 -4.5121194830e+00 2.6050733982e+00 4.5121194830e+00 
22200 5.4457682169e+00 -5.1324991311e-02 2.6060606557e+00 -4.5138294632e+00 2.6060606557e+00 4.5138294632e+00 
22300 5.4456552285e+00 -5.1213193211e-02 2.6070454413e+00 -4.5155351620e+00 2.6070454413e+00 4.5155351620e+00 
22400 5.4455437945e+00 -5.1098991060e-02 2.6080277105e+00 -4.5172365021e+00 2.6080277105e+00 4.5172365021e+00 
22500 5.4454338945e+00 -5.0982450693e-02 2.6090074200e+00 -4.5189334087e+00 2.6090074200e+00 4.5189334087e+00 
22600 5.4453255077e+00 -5.0863636927e-02 2.6099845278e+00 -4.5206258091e+00 2.6099845278e+00 4.5206258091e+00 
22700 5.4452186139e+00 -5.0742613565e-02 2.6109589933e+00 -4.5223136330e+00 2.6109589933e+00 4.5223136330e+00 
22800 5.4451131929e+00 -5.0619443409e-02 2.6119307773e+00 -4.5239968121e+00 2.6119307773e+00 4.5239968121e+00 
22900 5.4450092245e+00 -5.0494188266e-02 2.6128998415e+00 -4.5256752805e+00 2.6128998415e+00 4.5256752805e+00 
23000 5.4449066889e+00 -5.0366908959e-02 2.6138661491e+00 -4.5273489744e+00 2.6138661491e+00 4.5273489744e+00 
23100 5.4448055662e+00 -5.0237665332e-02 2.6148296644e+00 -4.5290178319e+00 2.6148296644e+00 4.5290178319e+00 
23200 5.4447058371e+00 -5.0106516264e-02 2.6157903530e+00 -4.5306817933e+00 2.6157903530e+00 4.5306817933e+00 
23300 5.4446074819e+00 -4.9973519668e-02 2.6167481815e+00 -4.5323408010e+00 2.6167481815e+00 4.5323408010e+00 
23400 5.4445104815e+00 -4.9838732509e-02 2.6177031178e+00 -4.5339947992e+00 2.6177031178e+00 4.5339947992e+00 
23500 5.4444148168e+00 -4.9702210803e-02 2.6186551309e+00 -4.5356437343e+00 2.6186551309e+00 4.5356437343e+00 
23600 5.4443204690e+00 -4.9564009631e-02 2.6196041908e+00 -4.5372875542e+00 2.6196041908e+00 4.5372875542e+00 
23700 5.4442274193e+00 -4.9424183143e-02 2.6205502687e+00 -4.5389262092e+00 2.6205502687e+00 4.5389262092e+00 
23800 5.4441356493e+00 -4.9282784565e-02 2.6214933368e+00 -4.5405596510e+00 2.6214933368e+00 4.5405596510e+00 
23900 5.4440451406e+00 -4.9139866210e-02 2.6224333683e+00 -4.5421878334e+00 2.6224333683e+00 4.5421878334e+00 
24000 5.4439558751e+00 -4.8995479484e-02 2.6233703376e+00 -4.5438107119e+00 2.6233703376e+00 4.5438107119e+00 
24100 5.4438678349e+00 -4.8849674891e-02 2.6243042200e+00 -4.5454282435e+00 2.6243042200e+00 4.5454282435e+00 
24200 5.4437810023e+00 -4.8702502044e-02 2.6252349917e+00 -4.5470403874e+00 2.6252349917e+00 4.5470403874e+00 
24300 5.4436953598e+00 -4.8554009671e-02 2.6261626300e+00 -4.5486471040e+00 2.6261626300e+00 4.5486471040e+00 
24400 5.4436108899e+00 -4.8404245623e-02 2.6270871130e+00 -4.5502483556e+00 2.6270871130e+00 4.5502483556e+00 
24500 5.4435275757e+00 -4.8253256881e-02 2.6280084200e+00 -4.5518441061e+00 2.6280084200e+00 4.5518441061e+00 
24600 5.4434454002e+00 -4.8101089565e-02 2.6289265309e+00 -4.5534343209e+00 2.6289265309e+00 4.5534343209e+00 
24700 5.4433643467e+00 -4.7947788941e-02 2.6298414268e+00 -4.5550189670e+00 2.6298414268e+00 4.5550189670e+00 
24800 5.4432843986e+00 -4.7793399427e-02 2.6307530893e+00 -4.5565980128e+00 2.6307530893e+00 4.5565980128e+00 
24900 5.4432055398e+00 -4.7637964606e-02 2.6316615012e+00 -4.5581714284e+00 2.6316615012e+00 4.5581714284e+00 
25000 5.4431277541e+00 -4.7481527229e-02 2.6325666460e+00 -4.5597391852e+00 2.6325666460e+00 4.5597391852e+00 
25100 5.4430510256e+00 -4.7324129224e-02 2.6334685080e+00 -4.5613012560e+00 2.6334685080e+00 4.5613012560e+00 
25200 5.4429753387e+00 -4.7165811708e-02 2.6343670724e+00 -4.5628576152e+00 2.6343670724e+00 4.5628576152e+00 
25300 5.4429006779e+00 -4.7006614989e-02 2.6352623250e+00 -4.5644082382e+00 2.6352623250e+00 4.5644082382e+00 
25400 5.4428270281e+00 -4.6846578581e-02 2.6361542527e+00 -4.5659531022e+00 2.6361542527e+00 4.5659531022e+00 
25500 5.4427543740e+00 -4.6685741207e-02 2.6370428427e+00 -4.5674921853e+00 2.6370428427e+00 4.5674921853e+00 
25600 5.4426827010e+00 -4.6524140809e-02 2.6379280834e+00 -4.5690254672e+00 2.6379280834e+00 4.5690254672e+00 
25700 5.4426119944e+00 -4.6361814560e-02 2.6388099636e+00 -4.5705529285e+00 2.6388099636e+00 4.5705529285e+00 
25800 5.4425422398e+00 -4.6198798868e-02 2.6396884730e+00 -4.5720745514e+00 2.6396884730e+00 4.5720745514e+00 
25900 5.4424734230e+00 -4.6035129387e-02 2.6405636019e+00 -4.5735903190e+00 2.6405636019e+00 4.5735903190e+00 
26000 5.4424055300e+00 -4.5870841024e-02 2.6414353412e+00 -4.5751002158e+00 2.6414353412e+00 4.5751002158e+00 
26100 5.4423385470e+00 -4.5705967951e-02 2.6423036826e+00 -4.5766042272e+00 2.6423036826e+00 4.5766042272e+00 
26200 5.4422724604e+00 -4.5540543613e-02 2.6431686183e+00 -4.5781023400e+00 2.6431686183e+00 4.5781023400e+00 
26300 5.4422072568e+00 -4.5374600733e-02 2.6440301415e+00 -4.5795945417e+00 2.6440301415e+00 4.5795945417e+00 
26400 5.4421429230e+00 -4.5208171328e-02 2.6448882454e+00 -4.5810808214e+00 2.6448882454e+00 4.5810808214e+00 
26500 5.4420794461e+00 -4.5041286711e-02 2.6457429243e+00 -4.5825611687e+00 2.6457429243e+00 4.5825611687e+00 
26600 5.4420168132e+00 -4.4873977506e-02 2.6465941730e+00 -4.5840355746e+00 2.6465941730e+00 4.5840355746e+00 
26700 5.4419550118e+00 -4.4706273654e-02 2.6474419866e+00 -4.5855040309e+00 2.6474419866e+00 4.5855040309e+00 
26800 5.4418940294e+00 -4.4538204421e-02 2.6482863611e+00 -4.5869665304e+00 2.6482863611e+00 4.5869665304e+00 
26900 5.4418338539e+00 -4.4369798413e-02 2.6491272928e+00 -4.5884230669e+00 2.6491272928e+00 4.5884230669e+00 
27000 5.4417744732e+00 -4.4201083578e-02 2.6499647787e+00 -4.5898736350e+00 2.6499647787e+00 4.5898736350e+00 
27100 5.4417158755e+00 -4.4032087220e-02 2.6507988162e+00 -4.5913182304e+00 2.6507988162e+00 4.5913182304e+00 
27200 5.4416580492e+00 -4.3862836008e-02 2.6516294033e+00 -4.5927568494e+00 2.6516294033e+00 4.5927568494e+00 
27300 5.4416009827e+00 -4.3693355984e-02 2.6524565385e+00 -4.5941894895e+00 2.6524565385e+00 4.5941894895e+00 
27400 5.4415446649e+00 -4.3523672573e-02 2.6532802205e+00 -4.5956161486e+00 2.6532802205e+00 4.5956161486e+00 
27500 5.4414890845e+00 -4.3353810591e-02 2.6541004489e+00 -4.5970368258e+00 2.6541004489e+00 4.5970368258e+00 
27600 5.4414342307e+00 -4.3183794257e-02 2.6549172234e+00 -4.5984515208e+00 2.6549172234e+00 4.5984515208e+00 
27700 5.4413800928e+00 -4.3013647200e-02 2.6557305444e+00 -4.5998602341e+00 2.6557305444e+00 4.5998602341e+00 
27800 5.4413266601e+00 -4.2843392472e-02 2.6565404126e+00 -4.6012629669e+00 2.6565404126e+00 4.6012629669e+00 
27900 5.4412739223e+00 -4.2673052550e-02 2.6573468290e+00 -4.6026597212e+00 2.6573468290e+00 4.6026597212e+00 
28000 5.4412218691e+00 -4.2502649353e-02 2.6581497954e+00 -4.6040504997e+00 2.6581497954e+00 4.6040504997e+00 
28100 5.4411704905e+00 -4.2332204249e-02 2.6589493135e+00 -4.6054353058e+00 2.6589493135e+00 4.6054353058e+00 
28200 5.4411197765e+00 -4.2161738060e-02 2.6597453858e+00 -4.6068141434e+00 2.6597453858e+00 4.6068141434e+00 
28300 5.4410697174e+00 -4.1991271079e-02 2.6605380149e+00 -4.6081870172e+00 2.6605380149e+00 4.6081870172e+00 
28400 5.4410203036e+00 -4.1820823071e-02 2.6613272039e+00 -4.6095539327e+00 2.6613272039e+00 4.6095539327e+00 
28500 5.4409715256e+00 -4.1650413289e-02 2.6621129562e+00 -4.6109148956e+00 2.6621129562e+00 4.6109148956e+00 
28600 5.4409233743e+00 -4.1480060477e-02 2.6628952756e+00 -4.6122699126e+00 2.6628952756e+00 4.6122699126e+00 
28700 5.4408758405e+00 -4.1309782885e-02 2.6636741662e+00 -4.6136189906e+00 2.6636741662e+00 4.6136189906e+00 
28800 5.4408289151e+00 -4.1139598274e-02 2.6644496324e+00 -4.6149621375e+00 2.6644496324e+00 4.6149621375e+00 
28900 5.4407825894e+00 -4.0969523926e-02 2.6652216790e+00 -4.6162993614e+00 2.6652216790e+00 4.6162993614e+00 
29000 5.4407368547e+00 -4.0799576652e-02 2.6659903110e+00 -4.6176306711e+00 2.6659903110e+00 4.6176306711e+00 
29100 5.4406917025e+00 -4.0629772803e-02 2.6667555337e+00 -4.6189560757e+00 2.6667555337e+00 4.6189560757e+00 
29200 5.4406471242e+00 -4.0460128276e-02 2.6675173528e+00 -4.6202755851e+00 2.6675173528e+00 4.6202755851e+00 
29300 5.4406031118e+00 -4.0290658525e-02 2.6682757742e+00 -4.6215892095e+00 2.6682757742e+00 4.6215892095e+00 
29400 5.4405596570e+00 -4.0121378570e-02 2.6690308041e+00 -4.6228969596e+00 2.6690308041e+00 4.6228969596e+00 
29500 5.4405167518e+00 -3.9952303000e-02 2.6697824488e+00 -4.6241988466e+00 2.6697824488e+00 4.6241988466e+00 
29600 5.4404743883e+00 -3.9783445989e-02 2.6705307152e+00 -4.6254948819e+00 2.6705307152e+00 4.6254948819e+00 
29700 5.4404325589e+00 -3.9614821299e-02 2.6712756101e+00 -4.6267850778e+00 2.6712756101e+00 4.6267850778e+00 
29800 5.4403912559e+00 -3.9446442292e-02 2.6720171408e+00 -4.6280694465e+00 2.6720171408e+00 4.6280694465e+00 
29900 5.4403504718e+00 -3.9278321934e-02 2.6727553145e+00 -4.6293480009e+00 2.6727553145e+00 4.6293480009e+00 
30000 5.4403101993e+00 -3.9110472806e-02 2.6734901390e+00 -4.6306207543e+00 2.6734901390e+00 4.6306207543e+00 
30100 5.4402704310e+00 -3.8942907111e-02 2.6742216221e+00 -4.6318877201e+00 2.6742216221e+00 4.6318877201e+00 
30200 5.4402311600e+00 -3.8775636683e-02 2.6749497718e+00 -4.6331489124e+00 2.6749497718e+00 4.6331489124e+00 
30300 5.4401923790e+00 -3.8608672992e-02 2.6756745964e+00 -4.6344043454e+00 2.6756745964e+00 4.6344043454e+00 
30400 5.4401540813e+00 -3.8442027156e-02 2.6763961043e+00 -4.6356540338e+00 2.6763961043e+00 4.6356540338e+00 
30500 5.4401162601e+00 -3.8275709945e-02 2.6771143041e+00 -4.6368979924e+00 2.6771143041e+00 4.6368979924e+00 
30600 5.4400789086e+00 -3.8109731788e-02 2.6778292047e+00 -4.6381362366e+00 2.6778292047e+00 4.6381362366e+00 
30700 5.4400420203e+00 -3.7944102784e-02 2.6785408151e+00 -4.6393687819e+00 2.6785408151e+00 4.6393687819e+00 
30800 5.4400055887e+00 -3.7778832707e-02 2.6792491443e+00 -4.6405956441e+00 2.6792491443e+00 4.6405956441e+00 
30900 5.4399696074e+00 -3.7613931012e-02 2.6799542017e+00 -4.6418168393e+00 2.6799542017e+00 4.6418168393e+00 
31000 5.4399340702e+00 -3.7449406845e-02 2.6806559968e+00 -4.6430323840e+00 2.6806559968e+00 4.6430323840e+00 
31100 5.4398989709e+00 -3.7285269047e-02 2.6813545391e+00 -4.6442422948e+00 2.6813545391e+00 4.6442422948e+00 
31200 5.4398643035e+00 -3.7121526165e-02 2.6820498384e+00 -4.6454465885e+00 2.6820498384e+00 4.6454465885e+00 
31300 5.4398300619e+00 -3.6958186451e-02 2.6827419046e+00 -4.6466452824e+00 2.6827419046e+00 4.6466452824e+00 
31400 5.4397962403e+00 -3.6795257879e-02 2.6834307478e+00 -4.6478383937e+00 2.6834307478e+00 4.6478383937e+00 
31500 5.4397628328e+00 -3.6632748144e-02 2.6841163780e+00 -4.6490259401e+00 2.6841163780e+00 4.6490259401e+00 
31600 5.4397298339e+00 -3.6470664669e-02 2.6847988056e+00 -4.6502079393e+00 2.6847988056e+00 4.6502079393e+00 
31700 5.4396972379e+00 -3.6309014615e-02 2.6854780408e+00 -4.6513844094e+00 2.6854780408e+00 4.6513844094e+00 
31800 5.4396650392e+00 -3.6147804886e-02 2.6861540944e+00 -4.6525553684e+00 2.6861540944e+00 4.6525553684e+00 
31900 5.4396332324e+00 -3.5987042131e-02 2.6868269767e+00 -4.6537208348e+00 2.6868269767e+00 4.6537208348e+00 
32000 5.4396018122e+00 -3.5826732755e-02 2.6874966986e+00 -4.6548808272e+00 2.6874966986e+00 4.6548808272e+00 
32100 5.4395707733e+00 -3.5666882925e-02 2.6881632708e+00 -4.6560353641e+00 2.6881632708e+00 4.6560353641e+00 
32200 5.4395401106e+00 -3.5507498572e-02 2.6888267043e+00 -4.6571844646e+00 2.6888267043e+00 4.6571844646e+00 
32300 5.4395098188e+00 -3.5348585398e-02 2.6894870100e+00 -4.6583281476e+00 2.6894870100e+00 4.6583281476e+00 
32400 5.4394798931e+00 -3.5190148883e-02 2.6901441990e+00 -4.6594664323e+00 2.6901441990e+00 4.6594664323e+00 
32500 5.4394503284e+00 -3.5032194291e-02 2.6907982824e+00 -4.6605993380e+00 2.6907982824e+00 4.6605993380e+00 
32600 5.4394211198e+00 -3.4874726671e-02 2.6914492715e+00 -4.6617268842e+00 2.6914492715e+00 4.6617268842e+00 
32700 5.4393922626e+00 -3.4717750869e-02 2.6920971775e+00 -4.6628490904e+00 2.6920971775e+00 4.6628490904e+00 
32800 5.4393637520e+00 -3.4561271527e-02 2.6927420119e+00 -4.6639659763e+00 2.6927420119e+00 4.6639659763e+00 
32900 5.4393355834e+00 -3.4405293091e-02 2.6933837861e+00 -4.6650775618e+00 2.6933837861e+00 4.6650775618e+00 
33000 5.4393077522e+00 -3.4249819816e-02 2.6940225115e+00 -4.6661838666e+00 2.6940225115e+00 4.6661838666e+00 
33100 5.4392802539e+00 -3.4094855771e-02 2.6946581997e+00 -4.6672849108e+00 2.6946581997e+00 4.6672849108e+00 
33200 5.4392530839e+00 -3.3940404842e-02 2.6952908623e+00 -4.6683807146e+00 2.6952908623e+00 4.6683807146e+00 
33300 5.4392262380e+00 -3.3786470737e-02 2.6959205109e+00 -4.6694712981e+00 2.6959205109e+00 4.6694712981e+00 
33400 5.4391997118e+00 -3.3633056995e-02 2.6965471574e+00 -4.6705566816e+00 2.6965471574e+00 4.6705566816e+00 
33500 5.4391735011e+00 -3.3480166982e-02 2.6971708133e+00 -4.6716368853e+00 2.6971708133e+00 4.6716368853e+00 
33600 5.4391476017e+00 -3.3327803905e-02 2.6977914905e+00 -4.6727119299e+00 2.6977914905e+00 4.6727119299e+00 
33700 5.4391220093e+00 -3.3175970808e-02 2.6984092009e+00 -4.6737818356e+00 2.6984092009e+00 4.6737818356e+00 
33800 5.4390967201e+00 -3.3024670583e-02 2.6990239563e+00 -4.6748466231e+00 2.6990239563e+00 4.6748466231e+00 
33900 5.4390717300e+00 -3.2873905967e-02 2.6996357685e+00 -4.6759063130e+00 2.6996357685e+00 4.6759063130e+00 
34000 5.4390470349e+00 -3.2723679554e-02 2.7002446496e+00 -4.6769609259e+00 2.7002446496e+00 4.6769609259e+00 
34100 5.4390226311e+00 -3.2573993792e-02 2.7008506114e+00 -4.6780104826e+00 2.7008506114e+00 4.6780104826e+00 
34200 5.4389985147e+00 -3.2424850990e-02 2.7014536659e+00 -4.6790550037e+00 2.7014536659e+00 4.6790550037e+00 
34300 5.4389746819e+00 -3.2276253324e-02 2.7020538253e+00 -4.6800945101e+00 2.7020538253e+00 4.6800945101e+00 
34400 5.4389511290e+00 -3.2128202834e-02 2.7026511013e+00 -4.6811290226e+00 2.7026511013e+00 4.6811290226e+00 
34500 5.4389278523e+00 -3.1980701436e-02 2.7032455062e+00 -4.6821585621e+00 2.7032455062e+00 4.6821585621e+00 
34600 5.4389048482e+00 -3.1833750917e-02 2.7038370520e+00 -4.6831831494e+00 2.7038370520e+00 4.6831831494e+00 
34700 5.4388821132e+00 -3.1687352947e-02 2.7044257506e+00 -4.6842028054e+00 2.7044257506e+00 4.6842028054e+00 
34800 5.4388596438e+00 -3.1541509075e-02 2.7050116143e+00 -4.6852175511e+00 2.7050116143e+00 4.6852175511e+00 
34900 5.4388374364e+00 -3.1396220736e-02 2.7055946551e+00 -4.6862274073e+00 2.7055946551e+00 4.6862274073e+00 
35000 5.4388154877e+00 -3.1251489253e-02 2.7061748851e+00 -4.6872323951e+00 2.7061748851e+00 4.6872323951e+00 
35100 5.4387937942e+00 -3.1107315843e-02 2.7067523164e+00 -4.6882325354e+00 2.7067523164e+00 4.6882325354e+00 
35200 5.4387723528e+00 -3.0963701615e-02 2.7073269610e+00 -4.6892278492e+00 2.7073269610e+00 4.6892278492e+00 
35300 5.4387511601e+00 -3.0820647577e-02 2.7078988312e+00 -4.6902183574e+00 2.7078988312e+00 4.6902183574e+00 
35400 5.4387302129e+00 -3.0678154637e-02 2.7084679390e+00 -4.6912040811e+00 2.7084679390e+00 4.6912040811e+00 
35500 5.4387095081e+00 -3.0536223606e-02 2.7090342965e+00 -4.6921850410e+00 2.7090342965e+00 4.6921850410e+00 
35600 5.4386890424e+00 -3.0394855203e-02 2.7095979159e+00 -4.6931612584e+00 2.7095979159e+00 4.6931612584e+00 
35700 5.4386688129e+00 -3.0254050053e-02 2.7101588091e+00 -4.6941327540e+00 2.7101588091e+00 4.6941327540e+00 
35800 5.4386488164e+00 -3.0113808695e-02 2.7107169884e+00 -4.6950995488e+00 2.7107169884e+00 4.6950995488e+00 
35900 5.4386290500e+00 -2.9974131581e-02 2.7112724657e+00 -4.6960616638e+00 2.7112724657e+00 4.6960616638e+00 
36000 5.4386095107e+00 -2.9835019080e-02 2.7118252532e+00 -4.6970191198e+00 2.7118252532e+00 4.6970191198e+00 
36100 5.4385901957e+00 -2.9696471479e-02 2.7123753629e+00 -4.6979719377e+00 2.7123753629e+00 4.6979719377e+00 
36200 5.4385711020e+00 -2.9558488987e-02 2.7129228069e+00 -4.6989201385e+00 2.7129228069e+00 4.6989201385e+00 
36300 5.4385522268e+00 -2.9421071737e-02 2.7134675971e+00 -4.6998637429e+00 2.7134675971e+00 4.6998637429e+00 
36400 5.4385335673e+00 -2.9284219788e-02 2.7140097457e+00 -4.7008027717e+00 2.7140097457e+00 4.7008027717e+00 
36500 5.4385151207e+00 -2.9147933126e-02 2.7145492645e+00 -4.7017372458e+00 2.7145492645e+00 4.7017372458e+00 
36600 5.4384968844e+00 -2.9012211669e-02 2.7150861657e+00 -4.7026671860e+00 2.7150861657e+00 4.7026671860e+00 
36700 5.4384788557e+00 -2.8877055266e-02 2.7156204612e+00 -4.7035926128e+00 2.7156204612e+00 4.7035926128e+00 
36800 5.4384610319e+00 -2.8742463702e-02 2.7161521628e+00 -4.7045135471e+00 2.7161521628e+00 4.7045135471e+00 
36900 5.4384434104e+00 -2.8608436698e-02 2.7166812826e+00 -4.7054300094e+00 2.7166812826e+00 4.7054300094e+00 
37000 5.4384259887e+00 -2.8474973911e-02 2.7172078324e+00 -4.7063420204e+00 2.7172078324e+00 4.7063420204e+00 
37100 5.4384087642e+00 -2.8342074942e-02 2.7177318241e+00 -4.7072496008e+00 2.7177318241e+00 4.7072496008e+00 
37200 5.4383917344e+00 -2.8209739331e-02 2.7182532696e+00 -4.7081527709e+00 2.7182532696e+00 4.7081527709e+00 
37300 5.4383748969e+00 -2.8077966565e-02 2.7187721808e+00 -4.7090515513e+00 2.7187721808e+00 4.7090515513e+00 
37400 5.4383582493e+00 -2.7946756074e-02 2.7192885693e+00 -4.7099459624e+00 2.7192885693e+00 4.7099459624e+00 
37500 5.4383417890e+00 -2.7816107237e-02 2.7198024470e+00 -4.7108360248e+00 2.7198024470e+00 4.7108360248e+00 
37600 5.4383255139e+00 -2.7686019380e-02 2.7203138257e+00 -4.7117217586e+00 2.7203138257e+00 4.7117217586e+00 
37700 5.4383094215e+00 -2.7556491783e-02 2.7208227170e+00 -4.7126031842e+00 2.7208227170e+00 4.7126031842e+00 
37800 5.4382935096e+00 -2.7427523675e-02 2.7213291327e+00 -4.7134803219e+00 2.7213291327e+00 4.7134803219e+00 
37900 5.4382777759e+00 -2.7299114241e-02 2.7218330844e+00 -4.7143531919e+00 2.7218330844e+00 4.7143531919e+00 
38000 5.4382622182e+00 -2.7171262619e-02 2.7223345838e+00 -4.7152218143e+00 2.7223345838e+00 4.7152218143e+00 
38100 5.4382468342e+00 -2.7043967907e-02 2.7228336424e+00 -4.7160862093e+00 2.7228336424e+00 4.7160862093e+00 
38200 5.4382316218e+00 -2.6917229157e-02 2.7233302719e+00 -4.7169463968e+00 2.7233302719e+00 4.7169463968e+00 
38300 5.4382165788e+00 -2.6791045383e-02 2.7238244838e+00 -4.7178023969e+00 2.7238244838e+00 4.7178023969e+00 
38400 5.4382017032e+00 -2.6665415561e-02 2.7243162896e+00 -4.7186542294e+00 2.7243162896e+00 4.7186542294e+00 
38500 5.4381869928e+00 -2.6540338626e-02 2.7248057007e+00 -4.7195019144e+00 2.7248057007e+00 4.7195019144e+00 
38600 5.4381724456e+00 -2.6415813477e-02 2.7252927286e+00 -4.7203454715e+00 2.7252927286e+00 4.7203454715e+00 
38700 5.4381580596e+00 -2.6291838981e-02 2.7257773847e+00 -4.7211849205e+00 2.7257773847e+00 4.7211849205e+00 
38800 5.4381438327e+00 -2.6168413966e-02 2.7262596804e+00 -4.7220202811e+00 2.7262596804e+00 4.7220202811e+00 
38900 5.4381297630e+00 -2.6045537231e-02 2.7267396270e+00 -4.7228515731e+00 2.7267396270e+00 4.7228515731e+00 
39000 5.4381158486e+00 -2.5923207540e-02 2.7272172359e+00 -4.7236788158e+00 2.7272172359e+00 4.7236788158e+00 
39100 5.4381020875e+00 -2.5801423629e-02 2.7276925181e+00 -4.7245020288e+00 2.7276925181e+00 4.7245020288e+00 
39200 5.4380884778e+00 -2.5680184202e-02 2.7281654851e+00 -4.7253212316e+00 2.7281654851e+00 4.7253212316e+00 
39300 5.4380750177e+00 -2.5559487934e-02 2.7286361479e+00 -4.7261364436e+00 2.7286361479e+00 4.7261364436e+00 
39400 5.4380617053e+00 -2.5439333476e-02 2.7291045178e+00 -4.7269476840e+00 2.7291045178e+00 4.7269476840e+00 
39500 5.4380485388e+00 -2.5319719449e-02 2.7295706058e+00 -4.7277549721e+00 2.7295706058e+00 4.7277549721e+00 
39600 5.4380355164e+00 -2.5200644449e-02 2.7300344230e+00 -4.7285583271e+00 2.7300344230e+00 4.7285583271e+00 
39700 5.4380226364e+00 -2.5082107048e-02 2.7304959805e+00 -4.7293577680e+00 2.7304959805e+00 4.7293577680e+00 
39800 5.4380098970e+00 -2.4964105793e-02 2.7309552891e+00 -4.7301533140e+00 2.7309552891e+00 4.7301533140e+00 
39900 5.4379972964e+00 -2.4846639209e-02 2.7314123600e+00 -4.7309449840e+00 2.7314123600e+00 4.7309449840e+00 
40000 5.4379848330e+00 -2.4729705799e-02 2.7318672040e+00 -4.7317327968e+00 2.7318672040e+00 4.7317327968e+00 
40100 5.4379725051e+00 -2.4613304043e-02 2.7323198319e+00 -4.7325167714e+00 2.7323198319e+00 4.7325167714e+00 
40200 5.4379603111e+00 -2.4497432404e-02 2.7327702547e+00 -4.7332969265e+00 2.7327702547e+00 4.7332969265e+00 
40300 5.4379482493e+00 -2.4382089322e-02 2.7332184830e+00 -4.7340732808e+00 2.7332184830e+00 4.7340732808e+00 
40400 5.4379363181e+00 -2.4267273220e-02 2.7336645277e+00 -4.7348458529e+00 2.7336645277e+00 4.7348458529e+00 
40500 5.4379245159e+00 -2.4152982501e-02 2.7341083995e+00 -4.7356146613e+00 2.7341083995e+00 4.7356146613e+00 
40600 5.4379128412e+00 -2.4039215554e-02 2.7345501090e+00 -4.7363797246e+00 2.7345501090e+00 4.7363797246e+00 
40700 5.4379012924e+00 -2.3925970748e-02 2.7349896668e+00 -4.7371410611e+00 2.7349896668e+00 4.7371410611e+00 
40800 5.4378898680e+00 -2.3813246436e-02 2.7354270836e+00 -4.7378986892e+00 2.7354270836e+00 4.7378986892e+00 
40900 5.4378785665e+00 -2.3701040959e-02 2.7358623699e+00 -4.7386526272e+00 2.7358623699e+00 4.7386526272e+00 
41000 5.4378673864e+00 -2.3589352641e-02 2.7362955362e+00 -4.7394028932e+00 2.7362955362e+00 4.7394028932e+00 
41100 5.4378563262e+00 -2.3478179791e-02 2.7367265929e+00 -4.7401495053e+00 2.7367265929e+00 4.7401495053e+00 
41200 5.4378453846e+00 -2.3367520706e-02 2.7371555505e+00 -4.7408924817e+00 2.7371555505e+00 4.7408924817e+00 
41300 5.4378345600e+00 -2.3257373670e-02 2.7375824193e+00 -4.7416318402e+00 2.7375824193e+00 4.7416318402e+00 
41400 5.4378238511e+00 -2.3147736956e-02 2.7380072097e+00 -4.7423675988e+00 2.7380072097e+00 4.7423675988e+00 
41500 5.4378132564e+00 -2.3038608822e-02 2.7384299320e+00 -4.7430997752e+00 2.7384299320e+00 4.7430997752e+00 
41600 5.4378027747e+00 -2.2929987518e-02 2.7388505964e+00 -4.7438283873e+00 2.7388505964e+00 4.7438283873e+00 
41700 5.4377924046e+00 -2.2821871282e-02 2.7392692131e+00 -4.7445534527e+00 2.7392692131e+00 4.7445534527e+00 
41800 5.4377821447e+00 -2.2714258343e-02 2.7396857923e+00 -4.7452749890e+00 2.7396857923e+00 4.7452749890e+00 
41900 5.4377719937e+00 -2.2607146919e-02 2.7401003440e+00 -4.7459930137e+00 2.7401003440e+00 4.7459930137e+00 
42000 5.4377619503e+00 -2.2500535219e-02 2.7405128784e+00 -4.7467075442e+00 2.7405128784e+00 4.7467075442e+00 
42100 5.4377520133e+00 -2.2394421445e-02 2.7409234055e+00 -4.7474185981e+00 2.7409234055e+00 4.7474185981e+00 
42200 5.4377421814e+00 -2.2288803790e-02 2.7413319353e+00 -4.7481261924e+00 2.7413319353e+00 4.7481261924e+00 
42300 5.4377324533e+00 -2.2183680439e-02 2.7417384778e+00 -4.7488303446e+00 2.7417384778e+00 4.7488303446e+00 
42400 5.4377228279e+00 -2.2079049570e-02 2.7421430427e+00 -4.7495310716e+00 2.7421430427e+00 4.7495310716e+00 
42500 5.4377133038e+00 -2.1974909354e-02 2.7425456401e+00 -4.7502283906e+00 2.7425456401e+00 4.7502283906e+00 
42600 5.4377038799e+00 -2.1871257955e-02 2.7429462796e+00 -4.7509223187e+00 2.7429462796e+00 4.7509223187e+00 
42700 5.4376945550e+00 -2.1768093534e-02 2.7433449711e+00 -4.7516128726e+00 2.7433449711e+00 4.7516128726e+00 
42800 5.4376853280e+00 -2.1665414243e-02 2.7437417243e+00 -4.7523000693e+00 2.7437417243e+00 4.7523000693e+00 
42900 5.4376761977e+00 -2.1563218229e-02 2.7441365489e+00 -4.7529839256e+00 2.7441365489e+00 4.7529839256e+00 
43000 5.4376671630e+00 -2.1461503637e-02 2.7445294545e+00 -4.7536644580e+00 2.7445294545e+00 4.7536644580e+00 
43100 5.4376582227e+00 -2.1360268605e-02 2.7449204507e+00 -4.7543416834e+00 2.7449204507e+00 4.7543416834e+00 
43200 5.4376493757e+00 -2.1259511268e-02 2.7453095471e+00 -4.7550156181e+00 2.7453095471e+00 4.7550156181e+00 
43300 5.4376406210e+00 -2.1159229756e-02 2.7456967532e+00 -4.7556862787e+00 2.7456967532e+00 4.7556862787e+00 
43400 5.4376319575e+00 -2.1059422197e-02 2.7460820784e+00 -4.7563536816e+00 2.7460820784e+00 4.7563536816e+00 
43500 5.4376233841e+00 -2.0960086714e-02 2.7464655322e+00 -4.7570178430e+00 2.7464655322e+00 4.7570178430e+00 
43600 5.4376148997e+00 -2.0861221431e-02 2.7468471240e+00 -4.7576787794e+00 2.7468471240e+00 4.7576787794e+00 
43700 5.4376065034e+00 -2.0762824464e-02 2.7472268630e+00 -4.7583365067e+00 2.7472268630e+00 4.7583365067e+00 
43800 5.4375981941e+00 -2.0664893931e-02 2.7476047586e+00 -4.7589910411e+00 2.7476047586e+00 4.7589910411e+00 
43900 5.4375899708e+00 -2.0567427947e-02 2.7479808201e+00 -4.7596423987e+00 2.7479808201e+00 4.7596423987e+00 
44000 5.4375818325e+00 -2.0470424625e-02 2.7483550566e+00 -4.7602905953e+00 2.7483550566e+00 4.7602905953e+00 
44100 5.4375737782e+00 -2.0373882076e-02 2.7487274773e+00 -4.7609356469e+00 2.7487274773e+00 4.7609356469e+00 
44200 5.4375658069e+00 -2.0277798411e-02 2.7490980914e+00 -4.7615775692e+00 2.7490980914e+00 4.7615775692e+00 
44300 5.4375579178e+00 -2.0182171740e-02 2.7494669078e+00 -4.7622163781e+00 2.7494669078e+00 4.7622163781e+00 
44400 5.4375501098e+00 -2.0087000171e-02 2.7498339357e+00 -4.7628520890e+00 2.7498339357e+00 4.7628520890e+00 
44500 5.4375423820e+00 -1.9992281813e-02 2.7501991840e+00 -4.7634847177e+00 2.7501991840e+00 4.7634847177e+00 
44600 5.4375347336e+00 -1.9898014775e-02 2.7505626617e+00 -4.7641142795e+00 2.7505626617e+00 4.7641142795e+00 
44700 5.4375271635e+00 -1.9804197166e-02 2.7509243777e+00 -4.7647407900e+00 2.7509243777e+00 4.7647407900e+00 
44800 5.4375196709e+00 -1.9710827094e-02 2.7512843409e+00 -4.7653642645e+00 2.7512843409e+00 4.7653642645e+00 
44900 5.4375122550e+00 -1.9617902668e-02 2.7516425601e+00 -4.7659847183e+00 2.7516425601e+00 4.7659847183e+00 
45000 5.4375049147e+00 -1.9525422000e-02 2.7519990440e+00 -4.7666021665e+00 2.7519990440e+00 4.7666021665e+00 
45100 5.4374976494e+00 -1.9433383199e-02 2.7523538014e+00 -4.7672166244e+00 2.7523538014e+00 4.7672166244e+00 
45200 5.4374904580e+00 -1.9341784378e-02 2.7527068410e+00 -4.7678281070e+00 2.7527068410e+00 4.7678281070e+00 
45300 5.4374833399e+00 -1.9250623651e-02 2.7530581715e+00 -4.7684366292e+00 2.7530581715e+00 4.7684366292e+00 
45400 5.4374762941e+00 -1.9159899133e-02 2.7534078014e+00 -4.7690422060e+00 2.7534078014e+00 4.7690422060e+00 
45500 5.4374693198e+00 -1.9069608939e-02 2.7537557394e+00 -4.7696448522e+00 2.7537557394e+00 4.7696448522e+00 
45600 5.4374624163e+00 -1.8979751190e-02 2.7541019939e+00 -4.7702445827e+00 2.7541019939e+00 4.7702445827e+00 
45700 5.4374555827e+00 -1.8890324005e-02 2.7544465735e+00 -4.7708414121e+00 2.7544465735e+00 4.7708414121e+00 
45800 5.4374488182e+00 -1.8801325506e-02 2.7547894866e+00 -4.7714353550e+00 2.7547894866e+00 4.7714353550e+00 
45900 5.4374421222e+00 -1.8712753820e-02 2.7551307416e+00 -4.7720264260e+00 2.7551307416e+00 4.7720264260e+00 
46000 5.4374354937e+00 -1.8624607073e-02 2.7554703469e+00 -4.7726146395e+00 2.7554703469e+00 4.7726146395e+00 
46100 5.4374289320e+00 -1.8536883396e-02 2.7558083107e+00 -4.7732000101e+00 2.7558083107e+00 4.7732000101e+00 
46200 5.4374224364e+00 -1.8449580922e-02 2.7561446415e+00 -4.7737825520e+00 2.7561446415e+00 4.7737825520e+00 
46300 5.4374160062e+00 -1.8362697786e-02 2.7564793473e+00 -4.7743622795e+00 2.7564793473e+00 4.7743622795e+00 
46400 5.4374096406e+00 -1.8276232128e-02 2.7568124365e+00 -4.7749392069e+00 2.7568124365e+00 4.7749392069e+00 
46500 5.4374033389e+00 -1.8190182090e-02 2.7571439171e+00 -4.7755133482e+00 2.7571439171e+00 4.7755133482e+00 
46600 5.4373971004e+00 -1.8104545817e-02 2.7574737973e+00 -4.7760847175e+00 2.7574737973e+00 4.7760847175e+00 
46700 5.4373909244e+00 -1.8019321459e-02 2.7578020852e+00 -4.7766533288e+00 2.7578020852e+00 4.7766533288e+00 
46800 5.4373848101e+00 -1.7934507167e-02 2.7581287888e+00 -4.7772191960e+00 2.7581287888e+00 4.7772191960e+00 
46900 5.4373787570e+00 -1.7850101099e-02 2.7584539161e+00 -4.7777823330e+00 2.7584539161e+00 4.7777823330e+00 
47000 5.4373727643e+00 -1.7766101413e-02 2.7587774751e+00 -4.7783427536e+00 2.7587774751e+00 4.7783427536e+00 
47100 5.4373668314e+00 -1.7682506274e-02 2.7590994736e+00 -4.7789004714e+00 2.7590994736e+00 4.7789004714e+00 
47200 5.4373609576e+00 -1.7599313851e-02 2.7594199196e+00 -4.7794555002e+00 2.7594199196e+00 4.7794555002e+00 
47300 5.4373551422e+00 -1.7516522314e-02 2.7597388209e+00 -4.7800078535e+00 2.7597388209e+00 4.7800078535e+00 
47400 5.4373493846e+00 -1.7434129841e-02 2.7600561854e+00 -4.7805575448e+00 2.7600561854e+00 4.7805575448e+00 
47500 5.4373436842e+00 -1.7352134611e-02 2.7603720206e+00 -4.7811045875e+00 2.7603720206e+00 4.7811045875e+00 
47600 5.4373380404e+00 -1.7270534810e-02 2.7606863345e+00 -4.7816489951e+00 2.7606863345e+00 4.7816489951e+00 
47700 5.4373324525e+00 -1.7189328628e-02 2.7609991346e+00 -4.7821907808e+00 2.7609991346e+00 4.7821907808e+00 
47800 5.4373269199e+00 -1.7108514258e-02 2.7613104287e+00 -4.7827299579e+00 2.7613104287e+00 4.7827299579e+00 
47900 5.4373214420e+00 -1.7028089900e-02 2.7616202242e+00 -4.7832665396e+00 2.7616202242e+00 4.7832665396e+00 
48000 5.4373160182e+00 -1.6948053756e-02 2.7619285289e+00 -4.7838005389e+00 2.7619285289e+00 4.7838005389e+00 
48100 5.4373106480e+00 -1.6868404035e-02 2.7622353501e+00 -4.7843319689e+00 2.7622353501e+00 4.7843319689e+00 
48200 5.4373053307e+00 -1.6789138951e-02 2.7625406955e+00 -4.7848608425e+00 2.7625406955e+00 4.7848608425e+00 
48300 5.4373000657e+00 -1.6710256721e-02 2.7628445724e+00 -4.7853871728e+00 2.7628445724e+00 4.7853871728e+00 
48400 5.4372948526e+00 -1.6631755569e-02 2.7631469883e+00 -4.7859109725e+00 2.7631469883e+00 4.7859109725e+00 
48500 5.4372896907e+00 -1.6553633723e-02 2.7634479505e+00 -4.7864322543e+00 2.7634479505e+00 4.7864322543e+00 
48600 5.4372845795e+00 -1.6475889416e-02 2.7637474664e+00 -4.7869510311e+00 2.7637474664e+00 4.7869510311e+00 
48700 5.4372795184e+00 -1.6398520888e-02 2.7640455433e+00 -4.7874673155e+00 2.7640455433e+00 4.7874673155e+00 
48800 5.4372745070e+00 -1.6321526383e-02 2.7643421885e+00 -4.7879811199e+00 2.7643421885e+00 4.7879811199e+00 
48900 5.4372695446e+00 -1.6244904149e-02 2.7646374091e+00 -4.7884924571e+00 2.7646374091e+00 4.7884924571e+00 
49000 5.4372646307e+00 -1.6168652442e-02 2.7649312124e+00 -4.7890013393e+00 2.7649312124e+00 4.7890013393e+00 
49100 5.4372597648e+00 -1.6092769522e-02 2.7652236055e+00 -4.7895077790e+00 2.7652236055e+00 4.7895077790e+00 
49200 5.4372549465e+00 -1.6017253656e-02 2.7655145956e+00 -4.7900117886e+00 2.7655145956e+00 4.7900117886e+00 
49300 5.4372501751e+00 -1.5942103113e-02 2.7658041897e+00 -4.7905133803e+00 2.7658041897e+00 4.7905133803e+00 
49400 5.4372454502e+00 -1.5867316172e-02 2.7660923948e+00 -4.7910125662e+00 2.7660923948e+00 4.7910125662e+00 
49500 5.4372407714e+00 -1.5792891115e-02 2.7663792180e+00 -4.7915093586e+00 2.7663792180e+00 4.7915093586e+00 
49600 5.4372361380e+00 -1.5718826231e-02 2.7666646663e+00 -4.7920037695e+00 2.7666646663e+00 4.7920037695e+00 
49700 5.4372315496e+00 -1.5645119814e-02 2.7669487465e+00 -4.7924958109e+00 2.7669487465e+00 4.7924958109e+00 
49800 5.4372270058e+00 -1.5571770163e-02 2.7672314656e+00 -4.7929854948e+00 2.7672314656e+00 4.7929854948e+00 
49900 5.4372225060e+00 -1.5498775584e-02 2.7675128305e+00 -4.7934728330e+00 2.7675128305e+00 4.7934728330e+00 
50000 5.4372180499e+00 -1.5426134390e-02 2.7677928479e+00 -4.7939578375e+00 2.7677928479e+00 4.7939578375e+00 
50100 5.4372136369e+00 -1.5353844898e-02 2.7680715247e+00 -4.7944405198e+00 2.7680715247e+00 4.7944405198e+00 
50200 5.4372092665e+00 -1.5281905430e-02 2.7683488677e+00 -4.7949208919e+00 2.7683488677e+00 4.7949208919e+00 
50300 5.4372049384e+00 -1.5210314318e-02 2.7686248834e+00 -4.7953989652e+00 2.7686248834e+00 4.7953989652e+00 
50400 5.4372006521e+00 -1.5139069895e-02 2.7688995788e+00 -4.7958747515e+00 2.7688995788e+00 4.7958747515e+00 
50500 5.4371964072e+00 -1.5068170504e-02 2.7691729603e+00 -4.7963482621e+00 2.7691729603e+00 4.7963482621e+00 
50600 5.4371922031e+00 -1.4997614493e-02 2.7694450346e+00 -4.7968195087e+00 2.7694450346e+00 4.7968195087e+00 
50700 5.4371880395e+00 -1.4927400214e-02 2.7697158083e+00 -4.7972885025e+00 2.7697158083e+00 4.7972885025e+00 
50800 5.4371839160e+00 -1.4857526028e-02 2.7699852880e+00 -4.7977552550e+00 2.7699852880e+00 4.7977552550e+00 
50900 5.4371798321e+00 -1.4787990301e-02 2.7702534801e+00 -4.7982197774e+00 2.7702534801e+00 4.7982197774e+00 
51000 5.4371757875e+00 -1.4718791404e-02 2.7705203912e+00 -4.7986820810e+00 2.7705203912e+00 4.7986820810e+00 
51100 5.4371717816e+00 -1.4649927716e-02 2.7707860277e+00 -4.7991421769e+00 2.7707860277e+00 4.7991421769e+00 
51200 5.4371678142e+00 -1.4581397621e-02 2.7710503960e+00 -4.7996000763e+00 2.7710503960e+00 4.7996000763e+00 
51300 5.4371638847e+00 -1.4513199510e-02 2.7713135026e+00 -4.8000557901e+00 2.7713135026e+00 4.8000557901e+00 
51400 5.4371599929e+00 -1.4445331780e-02 2.7715753536e+00 -4.8005093295e+00 2.7715753536e+00 4.8005093295e+00 
51500 5.4371561383e+00 -1.4377792833e-02 2.7718359556e+00 -4.8009607053e+00 2.7718359556e+00 4.8009607053e+00 
51600 5.4371523206e+00 -1.4310581080e-02 2.7720953147e+00 -4.8014099284e+00 2.7720953147e+00 4.8014099284e+00 
51700 5.4371485393e+00 -1.4243694935e-02 2.7723534371e+00 -4.8018570097e+00 2.7723534371e+00 4.8018570097e+00 
51800 5.4371447940e+00 -1.4177132821e-02 2.7726103293e+00 -4.8023019599e+00 2.7726103293e+00 4.8023019599e+00 
51900 5.4371410845e+00 -1.4110893166e-02 2.7728659972e+00 -4.8027447897e+00 2.7728659972e+00 4.8027447897e+00 
52000 5.4371374103e+00 -1.4044974404e-02 2.7731204471e+00 -4.8031855099e+00 2.7731204471e+00 4.8031855099e+00 
52100 5.4371337711e+00 -1.3979374977e-02 2.7733736851e+00 -4.8036241309e+00 2.7733736851e+00 4.8036241309e+00 
52200 5.4371301665e+00 -1.3914093331e-02 2.7736257172e+00 -4.8040606634e+00 2.7736257172e+00 4.8040606634e+00 
52300 5.4371265962e+00 -1.3849127920e-02 2.7738765496e+00 -4.8044951178e+00 2.7738765496e+00 4.8044951178e+00 
52400 5.4371230597e+00 -1.3784477204e-02 2.7741261882e+00 -4.8049275046e+00 2.7741261882e+00 4.8049275046e+00 
52500 5.4371195568e+00 -1.3720139648e-02 2.7743746391e+00 -4.8053578342e+00 2.7743746391e+00 4.8053578342e+00 
52600 5.4371160871e+00 -1.3656113727e-02 2.7746219083e+00 -4.8057861169e+00 2.7746219083e+00 4.8057861169e+00 
52700 5.4371126503e+00 -1.3592397917e-02 2.7748680015e+00 -4.8062123629e+00 2.7748680015e+00 4.8062123629e+00 
52800 5.4371092460e+00 -1.3528990706e-02 2.7751129248e+00 -4.8066365826e+00 2.7751129248e+00 4.8066365826e+00 
52900 5.4371058740e+00 -1.3465890583e-02 2.7753566841e+00 -4.8070587860e+00 2.7753566841e+00 4.8070587860e+00 
53000 5.4371025338e+00 -1.3403096048e-02 2.7755992851e+00 -4.8074789833e+00 2.7755992851e+00 4.8074789833e+00 
53100 5.4370992251e+00 -1.3340605605e-02 2.7758407337e+00 -4.8078971845e+00 2.7758407337e+00 4.8078971845e+00 
53200 5.4370959477e+00 -1.3278417764e-02 2.7760810356e+00 -4.8083133996e+00 2.7760810356e+00 4.8083133996e+00 
53300 5.4370927012e+00 -1.3216531042e-02 2.7763201967e+00 -4.8087276387e+00 2.7763201967e+00 4.8087276387e+00 
53400 5.4370894853e+00 -1.3154943963e-02 2.7765582225e+00 -4.8091399116e+00 2.7765582225e+00 4.8091399116e+00 
53500 5.4370862996e+00 -1.3093655057e-02 2.7767951189e+00 -4.8095502281e+00 2.7767951189e+00 4.8095502281e+00 
53600 5.4370831440e+00 -1.3032662859e-02 2.7770308914e+00 -4.8099585981e+00 2.7770308914e+00 4.8099585981e+00 
53700 5.4370800180e+00 -1.2971965913e-02 2.7772655457e+00 -4.8103650313e+00 2.7772655457e+00 4.8103650313e+00 
53800 5.4370769215e+00 -1.2911562767e-02 2.7774990875e+00 -4.8107695375e+00 2.7774990875e+00 4.8107695375e+00 
53900 5.4370738539e+00 -1.2851451976e-02 2.7777315222e+00 -4.8111721262e+00 2.7777315222e+00 4.8111721262e+00 
54000 5.4370708152e+00 -1.2791632102e-02 2.7779628554e+00 -4.8115728070e+00 2.7779628554e+00 4.8115728070e+00 
54100 5.4370678050e+00 -1.2732101713e-02 2.7781930926e+00 -4.8119715896e+00 2.7781930926e+00 4.8119715896e+00 
54200 5.4370648230e+00 -1.2672859383e-02 2.7784222393e+00 -4.8123684833e+00 2.7784222393e+00 4.8123684833e+00 
54300 5.4370618689e+00 -1.2613903692e-02 2.7786503010e+00 -4.8127634978e+00 2.7786503010e+00 4.8127634978e+00 
54400 5.4370589425e+00 -1.2555233227e-02 2.7788772830e+00 -4.8131566422e+00 2.7788772830e+00 4.8131566422e+00 
54500 5.4370560435e+00 -1.2496846582e-02 2.7791031909e+00 -4.8135479261e+00 2.7791031909e+00 4.8135479261e+00 
54600 5.4370531715e+00 -1.2438742356e-02 2.7793280299e+00 -4.8139373586e+00 2.7793280299e+00 4.8139373586e+00 
54700 5.4370503264e+00 -1.2380919154e-02 2.7795518053e+00 -4.8143249491e+00 2.7795518053e+00 4.8143249491e+00 
54800 5.4370475078e+00 -1.2323375589e-02 2.7797745226e+00 -4.8147107068e+00 2.7797745226e+00 4.8147107068e+00 
54900 5.4370447155e+00 -1.2266110278e-02 2.7799961870e+00 -4.8150946407e+00 2.7799961870e+00 4.8150946407e+00 
55000 5.4370419493e+00 -1.2209121847e-02 2.7802168037e+00 -4.8154767601e+00 2.7802168037e+00 4.8154767601e+00 
55100 5.4370392088e+00 -1.2152408926e-02 2.7804363780e+00 -4.8158570739e+00 2.7804363780e+00 4.8158570739e+00 
55200 5.4370364939e+00 -1.2095970152e-02 2.7806549151e+00 -4.8162355912e+00 2.7806549151e+00 4.8162355912e+00 
55300 5.4370338042e+00 -1.2039804168e-02 2.7808724201e+00 -4.8166123209e+00 2.7808724201e+00 4.8166123209e+00 
55400 5.4370311395e+00 -1.1983909625e-02 2.7810888982e+00 -4.8169872720e+00 2.7810888982e+00 4.8169872720e+00 
55500 5.4370284996e+00 -1.1928285176e-02 2.7813043545e+00 -4.8173604534e+00 2.7813043545e+00 4.8173604534e+00 
55600 5.4370258842e+00 -1.1872929485e-02 2.7815187942e+00 -4.8177318737e+00 2.7815187942e+00 4.8177318737e+00 
55700 5.4370232931e+00 -1.1817841219e-02 2.7817322222e+00 -4.8181015419e+00 2.7817322222e+00 4.8181015419e+00 
55800 5.4370207260e+00 -1.1763019052e-02 2.7819446436e+00 -4.8184694666e+00 2.7819446436e+00 4.8184694666e+00 
55900 5.4370181827e+00 -1.1708461665e-02 2.7821560635e+00 -4.8188356566e+00 2.7821560635e+00 4.8188356566e+00 
56000 5.4370156630e+00 -1.1654167744e-02 2.7823664868e+00 -4.8192001205e+00 2.7823664868e+00 4.8192001205e+00 
56100 5.4370131667e+00 -1.1600135982e-02 2.7825759185e+00 -4.8195628668e+00 2.7825759185e+00 4.8195628668e+00 
56200 5.4370106934e+00 -1.1546365077e-02 2.7827843635e+00 -4.8199239041e+00 2.7827843635e+00 4.8199239041e+00 
56300 5.4370082430e+00 -1.1492853734e-02 2.7829918267e+00 -4.8202832410e+00 2.7829918267e+00 4.8202832410e+00 
56400 5.4370058152e+00 -1.1439600664e-02 2.7831983131e+00 -4.8206408858e+00 2.7831983131e+00 4.8206408858e+00 
56500 5.4370034099e+00 -1.1386604583e-02 2.7834038274e+00 -4.8209968470e+00 2.7834038274e+00 4.8209968470e+00 
56600 5.4370010268e+00 -1.1333864216e-02 2.7836083745e+00 -4.8213511330e+00 2.7836083745e+00 4.8213511330e+00 
56700 5.4369986657e+00 -1.1281378289e-02 2.7838119592e+00 -4.8217037521e+00 2.7838119592e+00 4.8217037521e+00 
56800 5.4369963264e+00 -1.1229145539e-02 2.7840145863e+00 -4.8220547125e+00 2.7840145863e+00 4.8220547125e+00 
56900 5.4369940086e+00 -1.1177164707e-02 2.7842162606e+00 -4.8224040226e+00 2.7842162606e+00 4.8224040226e+00 
57000 5.4369917122e+00 -1.1125434539e-02 2.7844169867e+00 -4.8227516904e+00 2.7844169867e+00 4.8227516904e+00 
57100 5.4369894369e+00 -1.1073953788e-02 2.7846167694e+00 -4.8230977242e+00 2.7846167694e+00 4.8230977242e+00 
57200 5.4369871825e+00 -1.1022721212e-02 2.7848156134e+00 -4.8234421321e+00 2.7848156134e+00 4.8234421321e+00 
57300 5.4369849489e+00 -1.0971735578e-02 2.7850135233e+00 -4.8237849221e+00 2.7850135233e+00 4.8237849221e+00 
57400 5.4369827359e+00 -1.0920995655e-02 2.7852105037e+00 -4.8241261023e+00 2.7852105037e+00 4.8241261023e+00 
57500 5.4369805431e+00 -1.0870500219e-02 2.7854065594e+00 -4.8244656806e+00 2.7854065594e+00 4.8244656806e+00 
57600 5.4369783706e+00 -1.0820248053e-02 2.7856016947e+00 -4.8248036650e+00 2.7856016947e+00 4.8248036650e+00 
57700 5.4369762179e+00 -1.0770237946e-02 2.7857959144e+00 -4.8251400633e+00 2.7857959144e+00 4.8251400633e+00 
57800 5.4369740850e+00 -1.0720468691e-02 2.7859892230e+00 -4.8254748835e+00 2.7859892230e+00 4.8254748835e+00 
57900 5.4369719716e+00 -1.0670939088e-02 2.7861816249e+00 -4.8258081334e+00 2.7861816249e+00 4.8258081334e+00 
58000 5.4369698777e+00 -1.0621647943e-02 2.7863731246e+00 -4.8261398207e+00 2.7863731246e+00 4.8261398207e+00 
58100 5.4369678029e+00 -1.0572594067e-02 2.7865637267e+00 -4.8264699531e+00 2.7865637267e+00 4.8264699531e+00 
58200 5.4369657471e+00 -1.0523776278e-02 2.7867534355e+00 -4.8267985384e+00 2.7867534355e+00 4.8267985384e+00 
58300 5.4369637101e+00 -1.0475193397e-02 2.7869422555e+00 -4.8271255842e+00 2.7869422555e+00 4.8271255842e+00 
58400 5.4369616917e+00 -1.0426844255e-02 2.7871301910e+00 -4.8274510982e+00 2.7871301910e+00 4.8274510982e+00 
58500 5.4369596918e+00 -1.0378727684e-02 2.7873172465e+00 -4.8277750878e+00 2.7873172465e+00 4.8277750878e+00 
58600 5.4369577102e+00 -1.0330842526e-02 2.7875034263e+00 -4.8280975607e+00 2.7875034263e+00 4.8280975607e+00 
58700 5.4369557466e+00 -1.0283187626e-02 2.7876887347e+00 -4.8284185243e+00 2.7876887347e+00 4.8284185243e+00 
58800 5.4369538010e+00 -1.0235761834e-02 2.7878731761e+00 -4.8287379860e+00 2.7878731761e+00 4.8287379860e+00 
58900 5.4369518732e+00 -1.0188564008e-02 2.7880567546e+00 -4.8290559534e+00 2.7880567546e+00 4.8290559534e+00 
59000 5.4369499629e+00 -1.0141593011e-02 2.7882394747e+00 -4.8293724338e+00 2.7882394747e+00 4.8293724338e+00 
59100 5.4369480700e+00 -1.0094847710e-02 2.7884213404e+00 -4.8296874344e+00 2.7884213404e+00 4.8296874344e+00 
59200 5.4369461944e+00 -1.0048326979e-02 2.7886023560e+00 -4.8300009627e+00 2.7886023560e+00 4.8300009627e+00 
59300 5.4369443359e+00 -1.0002029697e-02 2.7887825257e+00 -4.8303130258e+00 2.7887825257e+00 4.8303130258e+00 
59400 5.4369424943e+00 -9.9559547487e-03 2.7889618538e+00 -4.8306236311e+00 2.7889618538e+00 4.8306236311e+00 
59500 5.4369406694e+00 -9.9101010242e-03 2.7891403442e+00 -4.8309327856e+00 2.7891403442e+00 4.8309327856e+00 
59600 5.4369388612e+00 -9.8644674191e-03 2.7893180012e+00 -4.8312404965e+00 2.7893180012e+00 4.8312404965e+00 
59700 5.4369370693e+00 -9.8190528345e-03 2.7894948289e+00 -4.8315467710e+00 2.7894948289e+00 4.8315467710e+00 
59800 5.4369352938e+00 -9.7738561768e-03 2.7896708313e+00 -4.8318516162e+00 2.7896708313e+00 4.8318516162e+00 
59900 5.4369335344e+00 -9.7288763579e-03 2.7898460125e+00 -4.8321550389e+00 2.7898460125e+00 4.8321550389e+00 
60000 5.4369317910e+00 -9.6841122950e-03 2.7900203765e+00 -4.8324570463e+00 2.7900203765e+00 4.8324570463e+00 
60100 5.4369300633e+00 -9.6395629109e-03 2.7901939275e+00 -4.8327576454e+00 2.7901939275e+00 4.8327576454e+00 
60200 5.4369283514e+00 -9.5952271333e-03 2.7903666693e+00 -4.8330568429e+00 2.7903666693e+00 4.8330568429e+00 
60300 5.4369266550e+00 -9.5511038957e-03 2.7905386059e+00 -4.8333546459e+00 2.7905386059e+00 4.8333546459e+00 
60400 5.4369249739e+00 -9.5071921367e-03 2.7907097414e+00 -4.8336510612e+00 2.7907097414e+00 4.8336510612e+00 
60500 5.4369233081e+00 -9.4634908000e-03 2.7908800796e+00 -4.8339460956e+00 2.7908800796e+00 4.8339460956e+00 
60600 5.4369216574e+00 -9.4199988348e-03 2.7910496244e+00 -4.8342397559e+00 2.7910496244e+00 4.8342397559e+00 
60700 5.4369200216e+00 -9.3767151955e-03 2.7912183798e+00 -4.8345320488e+00 2.7912183798e+00 4.8345320488e+00 
60800 5.4369184006e+00 -9.3336388417e-03 2.7913863496e+00 -4.8348229811e+00 2.7913863496e+00 4.8348229811e+00 
60900 5.4369167943e+00 -9.2907687381e-03 2.7915535377e+00 -4.8351125594e+00 2.7915535377e+00 4.8351125594e+00 
61000 5.4369152025e+00 -9.2481038546e-03 2.7917199480e+00 -4.8354007904e+00 2.7917199480e+00 4.8354007904e+00 
61100 5.4369136251e+00 -9.2056431665e-03 2.7918855841e+00 -4.8356876806e+00 2.7918855841e+00 4.8356876806e+00 
61200 5.4369120620e+00 -9.1633856538e-03 2.7920504500e+00 -4.8359732367e+00 2.7920504500e+00 4.8359732367e+00 
61300 5.4369105129e+00 -9.1213303020e-03 2.7922145494e+00 -4.8362574652e+00 2.7922145494e+00 4.8362574652e+00 
61400 5.4369089779e+00 -9.0794761014e-03 2.7923778860e+00 -4.8365403725e+00 2.7923778860e+00 4.8365403725e+00 
61500 5.4369074567e+00 -9.0378220476e-03 2.7925404637e+00 -4.8368219653e+00 2.7925404637e+00 4.8368219653e+00 
61600 5.4369059492e+00 -8.9963671410e-03 2.7927022860e+00 -4.8371022498e+00 2.7927022860e+00 4.8371022498e+00 
61700 5.4369044553e+00 -8.9551103872e-03 2.7928633568e+00 -4.8373812326e+00 2.7928633568e+00 4.8373812326e+00 
61800 5.4369029749e+00 -8.9140507968e-03 2.7930236796e+00 -4.8376589199e+00 2.7930236796e+00 4.8376589199e+00 
61900 5.4369015078e+00 -8.8731873852e-03 2.7931832582e+00 -4.8379353181e+00 2.7931832582e+00 4.8379353181e+00 
62000 5.4369000539e+00 -8.8325191730e-03 2.7933420962e+00 -4.8382104335e+00 2.7933420962e+00 4.8382104335e+00 
62100 5.4368986132e+00 -8.7920451856e-03 2.7935001972e+00 -4.8384842725e+00 2.7935001972e+00 4.8384842725e+00 
62200 5.4368971854e+00 -8.7517644533e-03 2.7936575648e+00 -4.8387568411e+00 2.7936575648e+00 4.8387568411e+00 
62300 5.4368957704e+00 -8.7116760114e-03 2.7938142025e+00 -4.8390281457e+00 2.7938142025e+00 4.8390281457e+00 
62400 5.4368943682e+00 -8.6717788998e-03 2.7939701141e+00 -4.8392981924e+00 2.7939701141e+00 4.8392981924e+00 
62500 5.4368929785e+00 -8.6320721637e-03 2.7941253029e+00 -4.8395669874e+00 2.7941253029e+00 4.8395669874e+00 
62600 5.4368916014e+00 -8.5925548527e-03 2.7942797726e+00 -4.8398345367e+00 2.7942797726e+00 4.8398345367e+00 
62700 5.4368902367e+00 -8.5532260215e-03 2.7944335266e+00 -4.8401008464e+00 2.7944335266e+00 4.8401008464e+00 
62800 5.4368888842e+00 -8.5140847294e-03 2.7945865684e+00 -4.8403659226e+00 2.7945865684e+00 4.8403659226e+00 
62900 5.4368875438e+00 -8.4751300405e-03 2.7947389015e+00 -4.8406297713e+00 2.7947389015e+00 4.8406297713e+00 
63000 5.4368862155e+00 -8.4363610237e-03 2.7948905294e+00 -4.8408923985e+00 2.7948905294e+00 4.8408923985e+00 
63100 5.4368848991e+00 -8.3977767526e-03 2.7950414555e+00 -4.8411538101e+00 2.7950414555e+00 4.8411538101e+00 
63200 5.4368835945e+00 -8.3593763054e-03 2.7951916831e+00 -4.8414140121e+00 2.7951916831e+00 4.8414140121e+00 
63300 5.4368823015e+00 -8.3211587653e-03 2.7953412158e+00 -4.8416730103e+00 2.7953412158e+00 4.8416730103e+00 
63400 5.4368810202e+00 -8.2831232197e-03 2.7954900569e+00 -4.8419308107e+00 2.7954900569e+00 4.8419308107e+00 
63500 5.4368797504e+00 -8.2452687610e-03 2.7956382098e+00 -4.8421874189e+00 2.7956382098e+00 4.8421874189e+00 
63600 5.4368784919e+00 -8.2075944860e-03 2.7957856777e+00 -4.8424428409e+00 2.7957856777e+00 4.8424428409e+00 
63700 5.4368772448e+00 -8.1700994962e-03 2.7959324641e+00 -4.8426970824e+00 2.7959324641e+00 4.8426970824e+00 
63800 5.4368760087e+00 -8.1327828976e-03 2.7960785723e+00 -4.8429501492e+00 2.7960785723e+00 4.8429501492e+00 
63900 5.4368747838e+00 -8.0956438009e-03 2.7962240055e+00 -4.8432020469e+00 2.7962240055e+00 4.8432020469e+00 
64000 5.4368735698e+00 -8.0586813211e-03 2.7963687670e+00 -4.8434527812e+00 2.7963687670e+00 4.8434527812e+00 
64100 5.4368723666e+00 -8.0218945779e-03 2.7965128602e+00 -4.8437023578e+00 2.7965128602e+00 4.8437023578e+00 
64200 5.4368711742e+00 -7.9852826955e-03 2.7966562881e+00 -4.8439507824e+00 2.7966562881e+00 4.8439507824e+00 
64300 5.4368699925e+00 -7.9488448023e-03 2.7967990542e+00 -4.8441980604e+00 2.7967990542e+00 4.8441980604e+00 
64400 5.4368688213e+00 -7.9125800315e-03 2.7969411615e+00 -4.8444441975e+00 2.7969411615e+00 4.8444441975e+00 
64500 5.4368676606e+00 -7.8764875205e-03 2.7970826133e+00 -4.8446891992e+00 2.7970826133e+00 4.8446891992e+00 
64600 5.4368665103e+00 -7.8405664112e-03 2.7972234127e+00 -4.8449330710e+00 2.7972234127e+00 4.8449330710e+00 
64700 5.4368653702e+00 -7.8048158497e-03 2.7973635630e+00 -4.8451758183e+00 2.7973635630e+00 4.8451758183e+00 
64800 5.4368642403e+00 -7.7692349868e-03 2.7975030672e+00 -4.8454174467e+00 2.7975030672e+00 4.8454174467e+00 
64900 5.4368631205e+00 -7.7338229774e-03 2.7976419285e+00 -4.8456579616e+00 2.7976419285e+00 4.8456579616e+00 
65000 5.4368620107e+00 -7.6985789808e-03 2.7977801501e+00 -4.8458973683e+00 2.7977801501e+00 4.8458973683e+00 
65100 5.4368609108e+00 -7.6635021605e-03 2.7979177349e+00 -4.8461356722e+00 2.7979177349e+00 4.8461356722e+00 
65200 5.4368598207e+00 -7.6285916845e-03 2.7980546861e+00 -4.8463728787e+00 2.7980546861e+00 4.8463728787e+00 
65300 5.4368587403e+00 -7.5938467247e-03 2.7981910068e+00 -4.8466089930e+00 2.7981910068e+00 4.8466089930e+00 
65400 5.4368576695e+00 -7.5592664577e-03 2.7983266999e+00 -4.8468440205e+00 2.7983266999e+00 4.8468440205e+00 
65500 5.4368566082e+00 -7.5248500639e-03 2.7984617686e+00 -4.8470779663e+00 2.7984617686e+00 4.8470779663e+00 
65600 5.4368555565e+00 -7.4905967282e-03 2.7985962159e+00 -4.8473108358e+00 2.7985962159e+00 4.8473108358e+00 
65700 5.4368545140e+00 -7.4565056396e-03 2.7987300447e+00 -4.8475426341e+00 2.7987300447e+00 4.8475426341e+00 
65800 5.4368534809e+00 -7.4225759910e-03 2.7988632581e+00 -4.8477733664e+00 2.7988632581e+00 4.8477733664e+00 
65900 5.4368524569e+00 -7.3888069799e-03 2.7989958590e+00 -4.8480030379e+00 2.7989958590e+00 4.8480030379e+00 
66000 5.4368514421e+00 -7.3551978075e-03 2.7991278503e+00 -4.8482316536e+00 2.7991278503e+00 4.8482316536e+00 
66100 5.4368504363e+00 -7.3217476795e-03 2.7992592351e+00 -4.8484592187e+00 2.7992592351e+00 4.8484592187e+00 
66200 5.4368494394e+00 -7.2884558052e-03 2.7993900162e+00 -4.8486857382e+00 2.7993900162e+00 4.8486857382e+00 
66300 5.4368484514e+00 -7.2553213984e-03 2.7995201966e+00 -4.8489112172e+00 2.7995201966e+00 4.8489112172e+00 
66400 5.4368474721e+00 -7.2223436767e-03 2.7996497791e+00 -4.8491356607e+00 2.7996497791e+00 4.8491356607e+00 
66500 5.4368465016e+00 -7.1895218618e-03 2.7997787666e+00 -4.8493590737e+00 2.7997787666e+00 4.8493590737e+00 
66600 5.4368455397e+00 -7.1568551793e-03 2.7999071621e+00 -4.8495814612e+00 2.7999071621e+00 4.8495814612e+00 
66700 5.4368445863e+00 -7.1243428589e-03 2.8000349683e+00 -4.8498028280e+00 2.8000349683e+00 4.8498028280e+00 
66800 5.4368436414e+00 -7.0919841343e-03 2.8001621880e+00 -4.8500231791e+00 2.8001621880e+00 4.8500231791e+00 
66900 5.4368427049e+00 -7.0597782430e-03 2.8002888242e+00 -4.8502425194e+00 2.8002888242e+00 4.8502425194e+00 
67000 5.4368417767e+00 -7.0277244265e-03 2.8004148796e+00 -4.8504608538e+00 2.8004148796e+00 4.8504608538e+00 
67100 5.4368408567e+00 -6.9958219301e-03 2.8005403571e+00 -4.8506781871e+00 2.8005403571e+00 4.8506781871e+00 
67200 5.4368399449e+00 -6.9640700032e-03 2.8006652593e+00 -4.8508945241e+00 2.8006652593e+00 4.8508945241e+00 
67300 5.4368390411e+00 -6.9324678989e-03 2.8007895891e+00 -4.8511098696e+00 2.8007895891e+00 4.8511098696e+00 
67400 5.4368381454e+00 -6.9010148742e-03 2.8009133491e+00 -4.8513242283e+00 2.8009133491e+00 4.8513242283e+00 
67500 5.4368372576e+00 -6.8697101898e-03 2.8010365423e+00 -4.8515376051e+00 2.8010365423e+00 4.8515376051e+00 
67600 5.4368363777e+00 -6.8385531105e-03 2.8011591712e+00 -4.8517500045e+00 2.8011591712e+00 4.8517500045e+00 
67700 5.4368355056e+00 -6.8075429045e-03 2.8012812385e+00 -4.8519614314e+00 2.8012812385e+00 4.8519614314e+00 
67800 5.4368346412e+00 -6.7766788441e-03 2.8014027471e+00 -4.8521718904e+00 2.8014027471e+00 4.8521718904e+00 
67900 5.4368337844e+00 -6.7459602052e-03 2.8015236995e+00 -4.8523813861e+00 2.8015236995e+00 4.8523813861e+00 
68000 5.4368329353e+00 -6.7153862674e-03 2.8016440984e+00 -4.8525899231e+00 2.8016440984e+00 4.8525899231e+00 
68100 5.4368320936e+00 -6.6849563142e-03 2.8017639465e+00 -4.8527975061e+00 2.8017639465e+00 4.8527975061e+00 
68200 5.4368312594e+00 -6.6546696326e-03 2.8018832464e+00 -4.8530041396e+00 2.8018832464e+00 4.8530041396e+00 
68300 5.4368304326e+00 -6.6245255133e-03 2.8020020008e+00 -4.8532098282e+00 2.8020020008e+00 4.8532098282e+00 
68400 5.4368296131e+00 -6.5945232508e-03 2.8021202122e+00 -4.8534145764e+00 2.8021202122e+00 4.8534145764e+00 
68500 5.4368288009e+00 -6.5646621430e-03 2.8022378832e+00 -4.8536183886e+00 2.8022378832e+00 4.8536183886e+00 
68600 5.4368279958e+00 -6.5349414917e-03 2.8023550165e+00 -4.8538212695e+00 2.8023550165e+00 4.8538212695e+00 
68700 5.4368271978e+00 -6.5053606020e-03 2.8024716147e+00 -4.8540232234e+00 2.8024716147e+00 4.8540232234e+00 
68800 5.4368264069e+00 -6.4759187829e-03 2.8025876802e+00 -4.8542242547e+00 2.8025876802e+00 4.8542242547e+00 
68900 5.4368256230e+00 -6.4466153468e-03 2.8027032156e+00 -4.8544243679e+00 2.8027032156e+00 4.8544243679e+00 
69000 5.4368248460e+00 -6.4174496095e-03 2.8028182235e+00 -4.8546235674e+00 2.8028182235e+00 4.8546235674e+00 
69100 5.4368240759e+00 -6.3884208907e-03 2.8029327063e+00 -4.8548218576e+00 2.8029327063e+00 4.8548218576e+00 
69200 5.4368233125e+00 -6.3595285134e-03 2.8030466667e+00 -4.8550192427e+00 2.8030466667e+00 4.8550192427e+00 
69300 5.4368225560e+00 -6.3307718039e-03 2.8031601070e+00 -4.8552157271e+00 2.8031601070e+00 4.8552157271e+00 
69400 5.4368218060e+00 -6.3021500924e-03 2.8032730298e+00 -4.8554113152e+00 2.8032730298e+00 4.8554113152e+00 
69500 5.4368210627e+00 -6.2736627122e-03 2.8033854376e+00 -4.8556060111e+00 2.8033854376e+00 4.8556060111e+00 
69600 5.4368203260e+00 -6.2453090002e-03 2.8034973327e+00 -4.8557998192e+00 2.8034973327e+00 4.8557998192e+00 
69700 5.4368195958e+00 -6.2170882967e-03 2.8036087177e+00 -4.8559927437e+00 2.8036087177e+00 4.8559927437e+00 
69800 5.4368188720e+00 -6.1889999455e-03 2.8037195950e+00 -4.8561847887e+00 2.8037195950e+00 4.8561847887e+00 
69900 5.4368181546e+00 -6.1610432936e-03 2.8038299670e+00 -4.8563759585e+00 2.8038299670e+00 4.8563759585e+00 
70000 5.4368174435e+00 -6.1332176915e-03 2.8039398360e+00 -4.8565662574e+00 2.8039398360e+00 4.8565662574e+00 
70100 5.4368167386e+00 -6.1055224930e-03 2.8040492046e+00 -4.8567556893e+00 2.8040492046e+00 4.8567556893e+00 
70200 5.4368160400e+00 -6.0779570554e-03 2.8041580750e+00 -4.8569442584e+00 2.8041580750e+00 4.8569442584e+00 
70300 5.4368153476e+00 -6.0505207390e-03 2.8042664497e+00 -4.8571319689e+00 2.8042664497e+00 4.8571319689e+00 
70400 5.4368146612e+00 -6.0232129077e-03 2.8043743311e+00 -4.8573188248e+00 2.8043743311e+00 4.8573188248e+00 
70500 5.4368139809e+00 -5.9960329286e-03 2.8044817214e+00 -4.8575048303e+00 2.8044817214e+00 4.8575048303e+00 
70600 5.4368133066e+00 -5.9689801719e-03 2.8045886229e+00 -4.8576899893e+00 2.8045886229e+00 4.8576899893e+00 
70700 5.4368126382e+00 -5.9420540113e-03 2.8046950382e+00 -4.8578743058e+00 2.8046950382e+00 4.8578743058e+00 
70800 5.4368119757e+00 -5.9152538237e-03 2.8048009693e+00 -4.8580577840e+00 2.8048009693e+00 4.8580577840e+00 
70900 5.4368113191e+00 -5.8885789890e-03 2.8049064187e+00 -4.8582404277e+00 2.8049064187e+00 4.8582404277e+00 
71000 5.4368106682e+00 -5.8620288906e-03 2.8050113886e+00 -4.8584222409e+00 2.8050113886e+00 4.8584222409e+00 
71100 5.4368100230e+00 -5.8356029148e-03 2.8051158813e+00 -4.8586032276e+00 2.8051158813e+00 4.8586032276e+00 
71200 5.4368093835e+00 -5.8093004514e-03 2.8052198991e+00 -4.8587833917e+00 2.8052198991e+00 4.8587833917e+00 
71300 5.4368087497e+00 -5.7831208929e-03 2.8053234442e+00 -4.8589627371e+00 2.8053234442e+00 4.8589627371e+00 
71400 5.4368081214e+00 -5.7570636355e-03 2.8054265189e+00 -4.8591412676e+00 2.8054265189e+00 4.8591412676e+00 
71500 5.4368074986e+00 -5.7311280780e-03 2.8055291254e+00 -4.8593189873e+00 2.8055291254e+00 4.8593189873e+00 
71600 5.4368068814e+00 -5.7053136226e-03 2.8056312659e+00 -4.8594958998e+00 2.8056312659e+00 4.8594958998e+00 
71700 5.4368062695e+00 -5.6796196745e-03 2.8057329426e+00 -4.8596720091e+00 2.8057329426e+00 4.8596720091e+00 
71800 5.4368056630e+00 -5.6540456421e-03 2.8058341578e+00 -4.8598473189e+00 2.8058341578e+00 4.8598473189e+00 
71900 5.4368050619e+00 -5.6285909366e-03 2.8059349135e+00 -4.8600218330e+00 2.8059349135e+00 4.8600218330e+00 
72000 5.4368044660e+00 -5.6032549724e-03 2.8060352121e+00 -4.8601955552e+00 2.8060352121e+00 4.8601955552e+00 
72100 5.4368038754e+00 -5.5780371670e-03 2.8061350556e+00 -4.8603684892e+00 2.8061350556e+00 4.8603684892e+00 
72200 5.4368032899e+00 -5.5529369408e-03 2.8062344462e+00 -4.8605406388e+00 2.8062344462e+00 4.8605406388e+00 
72300 5.4368027096e+00 -5.5279537172e-03 2.8063333861e+00 -4.8607120077e+00 2.8063333861e+00 4.8607120077e+00 
72400 5.4368021344e+00 -5.5030869225e-03 2.8064318773e+00 -4.8608825996e+00 2.8064318773e+00 4.8608825996e+00 
72500 5.4368015642e+00 -5.4783359862e-03 2.8065299221e+00 -4.8610524181e+00 2.8065299221e+00 4.8610524181e+00 
72600 5.4368009991e+00 -5.4537003405e-03 2.8066275225e+00 -4.8612214669e+00 2.8066275225e+00 4.8612214669e+00 
72700 5.4368004389e+00 -5.4291794206e-03 2.8067246806e+00 -4.8613897496e+00 2.8067246806e+00 4.8613897496e+00 
72800 5.4367998836e+00 -5.4047726648e-03 2.8068213985e+00 -4.8615572700e+00 2.8068213985e+00 4.8615572700e+00 
72900 5.4367993332e+00 -5.3804795140e-03 2.8069176783e+00 -4.8617240315e+00 2.8069176783e+00 4.8617240315e+00 
73000 5.4367987876e+00 -5.3562994122e-03 2.8070135220e+00 -4.8618900377e+00 2.8070135220e+00 4.8618900377e+00 
73100 5.4367982468e+00 -5.3322318062e-03 2.8071089318e+00 -4.8620552922e+00 2.8071089318e+00 4.8620552922e+00 
73200 5.4367977108e+00 -5.3082761456e-03 2.8072039096e+00 -4.8622197987e+00 2.8072039096e+00 4.8622197987e+00 
73300 5.4367971794e+00 -5.2844318830e-03 2.8072984575e+00 -4.8623835605e+00 2.8072984575e+00 4.8623835605e+00 
73400 5.4367966527e+00 -5.2606984737e-03 2.8073925776e+00 -4.8625465812e+00 2.8073925776e+00 4.8625465812e+00 
73500 5.4367961306e+00 -5.2370753757e-03 2.8074862718e+00 -4.8627088643e+00 2.8074862718e+00 4.8627088643e+00 
73600 5.4367956131e+00 -5.2135620501e-03 2.8075795421e+00 -4.8628704133e+00 2.8075795421e+00 4.8628704133e+00 
73700 5.4367951002e+00 -5.1901579606e-03 2.8076723906e+00 -4.8630312316e+00 2.8076723906e+00 4.8630312316e+00 
73800 5.4367945917e+00 -5.1668625736e-03 2.8077648193e+00 -4.8631913227e+00 2.8077648193e+00 4.8631913227e+00 
73900 5.4367940877e+00 -5.1436753584e-03 2.8078568300e+00 -4.8633506900e+00 2.8078568300e+00 4.8633506900e+00 
74000 5.4367935881e+00 -5.1205957869e-03 2.8079484248e+00 -4.8635093368e+00 2.8079484248e+00 4.8635093368e+00 
74100 5.4367930928e+00 -5.0976233339e-03 2.8080396057e+00 -4.8636672667e+00 2.8080396057e+00 4.8636672667e+00 
74200 5.4367926020e+00 -5.0747574766e-03 2.8081303746e+00 -4.8638244830e+00 2.8081303746e+00 4.8638244830e+00 
74300 5.4367921154e+00 -5.0519976953e-03 2.8082207333e+00 -4.8639809890e+00 2.8082207333e+00 4.8639809890e+00 
74400 5.4367916330e+00 -5.0293434727e-03 2.8083106840e+00 -4.8641367881e+00 2.8083106840e+00 4.8641367881e+00 
74500 5.4367911549e+00 -5.0067942942e-03 2.8084002284e+00 -4.8642918835e+00 2.8084002284e+00 4.8642918835e+00 
74600 5.4367906810e+00 -4.9843496480e-03 2.8084893685e+00 -4.8644462787e+00 2.8084893685e+00 4.8644462787e+00 
74700 5.4367902112e+00 -4.9620090247e-03 2.8085781061e+00 -4.8645999768e+00 2.8085781061e+00 4.8645999768e+00 
74800 5.4367897456e+00 -4.9397719178e-03 2.8086664433e+00 -4.8647529813e+00 2.8086664433e+00 4.8647529813e+00 
74900 5.4367892840e+00 -4.9176378231e-03 2.8087543818e+00 -4.8649052952e+00 2.8087543818e+00 4.8649052952e+00 
75000 5.4367888264e+00 -4.8956062393e-03 2.8088419235e+00 -4.8650569219e+00 2.8088419235e+00 4.8650569219e+00 
75100 5.4367883729e+00 -4.8736766675e-03 2.8089290703e+00 -4.8652078646e+00 2.8089290703e+00 4.8652078646e+00 
75200 5.4367879233e+00 -4.8518486114e-03 2.8090158240e+00 -4.8653581264e+00 2.8090158240e+00 4.8653581264e+00 
75300 5.4367874776e+00 -4.8301215773e-03 2.8091021865e+00 -4.8655077107e+00 2.8091021865e+00 4.8655077107e+00 
75400 5.4367870359e+00 -4.8084950740e-03 2.8091881596e+00 -4.8656566205e+00 2.8091881596e+00 4.8656566205e+00 
75500 5.4367865980e+00 -4.7869686128e-03 2.8092737452e+00 -4.8658048591e+00 2.8092737452e+00 4.8658048591e+00 
75600 5.4367861639e+00 -4.7655417076e-03 2.8093589450e+00 -4.8659524295e+00 2.8093589450e+00 4.8659524295e+00 
75700 5.4367857336e+00 -4.7442138747e-03 2.8094437609e+00 -4.8660993350e+00 2.8094437609e+00 4.8660993350e+00 
75800 5.4367853071e+00 -4.7229846330e-03 2.8095281947e+00 -4.8662455785e+00 2.8095281947e+00 4.8662455785e+00 
75900 5.4367848843e+00 -4.7018535038e-03 2.8096122481e+00 -4.8663911633e+00 2.8096122481e+00 4.8663911633e+00 
76000 5.4367844653e+00 -4.6808200108e-03 2.8096959229e+00 -4.8665360923e+00 2.8096959229e+00 4.8665360923e+00 
76100 5.4367840498e+00 -4.6598836804e-03 2.8097792210e+00 -4.8666803688e+00 2.8097792210e+00 4.8666803688e+00 
76200 5.4367836380e+00 -4.6390440412e-03 2.8098621440e+00 -4.8668239956e+00 2.8098621440e+00 4.8668239956e+00 
76300 5.4367832298e+00 -4.6183006242e-03 2.8099446937e+00 -4.8669669759e+00 2.8099446937e+00 4.8669669759e+00 
76400 5.4367828252e+00 -4.5976529630e-03 2.8100268719e+00 -4.8671093127e+00 2.8100268719e+00 4.8671093127e+00 
76500 5.4367824241e+00 -4.5771005934e-03 2.8101086803e+00 -4.8672510090e+00 2.8101086803e+00 4.8672510090e+00 
76600 5.4367820265e+00 -4.5566430538e-03 2.8101901206e+00 -4.8673920678e+00 2.8101901206e+00 4.8673920678e+00 
76700 5.4367816324e+00 -4.5362798847e-03 2.8102711945e+00 -4.8675324920e+00 2.8102711945e+00 4.8675324920e+00 
76800 5.4367812417e+00 -4.5160106293e-03 2.8103519039e+00 -4.8676722846e+00 2.8103519039e+00 4.8676722846e+00 
76900 5.4367808544e+00 -4.4958348328e-03 2.8104322502e+00 -4.8678114487e+00 2.8104322502e+00 4.8678114487e+00 
77000 5.4367804705e+00 -4.4757520429e-03 2.8105122354e+00 -4.8679499870e+00 2.8105122354e+00 4.8679499870e+00 
77100 5.4367800899e+00 -4.4557618097e-03 2.8105918610e+00 -4.8680879025e+00 2.8105918610e+00 4.8680879025e+00 
77200 5.4367797127e+00 -4.4358636854e-03 2.8106711287e+00 -4.8682251982e+00 2.8106711287e+00 4.8682251982e+00 
77300 5.4367793388e+00 -4.4160572248e-03 2.8107500401e+00 -4.8683618769e+00 2.8107500401e+00 4.8683618769e+00 
77400 5.4367789681e+00 -4.3963419846e-03 2.8108285971e+00 -4.8684979415e+00 2.8108285971e+00 4.8684979415e+00 
77500 5.4367786007e+00 -4.3767175241e-03 2.8109068011e+00 -4.8686333948e+00 2.8109068011e+00 4.8686333948e+00 
77600 5.4367782364e+00 -4.3571834047e-03 2.8109846539e+00 -4.8687682398e+00 2.8109846539e+00 4.8687682398e+00 
77700 5.4367778754e+00 -4.3377391901e-03 2.8110621570e+00 -4.8689024792e+00 2.8110621570e+00 4.8689024792e+00 
77800 5.4367775175e+00 -4.3183844462e-03 2.8111393122e+00 -4.8690361158e+00 2.8111393122e+00 4.8690361158e+00 
77900 5.4367771627e+00 -4.2991187411e-03 2.8112161210e+00 -4.8691691526e+00 2.8112161210e+00 4.8691691526e+00 
78000 5.4367768110e+00 -4.2799416452e-03 2.8112925850e+00 -4.8693015922e+00 2.8112925850e+00 4.8693015922e+00 
78100 5.4367764623e+00 -4.2608527311e-03 2.8113687059e+00 -4.8694334374e+00 2.8113687059e+00 4.8694334374e+00 
78200 5.4367761168e+00 -4.2418515735e-03 2.8114444852e+00 -4.8695646910e+00 2.8114444852e+00 4.8695646910e+00 
78300 5.4367757742e+00 -4.2229377493e-03 2.8115199245e+00 -4.8696953558e+00 2.8115199245e+00 4.8696953558e+00 
78400 5.4367754346e+00 -4.2041108376e-03 2.8115950255e+00 -4.8698254344e+00 2.8115950255e+00 4.8698254344e+00 
78500 5.4367750980e+00 -4.1853704196e-03 2.8116697896e+00 -4.8699549297e+00 2.8116697896e+00 4.8699549297e+00 
78600 5.4367747643e+00 -4.1667160787e-03 2.8117442185e+00 -4.8700838443e+00 2.8117442185e+00 4.8700838443e+00 
78700 5.4367744335e+00 -4.1481474005e-03 2.8118183137e+00 -4.8702121810e+00 2.8118183137e+00 4.8702121810e+00 
78800 5.4367741056e+00 -4.1296639726e-03 2.8118920767e+00 -4.8703399423e+00 2.8118920767e+00 4.8703399423e+00 
78900 5.4367737805e+00 -4.1112653846e-03 2.8119655092e+00 -4.8704671310e+00 2.8119655092e+00 4.8704671310e+00 
79000 5.4367734583e+00 -4.0929512286e-03 2.8120386125e+00 -4.8705937498e+00 2.8120386125e+00 4.8705937498e+00 
79100 5.4367731389e+00 -4.0747210982e-03 2.8121113884e+00 -4.8707198012e+00 2.8121113884e+00 4.8707198012e+00 
79200 5.4367728222e+00 -4.0565745896e-03 2.8121838382e+00 -4.8708452880e+00 2.8121838382e+00 4.8708452880e+00 
79300 5.4367725084e+00 -4.0385113009e-03 2.8122559635e+00 -4.8709702126e+00 2.8122559635e+00 4.8709702126e+00 
79400 5.4367721972e+00 -4.0205308321e-03 2.8123277658e+00 -4.8710945779e+00 2.8123277658e+00 4.8710945779e+00 
79500 5.4367718888e+00 -4.0026327853e-03 2.8123992466e+00 -4.8712183862e+00 2.8123992466e+00 4.8712183862e+00 
79600 5.4367715830e+00 -3.9848167648e-03 2.8124704073e+00 -4.8713416403e+00 2.8124704073e+00 4.8713416403e+00 
79700 5.4367712799e+00 -3.9670823768e-03 2.8125412496e+00 -4.8714643426e+00 2.8125412496e+00 4.8714643426e+00 
79800 5.4367709795e+00 -3.9494292295e-03 2.8126117747e+00 -4.8715864958e+00 2.8126117747e+00 4.8715864958e+00 
79900 5.4367706817e+00 -3.9318569330e-03 2.8126819843e+00 -4.8717081023e+00 2.8126819843e+00 4.8717081023e+00 
80000 5.4367703864e+00 -3.9143650996e-03 2.8127518797e+00 -4.8718291648e+00 2.8127518797e+00 4.8718291648e+00 
80100 5.4367700938e+00 -3.8969533435e-03 2.8128214625e+00 -4.8719496857e+00 2.8128214625e+00 4.8719496857e+00 
80200 5.4367698036e+00 -3.8796212808e-03 2.8128907341e+00 -4.8720696675e+00 2.8128907341e+00 4.8720696675e+00 
80300 5.4367695160e+00 -3.8623685295e-03 2.8129596958e+00 -4.8721891128e+00 2.8129596958e+00 4.8721891128e+00 
80400 5.4367692309e+00 -3.8451947097e-03 2.8130283492e+00 -4.8723080239e+00 2.8130283492e+00 4.8723080239e+00 
80500 5.4367689483e+00 -3.8280994434e-03 2.8130966956e+00 -4.8724264035e+00 2.8130966956e+00 4.8724264035e+00 
80600 5.4367686681e+00 -3.8110823545e-03 2.8131647366e+00 -4.8725442538e+00 2.8131647366e+00 4.8725442538e+00 
80700 5.4367683904e+00 -3.7941430688e-03 2.8132324734e+00 -4.8726615775e+00 2.8132324734e+00 4.8726615775e+00 
80800 5.4367681151e+00 -3.7772812140e-03 2.8132999076e+00 -4.8727783768e+00 2.8132999076e+00 4.8727783768e+00 
80900 5.4367678422e+00 -3.7604964197e-03 2.8133670404e+00 -4.8728946543e+00 2.8133670404e+00 4.8728946543e+00 
81000 5.4367675717e+00 -3.7437883173e-03 2.8134338733e+00 -4.8730104123e+00 2.8134338733e+00 4.8730104123e+00 
81100 5.4367673035e+00 -3.7271565403e-03 2.8135004077e+00 -4.8731256533e+00 2.8135004077e+00 4.8731256533e+00 
81200 5.4367670376e+00 -3.7106007239e-03 2.8135666450e+00 -4.8732403796e+00 2.8135666450e+00 4.8732403796e+00 
81300 5.4367667741e+00 -3.6941205051e-03 2.8136325865e+00 -4.8733545936e+00 2.8136325865e+00 4.8733545936e+00 
81400 5.4367665128e+00 -3.6777155229e-03 2.8136982336e+00 -4.8734682977e+00 2.8136982336e+00 4.8734682977e+00 
81500 5.4367662538e+00 -3.6613854179e-03 2.8137635876e+00 -4.8735814942e+00 2.8137635876e+00 4.8735814942e+00 
81600 5.4367659971e+00 -3.6451298329e-03 2.8138286499e+00 -4.8736941854e+00 2.8138286499e+00 4.8736941854e+00 
81700 5.4367657426e+00 -3.6289484121e-03 2.8138934218e+00 -4.8738063737e+00 2.8138934218e+00 4.8738063737e+00 
81800 5.4367654903e+00 -3.6128408018e-03 2.8139579048e+00 -4.8739180614e+00 2.8139579048e+00 4.8739180614e+00 
81900 5.4367652402e+00 -3.5968066499e-03 2.8140221000e+00 -4.8740292509e+00 2.8140221000e+00 4.8740292509e+00 
82000 5.4367649923e+00 -3.5808456062e-03 2.8140860089e+00 -4.8741399443e+00 2.8140860089e+00 4.8741399443e+00 
82100 5.4367647465e+00 -3.5649573223e-03 2.8141496328e+00 -4.8742501440e+00 2.8141496328e+00 4.8742501440e+00 
82200 5.4367645029e+00 -3.5491414515e-03 2.8142129729e+00 -4.8743598523e+00 2.8142129729e+00 4.8743598523e+00 
82300 5.4367642614e+00 -3.5333976487e-03 2.8142760305e+00 -4.8744690714e+00 2.8142760305e+00 4.8744690714e+00 
82400 5.4367640220e+00 -3.5177255709e-03 2.8143388071e+00 -4.8745778036e+00 2.8143388071e+00 4.8745778036e+00 
82500 5.4367637846e+00 -3.5021248766e-03 2.8144013038e+00 -4.8746860511e+00 2.8144013038e+00 4.8746860511e+00 
82600 5.4367635493e+00 -3.4865952261e-03 2.8144635220e+00 -4.8747938161e+00 2.8144635220e+00 4.8747938161e+00 
82700 5.4367633161e+00 -3.4711362812e-03 2.8145254629e+00 -4.8749011009e+00 2.8145254629e+00 4.8749011009e+00 
82800 5.4367630849e+00 -3.4557477059e-03 2.8145871278e+00 -4.8750079076e+00 2.8145871278e+00 4.8750079076e+00 
82900 5.4367628557e+00 -3.4404291653e-03 2.8146485180e+00 -4.8751142385e+00 2.8146485180e+00 4.8751142385e+00 
83000 5.4367626285e+00 -3.4251803267e-03 2.8147096347e+00 -4.8752200958e+00 2.8147096347e+00 4.8752200958e+00 
83100 5.4367624032e+00 -3.4100008588e-03 2.8147704792e+00 -4.8753254816e+00 2.8147704792e+00 4.8753254816e+00 
83200 5.4367621800e+00 -3.3948904321e-03 2.8148310527e+00 -4.8754303981e+00 2.8148310527e+00 4.8754303981e+00 
83300 5.4367619586e+00 -3.3798487187e-03 2.8148913566e+00 -4.8755348474e+00 2.8148913566e+00 4.8755348474e+00 
83400 5.4367617392e+00 -3.3648753922e-03 2.8149513919e+00 -4.8756388317e+00 2.8149513919e+00 4.8756388317e+00 
83500 5.4367615217e+00 -3.3499701282e-03 2.8150111601e+00 -4.8757423531e+00 2.8150111601e+00 4.8757423531e+00 
83600 5.4367613060e+00 -3.3351326037e-03 2.8150706622e+00 -4.8758454138e+00 2.8150706622e+00 4.8758454138e+00 
83700 5.4367610923e+00 -3.3203624974e-03 2.8151298995e+00 -4.8759480158e+00 2.8151298995e+00 4.8759480158e+00 
83800 5.4367608804e+00 -3.3056594895e-03 2.8151888732e+00 -4.8760501613e+00 2.8151888732e+00 4.8760501613e+00 
83900 5.4367606703e+00 -3.2910232619e-03 2.8152475846e+00 -4.8761518524e+00 2.8152475846e+00 4.8761518524e+00 
84000 5.4367604621e+00 -3.2764534983e-03 2.8153060348e+00 -4.8762530910e+00 2.8153060348e+00 4.8762530910e+00 
84100 5.4367602556e+00 -3.2619498836e-03 2.8153642250e+00 -4.8763538794e+00 2.8153642250e+00 4.8763538794e+00 
84200 5.4367600510e+00 -3.2475121045e-03 2.8154221564e+00 -4.8764542196e+00 2.8154221564e+00 4.8764542196e+00 
84300 5.4367598481e+00 -3.2331398494e-03 2.8154798302e+00 -4.8765541136e+00 2.8154798302e+00 4.8765541136e+00 
84400 5.4367596470e+00 -3.2188328080e-03 2.8155372476e+00 -4.8766535635e+00 2.8155372476e+00 4.8766535635e+00 
84500 5.4367594477e+00 -3.2045906717e-03 2.8155944098e+00 -4.8767525712e+00 2.8155944098e+00 4.8767525712e+00 
84600 5.4367592500e+00 -3.1904131335e-03 2.8156513178e+00 -4.8768511389e+00 2.8156513178e+00 4.8768511389e+00 
84700 5.4367590541e+00 -3.1762998879e-03 2.8157079730e+00 -4.8769492685e+00 2.8157079730e+00 4.8769492685e+00 
84800 5.4367588599e+00 -3.1622506308e-03 2.8157643764e+00 -4.8770469621e+00 2.8157643764e+00 4.8770469621e+00 
84900 5.4367586674e+00 -3.1482650599e-03 2.8158205292e+00 -4.8771442216e+00 2.8158205292e+00 4.8771442216e+00 
85000 5.4367584765e+00 -3.1343428741e-03 2.8158764326e+00 -4.8772410490e+00 2.8158764326e+00 4.8772410490e+00 
85100 5.4367582873e+00 -3.1204837741e-03 2.8159320876e+00 -4.8773374464e+00 2.8159320876e+00 4.8773374464e+00 
85200 5.4367580997e+00 -3.1066874620e-03 2.8159874954e+00 -4.8774334155e+00 2.8159874954e+00 4.8774334155e+00 
85300 5.4367579138e+00 -3.0929536412e-03 2.8160426572e+00 -4.8775289585e+00 2.8160426572e+00 4.8775289585e+00 
85400 5.4367577294e+00 -3.0792820170e-03 2.8160975740e+00 -4.8776240773e+00 2.8160975740e+00 4.8776240773e+00 
85500 5.4367575467e+00 -3.0656722957e-03 2.8161522471e+00 -4.8777187738e+00 2.8161522471e+00 4.8777187738e+00 
85600 5.4367573656e+00 -3.0521241854e-03 2.8162066774e+00 -4.8778130499e+00 2.8162066774e+00 4.8778130499e+00 
85700 5.4367571860e+00 -3.0386373955e-03 2.8162608662e+00 -4.8779069075e+00 2.8162608662e+00 4.8779069075e+00 
85800 5.4367570080e+00 -3.0252116371e-03 2.8163148144e+00 -4.8780003487e+00 2.8163148144e+00 4.8780003487e+00 
85900 5.4367568315e+00 -3.0118466224e-03 2.8163685233e+00 -4.8780933751e+00 2.8163685233e+00 4.8780933751e+00 
86000 5.4367566565e+00 -2.9985420652e-03 2.8164219938e+00 -4.8781859889e+00 2.8164219938e+00 4.8781859889e+00 
86100 5.4367564831e+00 -2.9852976809e-03 2.8164752272e+00 -4.8782781917e+00 2.8164752272e+00 4.8782781917e+00 
86200 5.4367563112e+00 -2.9721131860e-03 2.8165282244e+00 -4.8783699856e+00 2.8165282244e+00 4.8783699856e+00 
86300 5.4367561407e+00 -2.9589882986e-03 2.8165809866e+00 -4.8784613724e+00 2.8165809866e+00 4.8784613724e+00 
86400 5.4367559718e+00 -2.9459227383e-03 2.8166335147e+00 -4.8785523538e+00 2.8166335147e+00 4.8785523538e+00 
86500 5.4367558043e+00 -2.9329162259e-03 2.8166858100e+00 -4.8786429319e+00 2.8166858100e+00 4.8786429319e+00 
86600 5.4367556382e+00 -2.9199684836e-03 2.8167378734e+00 -4.8787331084e+00 2.8167378734e+00 4.8787331084e+00 
86700 5.4367554736e+00 -2.9070792353e-03 2.8167897060e+00 -4.8788228851e+00 2.8167897060e+00 4.8788228851e+00 
86800 5.4367553104e+00 -2.8942482058e-03 2.8168413089e+00 -4.8789122638e+00 2.8168413089e+00 4.8789122638e+00 
86900 5.4367551487e+00 -2.8814751216e-03 2.8168926830e+00 -4.8790012465e+00 2.8168926830e+00 4.8790012465e+00 
87000 5.4367549883e+00 -2.8687597105e-03 2.8169438295e+00 -4.8790898348e+00 2.8169438295e+00 4.8790898348e+00 
87100 5.4367548293e+00 -2.8561017016e-03 2.8169947494e+00 -4.8791780306e+00 2.8169947494e+00 4.8791780306e+00 
87200 5.4367546717e+00 -2.8435008255e-03 2.8170454437e+00 -4.8792658357e+00 2.8170454437e+00 4.8792658357e+00 
87300 5.4367545155e+00 -2.8309568139e-03 2.8170959134e+00 -4.8793532518e+00 2.8170959134e+00 4.8793532518e+00 
87400 5.4367543606e+00 -2.8184694000e-03 2.8171461596e+00 -4.8794402807e+00 2.8171461596e+00 4.8794402807e+00 
87500 5.4367542071e+00 -2.8060383183e-03 2.8171961832e+00 -4.8795269242e+00 2.8171961832e+00 4.8795269242e+00 
87600 5.4367540548e+00 -2.7936633046e-03 2.8172459853e+00 -4.8796131840e+00 2.8172459853e+00 4.8796131840e+00 
87700 5.4367539040e+00 -2.7813440960e-03 2.8172955669e+00 -4.8796990618e+00 2.8172955669e+00 4.8796990618e+00 
87800 5.4367537544e+00 -2.7690804310e-03 2.8173449290e+00 -4.8797845595e+00 2.8173449290e+00 4.8797845595e+00 
87900 5.4367536061e+00 -2.7568720493e-03 2.8173940726e+00 -4.8798696787e+00 2.8173940726e+00 4.8798696787e+00 
88000 5.4367534591e+00 -2.7447186920e-03 2.8174429987e+00 -4.8799544211e+00 2.8174429987e+00 4.8799544211e+00 
88100 5.4367533133e+00 -2.7326201012e-03 2.8174917082e+00 -4.8800387885e+00 2.8174917082e+00 4.8800387885e+00 
88200 5.4367531689e+00 -2.7205760207e-03 2.8175402022e+00 -4.8801227825e+00 2.8175402022e+00 4.8801227825e+00 
88300 5.4367530256e+00 -2.7085861952e-03 2.8175884816e+00 -4.8802064049e+00 2.8175884816e+00 4.8802064049e+00 
88400 5.4367528837e+00 -2.6966503710e-03 2.8176365474e+00 -4.8802896574e+00 2.8176365474e+00 4.8802896574e+00 
88500 5.4367527429e+00 -2.6847682954e-03 2.8176844006e+00 -4.8803725415e+00 2.8176844006e+00 4.8803725415e+00 
88600 5.4367526034e+00 -2.6729397170e-03 2.8177320421e+00 -4.8804550591e+00 2.8177320421e+00 4.8804550591e+00 
88700 5.4367524651e+00 -2.6611643857e-03 2.8177794730e+00 -4.8805372117e+00 2.8177794730e+00 4.8805372117e+00 
88800 5.4367523279e+00 -2.6494420527e-03 2.8178266940e+00 -4.8806190010e+00 2.8178266940e+00 4.8806190010e+00 
88900 5.4367521920e+00 -2.6377724703e-03 2.8178737063e+00 -4.8807004287e+00 2.8178737063e+00 4.8807004287e+00 
89000 5.4367520572e+00 -2.6261553921e-03 2.8179205108e+00 -4.8807814963e+00 2.8179205108e+00 4.8807814963e+00 
89100 5.4367519236e+00 -2.6145905728e-03 2.8179671083e+00 -4.8808622056e+00 2.8179671083e+00 4.8808622056e+00 
89200 5.4367517912e+00 -2.6030777686e-03 2.8180134998e+00 -4.8809425581e+00 2.8180134998e+00 4.8809425581e+00 
89300 5.4367516599e+00 -2.5916167365e-03 2.8180596864e+00 -4.8810225555e+00 2.8180596864e+00 4.8810225555e+00 
89400 5.4367515297e+00 -2.5802072351e-03 2.8181056688e+00 -4.8811021994e+00 2.8181056688e+00 4.8811021994e+00 
89500 5.4367514007e+00 -2.5688490240e-03 2.8181514480e+00 -4.8811814914e+00 2.8181514480e+00 4.8811814914e+00 
89600 5.4367512728e+00 -2.5575418639e-03 2.8181970250e+00 -4.8812604330e+00 2.8181970250e+00 4.8812604330e+00 
89700 5.4367511460e+00 -2.5462855169e-03 2.8182424006e+00 -4.8813390259e+00 2.8182424006e+00 4.8813390259e+00 
89800 5.4367510203e+00 -2.5350797460e-03 2.8182875758e+00 -4.8814172716e+00 2.8182875758e+00 4.8814172716e+00 
89900 5.4367508956e+00 -2.5239243156e-03 2.8183325514e+00 -4.8814951717e+00 2.8183325514e+00 4.8814951717e+00 
90000 5.4367507721e+00 -2.5128189913e-03 2.8183773285e+00 -4.8815727278e+00 2.8183773285e+00 4.8815727278e+00 
90100 5.4367506496e+00 -2.5017635396e-03 2.8184219078e+00 -4.8816499414e+00 2.8184219078e+00 4.8816499414e+00 
90200 5.4367505282e+00 -2.4907577283e-03 2.8184662902e+00 -4.8817268141e+00 2.8184662902e+00 4.8817268141e+00 
90300 5.4367504078e+00 -2.4798013264e-03 2.8185104767e+00 -4.8818033474e+00 2.8185104767e+00 4.8818033474e+00 
90400 5.4367502885e+00 -2.4688941040e-03 2.8185544682e+00 -4.8818795428e+00 2.8185544682e+00 4.8818795428e+00 
90500 5.4367501702e+00 -2.4580358322e-03 2.8185982655e+00 -4.8819554019e+00 2.8185982655e+00 4.8819554019e+00 
90600 5.4367500529e+00 -2.4472262835e-03 2.8186418695e+00 -4.8820309262e+00 2.8186418695e+00 4.8820309262e+00 
90700 5.4367499367e+00 -2.4364652311e-03 2.8186852810e+00 -4.8821061173e+00 2.8186852810e+00 4.8821061173e+00 
90800 5.4367498214e+00 -2.4257524498e-03 2.8187285010e+00 -4.8821809765e+00 2.8187285010e+00 4.8821809765e+00 
90900 5.4367497072e+00 -2.4150877151e-03 2.8187715303e+00 -4.8822555054e+00 2.8187715303e+00 4.8822555054e+00 
91000 5.4367495939e+00 -2.4044708040e-03 2.8188143698e+00 -4.8823297056e+00 2.8188143698e+00 4.8823297056e+00 
91100 5.4367494816e+00 -2.3939014941e-03 2.8188570203e+00 -4.8824035784e+00 2.8188570203e+00 4.8824035784e+00 
91200 5.4367493703e+00 -2.3833795646e-03 2.8188994827e+00 -4.8824771254e+00 2.8188994827e+00 4.8824771254e+00 
91300 5.4367492599e+00 -2.3729047954e-03 2.8189417578e+00 -4.8825503481e+00 2.8189417578e+00 4.8825503481e+00 
91400 5.4367491505e+00 -2.3624769677e-03 2.8189838465e+00 -4.8826232478e+00 2.8189838465e+00 4.8826232478e+00 
91500 5.4367490421e+00 -2.3520958636e-03 2.8190257496e+00 -4.8826958261e+00 2.8190257496e+00 4.8826958261e+00 
91600 5.4367489346e+00 -2.3417612665e-03 2.8190674679e+00 -4.8827680844e+00 2.8190674679e+00 4.8827680844e+00 
91700 5.4367488280e+00 -2.3314729607e-03 2.8191090023e+00 -4.8828400241e+00 2.8191090023e+00 4.8828400241e+00 
91800 5.4367487223e+00 -2.3212307316e-03 2.8191503537e+00 -4.8829116467e+00 2.8191503537e+00 4.8829116467e+00 
91900 5.4367486176e+00 -2.3110343656e-03 2.8191915227e+00 -4.8829829536e+00 2.8191915227e+00 4.8829829536e+00 
92000 5.4367485137e+00 -2.3008836502e-03 2.8192325104e+00 -4.8830539463e+00 2.8192325104e+00 4.8830539463e+00 
92100 5.4367484108e+00 -2.2907783739e-03 2.8192733174e+00 -4.8831246261e+00 2.8192733174e+00 4.8831246261e+00 
92200 5.4367483087e+00 -2.2807183262e-03 2.8193139446e+00 -4.8831949945e+00 2.8193139446e+00 4.8831949945e+00 
92300 5.4367482075e+00 -2.2707032979e-03 2.8193543928e+00 -4.8832650529e+00 2.8193543928e+00 4.8832650529e+00 
92400 5.4367481072e+00 -2.2607330804e-03 2.8193946628e+00 -4.8833348026e+00 2.8193946628e+00 4.8833348026e+00 
92500 5.4367480078e+00 -2.2508074665e-03 2.8194347554e+00 -4.8834042450e+00 2.8194347554e+00 4.8834042450e+00 
92600 5.4367479092e+00 -2.2409262497e-03 2.8194746715e+00 -4.8834733816e+00 2.8194746715e+00 4.8834733816e+00 
92700 5.4367478115e+00 -2.2310892247e-03 2.8195144117e+00 -4.8835422137e+00 2.8195144117e+00 4.8835422137e+00 
92800 5.4367477146e+00 -2.2212961871e-03 2.8195539769e+00 -4.8836107427e+00 2.8195539769e+00 4.8836107427e+00 
92900 5.4367476186e+00 -2.2115469337e-03 2.8195933679e+00 -4.8836789699e+00 2.8195933679e+00 4.8836789699e+00 
93000 5.4367475234e+00 -2.2018412621e-03 2.8196325855e+00 -4.8837468967e+00 2.8196325855e+00 4.8837468967e+00 
93100 5.4367474290e+00 -2.1921789708e-03 2.8196716304e+00 -4.8838145245e+00 2.8196716304e+00 4.8838145245e+00 
93200 5.4367473354e+00 -2.1825598595e-03 2.8197105034e+00 -4.8838818546e+00 2.8197105034e+00 4.8838818546e+00 
93300 5.4367472427e+00 -2.1729837289e-03 2.8197492054e+00 -4.8839488883e+00 2.8197492054e+00 4.8839488883e+00 
93400 5.4367471507e+00 -2.1634503803e-03 2.8197877370e+00 -4.8840156270e+00 2.8197877370e+00 4.8840156270e+00 
93500 5.4367470595e+00 -2.1539596165e-03 2.8198260990e+00 -4.8840820720e+00 2.8198260990e+00 4.8840820720e+00 
93600 5.4367469691e+00 -2.1445112408e-03 2.8198642922e+00 -4.8841482246e+00 2.8198642922e+00 4.8841482246e+00 
93700 5.4367468796e+00 -2.1351050577e-03 2.8199023174e+00 -4.8842140861e+00 2.8199023174e+00 4.8842140861e+00 
93800 5.4367467907e+00 -2.1257408726e-03 2.8199401752e+00 -4.8842796578e+00 2.8199401752e+00 4.8842796578e+00 
93900 5.4367467027e+00 -2.1164184918e-03 2.8199778666e+00 -4.8843449411e+00 2.8199778666e+00 4.8843449411e+00 
94000 5.4367466154e+00 -2.1071377227e-03 2.8200153921e+00 -4.8844099372e+00 2.8200153921e+00 4.8844099372e+00 
94100 5.4367465288e+00 -2.0978983734e-03 2.8200527526e+00 -4.8844746475e+00 2.8200527526e+00 4.8844746475e+00 
94200 5.4367464430e+00 -2.0887002530e-03 2.8200899487e+00 -4.8845390731e+00 2.8200899487e+00 4.8845390731e+00 
94300 5.4367463580e+00 -2.0795431718e-03 2.8201269813e+00 -4.8846032155e+00 2.8201269813e+00 4.8846032155e+00 
94400 5.4367462737e+00 -2.0704269405e-03 2.8201638511e+00 -4.8846670757e+00 2.8201638511e+00 4.8846670757e+00 
94500 5.4367461901e+00 -2.0613513713e-03 2.8202005587e+00 -4.8847306553e+00 2.8202005587e+00 4.8847306553e+00 
94600 5.4367461072e+00 -2.0523162768e-03 2.8202371050e+00 -4.8847939552e+00 2.8202371050e+00 4.8847939552e+00 
94700 5.4367460251e+00 -2.0433214709e-03 2.8202734906e+00 -4.8848569770e+00 2.8202734906e+00 4.8848569770e+00 
94800 5.4367459436e+00 -2.0343667682e-03 2.8203097163e+00 -4.8849197217e+00 2.8203097163e+00 4.8849197217e+00 
94900 5.4367458629e+00 -2.0254519841e-03 2.8203457827e+00 -4.8849821906e+00 2.8203457827e+00 4.8849821906e+00 
95000 5.4367457828e+00 -2.0165769352e-03 2.8203816907e+00 -4.8850443850e+00 2.8203816907e+00 4.8850443850e+00 
95100 5.4367457035e+00 -2.0077414387e-03 2.8204174408e+00 -4.8851063060e+00 2.8204174408e+00 4.8851063060e+00 
95200 5.4367456248e+00 -1.9989453128e-03 2.8204530339e+00 -4.8851679550e+00 2.8204530339e+00 4.8851679550e+00 
95300 5.4367455468e+00 -1.9901883767e-03 2.8204884705e+00 -4.8852293331e+00 2.8204884705e+00 4.8852293331e+00 
95400 5.4367454695e+00 -1.9814704503e-03 2.8205237515e+00 -4.8852904416e+00 2.8205237515e+00 4.8852904416e+00 
95500 5.4367453929e+00 -1.9727913543e-03 2.8205588775e+00 -4.8853512816e+00 2.8205588775e+00 4.8853512816e+00 
95600 5.4367453169e+00 -1.9641509106e-03 2.8205938492e+00 -4.8854118544e+00 2.8205938492e+00 4.8854118544e+00 
95700 5.4367452416e+00 -1.9555489416e-03 2.8206286674e+00 -4.8854721611e+00 2.8206286674e+00 4.8854721611e+00 
95800 5.4367451669e+00 -1.9469852707e-03 2.8206633325e+00 -4.8855322030e+00 2.8206633325e+00 4.8855322030e+00 
95900 5.4367450929e+00 -1.9384597223e-03 2.8206978455e+00 -4.8855919812e+00 2.8206978455e+00 4.8855919812e+00 
96000 5.4367450195e+00 -1.9299721214e-03 2.8207322069e+00 -4.8856514970e+00 2.8207322069e+00 4.8856514970e+00 
96100 5.4367449467e+00 -1.9215222940e-03 2.8207664175e+00 -4.8857107514e+00 2.8207664175e+00 4.8857107514e+00 
96200 5.4367448746e+00 -1.9131100668e-03 2.8208004778e+00 -4.8857697456e+00 2.8208004778e+00 4.8857697456e+00 
96300 5.4367448031e+00 -1.9047352675e-03 2.8208343887e+00 -4.8858284809e+00 2.8208343887e+00 4.8858284809e+00 
96400 5.4367447322e+00 -1.8963977246e-03 2.8208681507e+00 -4.8858869584e+00 2.8208681507e+00 4.8858869584e+00 
96500 5.4367446619e+00 -1.8880972673e-03 2.8209017644e+00 -4.8859451792e+00 2.8209017644e+00 4.8859451792e+00 
96600 5.4367445922e+00 -1.8798337258e-03 2.8209352307e+00 -4.8860031445e+00 2.8209352307e+00 4.8860031445e+00 
96700 5.4367445232e+00 -1.8716069309e-03 2.8209685501e+00 -4.8860608554e+00 2.8209685501e+00 4.8860608554e+00 
96800 5.4367444547e+00 -1.8634167144e-03 2.8210017233e+00 -4.8861183130e+00 2.8210017233e+00 4.8861183130e+00 
96900 5.4367443868e+00 -1.8552629089e-03 2.8210347509e+00 -4.8861755185e+00 2.8210347509e+00 4.8861755185e+00 
97000 5.4367443195e+00 -1.8471453476e-03 2.8210676337e+00 -4.8862324731e+00 2.8210676337e+00 4.8862324731e+00 
97100 5.4367442528e+00 -1.8390638648e-03 2.8211003721e+00 -4.8862891778e+00 2.8211003721e+00 4.8862891778e+00 
97200 5.4367441867e+00 -1.8310182955e-03 2.8211329670e+00 -4.8863456338e+00 2.8211329670e+00 4.8863456338e+00 
97300 5.4367441211e+00 -1.8230084752e-03 2.8211654189e+00 -4.8864018421e+00 2.8211654189e+00 4.8864018421e+00 
97400 5.4367440561e+00 -1.8150342406e-03 2.8211977284e+00 -4.8864578039e+00 2.8211977284e+00 4.8864578039e+00 
97500 5.4367439916e+00 -1.8070954291e-03 2.8212298963e+00 -4.8865135202e+00 2.8212298963e+00 4.8865135202e+00 
97600 5.4367439278e+00 -1.7991918786e-03 2.8212619231e+00 -4.8865689923e+00 2.8212619231e+00 4.8865689923e+00 
97700 5.4367438644e+00 -1.7913234280e-03 2.8212938095e+00 -4.8866242210e+00 2.8212938095e+00 4.8866242210e+00 
97800 5.4367438016e+00 -1.7834899170e-03 2.8213255560e+00 -4.8866792077e+00 2.8213255560e+00 4.8866792077e+00 
97900 5.4367437394e+00 -1.7756911861e-03 2.8213571634e+00 -4.8867339532e+00 2.8213571634e+00 4.8867339532e+00 
98000 5.4367436777e+00 -1.7679270764e-03 2.8213886322e+00 -4.8867884588e+00 2.8213886322e+00 4.8867884588e+00 
98100 5.4367436165e+00 -1.7601974297e-03 2.8214199630e+00 -4.8868427254e+00 2.8214199630e+00 4.8868427254e+00 
98200 5.4367435559e+00 -1.7525020889e-03 2.8214511565e+00 -4.8868967542e+00 2.8214511565e+00 4.8868967542e+00 
98300 5.4367434957e+00 -1.7448408974e-03 2.8214822133e+00 -4.8869505462e+00 2.8214822133e+00 4.8869505462e+00 
98400 5.4367434361e+00 -1.7372136993e-03 2.8215131340e+00 -4.8870041024e+00 2.8215131340e+00 4.8870041024e+00 
98500 5.4367433770e+00 -1.7296203397e-03 2.8215439192e+00 -4.8870574239e+00 2.8215439192e+00 4.8870574239e+00 
98600 5.4367433185e+00 -1.7220606641e-03 2.8215745696e+00 -4.8871105118e+00 2.8215745696e+00 4.8871105118e+00 
98700 5.4367432604e+00 -1.7145345191e-03 2.8216050856e+00 -4.8871633671e+00 2.8216050856e+00 4.8871633671e+00 
98800 5.4367432028e+00 -1.7070417517e-03 2.8216354679e+00 -4.8872159908e+00 2.8216354679e+00 4.8872159908e+00 
98900 5.4367431457e+00 -1.6995822099e-03 2.8216657171e+00 -4.8872683839e+00 2.8216657171e+00 4.8872683839e+00 
99000 5.4367430891e+00 -1.6921557423e-03 2.8216958338e+00 -4.8873205476e+00 2.8216958338e+00 4.8873205476e+00 
99100 5.4367430331e+00 -1.6847621981e-03 2.8217258186e+00 -4.8873724828e+00 2.8217258186e+00 4.8873724828e+00 
99200 5.4367429774e+00 -1.6774014276e-03 2.8217556720e+00 -4.8874241905e+00 2.8217556720e+00 4.8874241905e+00 
99300 5.4367429223e+00 -1.6700732813e-03 2.8217853947e+00 -4.8874756717e+00 2.8217853947e+00 4.8874756717e+00 
99400 5.4367428677e+00 -1.6627776108e-03 2.8218149873e+00 -4.8875269275e+00 2.8218149873e+00 4.8875269275e+00 
99500 5.4367428135e+00 -1.6555142684e-03 2.8218444502e+00 -4.8875779588e+00 2.8218444502e+00 4.8875779588e+00 
99600 5.4367427597e+00 -1.6482831068e-03 2.8218737842e+00 -4.8876287667e+00 2.8218737842e+00 4.8876287667e+00 
99700 5.4367427065e+00 -1.6410839797e-03 2.8219029897e+00 -4.8876793522e+00 2.8219029897e+00 4.8876793522e+00 
99800 5.4367426537e+00 -1.6339167413e-03 2.8219320674e+00 -4.8877297162e+00 2.8219320674e+00 4.8877297162e+00 
99900 5.4367426014e+00 -1.6267812467e-03 2.8219610177e+00 -4.8877798597e+00 2.8219610177e+00 4.8877798597e+00 
100000 5.4367425495e+00 -1.6196773516e-03 2.8219898414e+00 -4.8878297837e+00 2.8219898414e+00 4.8878297837e+00 
100100 5.4367424980e+00 -1.6126049122e-03 2.8220185389e+00 -4.8878794892e+00 2.8220185389e+00 4.8878794892e+00 
100200 5.4367424470e+00 -1.6055637856e-03 2.8220471107e+00 -4.8879289772e+00 2.8220471107e+00 4.8879289772e+00 
100300 5.4367423965e+00 -1.5985538296e-03 2.8220755576e+00 -4.8879782485e+00 2.8220755576e+00 4.8879782485e+00 
100400 5.4367423464e+00 -1.5915749025e-03 2.8221038799e+00 -4.8880273043e+00 2.8221038799e+00 4.8880273043e+00 
100500 5.4367422967e+00 -1.5846268635e-03 2.8221320784e+00 -4.8880761454e+00 2.8221320784e+00 4.8880761454e+00 
100600 5.4367422474e+00 -1.5777095722e-03 2.8221601534e+00 -4.8881247728e+00 2.8221601534e+00 4.8881247728e+00 
100700 5.4367421986e+00 -1.5708228890e-03 2.8221881056e+00 -4.8881731874e+00 2.8221881056e+00 4.8881731874e+00 
100800 5.4367421502e+00 -1.5639666751e-03 2.8222159355e+00 -4.8882213903e+00 2.8222159355e+00 4.8882213903e+00 
100900 5.4367421022e+00 -1.5571407922e-03 2.8222436437e+00 -4.8882693822e+00 2.8222436437e+00 4.8882693822e+00 
101000 5.4367420546e+00 -1.5503451026e-03 2.8222712307e+00 -4.8883171643e+00 2.8222712307e+00 4.8883171643e+00 
101100 5.4367420074e+00 -1.5435794694e-03 2.8222986970e+00 -4.8883647373e+00 2.8222986970e+00 4.8883647373e+00 
101200 5.4367419606e+00 -1.5368437563e-03 2.8223260432e+00 -4.8884121023e+00 2.8223260432e+00 4.8884121023e+00 
101300 5.4367419143e+00 -1.5301378276e-03 2.8223532698e+00 -4.8884592601e+00 2.8223532698e+00 4.8884592601e+00 
101400 5.4367418683e+00 -1.5234615482e-03 2.8223803773e+00 -4.8885062118e+00 2.8223803773e+00 4.8885062118e+00 
101500 5.4367418228e+00 -1.5168147838e-03 2.8224073663e+00 -4.8885529581e+00 2.8224073663e+00 4.8885529581e+00 
101600 5.4367417776e+00 -1.5101974007e-03 2.8224342373e+00 -4.8885995000e+00 2.8224342373e+00 4.8885995000e+00 
101700 5.4367417328e+00 -1.5036092657e-03 2.8224609908e+00 -4.8886458384e+00 2.8224609908e+00 4.8886458384e+00 
101800 5.4367416884e+00 -1.4970502463e-03 2.8224876273e+00 -4.8886919742e+00 2.8224876273e+00 4.8886919742e+00 
101900 5.4367416444e+00 -1.4905202107e-03 2.8225141474e+00 -4.8887379084e+00 2.8225141474e+00 4.8887379084e+00 
102000 5.4367416008e+00 -1.4840190276e-03 2.8225405516e+00 -4.8887836417e+00 2.8225405516e+00 4.8887836417e+00 
102100 5.4367415575e+00 -1.4775465664e-03 2.8225668403e+00 -4.8888291752e+00 2.8225668403e+00 4.8888291752e+00 
102200 5.4367415146e+00 -1.4711026971e-03 2.8225930142e+00 -4.8888745096e+00 2.8225930142e+00 4.8888745096e+00 
102300 5.4367414721e+00 -1.4646872904e-03 2.8226190736e+00 -4.8889196459e+00 2.8226190736e+00 4.8889196459e+00 
102400 5.4367414300e+00 -1.4583002174e-03 2.8226450192e+00 -4.8889645850e+00 2.8226450192e+00 4.8889645850e+00 
102500 5.4367413882e+00 -1.4519413500e-03 2.8226708514e+00 -4.8890093277e+00 2.8226708514e+00 4.8890093277e+00 
102600 5.4367413467e+00 -1.4456105606e-03 2.8226965707e+00 -4.8890538748e+00 2.8226965707e+00 4.8890538748e+00 
102700 5.4367413057e+00 -1.4393077223e-03 2.8227221777e+00 -4.8890982274e+00 2.8227221777e+00 4.8890982274e+00 
102800 5.4367412650e+00 -1.4330327086e-03 2.8227476727e+00 -4.8891423861e+00 2.8227476727e+00 4.8891423861e+00 
102900 5.4367412246e+00 -1.4267853939e-03 2.8227730564e+00 -4.8891863519e+00 2.8227730564e+00 4.8891863519e+00 
103000 5.4367411846e+00 -1.4205656529e-03 2.8227983292e+00 -4.8892301257e+00 2.8227983292e+00 4.8892301257e+00 
103100 5.4367411449e+00 -1.4143733611e-03 2.8228234916e+00 -4.8892737083e+00 2.8228234916e+00 4.8892737083e+00 
103200 5.4367411056e+00 -1.4082083944e-03 2.8228485441e+00 -4.8893171005e+00 2.8228485441e+00 4.8893171005e+00 
103300 5.4367410666e+00 -1.4020706295e-03 2.8228734872e+00 -4.8893603031e+00 2.8228734872e+00 4.8893603031e+00 
103400 5.4367410279e+00 -1.3959599435e-03 2.8228983213e+00 -4.8894033171e+00 2.8228983213e+00 4.8894033171e+00 
103500 5.4367409896e+00 -1.3898762141e-03 2.8229230470e+00 -4.8894461433e+00 2.8229230470e+00 4.8894461433e+00 
103600 5.4367409516e+00 -1.3838193197e-03 2.8229476647e+00 -4.8894887824e+00 2.8229476647e+00 4.8894887824e+00 
103700 5.4367409140e+00 -1.3777891392e-03 2.8229721749e+00 -4.8895312354e+00 2.8229721749e+00 4.8895312354e+00 
103800 5.4367408766e+00 -1.3717855520e-03 2.8229965781e+00 -4.8895735029e+00 2.8229965781e+00 4.8895735029e+00 
103900 5.4367408396e+00 -1.3658084381e-03 2.8230208748e+00 -4.8896155860e+00 2.8230208748e+00 4.8896155860e+00 
104000 5.4367408029e+00 -1.3598576782e-03 2.8230450654e+00 -4.8896574853e+00 2.8230450654e+00 4.8896574853e+00 
104100 5.4367407666e+00 -1.3539331534e-03 2.8230691504e+00 -4.8896992017e+00 2.8230691504e+00 4.8896992017e+00 
104200 5.4367407305e+00 -1.3480347454e-03 2.8230931302e+00 -4.8897407360e+00 2.8230931302e+00 4.8897407360e+00 
104300 5.4367406947e+00 -1.3421623364e-03 2.8231170054e+00 -4.8897820890e+00 2.8231170054e+00 4.8897820890e+00 
104400 5.4367406593e+00 -1.3363158093e-03 2.8231407763e+00 -4.8898232615e+00 2.8231407763e+00 4.8898232615e+00 
104500 5.4367406241e+00 -1.3304950475e-03 2.8231644436e+00 -4.8898642544e+00 2.8231644436e+00 4.8898642544e+00 
104600 5.4367405893e+00 -1.3246999348e-03 2.8231880075e+00 -4.8899050683e+00 2.8231880075e+00 4.8899050683e+00 
104700 5.4367405548e+00 -1.3189303557e-03 2.8232114686e+00 -4.8899457041e+00 2.8232114686e+00 4.8899457041e+00 
104800 5.4367405205e+00 -1.3131861952e-03 2.8232348273e+00 -4.8899861626e+00 2.8232348273e+00 4.8899861626e+00 
104900 5.4367404866e+00 -1.3074673388e-03 2.8232580841e+00 -4.8900264445e+00 2.8232580841e+00 4.8900264445e+00 
105000 5.4367404529e+00 -1.3017736727e-03 2.8232812394e+00 -4.8900665507e+00 2.8232812394e+00 4.8900665507e+00 
105100 5.4367404196e+00 -1.2961050834e-03 2.8233042937e+00 -4.8901064820e+00 2.8233042937e+00 4.8901064820e+00 
105200 5.4367403865e+00 -1.2904614580e-03 2.8233272474e+00 -4.8901462390e+00 2.8233272474e+00 4.8901462390e+00 
105300 5.4367403537e+00 -1.2848426843e-03 2.8233501010e+00 -4.8901858225e+00 2.8233501010e+00 4.8901858225e+00 
105400 5.4367403212e+00 -1.2792486503e-03 2.8233728549e+00 -4.8902252335e+00 2.8233728549e+00 4.8902252335e+00 
105500 5.4367402890e+00 -1.2736792449e-03 2.8233955096e+00 -4.8902644725e+00 2.8233955096e+00 4.8902644725e+00 
105600 5.4367402570e+00 -1.2681343573e-03 2.8234180654e+00 -4.8903035403e+00 2.8234180654e+00 4.8903035403e+00 
105700 5.4367402254e+00 -1.2626138771e-03 2.8234405229e+00 -4.8903424378e+00 2.8234405229e+00 4.8903424378e+00 
105800 5.4367401940e+00 -1.2571176947e-03 2.8234628824e+00 -4.8903811656e+00 2.8234628824e+00 4.8903811656e+00 
105900 5.4367401628e+00 -1.2516457009e-03 2.8234851444e+00 -4.8904197245e+00 2.8234851444e+00 4.8904197245e+00 
106000 5.4367401320e+00 -1.2461977869e-03 2.8235073093e+00 -4.8904581153e+00 2.8235073093e+00 4.8904581153e+00 
106100 5.4367401014e+00 -1.2407738445e-03 2.8235293776e+00 -4.8904963387e+00 2.8235293776e+00 4.8904963387e+00 
106200 5.4367400710e+00 -1.2353737661e-03 2.8235513497e+00 -4.8905343955e+00 2.8235513497e+00 4.8905343955e+00 
106300 5.4367400410e+00 -1.2299974444e-03 2.8235732260e+00 -4.8905722863e+00 2.8235732260e+00 4.8905722863e+00 
106400 5.4367400112e+00 -1.2246447727e-03 2.8235950069e+00 -4.8906100119e+00 2.8235950069e+00 4.8906100119e+00 
106500 5.4367399816e+00 -1.2193156448e-03 2.8236166928e+00 -4.8906475730e+00 2.8236166928e+00 4.8906475730e+00 
106600 5.4367399523e+00 -1.2140099551e-03 2.8236382842e+00 -4.8906849705e+00 2.8236382842e+00 4.8906849705e+00 
106700 5.4367399233e+00 -1.2087275983e-03 2.8236597815e+00 -4.8907222049e+00 2.8236597815e+00 4.8907222049e+00 
106800 5.4367398945e+00 -1.2034684697e-03 2.8236811851e+00 -4.8907592770e+00 2.8236811851e+00 4.8907592770e+00 
106900 5.4367398659e+00 -1.1982324651e-03 2.8237024954e+00 -4.8907961875e+00 2.8237024954e+00 4.8907961875e+00 
107000 5.4367398376e+00 -1.1930194806e-03 2.8237237128e+00 -4.8908329371e+00 2.8237237128e+00 4.8908329371e+00 
107100 5.4367398095e+00 -1.1878294131e-03 2.8237448378e+00 -4.8908695266e+00 2.8237448378e+00 4.8908695266e+00 
107200 5.4367397817e+00 -1.1826621598e-03 2.8237658707e+00 -4.8909059567e+00 2.8237658707e+00 4.8909059567e+00 
107300 5.4367397542e+00 -1.1775176183e-03 2.8237868119e+00 -4.8909422280e+00 2.8237868119e+00 4.8909422280e+00 
107400 5.4367397268e+00 -1.1723956868e-03 2.8238076619e+00 -4.8909783413e+00 2.8238076619e+00 4.8909783413e+00 
107500 5.4367396997e+00 -1.1672962639e-03 2.8238284211e+00 -4.8910142972e+00 2.8238284211e+00 4.8910142972e+00 
107600 5.4367396728e+00 -1.1622192488e-03 2.8238490898e+00 -4.8910500964e+00 2.8238490898e+00 4.8910500964e+00 
107700 5.4367396462e+00 -1.1571645411e-03 2.8238696685e+00 -4.8910857397e+00 2.8238696685e+00 4.8910857397e+00 
107800 5.4367396198e+00 -1.1521320408e-03 2.8238901575e+00 -4.8911212277e+00 2.8238901575e+00 4.8911212277e+00 
107900 5.4367395936e+00 -1.1471216483e-03 2.8239105572e+00 -4.8911565611e+00 2.8239105572e+00 4.8911565611e+00 
108000 5.4367395677e+00 -1.1421332647e-03 2.8239308681e+00 -4.8911917406e+00 2.8239308681e+00 4.8911917406e+00 
108100 5.4367395419e+00 -1.1371667915e-03 2.8239510905e+00 -4.8912267669e+00 2.8239510905e+00 4.8912267669e+00 
108200 5.4367395164e+00 -1.1322221304e-03 2.8239712249e+00 -4.8912616406e+00 2.8239712249e+00 4.8912616406e+00 
108300 5.4367394911e+00 -1.1272991838e-03 2.8239912715e+00 -4.8912963624e+00 2.8239912715e+00 4.8912963624e+00 
108400 5.4367394660e+00 -1.1223978546e-03 2.8240112309e+00 -4.8913309330e+00 2.8240112309e+00 4.8913309330e+00 
108500 5.4367394412e+00 -1.1175180460e-03 2.8240311033e+00 -4.8913653531e+00 2.8240311033e+00 4.8913653531e+00 
108600 5.4367394165e+00 -1.1126596617e-03 2.8240508892e+00 -4.8913996233e+00 2.8240508892e+00 4.8913996233e+00 
108700 5.4367393921e+00 -1.1078226058e-03 2.8240705889e+00 -4.8914337442e+00 2.8240705889e+00 4.8914337442e+00 
108800 5.4367393679e+00 -1.1030067829e-03 2.8240902029e+00 -4.8914677166e+00 2.8240902029e+00 4.8914677166e+00 
108900 5.4367393439e+00 -1.0982120980e-03 2.8241097314e+00 -4.8915015410e+00 2.8241097314e+00 4.8915015410e+00 
109000 5.4367393201e+00 -1.0934384566e-03 2.8241291750e+00 -4.8915352182e+00 2.8241291750e+00 4.8915352182e+00 
109100 5.4367392965e+00 -1.0886857647e-03 2.8241485339e+00 -4.8915687488e+00 2.8241485339e+00 4.8915687488e+00 
109200 5.4367392731e+00 -1.0839539284e-03 2.8241678085e+00 -4.8916021334e+00 2.8241678085e+00 4.8916021334e+00 
109300 5.4367392499e+00 -1.0792428548e-03 2.8241869992e+00 -4.8916353726e+00 2.8241869992e+00 4.8916353726e+00 
109400 5.4367392269e+00 -1.0745524508e-03 2.8242061063e+00 -4.8916684672e+00 2.8242061063e+00 4.8916684672e+00 
109500 5.4367392041e+00 -1.0698826242e-03 2.8242251303e+00 -4.8917014177e+00 2.8242251303e+00 4.8917014177e+00 
109600 5.4367391815e+00 -1.0652332830e-03 2.8242440715e+00 -4.8917342248e+00 2.8242440715e+00 4.8917342248e+00 
109700 5.4367391591e+00 -1.0606043357e-03 2.8242629303e+00 -4.8917668892e+00 2.8242629303e+00 4.8917668892e+00 
109800 5.4367391369e+00 -1.0559956913e-03 2.8242817070e+00 -4.8917994113e+00 2.8242817070e+00 4.8917994113e+00 
109900 5.4367391149e+00 -1.0514072590e-03 2.8243004019e+00 -4.8918317920e+00 2.8243004019e+00 4.8918317920e+00 
110000 5.4367390930e+00 -1.0468389485e-03 2.8243190155e+00 -4.8918640317e+00 2.8243190155e+00 4.8918640317e+00 
110100 5.4367390714e+00 -1.0422906702e-03 2.8243375481e+00 -4.8918961311e+00 2.8243375481e+00 4.8918961311e+00 
110200 5.4367390499e+00 -1.0377623344e-03 2.8243560001e+00 -4.8919280908e+00 2.8243560001e+00 4.8919280908e+00 
110300 5.4367390286e+00 -1.0332538523e-03 2.8243743718e+00 -4.8919599115e+00 2.8243743718e+00 4.8919599115e+00 
110400 5.4367390076e+00 -1.0287651352e-03 2.8243926635e+00 -4.8919915938e+00 2.8243926635e+00 4.8919915938e+00 
110500 5.4367389867e+00 -1.0242960950e-03 2.8244108757e+00 -4.8920231382e+00 2.8244108757e+00 4.8920231382e+00 
110600 5.4367389659e+00 -1.0198466438e-03 2.8244290086e+00 -4.8920545453e+00 2.8244290086e+00 4.8920545453e+00 
110700 5.4367389454e+00 -1.0154166943e-03 2.8244470627e+00 -4.8920858159e+00 2.8244470627e+00 4.8920858159e+00 
110800 5.4367389250e+00 -1.0110061594e-03 2.8244650382e+00 -4.8921169504e+00 2.8244650382e+00 4.8921169504e+00 
110900 5.4367389048e+00 -1.0066149527e-03 2.8244829355e+00 -4.8921479494e+00 2.8244829355e+00 4.8921479494e+00 
111000 5.4367388848e+00 -1.0022429879e-03 2.8245007550e+00 -4.8921788137e+00 2.8245007550e+00 4.8921788137e+00 
111100 5.4367388649e+00 -9.9789017933e-04 2.8245184970e+00 -4.8922095437e+00 2.8245184970e+00 4.8922095437e+00 
111200 5.4367388453e+00 -9.9355644150e-04 2.8245361618e+00 -4.8922401400e+00 2.8245361618e+00 4.8922401400e+00 
111300 5.4367388257e+00 -9.8924168945e-04 2.8245537497e+00 -4.8922706033e+00 2.8245537497e+00 4.8922706033e+00 
111400 5.4367388064e+00 -9.8494583858e-04 2.8245712612e+00 -4.8923009341e+00 2.8245712612e+00 4.8923009341e+00 
111500 5.4367387872e+00 -9.8066880468e-04 2.8245886966e+00 -4.8923311329e+00 2.8245886966e+00 4.8923311329e+00 
111600 5.4367387682e+00 -9.7641050392e-04 2.8246060561e+00 -4.8923612005e+00 2.8246060561e+00 4.8923612005e+00 
111700 5.4367387494e+00 -9.7217085286e-04 2.8246233401e+00 -4.8923911373e+00 2.8246233401e+00 4.8923911373e+00 
111800 5.4367387307e+00 -9.6794976845e-04 2.8246405490e+00 -4.8924209440e+00 2.8246405490e+00 4.8924209440e+00 
111900 5.4367387122e+00 -9.6374716800e-04 2.8246576830e+00 -4.8924506210e+00 2.8246576830e+00 4.8924506210e+00 
112000 5.4367386938e+00 -9.5956296923e-04 2.8246747426e+00 -4.8924801690e+00 2.8246747426e+00 4.8924801690e+00 
112100 5.4367386756e+00 -9.5539709021e-04 2.8246917280e+00 -4.8925095886e+00 2.8246917280e+00 4.8925095886e+00 
112200 5.4367386575e+00 -9.5124944941e-04 2.8247086395e+00 -4.8925388802e+00 2.8247086395e+00 4.8925388802e+00 
112300 5.4367386397e+00 -9.4711996565e-04 2.8247254776e+00 -4.8925680446e+00 2.8247254776e+00 4.8925680446e+00 
112400 5.4367386219e+00 -9.4300855814e-04 2.8247422424e+00 -4.8925970821e+00 2.8247422424e+00 4.8925970821e+00 
112500 5.4367386043e+00 -9.3891514646e-04 2.8247589343e+00 -4.8926259934e+00 2.8247589343e+00 4.8926259934e+00 
112600 5.4367385869e+00 -9.3483965055e-04 2.8247755537e+00 -4.8926547791e+00 2.8247755537e+00 4.8926547791e+00 
112700 5.4367385696e+00 -9.3078199072e-04 2.8247921009e+00 -4.8926834396e+00 2.8247921009e+00 4.8926834396e+00 
112800 5.4367385525e+00 -9.2674208764e-04 2.8248085762e+00 -4.8927119756e+00 2.8248085762e+00 4.8927119756e+00 
112900 5.4367385355e+00 -9.2271986237e-04 2.8248249798e+00 -4.8927403875e+00 2.8248249798e+00 4.8927403875e+00 
113000 5.4367385186e+00 -9.1871523629e-04 2.8248413122e+00 -4.8927686760e+00 2.8248413122e+00 4.8927686760e+00 
113100 5.4367385019e+00 -9.1472813117e-04 2.8248575735e+00 -4.8927968415e+00 2.8248575735e+00 4.8927968415e+00 
113200 5.4367384854e+00 -9.1075846914e-04 2.8248737642e+00 -4.8928248846e+00 2.8248737642e+00 4.8928248846e+00 
113300 5.4367384690e+00 -9.0680617266e-04 2.8248898846e+00 -4.8928528059e+00 2.8248898846e+00 4.8928528059e+00 
113400 5.4367384527e+00 -9.0287116457e-04 2.8249059349e+00 -4.8928806058e+00 2.8249059349e+00 4.8928806058e+00 
113500 5.4367384366e+00 -8.9895336806e-04 2.8249219155e+00 -4.8929082850e+00 2.8249219155e+00 4.8929082850e+00 
113600 5.4367384206e+00 -8.9505270666e-04 2.8249378266e+00 -4.8929358439e+00 2.8249378266e+00 4.8929358439e+00 
113700 5.4367384047e+00 -8.9116910425e-04 2.8249536686e+00 -4.8929632831e+00 2.8249536686e+00 4.8929632831e+00 
113800 5.4367383890e+00 -8.8730248507e-04 2.8249694418e+00 -4.8929906030e+00 2.8249694418e+00 4.8929906030e+00 
113900 5.4367383734e+00 -8.8345277370e-04 2.8249851464e+00 -4.8930178043e+00 2.8249851464e+00 4.8930178043e+00 
114000 5.4367383580e+00 -8.7961989507e-04 2.8250007829e+00 -4.8930448873e+00 2.8250007829e+00 4.8930448873e+00 
114100 5.4367383427e+00 -8.7580377444e-04 2.8250163514e+00 -4.8930718528e+00 2.8250163514e+00 4.8930718528e+00 
114200 5.4367383275e+00 -8.7200433742e-04 2.8250318522e+00 -4.8930987011e+00 2.8250318522e+00 4.8930987011e+00 
114300 5.4367383125e+00 -8.6822150997e-04 2.8250472858e+00 -4.8931254328e+00 2.8250472858e+00 4.8931254328e+00 
114400 5.4367382975e+00 -8.6445521836e-04 2.8250626523e+00 -4.8931520483e+00 2.8250626523e+00 4.8931520483e+00 
114500 5.4367382827e+00 -8.6070538923e-04 2.8250779521e+00 -4.8931785483e+00 2.8250779521e+00 4.8931785483e+00 
114600 5.4367382681e+00 -8.5697194952e-04 2.8250931854e+00 -4.8932049332e+00 2.8250931854e+00 4.8932049332e+00 
114700 5.4367382535e+00 -8.5325482655e-04 2.8251083525e+00 -4.8932312035e+00 2.8251083525e+00 4.8932312035e+00 
114800 5.4367382391e+00 -8.4955394791e-04 2.8251234538e+00 -4.8932573597e+00 2.8251234538e+00 4.8932573597e+00 
114900 5.4367382248e+00 -8.4586924158e-04 2.8251384895e+00 -4.8932834023e+00 2.8251384895e+00 4.8932834023e+00 
115000 5.4367382107e+00 -8.4220063584e-04 2.8251534600e+00 -4.8933093318e+00 2.8251534600e+00 4.8933093318e+00 
115100 5.4367381966e+00 -8.3854805929e-04 2.8251683654e+00 -4.8933351488e+00 2.8251683654e+00 4.8933351488e+00 
115200 5.4367381827e+00 -8.3491144086e-04 2.8251832061e+00 -4.8933608536e+00 2.8251832061e+00 4.8933608536e+00 
115300 5.4367381689e+00 -8.3129070982e-04 2.8251979823e+00 -4.8933864468e+00 2.8251979823e+00 4.8933864468e+00 
115400 5.4367381552e+00 -8.2768579575e-04 2.8252126944e+00 -4.8934119289e+00 2.8252126944e+00 4.8934119289e+00 
115500 5.4367381416e+00 -8.2409662855e-04 2.8252273426e+00 -4.8934373003e+00 2.8252273426e+00 4.8934373003e+00 
115600 5.4367381282e+00 -8.2052313844e-04 2.8252419272e+00 -4.8934625616e+00 2.8252419272e+00 4.8934625616e+00 
115700 5.4367381149e+00 -8.1696525595e-04 2.8252564485e+00 -4.8934877133e+00 2.8252564485e+00 4.8934877133e+00 
115800 5.4367381016e+00 -8.1342291195e-04 2.8252709068e+00 -4.8935127557e+00 2.8252709068e+00 4.8935127557e+00 
115900 5.4367380885e+00 -8.0989603761e-04 2.8252853023e+00 -4.8935376894e+00 2.8252853023e+00 4.8935376894e+00 
116000 5.4367380755e+00 -8.0638456440e-04 2.8252996353e+00 -4.8935625149e+00 2.8252996353e+00 4.8935625149e+00 
116100 5.4367380627e+00 -8.0288842412e-04 2.8253139061e+00 -4.8935872327e+00 2.8253139061e+00 4.8935872327e+00 
116200 5.4367380499e+00 -7.9940754887e-04 2.8253281149e+00 -4.8936118431e+00 2.8253281149e+00 4.8936118431e+00 
116300 5.4367380372e+00 -7.9594187107e-04 2.8253422621e+00 -4.8936363468e+00 2.8253422621e+00 4.8936363468e+00 
116400 5.4367380247e+00 -7.9249132344e-04 2.8253563479e+00 -4.8936607440e+00 2.8253563479e+00 4.8936607440e+00 
116500 5.4367380122e+00 -7.8905583901e-04 2.8253703725e+00 -4.8936850354e+00 2.8253703725e+00 4.8936850354e+00 
116600 5.4367379999e+00 -7.8563535110e-04 2.8253843363e+00 -4.8937092214e+00 2.8253843363e+00 4.8937092214e+00 
116700 5.4367379877e+00 -7.8222979335e-04 2.8253982395e+00 -4.8937333024e+00 2.8253982395e+00 4.8937333024e+00 
116800 5.4367379755e+00 -7.7883909969e-04 2.8254120823e+00 -4.8937572789e+00 2.8254120823e+00 4.8937572789e+00 
116900 5.4367379635e+00 -7.7546320436e-04 2.8254258651e+00 -4.8937811513e+00 2.8254258651e+00 4.8937811513e+00 
117000 5.4367379516e+00 -7.7210204189e-04 2.8254395880e+00 -4.8938049202e+00 2.8254395880e+00 4.8938049202e+00 
117100 5.4367379398e+00 -7.6875554712e-04 2.8254532514e+00 -4.8938285859e+00 2.8254532514e+00 4.8938285859e+00 
117200 5.4367379281e+00 -7.6542365516e-04 2.8254668555e+00 -4.8938521489e+00 2.8254668555e+00 4.8938521489e+00 
117300 5.4367379165e+00 -7.6210630144e-04 2.8254804006e+00 -4.8938756097e+00 2.8254804006e+00 4.8938756097e+00 
117400 5.4367379050e+00 -7.5880342168e-04 2.8254938870e+00 -4.8938989687e+00 2.8254938870e+00 4.8938989687e+00 
117500 5.4367378935e+00 -7.5551495188e-04 2.8255073148e+00 -4.8939222263e+00 2.8255073148e+00 4.8939222263e+00 
117600 5.4367378822e+00 -7.5224082833e-04 2.8255206843e+00 -4.8939453831e+00 2.8255206843e+00 4.8939453831e+00 
117700 5.4367378710e+00 -7.4898098761e-04 2.8255339959e+00 -4.8939684394e+00 2.8255339959e+00 4.8939684394e+00 
117800 5.4367378599e+00 -7.4573536661e-04 2.8255472497e+00 -4.8939913957e+00 2.8255472497e+00 4.8939913957e+00 
117900 5.4367378489e+00 -7.4250390248e-04 2.8255604460e+00 -4.8940142523e+00 2.8255604460e+00 4.8940142523e+00 
118000 5.4367378379e+00 -7.3928653265e-04 2.8255735851e+00 -4.8940370099e+00 2.8255735851e+00 4.8940370099e+00 
118100 5.4367378271e+00 -7.3608319486e-04 2.8255866671e+00 -4.8940596687e+00 2.8255866671e+00 4.8940596687e+00 
118200 5.4367378164e+00 -7.3289382712e-04 2.8255996925e+00 -4.8940822292e+00 2.8255996925e+00 4.8940822292e+00 
118300 5.4367378057e+00 -7.2971836771e-04 2.8256126613e+00 -4.8941046919e+00 2.8256126613e+00 4.8941046919e+00 
118400 5.4367377951e+00 -7.2655675519e-04 2.8256255739e+00 -4.8941270571e+00 2.8256255739e+00 4.8941270571e+00 
118500 5.4367377847e+00 -7.2340892842e-04 2.8256384304e+00 -4.8941493254e+00 2.8256384304e+00 4.8941493254e+00 
118600 5.4367377743e+00 -7.2027482652e-04 2.8256512313e+00 -4.8941714970e+00 2.8256512313e+00 4.8941714970e+00 
118700 5.4367377640e+00 -7.1715438889e-04 2.8256639766e+00 -4.8941935725e+00 2.8256639766e+00 4.8941935725e+00 
118800 5.4367377538e+00 -7.1404755520e-04 2.8256766666e+00 -4.8942155523e+00 2.8256766666e+00 4.8942155523e+00 
118900 5.4367377437e+00 -7.1095426538e-04 2.8256893016e+00 -4.8942374367e+00 2.8256893016e+00 4.8942374367e+00 
119000 5.4367377337e+00 -7.0787445967e-04 2.8257018818e+00 -4.8942592263e+00 2.8257018818e+00 4.8942592263e+00 
119100 5.4367377237e+00 -7.0480807855e-04 2.8257144074e+00 -4.8942809213e+00 2.8257144074e+00 4.8942809213e+00 
119200 5.4367377139e+00 -7.0175506276e-04 2.8257268788e+00 -4.8943025223e+00 2.8257268788e+00 4.8943025223e+00 
119300 5.4367377041e+00 -6.9871535335e-04 2.8257392960e+00 -4.8943240297e+00 2.8257392960e+00 4.8943240297e+00 
119400 5.4367376944e+00 -6.9568889159e-04 2.8257516594e+00 -4.8943454437e+00 2.8257516594e+00 4.8943454437e+00 
119500 5.4367376848e+00 -6.9267561904e-04 2.8257639692e+00 -4.8943667649e+00 2.8257639692e+00 4.8943667649e+00 
119600 5.4367376753e+00 -6.8967547752e-04 2.8257762257e+00 -4.8943879937e+00 2.8257762257e+00 4.8943879937e+00 
119700 5.4367376659e+00 -6.8668840911e-04 2.8257884290e+00 -4.8944091304e+00 2.8257884290e+00 4.8944091304e+00 
119800 5.4367376565e+00 -6.8371435615e-04 2.8258005794e+00 -4.8944301756e+00 2.8258005794e+00 4.8944301756e+00 
119900 5.4367376472e+00 -6.8075326126e-04 2.8258126771e+00 -4.8944511294e+00 2.8258126771e+00 4.8944511294e+00 
120000 5.4367376381e+00 -6.7780506728e-04 2.8258247224e+00 -4.8944719924e+00 2.8258247224e+00 4.8944719924e+00 
120100 5.4367376289e+00 -6.7486971735e-04 2.8258367154e+00 -4.8944927650e+00 2.8258367154e+00 4.8944927650e+00 
120200 5.4367376199e+00 -6.7194715483e-04 2.8258486565e+00 -4.8945134476e+00 2.8258486565e+00 4.8945134476e+00 
120300 5.4367376109e+00 -6.6903732336e-04 2.8258605458e+00 -4.8945340404e+00 2.8258605458e+00 4.8945340404e+00 
120400 5.4367376021e+00 -6.6614016683e-04 2.8258723836e+00 -4.8945545441e+00 2.8258723836e+00 4.8945545441e+00 
120500 5.4367375933e+00 -6.6325562937e-04 2.8258841700e+00 -4.8945749588e+00 2.8258841700e+00 4.8945749588e+00 
120600 5.4367375845e+00 -6.6038365538e-04 2.8258959054e+00 -4.8945952851e+00 2.8258959054e+00 4.8945952851e+00 
120700 5.4367375759e+00 -6.5752418950e-04 2.8259075899e+00 -4.8946155232e+00 2.8259075899e+00 4.8946155232e+00 
120800 5.4367375673e+00 -6.5467717662e-04 2.8259192238e+00 -4.8946356737e+00 2.8259192238e+00 4.8946356737e+00 
120900 5.4367375588e+00 -6.5184256187e-04 2.8259308072e+00 -4.8946557368e+00 2.8259308072e+00 4.8946557368e+00 
121000 5.4367375504e+00 -6.4902029065e-04 2.8259423405e+00 -4.8946757130e+00 2.8259423405e+00 4.8946757130e+00 
121100 5.4367375420e+00 -6.4621030859e-04 2.8259538237e+00 -4.8946956026e+00 2.8259538237e+00 4.8946956026e+00 
121200 5.4367375337e+00 -6.4341256156e-04 2.8259652572e+00 -4.8947154060e+00 2.8259652572e+00 4.8947154060e+00 
121300 5.4367375255e+00 -6.4062699569e-04 2.8259766412e+00 -4.8947351235e+00 2.8259766412e+00 4.8947351235e+00 
121400 5.4367375173e+00 -6.3785355733e-04 2.8259879758e+00 -4.8947547557e+00 2.8259879758e+00 4.8947547557e+00 
121500 5.4367375093e+00 -6.3509219310e-04 2.8259992613e+00 -4.8947743027e+00 2.8259992613e+00 4.8947743027e+00 
121600 5.4367375013e+00 -6.3234284984e-04 2.8260104979e+00 -4.8947937651e+00 2.8260104979e+00 4.8947937651e+00 
121700 5.4367374933e+00 -6.2960547463e-04 2.8260216858e+00 -4.8948131431e+00 2.8260216858e+00 4.8948131431e+00 
121800 5.4367374854e+00 -6.2688001479e-04 2.8260328253e+00 -4.8948324372e+00 2.8260328253e+00 4.8948324372e+00 
121900 5.4367374776e+00 -6.2416641789e-04 2.8260439164e+00 -4.8948516477e+00 2.8260439164e+00 4.8948516477e+00 
122000 5.4367374699e+00 -6.2146463172e-04 2.8260549596e+00 -4.8948707749e+00 2.8260549596e+00 4.8948707749e+00 
122100 5.4367374622e+00 -6.1877460430e-04 2.8260659548e+00 -4.8948898193e+00 2.8260659548e+00 4.8948898193e+00 
122200 5.4367374546e+00 -6.1609628390e-04 2.8260769025e+00 -4.8949087812e+00 2.8260769025e+00 4.8949087812e+00 
122300 5.4367374471e+00 -6.1342961902e-04 2.8260878027e+00 -4.8949276609e+00 2.8260878027e+00 4.8949276609e+00 
122400 5.4367374396e+00 -6.1077455838e-04 2.8260986557e+00 -4.8949464588e+00 2.8260986557e+00 4.8949464588e+00 
122500 5.4367374322e+00 -6.0813105094e-04 2.8261094616e+00 -4.8949651753e+00 2.8261094616e+00 4.8949651753e+00 
122600 5.4367374249e+00 -6.0549904589e-04 2.8261202208e+00 -4.8949838107e+00 2.8261202208e+00 4.8949838107e+00 
122700 5.4367374176e+00 -6.0287849264e-04 2.8261309334e+00 -4.8950023654e+00 2.8261309334e+00 4.8950023654e+00 
122800 5.4367374104e+00 -6.0026934083e-04 2.8261415995e+00 -4.8950208398e+00 2.8261415995e+00 4.8950208398e+00 
122900 5.4367374032e+00 -5.9767154033e-04 2.8261522195e+00 -4.8950392340e+00 2.8261522195e+00 4.8950392340e+00 
123000 5.4367373961e+00 -5.9508504123e-04 2.8261627934e+00 -4.8950575487e+00 2.8261627934e+00 4.8950575487e+00 
123100 5.4367373891e+00 -5.9250979385e-04 2.8261733216e+00 -4.8950757840e+00 2.8261733216e+00 4.8950757840e+00 
123200 5.4367373821e+00 -5.8994574872e-04 2.8261838041e+00 -4.8950939403e+00 2.8261838041e+00 4.8950939403e+00 
123300 5.4367373752e+00 -5.8739285662e-04 2.8261942413e+00 -4.8951120180e+00 2.8261942413e+00 4.8951120180e+00 
123400 5.4367373684e+00 -5.8485106852e-04 2.8262046332e+00 -4.8951300173e+00 2.8262046332e+00 4.8951300173e+00 
123500 5.4367373616e+00 -5.8232033563e-04 2.8262149802e+00 -4.8951479388e+00 2.8262149802e+00 4.8951479388e+00 
123600 5.4367373548e+00 -5.7980060936e-04 2.8262252823e+00 -4.8951657826e+00 2.8262252823e+00 4.8951657826e+00 
123700 5.4367373482e+00 -5.7729184135e-04 2.8262355398e+00 -4.8951835491e+00 2.8262355398e+00 4.8951835491e+00 
123800 5.4367373415e+00 -5.7479398346e-04 2.8262457529e+00 -4.8952012387e+00 2.8262457529e+00 4.8952012387e+00 
123900 5.4367373350e+00 -5.7230698776e-04 2.8262559218e+00 -4.8952188517e+00 2.8262559218e+00 4.8952188517e+00 
124000 5.4367373285e+00 -5.6983080654e-04 2.8262660466e+00 -4.8952363884e+00 2.8262660466e+00 4.8952363884e+00 
124100 5.4367373220e+00 -5.6736539229e-04 2.8262761276e+00 -4.8952538492e+00 2.8262761276e+00 4.8952538492e+00 
124200 5.4367373156e+00 -5.6491069773e-04 2.8262861649e+00 -4.8952712344e+00 2.8262861649e+00 4.8952712344e+00 
124300 5.4367373093e+00 -5.6246667578e-04 2.8262961588e+00 -4.8952885443e+00 2.8262961588e+00 4.8952885443e+00 
124400 5.4367373030e+00 -5.6003327957e-04 2.8263061094e+00 -4.8953057792e+00 2.8263061094e+00 4.8953057792e+00 
124500 5.4367372968e+00 -5.5761046246e-04 2.8263160169e+00 -4.8953229396e+00 2.8263160169e+00 4.8953229396e+00 
124600 5.4367372906e+00 -5.5519817799e-04 2.8263258815e+00 -4.8953400256e+00 2.8263258815e+00 4.8953400256e+00 
124700 5.4367372845e+00 -5.5279637993e-04 2.8263357035e+00 -4.8953570376e+00 2.8263357035e+00 4.8953570376e+00 
124800 5.4367372784e+00 -5.5040502224e-04 2.8263454828e+00 -4.8953739760e+00 2.8263454828e+00 4.8953739760e+00 
124900 5.4367372724e+00 -5.4802405910e-04 2.8263552199e+00 -4.8953908411e+00 2.8263552199e+00 4.8953908411e+00 
125000 5.4367372664e+00 -5.4565344488e-04 2.8263649148e+00 -4.8954076332e+00 2.8263649148e+00 4.8954076332e+00 
125100 5.4367372605e+00 -5.4329313418e-04 2.8263745677e+00 -4.8954243525e+00 2.8263745677e+00 4.8954243525e+00 
125200 5.4367372546e+00 -5.4094308177e-04 2.8263841789e+00 -4.8954409995e+00 2.8263841789e+00 4.8954409995e+00 
125300 5.4367372488e+00 -5.3860324265e-04 2.8263937484e+00 -4.8954575744e+00 2.8263937484e+00 4.8954575744e+00 
125400 5.4367372430e+00 -5.3627357200e-04 2.8264032765e+00 -4.8954740776e+00 2.8264032765e+00 4.8954740776e+00 
125500 5.4367372373e+00 -5.3395402522e-04 2.8264127634e+00 -4.8954905093e+00 2.8264127634e+00 4.8954905093e+00 
125600 5.4367372316e+00 -5.3164455789e-04 2.8264222091e+00 -4.8955068699e+00 2.8264222091e+00 4.8955068699e+00 
125700 5.4367372260e+00 -5.2934512580e-04 2.8264316141e+00 -4.8955231597e+00 2.8264316141e+00 4.8955231597e+00 
125800 5.4367372205e+00 -5.2705568494e-04 2.8264409783e+00 -4.8955393789e+00 2.8264409783e+00 4.8955393789e+00 
125900 5.4367372149e+00 -5.2477619149e-04 2.8264503019e+00 -4.8955555280e+00 2.8264503019e+00 4.8955555280e+00 
126000 5.4367372095e+00 -5.2250660182e-04 2.8264595852e+00 -4.8955716072e+00 2.8264595852e+00 4.8955716072e+00 
126100 5.4367372040e+00 -5.2024687251e-04 2.8264688284e+00 -4.8955876167e+00 2.8264688284e+00 4.8955876167e+00 
126200 5.4367371987e+00 -5.1799696033e-04 2.8264780315e+00 -4.8956035570e+00 2.8264780315e+00 4.8956035570e+00 
126300 5.4367371933e+00 -5.1575682223e-04 2.8264871948e+00 -4.8956194283e+00 2.8264871948e+00 4.8956194283e+00 
126400 5.4367371880e+00 -5.1352641536e-04 2.8264963184e+00 -4.8956352309e+00 2.8264963184e+00 4.8956352309e+00 
126500 5.4367371828e+00 -5.1130569708e-04 2.8265054026e+00 -4.8956509652e+00 2.8265054026e+00 4.8956509652e+00 
126600 5.4367371776e+00 -5.0909462490e-04 2.8265144474e+00 -4.8956666313e+00 2.8265144474e+00 4.8956666313e+00 
126700 5.4367371724e+00 -5.0689315656e-04 2.8265234531e+00 -4.8956822296e+00 2.8265234531e+00 4.8956822296e+00 
126800 5.4367371673e+00 -5.0470124996e-04 2.8265324199e+00 -4.8956977605e+00 2.8265324199e+00 4.8956977605e+00 
126900 5.4367371623e+00 -5.0251886320e-04 2.8265413478e+00 -4.8957132241e+00 2.8265413478e+00 4.8957132241e+00 
127000 5.4367371572e+00 -5.0034595457e-04 2.8265502371e+00 -4.8957286208e+00 2.8265502371e+00 4.8957286208e+00 
127100 5.4367371523e+00 -4.9818248254e-04 2.8265590879e+00 -4.8957439509e+00 2.8265590879e+00 4.8957439509e+00 
127200 5.4367371473e+00 -4.9602840576e-04 2.8265679004e+00 -4.8957592146e+00 2.8265679004e+00 4.8957592146e+00 
127300 5.4367371424e+00 -4.9388368308e-04 2.8265766748e+00 -4.8957744123e+00 2.8265766748e+00 4.8957744123e+00 
127400 5.4367371376e+00 -4.9174827353e-04 2.8265854113e+00 -4.8957895443e+00 2.8265854113e+00 4.8957895443e+00 
127500 5.4367371328e+00 -4.8962213630e-04 2.8265941099e+00 -4.8958046107e+00 2.8265941099e+00 4.8958046107e+00 
127600 5.4367371280e+00 -4.8750523079e-04 2.8266027709e+00 -4.8958196120e+00 2.8266027709e+00 4.8958196120e+00 
127700 5.4367371233e+00 -4.8539751656e-04 2.8266113944e+00 -4.8958345484e+00 2.8266113944e+00 4.8958345484e+00 
127800 5.4367371186e+00 -4.8329895337e-04 2.8266199806e+00 -4.8958494202e+00 2.8266199806e+00 4.8958494202e+00 
127900 5.4367371140e+00 -4.8120950115e-04 2.8266285297e+00 -4.8958642276e+00 2.8266285297e+00 4.8958642276e+00 
128000 5.4367371094e+00 -4.7912911999e-04 2.8266370418e+00 -4.8958789709e+00 2.8266370418e+00 4.8958789709e+00 
128100 5.4367371048e+00 -4.7705777020e-04 2.8266455170e+00 -4.8958936505e+00 2.8266455170e+00 4.8958936505e+00 
128200 5.4367371003e+00 -4.7499541222e-04 2.8266539556e+00 -4.8959082666e+00 2.8266539556e+00 4.8959082666e+00 
128300 5.4367370958e+00 -4.7294200670e-04 2.8266623577e+00 -4.8959228194e+00 2.8266623577e+00 4.8959228194e+00 
128400 5.4367370913e+00 -4.7089751445e-04 2.8266707235e+00 -4.8959373093e+00 2.8266707235e+00 4.8959373093e+00 
128500 5.4367370869e+00 -4.6886189646e-04 2.8266790530e+00 -4.8959517365e+00 2.8266790530e+00 4.8959517365e+00 
128600 5.4367370825e+00 -4.6683511388e-04 2.8266873465e+00 -4.8959661013e+00 2.8266873465e+00 4.8959661013e+00 
128700 5.4367370782e+00 -4.6481712806e-04 2.8266956042e+00 -4.8959804039e+00 2.8266956042e+00 4.8959804039e+00 
128800 5.4367370739e+00 -4.6280790049e-04 2.8267038261e+00 -4.8959946447e+00 2.8267038261e+00 4.8959946447e+00 
128900 5.4367370696e+00 -4.6080739285e-04 2.8267120124e+00 -4.8960088239e+00 2.8267120124e+00 4.8960088239e+00 
129000 5.4367370654e+00 -4.5881556700e-04 2.8267201634e+00 -4.8960229418e+00 2.8267201634e+00 4.8960229418e+00 
129100 5.4367370612e+00 -4.5683238495e-04 2.8267282791e+00 -4.8960369985e+00 2.8267282791e+00 4.8960369985e+00 
129200 5.4367370571e+00 -4.5485780887e-04 2.8267363597e+00 -4.8960509945e+00 2.8267363597e+00 4.8960509945e+00 
129300 5.4367370530e+00 -4.5289180114e-04 2.8267444053e+00 -4.8960649300e+00 2.8267444053e+00 4.8960649300e+00 
129400 5.4367370489e+00 -4.5093432426e-04 2.8267524161e+00 -4.8960788052e+00 2.8267524161e+00 4.8960788052e+00 
129500 5.4367370448e+00 -4.4898534093e-04 2.8267603923e+00 -4.8960926204e+00 2.8267603923e+00 4.8960926204e+00 
129600 5.4367370408e+00 -4.4704481400e-04 2.8267683340e+00 -4.8961063758e+00 2.8267683340e+00 4.8961063758e+00 
129700 5.4367370369e+00 -4.4511270649e-04 2.8267762414e+00 -4.8961200717e+00 2.8267762414e+00 4.8961200717e+00 
129800 5.4367370329e+00 -4.4318898158e-04 2.8267841145e+00 -4.8961337084e+00 2.8267841145e+00 4.8961337084e+00 
129900 5.4367370290e+00 -4.4127360261e-04 2.8267919536e+00 -4.8961472861e+00 2.8267919536e+00 4.8961472861e+00 
130000 5.4367370251e+00 -4.3936653310e-04 2.8267997589e+00 -4.8961608052e+00 2.8267997589e+00 4.8961608052e+00 
130100 5.4367370213e+00 -4.3746773672e-04 2.8268075303e+00 -4.8961742657e+00 2.8268075303e+00 4.8961742657e+00 
130200 5.4367370175e+00 -4.3557717729e-04 2.8268152681e+00 -4.8961876680e+00 2.8268152681e+00 4.8961876680e+00 
130300 5.4367370137e+00 -4.3369481882e-04 2.8268229725e+00 -4.8962010124e+00 2.8268229725e+00 4.8962010124e+00 
130400 5.4367370100e+00 -4.3182062545e-04 2.8268306436e+00 -4.8962142991e+00 2.8268306436e+00 4.8962142991e+00 
130500 5.4367370063e+00 -4.2995456149e-04 2.8268382815e+00 -4.8962275283e+00 2.8268382815e+00 4.8962275283e+00 
130600 5.4367370026e+00 -4.2809659142e-04 2.8268458864e+00 -4.8962407004e+00 2.8268458864e+00 4.8962407004e+00 
130700 5.4367369989e+00 -4.2624667987e-04 2.8268534584e+00 -4.8962538154e+00 2.8268534584e+00 4.8962538154e+00 
130800 5.4367369953e+00 -4.2440479161e-04 2.8268609976e+00 -4.8962668738e+00 2.8268609976e+00 4.8962668738e+00 
130900 5.4367369917e+00 -4.2257089160e-04 2.8268685042e+00 -4.8962798757e+00 2.8268685042e+00 4.8962798757e+00 
131000 5.4367369882e+00 -4.2074494491e-04 2.8268759784e+00 -4.8962928213e+00 2.8268759784e+00 4.8962928213e+00 
131100 5.4367369847e+00 -4.1892691682e-04 2.8268834203e+00 -4.8963057111e+00 2.8268834203e+00 4.8963057111e+00 
131200 5.4367369812e+00 -4.1711677272e-04 2.8268908300e+00 -4.8963185450e+00 2.8268908300e+00 4.8963185450e+00 
131300 5.4367369777e+00 -4.1531447816e-04 2.8268982077e+00 -4.8963313235e+00 2.8268982077e+00 4.8963313235e+00 
131400 5.4367369743e+00 -4.1351999887e-04 2.8269055534e+00 -4.8963440468e+00 2.8269055534e+00 4.8963440468e+00 
131500 5.4367369709e+00 -4.1173330070e-04 2.8269128674e+00 -4.8963567150e+00 2.8269128674e+00 4.8963567150e+00 
131600 5.4367369675e+00 -4.0995434967e-04 2.8269201498e+00 -4.8963693285e+00 2.8269201498e+00 4.8963693285e+00 
131700 5.4367369641e+00 -4.0818311194e-04 2.8269274007e+00 -4.8963818874e+00 2.8269274007e+00 4.8963818874e+00 
131800 5.4367369608e+00 -4.0641955383e-04 2.8269346203e+00 -4.8963943920e+00 2.8269346203e+00 4.8963943920e+00 
131900 5.4367369575e+00 -4.0466364180e-04 2.8269418086e+00 -4.8964068426e+00 2.8269418086e+00 4.8964068426e+00 
132000 5.4367369543e+00 -4.0291534247e-04 2.8269489659e+00 -4.8964192394e+00 2.8269489659e+00 4.8964192394e+00 
132100 5.4367369510e+00 -4.0117462260e-04 2.8269560922e+00 -4.8964315825e+00 2.8269560922e+00 4.8964315825e+00 
132200 5.4367369478e+00 -3.9944144908e-04 2.8269631878e+00 -4.8964438723e+00 2.8269631878e+00 4.8964438723e+00 
132300 5.4367369447e+00 -3.9771578899e-04 2.8269702526e+00 -4.8964561090e+00 2.8269702526e+00 4.8964561090e+00 
132400 5.4367369415e+00 -3.9599760951e-04 2.8269772869e+00 -4.8964682928e+00 2.8269772869e+00 4.8964682928e+00 
132500 5.4367369384e+00 -3.9428687800e-04 2.8269842908e+00 -4.8964804239e+00 2.8269842908e+00 4.8964804239e+00 
132600 5.4367369353e+00 -3.9258356194e-04 2.8269912645e+00 -4.8964925026e+00 2.8269912645e+00 4.8964925026e+00 
132700 5.4367369322e+00 -3.9088762896e-04 2.8269982080e+00 -4.8965045291e+00 2.8269982080e+00 4.8965045291e+00 
132800 5.4367369292e+00 -3.8919904685e-04 2.8270051214e+00 -4.8965165036e+00 2.8270051214e+00 4.8965165036e+00 
132900 5.4367369262e+00 -3.8751778352e-04 2.8270120050e+00 -4.8965284263e+00 2.8270120050e+00 4.8965284263e+00 
133000 5.4367369232e+00 -3.8584380704e-04 2.8270188589e+00 -4.8965402975e+00 2.8270188589e+00 4.8965402975e+00 
133100 5.4367369202e+00 -3.8417708560e-04 2.8270256831e+00 -4.8965521174e+00 2.8270256831e+00 4.8965521174e+00 
133200 5.4367369173e+00 -3.8251758755e-04 2.8270324778e+00 -4.8965638863e+00 2.8270324778e+00 4.8965638863e+00 
133300 5.4367369144e+00 -3.8086528138e-04 2.8270392432e+00 -4.8965756042e+00 2.8270392432e+00 4.8965756042e+00 
133400 5.4367369115e+00 -3.7922013570e-04 2.8270459793e+00 -4.8965872715e+00 2.8270459793e+00 4.8965872715e+00 
133500 5.4367369086e+00 -3.7758211929e-04 2.8270526863e+00 -4.8965988884e+00 2.8270526863e+00 4.8965988884e+00 
133600 5.4367369058e+00 -3.7595120102e-04 2.8270593643e+00 -4.8966104550e+00 2.8270593643e+00 4.8966104550e+00 
133700 5.4367369030e+00 -3.7432734996e-04 2.8270660135e+00 -4.8966219717e+00 2.8270660135e+00 4.8966219717e+00 
133800 5.4367369002e+00 -3.7271053526e-04 2.8270726339e+00 -4.8966334386e+00 2.8270726339e+00 4.8966334386e+00 
133900 5.4367368974e+00 -3.7110072624e-04 2.8270792257e+00 -4.8966448560e+00 2.8270792257e+00 4.8966448560e+00 
134000 5.4367368947e+00 -3.6949789234e-04 2.8270857891e+00 -4.8966562240e+00 2.8270857891e+00 4.8966562240e+00 
134100 5.4367368919e+00 -3.6790200315e-04 2.8270923240e+00 -4.8966675429e+00 2.8270923240e+00 4.8966675429e+00 
134200 5.4367368893e+00 -3.6631302838e-04 2.8270988307e+00 -4.8966788129e+00 2.8270988307e+00 4.8966788129e+00 
134300 5.4367368866e+00 -3.6473093788e-04 2.8271053093e+00 -4.8966900341e+00 2.8271053093e+00 4.8966900341e+00 
134400 5.4367368839e+00 -3.6315570163e-04 2.8271117600e+00 -4.8967012069e+00 2.8271117600e+00 4.8967012069e+00 
134500 5.4367368813e+00 -3.6158728974e-04 2.8271181827e+00 -4.8967123314e+00 2.8271181827e+00 4.8967123314e+00 
134600 5.4367368787e+00 -3.6002567247e-04 2.8271245777e+00 -4.8967234079e+00 2.8271245777e+00 4.8967234079e+00 
134700 5.4367368761e+00 -3.5847082018e-04 2.8271309450e+00 -4.8967344364e+00 2.8271309450e+00 4.8967344364e+00 
134800 5.4367368736e+00 -3.5692270340e-04 2.8271372849e+00 -4.8967454174e+00 2.8271372849e+00 4.8967454174e+00 
134900 5.4367368710e+00 -3.5538129276e-04 2.8271435973e+00 -4.8967563508e+00 2.8271435973e+00 4.8967563508e+00 
135000 5.4367368685e+00 -3.5384655902e-04 2.8271498825e+00 -4.8967672371e+00 2.8271498825e+00 4.8967672371e+00 
135100 5.4367368660e+00 -3.5231847308e-04 2.8271561405e+00 -4.8967780762e+00 2.8271561405e+00 4.8967780762e+00 
135200 5.4367368635e+00 -3.5079700598e-04 2.8271623715e+00 -4.8967888686e+00 2.8271623715e+00 4.8967888686e+00 
135300 5.4367368611e+00 -3.4928212886e-04 2.8271685755e+00 -4.8967996143e+00 2.8271685755e+00 4.8967996143e+00 
135400 5.4367368587e+00 -3.4777381300e-04 2.8271747527e+00 -4.8968103136e+00 2.8271747527e+00 4.8968103136e+00 
135500 5.4367368563e+00 -3.4627202982e-04 2.8271809033e+00 -4.8968209667e+00 2.8271809033e+00 4.8968209667e+00 
135600 5.4367368539e+00 -3.4477675085e-04 2.8271870273e+00 -4.8968315738e+00 2.8271870273e+00 4.8968315738e+00 
135700 5.4367368515e+00 -3.4328794774e-04 2.8271931248e+00 -4.8968421350e+00 2.8271931248e+00 4.8968421350e+00 
135800 5.4367368491e+00 -3.4180559228e-04 2.8271991960e+00 -4.8968526506e+00 2.8271991960e+00 4.8968526506e+00 
135900 5.4367368468e+00 -3.4032965639e-04 2.8272052409e+00 -4.8968631207e+00 2.8272052409e+00 4.8968631207e+00 
136000 5.4367368445e+00 -3.3886011208e-04 2.8272112598e+00 -4.8968735457e+00 2.8272112598e+00 4.8968735457e+00 
136100 5.4367368422e+00 -3.3739693153e-04 2.8272172526e+00 -4.8968839256e+00 2.8272172526e+00 4.8968839256e+00 
136200 5.4367368400e+00 -3.3594008701e-04 2.8272232196e+00 -4.8968942606e+00 2.8272232196e+00 4.8968942606e+00 
136300 5.4367368377e+00 -3.3448955091e-04 2.8272291607e+00 -4.8969045510e+00 2.8272291607e+00 4.8969045510e+00 
136400 5.4367368355e+00 -3.3304529576e-04 2.8272350762e+00 -4.8969147970e+00 2.8272350762e+00 4.8969147970e+00 
136500 5.4367368333e+00 -3.3160729422e-04 2.8272409662e+00 -4.8969249987e+00 2.8272409662e+00 4.8969249987e+00 
136600 5.4367368311e+00 -3.3017551903e-04 2.8272468307e+00 -4.8969351563e+00 2.8272468307e+00 4.8969351563e+00 
136700 5.4367368289e+00 -3.2874994308e-04 2.8272526699e+00 -4.8969452700e+00 2.8272526699e+00 4.8969452700e+00 
136800 5.4367368268e+00 -3.2733053939e-04 2.8272584838e+00 -4.8969553401e+00 2.8272584838e+00 4.8969553401e+00 
136900 5.4367368246e+00 -3.2591728106e-04 2.8272642727e+00 -4.8969653667e+00 2.8272642727e+00 4.8969653667e+00 
137000 5.4367368225e+00 -3.2451014135e-04 2.8272700365e+00 -4.8969753499e+00 2.8272700365e+00 4.8969753499e+00 
137100 5.4367368204e+00 -3.2310909361e-04 2.8272757754e+00 -4.8969852900e+00 2.8272757754e+00 4.8969852900e+00 
137200 5.4367368183e+00 -3.2171411131e-04 2.8272814896e+00 -4.8969951872e+00 2.8272814896e+00 4.8969951872e+00 
137300 5.4367368163e+00 -3.2032516806e-04 2.8272871790e+00 -4.8970050416e+00 2.8272871790e+00 4.8970050416e+00 
137400 5.4367368142e+00 -3.1894223756e-04 2.8272928439e+00 -4.8970148535e+00 2.8272928439e+00 4.8970148535e+00 
137500 5.4367368122e+00 -3.1756529363e-04 2.8272984843e+00 -4.8970246230e+00 2.8272984843e+00 4.8970246230e+00 
137600 5.4367368102e+00 -3.1619431022e-04 2.8273041004e+00 -4.8970343503e+00 2.8273041004e+00 4.8970343503e+00 
137700 5.4367368082e+00 -3.1482926138e-04 2.8273096922e+00 -4.8970440356e+00 2.8273096922e+00 4.8970440356e+00 
137800 5.4367368062e+00 -3.1347012128e-04 2.8273152598e+00 -4.8970536790e+00 2.8273152598e+00 4.8970536790e+00 
137900 5.4367368043e+00 -3.1211686420e-04 2.8273208034e+00 -4.8970632808e+00 2.8273208034e+00 4.8970632808e+00 
138000 5.4367368023e+00 -3.1076946454e-04 2.8273263231e+00 -4.8970728412e+00 2.8273263231e+00 4.8970728412e+00 
138100 5.4367368004e+00 -3.0942789681e-04 2.8273318189e+00 -4.8970823602e+00 2.8273318189e+00 4.8970823602e+00 
138200 5.4367367985e+00 -3.0809213563e-04 2.8273372910e+00 -4.8970918381e+00 2.8273372910e+00 4.8970918381e+00 
138300 5.4367367966e+00 -3.0676215573e-04 2.8273427395e+00 -4.8971012751e+00 2.8273427395e+00 4.8971012751e+00 
138400 5.4367367947e+00 -3.0543793196e-04 2.8273481644e+00 -4.8971106714e+00 2.8273481644e+00 4.8971106714e+00 
138500 5.4367367929e+00 -3.0411943926e-04 2.8273535659e+00 -4.8971200270e+00 2.8273535659e+00 4.8971200270e+00 
138600 5.4367367910e+00 -3.0280665271e-04 2.8273589440e+00 -4.8971293423e+00 2.8273589440e+00 4.8971293423e+00 
138700 5.4367367892e+00 -3.0149954748e-04 2.8273642990e+00 -4.8971386173e+00 2.8273642990e+00 4.8971386173e+00 
138800 5.4367367874e+00 -3.0019809885e-04 2.8273696308e+00 -4.8971478523e+00 2.8273696308e+00 4.8971478523e+00 
138900 5.4367367856e+00 -2.9890228222e-04 2.8273749396e+00 -4.8971570474e+00 2.8273749396e+00 4.8971570474e+00 
139000 5.4367367838e+00 -2.9761207308e-04 2.8273802254e+00 -4.8971662028e+00 2.8273802254e+00 4.8971662028e+00 
139100 5.4367367820e+00 -2.9632744704e-04 2.8273854885e+00 -4.8971753186e+00 2.8273854885e+00 4.8971753186e+00 
139200 5.4367367803e+00 -2.9504837982e-04 2.8273907288e+00 -4.8971843951e+00 2.8273907288e+00 4.8971843951e+00 
139300 5.4367367786e+00 -2.9377484724e-04 2.8273959465e+00 -4.8971934324e+00 2.8273959465e+00 4.8971934324e+00 
139400 5.4367367768e+00 -2.9250682522e-04 2.8274011416e+00 -4.8972024307e+00 2.8274011416e+00 4.8972024307e+00 
139500 5.4367367751e+00 -2.9124428981e-04 2.8274063143e+00 -4.8972113901e+00 2.8274063143e+00 4.8972113901e+00 
139600 5.4367367734e+00 -2.8998721714e-04 2.8274114647e+00 -4.8972203108e+00 2.8274114647e+00 4.8972203108e+00 
139700 5.4367367718e+00 -2.8873558346e-04 2.8274165929e+00 -4.8972291930e+00 2.8274165929e+00 4.8972291930e+00 
139800 5.4367367701e+00 -2.8748936510e-04 2.8274216989e+00 -4.8972380368e+00 2.8274216989e+00 4.8972380368e+00 
139900 5.4367367685e+00 -2.8624853854e-04 2.8274267828e+00 -4.8972468425e+00 2.8274267828e+00 4.8972468425e+00 
140000 5.4367367668e+00 -2.8501308031e-04 2.8274318448e+00 -4.8972556101e+00 2.8274318448e+00 4.8972556101e+00 
140100 5.4367367652e+00 -2.8378296709e-04 2.8274368849e+00 -4.8972643399e+00 2.8274368849e+00 4.8972643399e+00 
140200 5.4367367636e+00 -2.8255817563e-04 2.8274419033e+00 -4.8972730320e+00 2.8274419033e+00 4.8972730320e+00 
140300 5.4367367620e+00 -2.8133868279e-04 2.8274469000e+00 -4.8972816866e+00 2.8274469000e+00 4.8972816866e+00 
140400 5.4367367604e+00 -2.8012446554e-04 2.8274518752e+00 -4.8972903038e+00 2.8274518752e+00 4.8972903038e+00 
140500 5.4367367589e+00 -2.7891550095e-04 2.8274568288e+00 -4.8972988837e+00 2.8274568288e+00 4.8972988837e+00 
140600 5.4367367573e+00 -2.7771176618e-04 2.8274617611e+00 -4.8973074267e+00 2.8274617611e+00 4.8973074267e+00 
140700 5.4367367558e+00 -2.7651323851e-04 2.8274666721e+00 -4.8973159327e+00 2.8274666721e+00 4.8973159327e+00 
140800 5.4367367543e+00 -2.7531989528e-04 2.8274715619e+00 -4.8973244021e+00 2.8274715619e+00 4.8973244021e+00 
140900 5.4367367527e+00 -2.7413171399e-04 2.8274764305e+00 -4.8973328348e+00 2.8274764305e+00 4.8973328348e+00 
141000 5.4367367512e+00 -2.7294867217e-04 2.8274812782e+00 -4.8973412312e+00 2.8274812782e+00 4.8973412312e+00 
141100 5.4367367498e+00 -2.7177074752e-04 2.8274861049e+00 -4.8973495913e+00 2.8274861049e+00 4.8973495913e+00 
141200 5.4367367483e+00 -2.7059791777e-04 2.8274909107e+00 -4.8973579153e+00 2.8274909107e+00 4.8973579153e+00 
141300 5.4367367468e+00 -2.6943016079e-04 2.8274956959e+00 -4.8973662034e+00 2.8274956959e+00 4.8973662034e+00 
141400 5.4367367454e+00 -2.6826745455e-04 2.8275004603e+00 -4.8973744557e+00 2.8275004603e+00 4.8973744557e+00 
141500 5.4367367439e+00 -2.6710977708e-04 2.8275052042e+00 -4.8973826724e+00 2.8275052042e+00 4.8973826724e+00 
141600 5.4367367425e+00 -2.6595710654e-04 2.8275099276e+00 -4.8973908536e+00 2.8275099276e+00 4.8973908536e+00 
141700 5.4367367411e+00 -2.6480942118e-04 2.8275146307e+00 -4.8973989995e+00 2.8275146307e+00 4.8973989995e+00 
141800 5.4367367397e+00 -2.6366669934e-04 2.8275193134e+00 -4.8974071102e+00 2.8275193134e+00 4.8974071102e+00 
141900 5.4367367383e+00 -2.6252891944e-04 2.8275239759e+00 -4.8974151859e+00 2.8275239759e+00 4.8974151859e+00 
142000 5.4367367370e+00 -2.6139606003e-04 2.8275286183e+00 -4.8974232267e+00 2.8275286183e+00 4.8974232267e+00 
142100 5.4367367356e+00 -2.6026809972e-04 2.8275332406e+00 -4.8974312329e+00 2.8275332406e+00 4.8974312329e+00 
142200 5.4367367342e+00 -2.5914501723e-04 2.8275378430e+00 -4.8974392044e+00 2.8275378430e+00 4.8974392044e+00 
142300 5.4367367329e+00 -2.5802679138e-04 2.8275424255e+00 -4.8974471416e+00 2.8275424255e+00 4.8974471416e+00 
142400 5.4367367316e+00 -2.5691340106e-04 2.8275469883e+00 -4.8974550445e+00 2.8275469883e+00 4.8974550445e+00 
142500 5.4367367303e+00 -2.5580482528e-04 2.8275515313e+00 -4.8974629133e+00 2.8275515313e+00 4.8974629133e+00 
142600 5.4367367290e+00 -2.5470104312e-04 2.8275560548e+00 -4.8974707481e+00 2.8275560548e+00 4.8974707481e+00 
142700 5.4367367277e+00 -2.5360203377e-04 2.8275605587e+00 -4.8974785491e+00 2.8275605587e+00 4.8974785491e+00 
142800 5.4367367264e+00 -2.5250777649e-04 2.8275650431e+00 -4.8974863164e+00 2.8275650431e+00 4.8974863164e+00 
142900 5.4367367251e+00 -2.5141825064e-04 2.8275695083e+00 -4.8974940502e+00 2.8275695083e+00 4.8974940502e+00 
143000 5.4367367238e+00 -2.5033343569e-04 2.8275739541e+00 -4.8975017507e+00 2.8275739541e+00 4.8975017507e+00 
143100 5.4367367226e+00 -2.4925331117e-04 2.8275783807e+00 -4.8975094178e+00 2.8275783807e+00 4.8975094178e+00 
143200 5.4367367214e+00 -2.4817785671e-04 2.8275827883e+00 -4.8975170519e+00 2.8275827883e+00 4.8975170519e+00 
143300 5.4367367201e+00 -2.4710705204e-04 2.8275871768e+00 -4.8975246531e+00 2.8275871768e+00 4.8975246531e+00 
143400 5.4367367189e+00 -2.4604087696e-04 2.8275915464e+00 -4.8975322214e+00 2.8275915464e+00 4.8975322214e+00 
143500 5.4367367177e+00 -2.4497931138e-04 2.8275958971e+00 -4.8975397570e+00 2.8275958971e+00 4.8975397570e+00 
143600 5.4367367165e+00 -2.4392233528e-04 2.8276002290e+00 -4.8975472602e+00 2.8276002290e+00 4.8975472602e+00 
143700 5.4367367153e+00 -2.4286992874e-04 2.8276045423e+00 -4.8975547309e+00 2.8276045423e+00 4.8975547309e+00 
143800 5.4367367141e+00 -2.4182207192e-04 2.8276088369e+00 -4.8975621694e+00 2.8276088369e+00 4.8975621694e+00 
143900 5.4367367130e+00 -2.4077874506e-04 2.8276131130e+00 -4.8975695758e+00 2.8276131130e+00 4.8975695758e+00 
144000 5.4367367118e+00 -2.3973992851e-04 2.8276173706e+00 -4.8975769503e+00 2.8276173706e+00 4.8975769503e+00 
144100 5.4367367107e+00 -2.3870560268e-04 2.8276216099e+00 -4.8975842929e+00 2.8276216099e+00 4.8975842929e+00 
144200 5.4367367095e+00 -2.3767574808e-04 2.8276258308e+00 -4.8975916038e+00 2.8276258308e+00 4.8975916038e+00 
144300 5.4367367084e+00 -2.3665034530e-04 2.8276300336e+00 -4.8975988832e+00 2.8276300336e+00 4.8975988832e+00 
144400 5.4367367073e+00 -2.3562937502e-04 2.8276342182e+00 -4.8976061311e+00 2.8276342182e+00 4.8976061311e+00 
144500 5.4367367062e+00 -2.3461281800e-04 2.8276383847e+00 -4.8976133478e+00 2.8276383847e+00 4.8976133478e+00 
144600 5.4367367051e+00 -2.3360065509e-04 2.8276425333e+00 -4.8976205333e+00 2.8276425333e+00 4.8976205333e+00 
144700 5.4367367040e+00 -2.3259286721e-04 2.8276466640e+00 -4.8976276878e+00 2.8276466640e+00 4.8976276878e+00 
144800 5.4367367029e+00 -2.3158943539e-04 2.8276507768e+00 -4.8976348115e+00 2.8276507768e+00 4.8976348115e+00 
144900 5.4367367019e+00 -2.3059034071e-04 2.8276548719e+00 -4.8976419044e+00 2.8276548719e+00 4.8976419044e+00 
145000 5.4367367008e+00 -2.2959556436e-04 2.8276589493e+00 -4.8976489667e+00 2.8276589493e+00 4.8976489667e+00 
145100 5.4367366997e+00 -2.2860508759e-04 2.8276630091e+00 -4.8976559985e+00 2.8276630091e+00 4.8976559985e+00 
145200 5.4367366987e+00 -2.2761889175e-04 2.8276670514e+00 -4.8976629999e+00 2.8276670514e+00 4.8976629999e+00 
145300 5.4367366977e+00 -2.2663695827e-04 2.8276710763e+00 -4.8976699712e+00 2.8276710763e+00 4.8976699712e+00 
145400 5.4367366966e+00 -2.2565926865e-04 2.8276750838e+00 -4.8976769124e+00 2.8276750838e+00 4.8976769124e+00 
145500 5.4367366956e+00 -2.2468580447e-04 2.8276790740e+00 -4.8976838236e+00 2.8276790740e+00 4.8976838236e+00 
145600 5.4367366946e+00 -2.2371654742e-04 2.8276830469e+00 -4.8976907050e+00 2.8276830469e+00 4.8976907050e+00 
145700 5.4367366936e+00 -2.2275147922e-04 2.8276870028e+00 -4.8976975567e+00 2.8276870028e+00 4.8976975567e+00 
145800 5.4367366926e+00 -2.2179058171e-04 2.8276909415e+00 -4.8977043788e+00 2.8276909415e+00 4.8977043788e+00 
145900 5.4367366917e+00 -2.2083383681e-04 2.8276948633e+00 -4.8977111715e+00 2.8276948633e+00 4.8977111715e+00 
146000 5.4367366907e+00 -2.1988122648e-04 2.8276987681e+00 -4.8977179349e+00 2.8276987681e+00 4.8977179349e+00 
146100 5.4367366897e+00 -2.1893273280e-04 2.8277026561e+00 -4.8977246691e+00 2.8277026561e+00 4.8977246691e+00 
146200 5.4367366888e+00 -2.1798833792e-04 2.8277065273e+00 -4.8977313742e+00 2.8277065273e+00 4.8977313742e+00 
146300 5.4367366878e+00 -2.1704802405e-04 2.8277103818e+00 -4.8977380504e+00 2.8277103818e+00 4.8977380504e+00 
146400 5.4367366869e+00 -2.1611177349e-04 2.8277142197e+00 -4.8977446978e+00 2.8277142197e+00 4.8977446978e+00 
146500 5.4367366859e+00 -2.1517956862e-04 2.8277180410e+00 -4.8977513165e+00 2.8277180410e+00 4.8977513165e+00 
146600 5.4367366850e+00 -2.1425139189e-04 2.8277218458e+00 -4.8977579067e+00 2.8277218458e+00 4.8977579067e+00 
146700 5.4367366841e+00 -2.1332722583e-04 2.8277256343e+00 -4.8977644684e+00 2.8277256343e+00 4.8977644684e+00 
146800 5.4367366832e+00 -2.1240705305e-04 2.8277294063e+00 -4.8977710018e+00 2.8277294063e+00 4.8977710018e+00 
146900 5.4367366823e+00 -2.1149085623e-04 2.8277331621e+00 -4.8977775070e+00 2.8277331621e+00 4.8977775070e+00 
147000 5.4367366814e+00 -2.1057861812e-04 2.8277369017e+00 -4.8977839842e+00 2.8277369017e+00 4.8977839842e+00 
147100 5.4367366805e+00 -2.0967032157e-04 2.8277406251e+00 -4.8977904334e+00 2.8277406251e+00 4.8977904334e+00 
147200 5.4367366796e+00 -2.0876594948e-04 2.8277443325e+00 -4.8977968547e+00 2.8277443325e+00 4.8977968547e+00 
147300 5.4367366788e+00 -2.0786548483e-04 2.8277480239e+00 -4.8978032484e+00 2.8277480239e+00 4.8978032484e+00 
147400 5.4367366779e+00 -2.0696891069e-04 2.8277516994e+00 -4.8978096145e+00 2.8277516994e+00 4.8978096145e+00 
147500 5.4367366771e+00 -2.0607621017e-04 2.8277553590e+00 -4.8978159531e+00 2.8277553590e+00 4.8978159531e+00 
147600 5.4367366762e+00 -2.0518736649e-04 2.8277590028e+00 -4.8978222644e+00 2.8277590028e+00 4.8978222644e+00 
147700 5.4367366754e+00 -2.0430236293e-04 2.8277626309e+00 -4.8978285484e+00 2.8277626309e+00 4.8978285484e+00 
147800 5.4367366745e+00 -2.0342118283e-04 2.8277662433e+00 -4.8978348054e+00 2.8277662433e+00 4.8978348054e+00 
147900 5.4367366737e+00 -2.0254380963e-04 2.8277698402e+00 -4.8978410353e+00 2.8277698402e+00 4.8978410353e+00 
148000 5.4367366729e+00 -2.0167022681e-04 2.8277734215e+00 -4.8978472383e+00 2.8277734215e+00 4.8978472383e+00 
148100 5.4367366721e+00 -2.0080041795e-04 2.8277769874e+00 -4.8978534146e+00 2.8277769874e+00 4.8978534146e+00 
148200 5.4367366713e+00 -1.9993436668e-04 2.8277805379e+00 -4.8978595643e+00 2.8277805379e+00 4.8978595643e+00 
148300 5.4367366705e+00 -1.9907205672e-04 2.8277840731e+00 -4.8978656874e+00 2.8277840731e+00 4.8978656874e+00 
148400 5.4367366697e+00 -1.9821347185e-04 2.8277875930e+00 -4.8978717841e+00 2.8277875930e+00 4.8978717841e+00 
148500 5.4367366689e+00 -1.9735859593e-04 2.8277910978e+00 -4.8978778545e+00 2.8277910978e+00 4.8978778545e+00 
148600 5.4367366681e+00 -1.9650741287e-04 2.8277945874e+00 -4.8978838987e+00 2.8277945874e+00 4.8978838987e+00 
148700 5.4367366674e+00 -1.9565990667e-04 2.8277980619e+00 -4.8978899168e+00 2.8277980619e+00 4.8978899168e+00 
148800 5.4367366666e+00 -1.9481606140e-04 2.8278015215e+00 -4.8978959090e+00 2.8278015215e+00 4.8978959090e+00 
148900 5.4367366658e+00 -1.9397586119e-04 2.8278049662e+00 -4.8979018753e+00 2.8278049662e+00 4.8979018753e+00 
149000 5.4367366651e+00 -1.9313929025e-04 2.8278083960e+00 -4.8979078159e+00 2.8278083960e+00 4.8979078159e+00 
149100 5.4367366643e+00 -1.9230633284e-04 2.8278118110e+00 -4.8979137309e+00 2.8278118110e+00 4.8979137309e+00 
149200 5.4367366636e+00 -1.9147697330e-04 2.8278152113e+00 -4.8979196203e+00 2.8278152113e+00 4.8979196203e+00 
149300 5.4367366629e+00 -1.9065119604e-04 2.8278185969e+00 -4.8979254843e+00 2.8278185969e+00 4.8979254843e+00 
149400 5.4367366622e+00 -1.8982898555e-04 2.8278219678e+00 -4.8979313231e+00 2.8278219678e+00 4.8979313231e+00 
149500 5.4367366614e+00 -1.8901032636e-04 2.8278253243e+00 -4.8979371366e+00 2.8278253243e+00 4.8979371366e+00 
149600 5.4367366607e+00 -1.8819520309e-04 2.8278286663e+00 -4.8979429251e+00 2.8278286663e+00 4.8979429251e+00 
149700 5.4367366600e+00 -1.8738360041e-04 2.8278319938e+00 -4.8979486886e+00 2.8278319938e+00 4.8979486886e+00 
149800 5.4367366593e+00 -1.8657550308e-04 2.8278353070e+00 -4.8979544272e+00 2.8278353070e+00 4.8979544272e+00 
149900 5.4367366586e+00 -1.8577089589e-04 2.8278386059e+00 -4.8979601411e+00 2.8278386059e+00 4.8979601411e+00 
150000 5.4367366579e+00 -1.8496976374e-04 2.8278418906e+00 -4.8979658303e+00 2.8278418906e+00 4.8979658303e+00 
150100 5.4367366572e+00 -1.8417209157e-04 2.8278451611e+00 -4.8979714950e+00 2.8278451611e+00 4.8979714950e+00 
150200 5.4367366566e+00 -1.8337786438e-04 2.8278484175e+00 -4.8979771353e+00 2.8278484175e+00 4.8979771353e+00 
150300 5.4367366559e+00 -1.8258706726e-04 2.8278516599e+00 -4.8979827512e+00 2.8278516599e+00 4.8979827512e+00 
150400 5.4367366552e+00 -1.8179968534e-04 2.8278548883e+00 -4.8979883429e+00 2.8278548883e+00 4.8979883429e+00 
150500 5.4367366546e+00 -1.8101570382e-04 2.8278581027e+00 -4.8979939105e+00 2.8278581027e+00 4.8979939105e+00 
150600 5.4367366539e+00 -1.8023510799e-04 2.8278613033e+00 -4.8979994541e+00 2.8278613033e+00 4.8979994541e+00 
150700 5.4367366533e+00 -1.7945788316e-04 2.8278644901e+00 -4.8980049737e+00 2.8278644901e+00 4.8980049737e+00 
150800 5.4367366526e+00 -1.7868401475e-04 2.8278676631e+00 -4.8980104696e+00 2.8278676631e+00 4.8980104696e+00 
150900 5.4367366520e+00 -1.7791348821e-04 2.8278708224e+00 -4.8980159417e+00 2.8278708224e+00 4.8980159417e+00 
151000 5.4367366514e+00 -1.7714628906e-04 2.8278739682e+00 -4.8980213903e+00 2.8278739682e+00 4.8980213903e+00 
151100 5.4367366507e+00 -1.7638240290e-04 2.8278771003e+00 -4.8980268153e+00 2.8278771003e+00 4.8980268153e+00 
151200 5.4367366501e+00 -1.7562181538e-04 2.8278802189e+00 -4.8980322169e+00 2.8278802189e+00 4.8980322169e+00 
151300 5.4367366495e+00 -1.7486451220e-04 2.8278833241e+00 -4.8980375953e+00 2.8278833241e+00 4.8980375953e+00 
151400 5.4367366489e+00 -1.7411047915e-04 2.8278864159e+00 -4.8980429504e+00 2.8278864159e+00 4.8980429504e+00 
151500 5.4367366483e+00 -1.7335970207e-04 2.8278894944e+00 -4.8980482824e+00 2.8278894944e+00 4.8980482824e+00 
151600 5.4367366477e+00 -1.7261216684e-04 2.8278925596e+00 -4.8980535915e+00 2.8278925596e+00 4.8980535915e+00 
151700 5.4367366471e+00 -1.7186785944e-04 2.8278956115e+00 -4.8980588776e+00 2.8278956115e+00 4.8980588776e+00 
151800 5.4367366465e+00 -1.7112676588e-04 2.8278986503e+00 -4.8980641410e+00 2.8278986503e+00 4.8980641410e+00 
151900 5.4367366459e+00 -1.7038887225e-04 2.8279016760e+00 -4.8980693816e+00 2.8279016760e+00 4.8980693816e+00 
152000 5.4367366453e+00 -1.6965416469e-04 2.8279046886e+00 -4.8980745997e+00 2.8279046886e+00 4.8980745997e+00 
152100 5.4367366448e+00 -1.6892262941e-04 2.8279076883e+00 -4.8980797952e+00 2.8279076883e+00 4.8980797952e+00 
152200 5.4367366442e+00 -1.6819425266e-04 2.8279106750e+00 -4.8980849683e+00 2.8279106750e+00 4.8980849683e+00 
152300 5.4367366436e+00 -1.6746902078e-04 2.8279136488e+00 -4.8980901192e+00 2.8279136488e+00 4.8980901192e+00 
152400 5.4367366431e+00 -1.6674692015e-04 2.8279166098e+00 -4.8980952478e+00 2.8279166098e+00 4.8980952478e+00 
152500 5.4367366425e+00 -1.6602793720e-04 2.8279195580e+00 -4.8981003542e+00 2.8279195580e+00 4.8981003542e+00 
152600 5.4367366420e+00 -1.6531205844e-04 2.8279224936e+00 -4.8981054387e+00 2.8279224936e+00 4.8981054387e+00 
152700 5.4367366414e+00 -1.6459927044e-04 2.8279254164e+00 -4.8981105012e+00 2.8279254164e+00 4.8981105012e+00 
152800 5.4367366409e+00 -1.6388955980e-04 2.8279283267e+00 -4.8981155419e+00 2.8279283267e+00 4.8981155419e+00 
152900 5.4367366403e+00 -1.6318291322e-04 2.8279312244e+00 -4.8981205609e+00 2.8279312244e+00 4.8981205609e+00 
153000 5.4367366398e+00 -1.6247931741e-04 2.8279341096e+00 -4.8981255582e+00 2.8279341096e+00 4.8981255582e+00 
153100 5.4367366393e+00 -1.6177875918e-04 2.8279369823e+00 -4.8981305340e+00 2.8279369823e+00 4.8981305340e+00 
153200 5.4367366388e+00 -1.6108122538e-04 2.8279398427e+00 -4.8981354883e+00 2.8279398427e+00 4.8981354883e+00 
153300 5.4367366382e+00 -1.6038670291e-04 2.8279426907e+00 -4.8981404212e+00 2.8279426907e+00 4.8981404212e+00 
153400 5.4367366377e+00 -1.5969517873e-04 2.8279455265e+00 -4.8981453329e+00 2.8279455265e+00 4.8981453329e+00 
153500 5.4367366372e+00 -1.5900663988e-04 2.8279483500e+00 -4.8981502233e+00 2.8279483500e+00 4.8981502233e+00 
153600 5.4367366367e+00 -1.5832107343e-04 2.8279511613e+00 -4.8981550927e+00 2.8279511613e+00 4.8981550927e+00 
153700 5.4367366362e+00 -1.5763846651e-04 2.8279539605e+00 -4.8981599411e+00 2.8279539605e+00 4.8981599411e+00 
153800 5.4367366357e+00 -1.5695880631e-04 2.8279567477e+00 -4.8981647686e+00 2.8279567477e+00 4.8981647686e+00 
153900 5.4367366352e+00 -1.5628208008e-04 2.8279595228e+00 -4.8981695753e+00 2.8279595228e+00 4.8981695753e+00 
154000 5.4367366347e+00 -1.5560827512e-04 2.8279622860e+00 -4.8981743612e+00 2.8279622860e+00 4.8981743612e+00 
154100 5.4367366343e+00 -1.5493737879e-04 2.8279650372e+00 -4.8981791265e+00 2.8279650372e+00 4.8981791265e+00 
154200 5.4367366338e+00 -1.5426937849e-04 2.8279677766e+00 -4.8981838712e+00 2.8279677766e+00 4.8981838712e+00 
154300 5.4367366333e+00 -1.5360426170e-04 2.8279705042e+00 -4.8981885955e+00 2.8279705042e+00 4.8981885955e+00 
154400 5.4367366328e+00 -1.5294201593e-04 2.8279732200e+00 -4.8981932994e+00 2.8279732200e+00 4.8981932994e+00 
154500 5.4367366324e+00 -1.5228262877e-04 2.8279759241e+00 -4.8981979831e+00 2.8279759241e+00 4.8981979831e+00 
154600 5.4367366319e+00 -1.5162608784e-04 2.8279786165e+00 -4.8982026465e+00 2.8279786165e+00 4.8982026465e+00 
154700 5.4367366314e+00 -1.5097238082e-04 2.8279812973e+00 -4.8982072898e+00 2.8279812973e+00 4.8982072898e+00 
154800 5.4367366310e+00 -1.5032149545e-04 2.8279839666e+00 -4.8982119131e+00 2.8279839666e+00 4.8982119131e+00 
154900 5.4367366305e+00 -1.4967341953e-04 2.8279866243e+00 -4.8982165165e+00 2.8279866243e+00 4.8982165165e+00 
155000 5.4367366301e+00 -1.4902814088e-04 2.8279892706e+00 -4.8982211000e+00 2.8279892706e+00 4.8982211000e+00 
155100 5.4367366297e+00 -1.4838564742e-04 2.8279919055e+00 -4.8982256637e+00 2.8279919055e+00 4.8982256637e+00 
155200 5.4367366292e+00 -1.4774592709e-04 2.8279945290e+00 -4.8982302078e+00 2.8279945290e+00 4.8982302078e+00 
155300 5.4367366288e+00 -1.4710896788e-04 2.8279971412e+00 -4.8982347323e+00 2.8279971412e+00 4.8982347323e+00 
155400 5.4367366283e+00 -1.4647475786e-04 2.8279997422e+00 -4.8982392372e+00 2.8279997422e+00 4.8982392372e+00 
155500 5.4367366279e+00 -1.4584328513e-04 2.8280023319e+00 -4.8982437227e+00 2.8280023319e+00 4.8982437227e+00 
155600 5.4367366275e+00 -1.4521453785e-04 2.8280049104e+00 -4.8982481889e+00 2.8280049104e+00 4.8982481889e+00 
155700 5.4367366271e+00 -1.4458850422e-04 2.8280074779e+00 -4.8982526359e+00 2.8280074779e+00 4.8982526359e+00 
155800 5.4367366267e+00 -1.4396517250e-04 2.8280100342e+00 -4.8982570636e+00 2.8280100342e+00 4.8982570636e+00 
155900 5.4367366262e+00 -1.4334453101e-04 2.8280125796e+00 -4.8982614723e+00 2.8280125796e+00 4.8982614723e+00 
156000 5.4367366258e+00 -1.4272656810e-04 2.8280151140e+00 -4.8982658619e+00 2.8280151140e+00 4.8982658619e+00 
156100 5.4367366254e+00 -1.4211127220e-04 2.8280176374e+00 -4.8982702327e+00 2.8280176374e+00 4.8982702327e+00 
156200 5.4367366250e+00 -1.4149863175e-04 2.8280201500e+00 -4.8982745846e+00 2.8280201500e+00 4.8982745846e+00 
156300 5.4367366246e+00 -1.4088863528e-04 2.8280226517e+00 -4.8982789177e+00 2.8280226517e+00 4.8982789177e+00 
156400 5.4367366242e+00 -1.4028127135e-04 2.8280251426e+00 -4.8982832321e+00 2.8280251426e+00 4.8982832321e+00 
156500 5.4367366238e+00 -1.3967652857e-04 2.8280276228e+00 -4.8982875279e+00 2.8280276228e+00 4.8982875279e+00 
156600 5.4367366234e+00 -1.3907439560e-04 2.8280300923e+00 -4.8982918052e+00 2.8280300923e+00 4.8982918052e+00 
156700 5.4367366231e+00 -1.3847486115e-04 2.8280325512e+00 -4.8982960641e+00 2.8280325512e+00 4.8982960641e+00 
156800 5.4367366227e+00 -1.3787791399e-04 2.8280349994e+00 -4.8983003046e+00 2.8280349994e+00 4.8983003046e+00 
156900 5.4367366223e+00 -1.3728354292e-04 2.8280374371e+00 -4.8983045268e+00 2.8280374371e+00 4.8983045268e+00 
157000 5.4367366219e+00 -1.3669173679e-04 2.8280398643e+00 -4.8983087308e+00 2.8280398643e+00 4.8983087308e+00 
157100 5.4367366215e+00 -1.3610248453e-04 2.8280422810e+00 -4.8983129167e+00 2.8280422810e+00 4.8983129167e+00 
157200 5.4367366212e+00 -1.3551577508e-04 2.8280446874e+00 -4.8983170846e+00 2.8280446874e+00 4.8983170846e+00 
157300 5.4367366208e+00 -1.3493159743e-04 2.8280470833e+00 -4.8983212344e+00 2.8280470833e+00 4.8983212344e+00 
157400 5.4367366204e+00 -1.3434994066e-04 2.8280494689e+00 -4.8983253664e+00 2.8280494689e+00 4.8983253664e+00 
157500 5.4367366201e+00 -1.3377079384e-04 2.8280518442e+00 -4.8983294806e+00 2.8280518442e+00 4.8983294806e+00 
157600 5.4367366197e+00 -1.3319414613e-04 2.8280542093e+00 -4.8983335770e+00 2.8280542093e+00 4.8983335770e+00 
157700 5.4367366194e+00 -1.3261998672e-04 2.8280565641e+00 -4.8983376558e+00 2.8280565641e+00 4.8983376558e+00 
157800 5.4367366190e+00 -1.3204830485e-04 2.8280589089e+00 -4.8983417169e+00 2.8280589089e+00 4.8983417169e+00 
157900 5.4367366187e+00 -1.3147908980e-04 2.8280612435e+00 -4.8983457606e+00 2.8280612435e+00 4.8983457606e+00 
158000 5.4367366183e+00 -1.3091233091e-04 2.8280635680e+00 -4.8983497868e+00 2.8280635680e+00 4.8983497868e+00 
158100 5.4367366180e+00 -1.3034801755e-04 2.8280658825e+00 -4.8983537957e+00 2.8280658825e+00 4.8983537957e+00 
158200 5.4367366176e+00 -1.2978613915e-04 2.8280681871e+00 -4.8983577873e+00 2.8280681871e+00 4.8983577873e+00 
158300 5.4367366173e+00 -1.2922668519e-04 2.8280704817e+00 -4.8983617617e+00 2.8280704817e+00 4.8983617617e+00 
158400 5.4367366170e+00 -1.2866964517e-04 2.8280727664e+00 -4.8983657189e+00 2.8280727664e+00 4.8983657189e+00 
158500 5.4367366166e+00 -1.2811500866e-04 2.8280750413e+00 -4.8983696591e+00 2.8280750413e+00 4.8983696591e+00 
158600 5.4367366163e+00 -1.2756276527e-04 2.8280773063e+00 -4.8983735823e+00 2.8280773063e+00 4.8983735823e+00 
158700 5.4367366160e+00 -1.2701290465e-04 2.8280795616e+00 -4.8983774886e+00 2.8280795616e+00 4.8983774886e+00 
158800 5.4367366157e+00 -1.2646541650e-04 2.8280818072e+00 -4.8983813780e+00 2.8280818072e+00 4.8983813780e+00 
158900 5.4367366154e+00 -1.2592029056e-04 2.8280840431e+00 -4.8983852507e+00 2.8280840431e+00 4.8983852507e+00 
159000 5.4367366150e+00 -1.2537751662e-04 2.8280862693e+00 -4.8983891066e+00 2.8280862693e+00 4.8983891066e+00 
159100 5.4367366147e+00 -1.2483708451e-04 2.8280884860e+00 -4.8983929460e+00 2.8280884860e+00 4.8983929460e+00 
159200 5.4367366144e+00 -1.2429898410e-04 2.8280906931e+00 -4.8983967688e+00 2.8280906931e+00 4.8983967688e+00 
159300 5.4367366141e+00 -1.2376320531e-04 2.8280928906e+00 -4.8984005751e+00 2.8280928906e+00 4.8984005751e+00 
159400 5.4367366138e+00 -1.2322973811e-04 2.8280950787e+00 -4.8984043650e+00 2.8280950787e+00 4.8984043650e+00 
159500 5.4367366135e+00 -1.2269857250e-04 2.8280972574e+00 -4.8984081386e+00 2.8280972574e+00 4.8984081386e+00 
159600 5.4367366132e+00 -1.2216969854e-04 2.8280994267e+00 -4.8984118959e+00 2.8280994267e+00 4.8984118959e+00 
159700 5.4367366129e+00 -1.2164310631e-04 2.8281015866e+00 -4.8984156370e+00 2.8281015866e+00 4.8984156370e+00 
159800 5.4367366126e+00 -1.2111878596e-04 2.8281037372e+00 -4.8984193620e+00 2.8281037372e+00 4.8984193620e+00 
159900 5.4367366123e+00 -1.2059672766e-04 2.8281058786e+00 -4.8984230709e+00 2.8281058786e+00 4.8984230709e+00 
160000 5.4367366120e+00 -1.2007692163e-04 2.8281080107e+00 -4.8984267638e+00 2.8281080107e+00 4.8984267638e+00 
160100 5.4367366117e+00 -1.1955935814e-04 2.8281101336e+00 -4.8984304408e+00 2.8281101336e+00 4.8984304408e+00 
160200 5.4367366114e+00 -1.1904402750e-04 2.8281122474e+00 -4.8984341020e+00 2.8281122474e+00 4.8984341020e+00 
160300 5.4367366112e+00 -1.1853092004e-04 2.8281143520e+00 -4.8984377473e+00 2.8281143520e+00 4.8984377473e+00 
160400 5.4367366109e+00 -1.1802002618e-04 2.8281164476e+00 -4.8984413770e+00 2.8281164476e+00 4.8984413770e+00 
160500 5.4367366106e+00 -1.1751133632e-04 2.8281185342e+00 -4.8984449910e+00 2.8281185342e+00 4.8984449910e+00 
160600 5.4367366103e+00 -1.1700484096e-04 2.8281206117e+00 -4.8984485894e+00 2.8281206117e+00 4.8984485894e+00 
160700 5.4367366101e+00 -1.1650053060e-04 2.8281226803e+00 -4.8984521723e+00 2.8281226803e+00 4.8984521723e+00 
160800 5.4367366098e+00 -1.1599839580e-04 2.8281247400e+00 -4.8984557398e+00 2.8281247400e+00 4.8984557398e+00 
160900 5.4367366095e+00 -1.1549842715e-04 2.8281267908e+00 -4.8984592919e+00 2.8281267908e+00 4.8984592919e+00 
161000 5.4367366092e+00 -1.1500061531e-04 2.8281288327e+00 -4.8984628287e+00 2.8281288327e+00 4.8984628287e+00 
161100 5.4367366090e+00 -1.1450495093e-04 2.8281308659e+00 -4.8984663502e+00 2.8281308659e+00 4.8984663502e+00 
161200 5.4367366087e+00 -1.1401142475e-04 2.8281328903e+00 -4.8984698566e+00 2.8281328903e+00 4.8984698566e+00 
161300 5.4367366085e+00 -1.1352002752e-04 2.8281349060e+00 -4.8984733478e+00 2.8281349060e+00 4.8984733478e+00 
161400 5.4367366082e+00 -1.1303075004e-04 2.8281369129e+00 -4.8984768240e+00 2.8281369129e+00 4.8984768240e+00 
161500 5.4367366080e+00 -1.1254358315e-04 2.8281389113e+00 -4.8984802852e+00 2.8281389113e+00 4.8984802852e+00 
161600 5.4367366077e+00 -1.1205851773e-04 2.8281409010e+00 -4.8984837315e+00 2.8281409010e+00 4.8984837315e+00 
161700 5.4367366074e+00 -1.1157554470e-04 2.8281428821e+00 -4.8984871629e+00 2.8281428821e+00 4.8984871629e+00 
161800 5.4367366072e+00 -1.1109465502e-04 2.8281448547e+00 -4.8984905795e+00 2.8281448547e+00 4.8984905795e+00 
161900 5.4367366070e+00 -1.1061583968e-04 2.8281468188e+00 -4.8984939814e+00 2.8281468188e+00 4.8984939814e+00 
162000 5.4367366067e+00 -1.1013908972e-04 2.8281487744e+00 -4.8984973687e+00 2.8281487744e+00 4.8984973687e+00 
162100 5.4367366065e+00 -1.0966439621e-04 2.8281507216e+00 -4.8985007413e+00 2.8281507216e+00 4.8985007413e+00 
162200 5.4367366062e+00 -1.0919175027e-04 2.8281526604e+00 -4.8985040994e+00 2.8281526604e+00 4.8985040994e+00 
162300 5.4367366060e+00 -1.0872114305e-04 2.8281545909e+00 -4.8985074430e+00 2.8281545909e+00 4.8985074430e+00 
162400 5.4367366058e+00 -1.0825256575e-04 2.8281565130e+00 -4.8985107722e+00 2.8281565130e+00 4.8985107722e+00 
162500 5.4367366055e+00 -1.0778600958e-04 2.8281584268e+00 -4.8985140871e+00 2.8281584268e+00 4.8985140871e+00 
162600 5.4367366053e+00 -1.0732146582e-04 2.8281603324e+00 -4.8985173877e+00 2.8281603324e+00 4.8985173877e+00 
162700 5.4367366051e+00 -1.0685892578e-04 2.8281622298e+00 -4.8985206740e+00 2.8281622298e+00 4.8985206740e+00 
162800 5.4367366048e+00 -1.0639838078e-04 2.8281641190e+00 -4.8985239462e+00 2.8281641190e+00 4.8985239462e+00 
162900 5.4367366046e+00 -1.0593982223e-04 2.8281660000e+00 -4.8985272043e+00 2.8281660000e+00 4.8985272043e+00 
163000 5.4367366044e+00 -1.0548324152e-04 2.8281678730e+00 -4.8985304483e+00 2.8281678730e+00 4.8985304483e+00 
163100 5.4367366042e+00 -1.0502863012e-04 2.8281697378e+00 -4.8985336784e+00 2.8281697378e+00 4.8985336784e+00 
163200 5.4367366039e+00 -1.0457597952e-04 2.8281715947e+00 -4.8985368945e+00 2.8281715947e+00 4.8985368945e+00 
163300 5.4367366037e+00 -1.0412528125e-04 2.8281734435e+00 -4.8985400967e+00 2.8281734435e+00 4.8985400967e+00 
163400 5.4367366035e+00 -1.0367652687e-04 2.8281752843e+00 -4.8985432852e+00 2.8281752843e+00 4.8985432852e+00 
163500 5.4367366033e+00 -1.0322970799e-04 2.8281771173e+00 -4.8985464599e+00 2.8281771173e+00 4.8985464599e+00 
163600 5.4367366031e+00 -1.0278481624e-04 2.8281789423e+00 -4.8985496209e+00 2.8281789423e+00 4.8985496209e+00 
163700 5.4367366029e+00 -1.0234184330e-04 2.8281807594e+00 -4.8985527684e+00 2.8281807594e+00 4.8985527684e+00 
163800 5.4367366027e+00 -1.0190078087e-04 2.8281825688e+00 -4.8985559022e+00 2.8281825688e+00 4.8985559022e+00 
163900 5.4367366024e+00 -1.0146162071e-04 2.8281843703e+00 -4.8985590225e+00 2.8281843703e+00 4.8985590225e+00 
164000 5.4367366022e+00 -1.0102435460e-04 2.8281861641e+00 -4.8985621294e+00 2.8281861641e+00 4.8985621294e+00 
164100 5.4367366020e+00 -1.0058897435e-04 2.8281879501e+00 -4.8985652229e+00 2.8281879501e+00 4.8985652229e+00 
164200 5.4367366018e+00 -1.0015547182e-04 2.8281897284e+00 -4.8985683031e+00 2.8281897284e+00 4.8985683031e+00 
164300 5.4367366016e+00 -9.9723838904e-05 2.8281914991e+00 -4.8985713699e+00 2.8281914991e+00 4.8985713699e+00 
164400 5.4367366014e+00 -9.9294067514e-05 2.8281932621e+00 -4.8985744236e+00 2.8281932621e+00 4.8985744236e+00 
164500 5.4367366012e+00 -9.8866149614e-05 2.8281950175e+00 -4.8985774641e+00 2.8281950175e+00 4.8985774641e+00 
164600 5.4367366010e+00 -9.8440077200e-05 2.8281967654e+00 -4.8985804915e+00 2.8281967654e+00 4.8985804915e+00 
164700 5.4367366009e+00 -9.8015842298e-05 2.8281985057e+00 -4.8985835058e+00 2.8281985057e+00 4.8985835058e+00 
164800 5.4367366007e+00 -9.7593436973e-05 2.8282002386e+00 -4.8985865072e+00 2.8282002386e+00 4.8985865072e+00 
164900 5.4367366005e+00 -9.7172853320e-05 2.8282019639e+00 -4.8985894956e+00 2.8282019639e+00 4.8985894956e+00 
165000 5.4367366003e+00 -9.6754083472e-05 2.8282036819e+00 -4.8985924711e+00 2.8282036819e+00 4.8985924711e+00 
165100 5.4367366001e+00 -9.6337119594e-05 2.8282053924e+00 -4.8985954338e+00 2.8282053924e+00 4.8985954338e+00 
165200 5.4367365999e+00 -9.5921953888e-05 2.8282070955e+00 -4.8985983838e+00 2.8282070955e+00 4.8985983838e+00 
165300 5.4367365997e+00 -9.5508578585e-05 2.8282087913e+00 -4.8986013210e+00 2.8282087913e+00 4.8986013210e+00 
165400 5.4367365995e+00 -9.5096985954e-05 2.8282104798e+00 -4.8986042456e+00 2.8282104798e+00 4.8986042456e+00 
165500 5.4367365994e+00 -9.4687168294e-05 2.8282121611e+00 -4.8986071575e+00 2.8282121611e+00 4.8986071575e+00 
165600 5.4367365992e+00 -9.4279117941e-05 2.8282138350e+00 -4.8986100570e+00 2.8282138350e+00 4.8986100570e+00 
165700 5.4367365990e+00 -9.3872827261e-05 2.8282155018e+00 -4.8986129439e+00 2.8282155018e+00 4.8986129439e+00 
165800 5.4367365988e+00 -9.3468288654e-05 2.8282171614e+00 -4.8986158183e+00 2.8282171614e+00 4.8986158183e+00 
165900 5.4367365987e+00 -9.3065494554e-05 2.8282188138e+00 -4.8986186804e+00 2.8282188138e+00 4.8986186804e+00 
166000 5.4367365985e+00 -9.2664437426e-05 2.8282204591e+00 -4.8986215302e+00 2.8282204591e+00 4.8986215302e+00 
166100 5.4367365983e+00 -9.2265109770e-05 2.8282220973e+00 -4.8986243676e+00 2.8282220973e+00 4.8986243676e+00 
166200 5.4367365981e+00 -9.1867504116e-05 2.8282237285e+00 -4.8986271929e+00 2.8282237285e+00 4.8986271929e+00 
166300 5.4367365980e+00 -9.1471613029e-05 2.8282253526e+00 -4.8986300059e+00 2.8282253526e+00 4.8986300059e+00 
166400 5.4367365978e+00 -9.1077429104e-05 2.8282269697e+00 -4.8986328069e+00 2.8282269697e+00 4.8986328069e+00 
166500 5.4367365976e+00 -9.0684944968e-05 2.8282285799e+00 -4.8986355957e+00 2.8282285799e+00 4.8986355957e+00 
166600 5.4367365975e+00 -9.0294153283e-05 2.8282301831e+00 -4.8986383726e+00 2.8282301831e+00 4.8986383726e+00 
166700 5.4367365973e+00 -8.9905046737e-05 2.8282317794e+00 -4.8986411375e+00 2.8282317794e+00 4.8986411375e+00 
166800 5.4367365972e+00 -8.9517618056e-05 2.8282333688e+00 -4.8986438904e+00 2.8282333688e+00 4.8986438904e+00 
166900 5.4367365970e+00 -8.9131859994e-05 2.8282349514e+00 -4.8986466315e+00 2.8282349514e+00 4.8986466315e+00 
167000 5.4367365968e+00 -8.8747765337e-05 2.8282365271e+00 -4.8986493608e+00 2.8282365271e+00 4.8986493608e+00 
167100 5.4367365967e+00 -8.8365326902e-05 2.8282380961e+00 -4.8986520783e+00 2.8282380961e+00 4.8986520783e+00 
167200 5.4367365965e+00 -8.7984537538e-05 2.8282396583e+00 -4.8986547841e+00 2.8282396583e+00 4.8986547841e+00 
167300 5.4367365964e+00 -8.7605390124e-05 2.8282412137e+00 -4.8986574783e+00 2.8282412137e+00 4.8986574783e+00 
167400 5.4367365962e+00 -8.7227877571e-05 2.8282427625e+00 -4.8986601608e+00 2.8282427625e+00 4.8986601608e+00 
167500 5.4367365961e+00 -8.6851992819e-05 2.8282443046e+00 -4.8986628318e+00 2.8282443046e+00 4.8986628318e+00 
167600 5.4367365959e+00 -8.6477728839e-05 2.8282458400e+00 -4.8986654912e+00 2.8282458400e+00 4.8986654912e+00 
167700 5.4367365958e+00 -8.6105078635e-05 2.8282473688e+00 -4.8986681392e+00 2.8282473688e+00 4.8986681392e+00 
167800 5.4367365956e+00 -8.5734035238e-05 2.8282488911e+00 -4.8986707758e+00 2.8282488911e+00 4.8986707758e+00 
167900 5.4367365955e+00 -8.5364591710e-05 2.8282504068e+00 -4.8986734010e+00 2.8282504068e+00 4.8986734010e+00 
168000 5.4367365953e+00 -8.4996741144e-05 2.8282519159e+00 -4.8986760149e+00 2.8282519159e+00 4.8986760149e+00 
168100 5.4367365952e+00 -8.4630476662e-05 2.8282534185e+00 -4.8986786176e+00 2.8282534185e+00 4.8986786176e+00 
168200 5.4367365950e+00 -8.4265791418e-05 2.8282549147e+00 -4.8986812090e+00 2.8282549147e+00 4.8986812090e+00 
168300 5.4367365949e+00 -8.3902678591e-05 2.8282564044e+00 -4.8986837893e+00 2.8282564044e+00 4.8986837893e+00 
168400 5.4367365947e+00 -8.3541131393e-05 2.8282578877e+00 -4.8986863584e+00 2.8282578877e+00 4.8986863584e+00 
168500 5.4367365946e+00 -8.3181143067e-05 2.8282593646e+00 -4.8986889165e+00 2.8282593646e+00 4.8986889165e+00 
168600 5.4367365945e+00 -8.2822706880e-05 2.8282608351e+00 -4.8986914635e+00 2.8282608351e+00 4.8986914635e+00 
168700 5.4367365943e+00 -8.2465816133e-05 2.8282622993e+00 -4.8986939996e+00 2.8282622993e+00 4.8986939996e+00 
168800 5.4367365942e+00 -8.2110464154e-05 2.8282637572e+00 -4.8986965247e+00 2.8282637572e+00 4.8986965247e+00 
168900 5.4367365941e+00 -8.1756644299e-05 2.8282652088e+00 -4.8986990390e+00 2.8282652088e+00 4.8986990390e+00 
169000 5.4367365939e+00 -8.1404349954e-05 2.8282666542e+00 -4.8987015424e+00 2.8282666542e+00 4.8987015424e+00 
169100 5.4367365938e+00 -8.1053574534e-05 2.8282680933e+00 -4.8987040350e+00 2.8282680933e+00 4.8987040350e+00 
169200 5.4367365937e+00 -8.0704311482e-05 2.8282695262e+00 -4.8987065169e+00 2.8282695262e+00 4.8987065169e+00 
169300 5.4367365935e+00 -8.0356554268e-05 2.8282709530e+00 -4.8987089881e+00 2.8282709530e+00 4.8987089881e+00 
169400 5.4367365934e+00 -8.0010296393e-05 2.8282723736e+00 -4.8987114486e+00 2.8282723736e+00 4.8987114486e+00 
169500 5.4367365933e+00 -7.9665531385e-05 2.8282737880e+00 -4.8987138986e+00 2.8282737880e+00 4.8987138986e+00 
169600 5.4367365932e+00 -7.9322252797e-05 2.8282751964e+00 -4.8987163380e+00 2.8282751964e+00 4.8987163380e+00 
169700 5.4367365930e+00 -7.8980454214e-05 2.8282765987e+00 -4.8987187668e+00 2.8282765987e+00 4.8987187668e+00 
169800 5.4367365929e+00 -7.8640129249e-05 2.8282779950e+00 -4.8987211852e+00 2.8282779950e+00 4.8987211852e+00 
169900 5.4367365928e+00 -7.8301271539e-05 2.8282793852e+00 -4.8987235932e+00 2.8282793852e+00 4.8987235932e+00 
170000 5.4367365927e+00 -7.7963874752e-05 2.8282807695e+00 -4.8987259908e+00 2.8282807695e+00 4.8987259908e+00 
170100 5.4367365925e+00 -7.7627932579e-05 2.8282821478e+00 -4.8987283781e+00 2.8282821478e+00 4.8987283781e+00 
170200 5.4367365924e+00 -7.7293438746e-05 2.8282835201e+00 -4.8987307551e+00 2.8282835201e+00 4.8987307551e+00 
170300 5.4367365923e+00 -7.6960386997e-05 2.8282848866e+00 -4.8987331218e+00 2.8282848866e+00 4.8987331218e+00 
170400 5.4367365922e+00 -7.6628771110e-05 2.8282862471e+00 -4.8987354784e+00 2.8282862471e+00 4.8987354784e+00 
170500 5.4367365921e+00 -7.6298584887e-05 2.8282876018e+00 -4.8987378247e+00 2.8282876018e+00 4.8987378247e+00 
170600 5.4367365919e+00 -7.5969822157e-05 2.8282889506e+00 -4.8987401610e+00 2.8282889506e+00 4.8987401610e+00 
170700 5.4367365918e+00 -7.5642476775e-05 2.8282902937e+00 -4.8987424872e+00 2.8282902937e+00 4.8987424872e+00 
170800 5.4367365917e+00 -7.5316542624e-05 2.8282916309e+00 -4.8987448034e+00 2.8282916309e+00 4.8987448034e+00 
170900 5.4367365916e+00 -7.4992013613e-05 2.8282929624e+00 -4.8987471096e+00 2.8282929624e+00 4.8987471096e+00 
171000 5.4367365915e+00 -7.4668883677e-05 2.8282942882e+00 -4.8987494059e+00 2.8282942882e+00 4.8987494059e+00 
171100 5.4367365914e+00 -7.4347146779e-05 2.8282956082e+00 -4.8987516922e+00 2.8282956082e+00 4.8987516922e+00 
171200 5.4367365913e+00 -7.4026796905e-05 2.8282969225e+00 -4.8987539687e+00 2.8282969225e+00 4.8987539687e+00 
171300 5.4367365912e+00 -7.3707828069e-05 2.8282982312e+00 -4.8987562354e+00 2.8282982312e+00 4.8987562354e+00 
171400 5.4367365911e+00 -7.3390234313e-05 2.8282995343e+00 -4.8987584924e+00 2.8282995343e+00 4.8987584924e+00 
171500 5.4367365909e+00 -7.3074009698e-05 2.8283008317e+00 -4.8987607396e+00 2.8283008317e+00 4.8987607396e+00 
171600 5.4367365908e+00 -7.2759148319e-05 2.8283021235e+00 -4.8987629771e+00 2.8283021235e+00 4.8987629771e+00 
171700 5.4367365907e+00 -7.2445644290e-05 2.8283034098e+00 -4.8987652050e+00 2.8283034098e+00 4.8987652050e+00 
171800 5.4367365906e+00 -7.2133491755e-05 2.8283046905e+00 -4.8987674233e+00 2.8283046905e+00 4.8987674233e+00 
171900 5.4367365905e+00 -7.1822684880e-05 2.8283059657e+00 -4.8987696320e+00 2.8283059657e+00 4.8987696320e+00 
172000 5.4367365904e+00 -7.1513217858e-05 2.8283072354e+00 -4.8987718312e+00 2.8283072354e+00 4.8987718312e+00 
172100 5.4367365903e+00 -7.1205084907e-05 2.8283084997e+00 -4.8987740209e+00 2.8283084997e+00 4.8987740209e+00 
172200 5.4367365902e+00 -7.0898280270e-05 2.8283097585e+00 -4.8987762012e+00 2.8283097585e+00 4.8987762012e+00 
172300 5.4367365901e+00 -7.0592798214e-05 2.8283110118e+00 -4.8987783721e+00 2.8283110118e+00 4.8987783721e+00 
172400 5.4367365901e+00 -7.0749538627e-05 2.8283110118e+00 -4.8987783721e+00 2.8283110118e+00 4.8987783721e+00 
172500 5.4367365900e+00 -7.0445530568e-05 2.8283122626e+00 -4.8987805385e+00 2.8283122626e+00 4.8987805385e+00 
172500 5.4367365900e+00 -7.0445530568e-05 2.8283122626e+00 -4.8987805385e+00 2.8283122626e+00 4.8987805385e+00 
