# step Hamiltonian StressXX CellTensor1 CellTensor2 CellTensor3 CellTensor4 
0 6.7391795325e+00 2.1985193535e-01 2.5594246509e+00 -4.4330535334e+00 2.5594246509e+00 4.4330535334e+00 
100 6.7610880720e+00 2.4079431096e-01 2.5594246509e+00 -4.4330535334e+00 2.5594246509e+00 4.4330535334e+00 
200 6.7820199143e+00 2.6015186167e-01 2.5547220234e+00 -4.4249083437e+00 2.5547220234e+00 4.4249083437e+00 
300 6.8025309963e+00 2.7851626733e-01 2.5496321296e+00 -4.4160923891e+00 2.5496321296e+00 4.4160923891e+00 
400 6.8223801611e+00 2.9576484492e-01 2.5441721926e+00 -4.4066355009e+00 2.5441721926e+00 4.4066355009e+00 
500 6.8412655395e+00 3.1165709893e-01 2.5383618161e+00 -4.3965716336e+00 2.5383618161e+00 4.3965716336e+00 
600 6.8588303284e+00 3.2582933919e-01 2.5322253550e+00 -4.3859429711e+00 2.5322253550e+00 4.3859429711e+00 
700 6.8746810253e+00 3.3781451065e-01 2.5257944303e+00 -4.3748042827e+00 2.5257944303e+00 4.3748042827e+00 
800 6.8884264959e+00 3.4710751135e-01 2.5191100967e+00 -4.3632266774e+00 2.5191100967e+00 4.3632266774e+00 
900 6.8997413831e+00 3.5328721224e-01 2.5122237589e+00 -4.3512991904e+00 2.5122237589e+00 4.3512991904e+00 
1000 6.9084433027e+00 3.5617385995e-01 2.5051956837e+00 -4.3391262071e+00 2.5051956837e+00 4.3391262071e+00 
1100 6.9145543841e+00 3.5595386452e-01 2.4980903519e+00 -4.3268194113e+00 2.4980903519e+00 4.3268194113e+00 
1200 6.9183110072e+00 3.5318707826e-01 2.4909692286e+00 -4.3144852641e+00 2.4909692286e+00 4.3144852641e+00 
1300 6.9201074014e+00 3.4866750917e-01 2.4838832505e+00 -4.3022119899e+00 2.4838832505e+00 4.3022119899e+00 
1400 6.9203982485e+00 3.4320635673e-01 2.4768679682e+00 -4.2900611646e+00 2.4768679682e+00 4.2900611646e+00 
1500 6.9196071687e+00 3.3745216941e-01 2.4699429744e+00 -4.2780667235e+00 2.4699429744e+00 4.2780667235e+00 
1600 6.9180739541e+00 3.3181642006e-01 2.4631149587e+00 -4.2662402534e+00 2.4631149587e+00 4.2662402534e+00 
1700 6.9160433260e+00 3.2649433227e-01 2.4563823299e+00 -4.2545789983e+00 2.4563823299e+00 4.2545789983e+00 
1800 6.9136791276e+00 3.2153084162e-01 2.4497394978e+00 -4.2430732755e+00 2.4497394978e+00 4.2430732755e+00 
1900 6.9110866129e+00 3.1688822809e-01 2.4431798840e+00 -4.2317116912e+00 2.4431798840e+00 4.2317116912e+00 
2000 6.9083326549e+00 3.1249546475e-01 2.4366976011e+00 -4.2204840478e+00 2.4366976011e+00 4.2204840478e+00 
2100 6.9054604994e+00 3.0827710698e-01 2.4302881467e+00 -4.2093825471e+00 2.4302881467e+00 4.2093825471e+00 
2200 6.9024993176e+00 3.0416695563e-01 2.4239485143e+00 -4.1984019817e+00 2.4239485143e+00 4.1984019817e+00 
2300 6.8994699612e+00 3.0011257597e-01 2.4176770239e+00 -4.1875394417e+00 2.4176770239e+00 4.1875394417e+00 
2400 6.8963882807e+00 2.9607518947e-01 2.4114730555e+00 -4.1767938532e+00 2.4114730555e+00 4.1767938532e+00 
2500 6.8932669981e+00 2.9202766854e-01 2.4053367802e+00 -4.1661655126e+00 2.4053367802e+00 4.1661655126e+00 
2600 6.8901167589e+00 2.8795206031e-01 2.3992689288e+00 -4.1556556856e+00 2.3992689288e+00 4.1556556856e+00 
2700 6.8869467308e+00 2.8383728137e-01 2.3932706073e+00 -4.1452662881e+00 2.3932706073e+00 4.1452662881e+00 
2800 6.8837649553e+00 2.7967720914e-01 2.3873431585e+00 -4.1349996457e+00 2.3873431585e+00 4.1349996457e+00 
2900 6.8805785654e+00 2.7546919899e-01 2.3814880606e+00 -4.1248583186e+00 2.3814880606e+00 4.1248583186e+00 
3000 6.8773939290e+00 2.7121297686e-01 2.3757068553e+00 -4.1148449772e+00 2.3757068553e+00 4.1148449772e+00 
3100 6.8742167508e+00 2.6690983469e-01 2.3700010985e+00 -4.1049623166e+00 2.3700010985e+00 4.1049623166e+00 
3200 6.8710521501e+00 2.6256205780e-01 2.3643723271e+00 -4.0952129985e+00 2.3643723271e+00 4.0952129985e+00 
3300 6.8679047227e+00 2.5817252473e-01 2.3588220369e+00 -4.0855996140e+00 2.3588220369e+00 4.0855996140e+00 
3400 6.8647785940e+00 2.5374443233e-01 2.3533516695e+00 -4.0761246596e+00 2.3533516695e+00 4.0761246596e+00 
3500 6.8616774642e+00 2.4928111070e-01 2.3479626039e+00 -4.0667905242e+00 2.3479626039e+00 4.0667905242e+00 
3600 6.8586046477e+00 2.4478590152e-01 2.3426561530e+00 -4.0575994817e+00 2.3426561530e+00 4.0575994817e+00 
3700 6.8555631088e+00 2.4026208076e-01 2.3374335617e+00 -4.0485536882e+00 2.3374335617e+00 4.0485536882e+00 
3800 6.8525554930e+00 2.3571281199e-01 2.3322960073e+00 -4.0396551830e+00 2.3322960073e+00 4.0396551830e+00 
3900 6.8495841550e+00 2.3114112061e-01 2.3272446007e+00 -4.0309058901e+00 2.3272446007e+00 4.0309058901e+00 
4000 6.8466511842e+00 2.2654988207e-01 2.3222803881e+00 -4.0223076216e+00 2.3222803881e+00 4.0223076216e+00 
4100 6.8437584270e+00 2.2194181923e-01 2.3174043531e+00 -4.0138620813e+00 2.3174043531e+00 4.0138620813e+00 
4200 6.8409075071e+00 2.1731950554e-01 2.3126174193e+00 -4.0055708687e+00 2.3126174193e+00 4.0055708687e+00 
4300 6.8380998437e+00 2.1268537179e-01 2.3079204520e+00 -3.9974354827e+00 2.3079204520e+00 3.9974354827e+00 
4400 6.8353366671e+00 2.0804171464e-01 2.3033142607e+00 -3.9894573254e+00 2.3033142607e+00 3.9894573254e+00 
4500 6.8326190339e+00 2.0339070617e-01 2.2987996012e+00 -3.9816377056e+00 2.2987996012e+00 3.9816377056e+00 
4600 6.8299478393e+00 1.9873440348e-01 2.2943771768e+00 -3.9739778420e+00 2.2943771768e+00 3.9739778420e+00 
4700 6.8273238291e+00 1.9407475806e-01 2.2900476410e+00 -3.9664788660e+00 2.2900476410e+00 3.9664788660e+00 
4800 6.8247476097e+00 1.8941362466e-01 2.2858115982e+00 -3.9591418247e+00 2.2858115982e+00 3.9591418247e+00 
4900 6.8222196573e+00 1.8475276937e-01 2.2816696055e+00 -3.9519676828e+00 2.2816696055e+00 3.9519676828e+00 
5000 6.8197403265e+00 1.8009387706e-01 2.2776221739e+00 -3.9449573256e+00 2.2776221739e+00 3.9449573256e+00 
5100 6.8173098578e+00 1.7543855797e-01 2.2736697694e+00 -3.9381115602e+00 2.2736697694e+00 3.9381115602e+00 
5200 6.8149283838e+00 1.7078835360e-01 2.2698128139e+00 -3.9314311174e+00 2.2698128139e+00 3.9314311174e+00 
5300 6.8125959359e+00 1.6614474187e-01 2.2660516867e+00 -3.9249166540e+00 2.2660516867e+00 3.9249166540e+00 
5400 6.8103124494e+00 1.6150914169e-01 2.2623867246e+00 -3.9185687534e+00 2.2623867246e+00 3.9185687534e+00 
5500 6.8080777690e+00 1.5688291686e-01 2.2588182232e+00 -3.9123879276e+00 2.2588182232e+00 3.9123879276e+00 
5600 6.8058916531e+00 1.5226737957e-01 2.2553464375e+00 -3.9063746183e+00 2.2553464375e+00 3.9063746183e+00 
5700 6.8037537782e+00 1.4766379335e-01 2.2519715826e+00 -3.9005291982e+00 2.2519715826e+00 3.9005291982e+00 
5800 6.8016637429e+00 1.4307337574e-01 2.2486938345e+00 -3.8948519720e+00 2.2486938345e+00 3.8948519720e+00 
5900 6.7996210720e+00 1.3849730048e-01 2.2455133305e+00 -3.8893431775e+00 2.2455133305e+00 3.8893431775e+00 
6000 6.7976252195e+00 1.3393669960e-01 2.2424301701e+00 -3.8840029870e+00 2.2424301701e+00 3.8840029870e+00 
6100 6.7956755725e+00 1.2939266517e-01 2.2394444153e+00 -3.8788315081e+00 2.2394444153e+00 3.8788315081e+00 
6200 6.7937714541e+00 1.2486625089e-01 2.2365560916e+00 -3.8738287846e+00 2.2365560916e+00 3.8738287846e+00 
6300 6.7919121267e+00 1.2035847356e-01 2.2337651881e+00 -3.8689947980e+00 2.2337651881e+00 3.8689947980e+00 
6400 6.7900967951e+00 1.1587031444e-01 2.2310716586e+00 -3.8643294680e+00 2.2310716586e+00 3.8643294680e+00 
6500 6.7883246095e+00 1.1140272050e-01 2.2284754217e+00 -3.8598326538e+00 2.2284754217e+00 3.8598326538e+00 
6600 6.7865946682e+00 1.0695660569e-01 2.2259763618e+00 -3.8555041550e+00 2.2259763618e+00 3.8555041550e+00 
6700 6.7849060209e+00 1.0253285206e-01 2.2235743294e+00 -3.8513437129e+00 2.2235743294e+00 3.8513437129e+00 
6800 6.7832576711e+00 9.8132311021e-02 2.2212691419e+00 -3.8473510111e+00 2.2212691419e+00 3.8473510111e+00 
6900 6.7816485795e+00 9.3755804481e-02 2.2190605840e+00 -3.8435256766e+00 2.2190605840e+00 3.8435256766e+00 
7000 6.7800776663e+00 8.9404126067e-02 2.2169484084e+00 -3.8398672810e+00 2.2169484084e+00 3.8398672810e+00 
7100 6.7785438142e+00 8.5078042346e-02 2.2149323362e+00 -3.8363753415e+00 2.2149323362e+00 3.8363753415e+00 
7200 6.7770458716e+00 8.0778294083e-02 2.2130120577e+00 -3.8330493217e+00 2.2130120577e+00 3.8330493217e+00 
7300 6.7755826550e+00 7.6505597532e-02 2.2111872330e+00 -3.8298886326e+00 2.2111872330e+00 3.8298886326e+00 
7400 6.7741529519e+00 7.2260645760e-02 2.2094574922e+00 -3.8268926337e+00 2.2094574922e+00 3.8268926337e+00 
7500 6.7727555237e+00 6.8044110010e-02 2.2078224364e+00 -3.8240606340e+00 2.2078224364e+00 3.8240606340e+00 
7600 6.7713891086e+00 6.3856641092e-02 2.2062816380e+00 -3.8213918927e+00 2.2062816380e+00 3.8213918927e+00 
7700 6.7700524245e+00 5.9698870814e-02 2.2048346410e+00 -3.8188856205e+00 2.2048346410e+00 3.8188856205e+00 
7800 6.7687441713e+00 5.5571413424e-02 2.2034809622e+00 -3.8165409801e+00 2.2034809622e+00 3.8165409801e+00 
7900 6.7674630346e+00 5.1474867083e-02 2.2022200911e+00 -3.8143570872e+00 2.2022200911e+00 3.8143570872e+00 
8000 6.7662076876e+00 4.7409815342e-02 2.2010514906e+00 -3.8123330117e+00 2.2010514906e+00 3.8123330117e+00 
8100 6.7649767947e+00 4.3376828631e-02 2.1999745974e+00 -3.8104677780e+00 2.1999745974e+00 3.8104677780e+00 
8200 6.7637690138e+00 3.9376465731e-02 2.1989888226e+00 -3.8087603661e+00 2.1989888226e+00 3.8087603661e+00 
8300 6.7625829990e+00 3.5409275251e-02 2.1980935522e+00 -3.8072097122e+00 2.1980935522e+00 3.8072097122e+00 
8400 6.7614174039e+00 3.1475797066e-02 2.1972881472e+00 -3.8058147098e+00 2.1972881472e+00 3.8058147098e+00 
8500 6.7602708838e+00 2.7576563734e-02 2.1965719442e+00 -3.8045742099e+00 2.1965719442e+00 3.8045742099e+00 
8600 6.7591420986e+00 2.3712101864e-02 2.1959442559e+00 -3.8034870218e+00 2.1959442559e+00 3.8034870218e+00 
8700 6.7580297156e+00 1.9882933443e-02 2.1954043713e+00 -3.8025519143e+00 2.1954043713e+00 3.8025519143e+00 
8800 6.7569324116e+00 1.6089577089e-02 2.1949515561e+00 -3.8017676153e+00 2.1949515561e+00 3.8017676153e+00 
8900 6.7558488763e+00 1.2332549247e-02 2.1945850530e+00 -3.8011328134e+00 2.1945850530e+00 3.8011328134e+00 
9000 6.7547778140e+00 8.6123652983e-03 2.1943040823e+00 -3.8006461577e+00 2.1943040823e+00 3.8006461577e+00 
9100 6.7537179468e+00 4.9295405829e-03 2.1941078415e+00 -3.8003062588e+00 2.1941078415e+00 3.8003062588e+00 
9200 6.7526680165e+00 1.2845913304e-03 2.1939955066e+00 -3.8001116890e+00 2.1939955066e+00 3.8001116890e+00 
9300 6.7516267872e+00 -2.3219645168e-03 2.1939662315e+00 -3.8000609831e+00 2.1939662315e+00 3.8000609831e+00 
9400 6.7505930476e+00 -5.8896065887e-03 2.1940191488e+00 -3.8001526385e+00 2.1940191488e+00 3.8001526385e+00 
9500 6.7495656131e+00 -9.4178114901e-03 2.1941533697e+00 -3.8003851160e+00 2.1941533697e+00 3.8003851160e+00 
9600 6.7485433283e+00 -1.2906052325e-02 2.1943679847e+00 -3.8007568401e+00 2.1943679847e+00 3.8007568401e+00 
9700 6.7475250684e+00 -1.6353798349e-02 2.1946620635e+00 -3.8012661994e+00 2.1946620635e+00 3.8012661994e+00 
9800 6.7465097421e+00 -1.9760514751e-02 2.1950346553e+00 -3.8019115473e+00 2.1950346553e+00 3.8019115473e+00 
9900 6.7454962927e+00 -2.3125662569e-02 2.1954847892e+00 -3.8026912021e+00 2.1954847892e+00 3.8026912021e+00 
10000 6.7444837004e+00 -2.6448698747e-02 2.1960114744e+00 -3.8036034476e+00 2.1960114744e+00 3.8036034476e+00 
10100 6.7434709837e+00 -2.9729076321e-02 2.1966137004e+00 -3.8046465338e+00 2.1966137004e+00 3.8046465338e+00 
10200 6.7424572014e+00 -3.2966244750e-02 2.1972904376e+00 -3.8058186769e+00 2.1972904376e+00 3.8058186769e+00 
10300 6.7414414536e+00 -3.6159650380e-02 2.1980406370e+00 -3.8071180604e+00 2.1980406370e+00 3.8071180604e+00 
10400 6.7404228835e+00 -3.9308737043e-02 2.1988632311e+00 -3.8085428352e+00 2.1988632311e+00 3.8085428352e+00 
10500 6.7394006786e+00 -4.2412946795e-02 2.1997571339e+00 -3.8100911202e+00 2.1997571339e+00 3.8100911202e+00 
10600 6.7383740717e+00 -4.5471720770e-02 2.2007212413e+00 -3.8117610032e+00 2.2007212413e+00 3.8117610032e+00 
10700 6.7373423421e+00 -4.8484500174e-02 2.2017544316e+00 -3.8135505413e+00 2.2017544316e+00 3.8135505413e+00 
10800 6.7363048162e+00 -5.1450727386e-02 2.2028555657e+00 -3.8154577616e+00 2.2028555657e+00 3.8154577616e+00 
10900 6.7352608689e+00 -5.4369847177e-02 2.2040234878e+00 -3.8174806619e+00 2.2040234878e+00 3.8174806619e+00 
11000 6.7342099236e+00 -5.7241308031e-02 2.2052570253e+00 -3.8196172116e+00 2.2052570253e+00 3.8196172116e+00 
11100 6.7331514530e+00 -6.0064563566e-02 2.2065549901e+00 -3.8218653526e+00 2.2065549901e+00 3.8218653526e+00 
11200 6.7320849796e+00 -6.2839074046e-02 2.2079161784e+00 -3.8242229998e+00 2.2079161784e+00 3.8242229998e+00 
11300 6.7310100756e+00 -6.5564307964e-02 2.2093393714e+00 -3.8266880425e+00 2.2093393714e+00 3.8266880425e+00 
11400 6.7299263632e+00 -6.8239743697e-02 2.2108233364e+00 -3.8292583451e+00 2.2108233364e+00 3.8292583451e+00 
11500 6.7288335145e+00 -7.0864871230e-02 2.2123668264e+00 -3.8319317483e+00 2.2123668264e+00 3.8319317483e+00 
11600 6.7277312515e+00 -7.3439193907e-02 2.2139685819e+00 -3.8347060703e+00 2.2139685819e+00 3.8347060703e+00 
11700 6.7266193453e+00 -7.5962230239e-02 2.2156273308e+00 -3.8375791075e+00 2.2156273308e+00 3.8375791075e+00 
11800 6.7254976160e+00 -7.8433515719e-02 2.2173417892e+00 -3.8405486366e+00 2.2173417892e+00 3.8405486366e+00 
11900 6.7243659322e+00 -8.0852604664e-02 2.2191106625e+00 -3.8436124151e+00 2.2191106625e+00 3.8436124151e+00 
12000 6.7232242098e+00 -8.3219072044e-02 2.2209326459e+00 -3.8467681830e+00 2.2209326459e+00 3.8467681830e+00 
12100 6.7220724112e+00 -8.5532515314e-02 2.2228064255e+00 -3.8500136643e+00 2.2228064255e+00 3.8500136643e+00 
12200 6.7209105449e+00 -8.7792556206e-02 2.2247306786e+00 -3.8533465685e+00 2.2247306786e+00 3.8533465685e+00 
12300 6.7197386633e+00 -8.9998842504e-02 2.2267040752e+00 -3.8567645917e+00 2.2267040752e+00 3.8567645917e+00 
12400 6.7185568623e+00 -9.2151049756e-02 2.2287252788e+00 -3.8602654190e+00 2.2287252788e+00 3.8602654190e+00 
12500 6.7173652795e+00 -9.4248882941e-02 2.2307929469e+00 -3.8638467252e+00 2.2307929469e+00 3.8638467252e+00 
12600 6.7161640928e+00 -9.6292078060e-02 2.2329057325e+00 -3.8675061771e+00 2.2329057325e+00 3.8675061771e+00 
12700 6.7149535188e+00 -9.8280403653e-02 2.2350622848e+00 -3.8712414353e+00 2.2350622848e+00 3.8712414353e+00 
12800 6.7137338109e+00 -1.0021366223e-01 2.2372612504e+00 -3.8750501554e+00 2.2372612504e+00 3.8750501554e+00 
12900 6.7125052576e+00 -1.0209169158e-01 2.2395012741e+00 -3.8789299903e+00 2.2395012741e+00 3.8789299903e+00 
13000 6.7112681809e+00 -1.0391436605e-01 2.2417810002e+00 -3.8828785918e+00 2.2417810002e+00 3.8828785918e+00 
13100 6.7100229337e+00 -1.0568159760e-01 2.2440990735e+00 -3.8868936125e+00 2.2440990735e+00 3.8868936125e+00 
13200 6.7087698985e+00 -1.0739333682e-01 2.2464541402e+00 -3.8909727077e+00 2.2464541402e+00 3.8909727077e+00 
13300 6.7075094846e+00 -1.0904957381e-01 2.2488448492e+00 -3.8951135371e+00 2.2488448492e+00 3.8951135371e+00 
13400 6.7062421264e+00 -1.1065033893e-01 2.2512698530e+00 -3.8993137670e+00 2.2512698530e+00 3.8993137670e+00 
13500 6.7049682812e+00 -1.1219570336e-01 2.2537278091e+00 -3.9035710718e+00 2.2537278091e+00 3.9035710718e+00 
13600 6.7036884265e+00 -1.1368577964e-01 2.2562173806e+00 -3.9078831362e+00 2.2562173806e+00 3.9078831362e+00 
13700 6.7024030586e+00 -1.1512072194e-01 2.2587372379e+00 -3.9122476570e+00 2.2587372379e+00 3.9122476570e+00 
13800 6.7011126896e+00 -1.1650072631e-01 2.2612860590e+00 -3.9166623447e+00 2.2612860590e+00 3.9166623447e+00 
13900 6.6998178454e+00 -1.1782603068e-01 2.2638625314e+00 -3.9211249257e+00 2.2638625314e+00 3.9211249257e+00 
14000 6.6985190636e+00 -1.1909691483e-01 2.2664653524e+00 -3.9256331439e+00 2.2664653524e+00 3.9256331439e+00 
14100 6.6972168912e+00 -1.2031370011e-01 2.2690932306e+00 -3.9301847625e+00 2.2690932306e+00 3.9301847625e+00 
14200 6.6959118821e+00 -1.2147674913e-01 2.2717448867e+00 -3.9347775657e+00 2.2717448867e+00 3.9347775657e+00 
14300 6.6946045955e+00 -1.2258646526e-01 2.2744190547e+00 -3.9394093605e+00 2.2744190547e+00 3.9394093605e+00 
14400 6.6932955934e+00 -1.2364329198e-01 2.2771144825e+00 -3.9440779783e+00 2.2771144825e+00 3.9440779783e+00 
14500 6.6919854385e+00 -1.2464771219e-01 2.2798299330e+00 -3.9487812765e+00 2.2798299330e+00 3.9487812765e+00 
14600 6.6906746924e+00 -1.2560024729e-01 2.2825641850e+00 -3.9535171399e+00 2.2825641850e+00 3.9535171399e+00 
14700 6.6893639138e+00 -1.2650145628e-01 2.2853160342e+00 -3.9582834826e+00 2.2853160342e+00 3.9582834826e+00 
14800 6.6880536560e+00 -1.2735193459e-01 2.2880842938e+00 -3.9630782488e+00 2.2880842938e+00 3.9630782488e+00 
14900 6.6867444660e+00 -1.2815231297e-01 2.2908677952e+00 -3.9678994147e+00 2.2908677952e+00 3.9678994147e+00 
15000 6.6854368822e+00 -1.2890325619e-01 2.2936653892e+00 -3.9727449896e+00 2.2936653892e+00 3.9727449896e+00 
15100 6.6841314328e+00 -1.2960546168e-01 2.2964759461e+00 -3.9776130171e+00 2.2964759461e+00 3.9776130171e+00 
15200 6.6828286349e+00 -1.3025965810e-01 2.2992983570e+00 -3.9825015760e+00 2.2992983570e+00 3.9825015760e+00 
15300 6.6815289922e+00 -1.3086660382e-01 2.3021315337e+00 -3.9874087820e+00 2.3021315337e+00 3.9874087820e+00 
15400 6.6802329946e+00 -1.3142708535e-01 2.3049744099e+00 -3.9923327881e+00 2.3049744099e+00 3.9923327881e+00 
15500 6.6789411165e+00 -1.3194191576e-01 2.3078259414e+00 -3.9972717856e+00 2.3078259414e+00 3.9972717856e+00 
15600 6.6776538156e+00 -1.3241193293e-01 2.3106851068e+00 -4.0022240053e+00 2.3106851068e+00 4.0022240053e+00 
15700 6.6763715326e+00 -1.3283799791e-01 2.3135509076e+00 -4.0071877178e+00 2.3135509076e+00 4.0071877178e+00 
15800 6.6750946894e+00 -1.3322099315e-01 2.3164223689e+00 -4.0121612346e+00 2.3164223689e+00 4.0121612346e+00 
15900 6.6738236892e+00 -1.3356182076e-01 2.3192985395e+00 -4.0171429084e+00 2.3192985395e+00 4.0171429084e+00 
16000 6.6725589155e+00 -1.3386140071e-01 2.3221784927e+00 -4.0221311336e+00 2.3221784927e+00 4.0221311336e+00 
16100 6.6713007313e+00 -1.3412066906e-01 2.3250613257e+00 -4.0271243468e+00 2.3250613257e+00 4.0271243468e+00 
16200 6.6700494793e+00 -1.3434057618e-01 2.3279461607e+00 -4.0321210276e+00 2.3279461607e+00 4.0321210276e+00 
16300 6.6688054810e+00 -1.3452208497e-01 2.3308321444e+00 -4.0371196980e+00 2.3308321444e+00 4.0371196980e+00 
16400 6.6675690368e+00 -1.3466616910e-01 2.3337184485e+00 -4.0421189233e+00 2.3337184485e+00 4.0421189233e+00 
16500 6.6663404257e+00 -1.3477381123e-01 2.3366042697e+00 -4.0471173123e+00 2.3366042697e+00 4.0471173123e+00 
16600 6.6651199055e+00 -1.3484600137e-01 2.3394888296e+00 -4.0521135166e+00 2.3394888296e+00 4.0521135166e+00 
16700 6.6639077125e+00 -1.3488373509e-01 2.3423713750e+00 -4.0571062316e+00 2.3423713750e+00 4.0571062316e+00 
16800 6.6627040621e+00 -1.3488801193e-01 2.3452511774e+00 -4.0620941957e+00 2.3452511774e+00 4.0620941957e+00 
16900 6.6615091485e+00 -1.3485983378e-01 2.3481275334e+00 -4.0670761904e+00 2.3481275334e+00 4.0670761904e+00 
17000 6.6603231457e+00 -1.3480020327e-01 2.3509997642e+00 -4.0720510402e+00 2.3509997642e+00 4.0720510402e+00 
17100 6.6591462071e+00 -1.3471012228e-01 2.3538672159e+00 -4.0770176123e+00 2.3538672159e+00 4.0770176123e+00 
17200 6.6579784665e+00 -1.3459059045e-01 2.3567292589e+00 -4.0819748161e+00 2.3567292589e+00 4.0819748161e+00 
17300 6.6568200383e+00 -1.3444260374e-01 2.3595852878e+00 -4.0869216032e+00 2.3595852878e+00 4.0869216032e+00 
17400 6.6556710184e+00 -1.3426715312e-01 2.3624347212e+00 -4.0918569667e+00 2.3624347212e+00 4.0918569667e+00 
17500 6.6545314844e+00 -1.3406522319e-01 2.3652770016e+00 -4.0967799408e+00 2.3652770016e+00 4.0967799408e+00 
17600 6.6534014966e+00 -1.3383779098e-01 2.3681115949e+00 -4.1016896003e+00 2.3681115949e+00 4.1016896003e+00 
17700 6.6522810985e+00 -1.3358582477e-01 2.3709379899e+00 -4.1065850601e+00 2.3709379899e+00 4.1065850601e+00 
17800 6.6511703177e+00 -1.3331028291e-01 2.3737556985e+00 -4.1114654746e+00 2.3737556985e+00 4.1114654746e+00 
17900 6.6500691663e+00 -1.3301211281e-01 2.3765642549e+00 -4.1163300370e+00 2.3765642549e+00 4.1163300370e+00 
18000 6.6489776424e+00 -1.3269224995e-01 2.3793632153e+00 -4.1211779786e+00 2.3793632153e+00 4.1211779786e+00 
18100 6.6478957300e+00 -1.3235161688e-01 2.3821521577e+00 -4.1260085685e+00 2.3821521577e+00 4.1260085685e+00 
18200 6.6468234007e+00 -1.3199112242e-01 2.3849306811e+00 -4.1308211122e+00 2.3849306811e+00 4.1308211122e+00 
18300 6.6457606140e+00 -1.3161166081e-01 2.3876984055e+00 -4.1356149515e+00 2.3876984055e+00 4.1356149515e+00 
18400 6.6447073183e+00 -1.3121411099e-01 2.3904549712e+00 -4.1403894633e+00 2.3904549712e+00 4.1403894633e+00 
18500 6.6436634516e+00 -1.3079933588e-01 2.3932000384e+00 -4.1451440592e+00 2.3932000384e+00 4.1451440592e+00 
18600 6.6426289427e+00 -1.3036818180e-01 2.3959332867e+00 -4.1498781842e+00 2.3959332867e+00 4.1498781842e+00 
18700 6.6416037118e+00 -1.2992147789e-01 2.3986544148e+00 -4.1545913162e+00 2.3986544148e+00 4.1545913162e+00 
18800 6.6405876712e+00 -1.2946003558e-01 2.4013631397e+00 -4.1592829654e+00 2.4013631397e+00 4.1592829654e+00 
18900 6.6395807264e+00 -1.2898464817e-01 2.4040591965e+00 -4.1639526727e+00 2.4040591965e+00 4.1639526727e+00 
19000 6.6385827768e+00 -1.2849609043e-01 2.4067423378e+00 -4.1686000098e+00 2.4067423378e+00 4.1686000098e+00 
19100 6.6375937164e+00 -1.2799511826e-01 2.4094123332e+00 -4.1732245774e+00 2.4094123332e+00 4.1732245774e+00 
19200 6.6366134347e+00 -1.2748246839e-01 2.4120689687e+00 -4.1778260052e+00 2.4120689687e+00 4.1778260052e+00 
19300 6.6356418173e+00 -1.2695885815e-01 2.4147120466e+00 -4.1824039503e+00 2.4147120466e+00 4.1824039503e+00 
19400 6.6346787467e+00 -1.2642498527e-01 2.4173413843e+00 -4.1869580968e+00 2.4173413843e+00 4.1869580968e+00 
19500 6.6337241032e+00 -1.2588152774e-01 2.4199568145e+00 -4.1914881548e+00 2.4199568145e+00 4.1914881548e+00 
19600 6.6327777650e+00 -1.2532914371e-01 2.4225581843e+00 -4.1959938595e+00 2.4225581843e+00 4.1959938595e+00 
19700 6.6318396094e+00 -1.2476847142e-01 2.4251453549e+00 -4.2004749704e+00 2.4251453549e+00 4.2004749704e+00 
19800 6.6309095131e+00 -1.2420012919e-01 2.4277182008e+00 -4.2049312702e+00 2.4277182008e+00 4.2049312702e+00 
19900 6.6299873529e+00 -1.2362471542e-01 2.4302766097e+00 -4.2093625644e+00 2.4302766097e+00 4.2093625644e+00 
20000 6.6290730061e+00 -1.2304280866e-01 2.4328204817e+00 -4.2137686801e+00 2.4328204817e+00 4.2137686801e+00 
20100 6.6281663512e+00 -1.2245496768e-01 2.4353497292e+00 -4.2181494652e+00 2.4353497292e+00 4.2181494652e+00 
20200 6.6272672682e+00 -1.2186173160e-01 2.4378642760e+00 -4.2225047880e+00 2.4378642760e+00 4.2225047880e+00 
20300 6.6263756391e+00 -1.2126362002e-01 2.4403640569e+00 -4.2268345356e+00 2.4403640569e+00 4.2268345356e+00 
20400 6.6254913481e+00 -1.2066113320e-01 2.4428490176e+00 -4.2311386138e+00 2.4428490176e+00 4.2311386138e+00 
20500 6.6246142825e+00 -1.2005475230e-01 2.4453191139e+00 -4.2354169460e+00 2.4453191139e+00 4.2354169460e+00 
20600 6.6237443325e+00 -1.1944493951e-01 2.4477743112e+00 -4.2396694725e+00 2.4477743112e+00 4.2396694725e+00 
20700 6.6228813916e+00 -1.1883213841e-01 2.4502145844e+00 -4.2438961497e+00 2.4502145844e+00 4.2438961497e+00 
20800 6.6220253572e+00 -1.1821677413e-01 2.4526399173e+00 -4.2480969495e+00 2.4526399173e+00 4.2480969495e+00 
20900 6.6211761305e+00 -1.1759925372e-01 2.4550503020e+00 -4.2522718583e+00 2.4550503020e+00 4.2522718583e+00 
21000 6.6203336166e+00 -1.1697996639e-01 2.4574457388e+00 -4.2564208765e+00 2.4574457388e+00 4.2564208765e+00 
21100 6.6194977252e+00 -1.1635928387e-01 2.4598262356e+00 -4.2605440178e+00 2.4598262356e+00 4.2605440178e+00 
21200 6.6186683702e+00 -1.1573756071e-01 2.4621918074e+00 -4.2646413084e+00 2.4621918074e+00 4.2646413084e+00 
21300 6.6178454703e+00 -1.1511513464e-01 2.4645424763e+00 -4.2687127864e+00 2.4645424763e+00 4.2687127864e+00 
21400 6.6170289485e+00 -1.1449232694e-01 2.4668782709e+00 -4.2727585013e+00 2.4668782709e+00 4.2727585013e+00 
21500 6.6162187327e+00 -1.1386944275e-01 2.4691992257e+00 -4.2767785129e+00 2.4691992257e+00 4.2767785129e+00 
21600 6.6154147556e+00 -1.1324677151e-01 2.4715053812e+00 -4.2807728915e+00 2.4715053812e+00 4.2807728915e+00 
21700 6.6146169545e+00 -1.1262458727e-01 2.4737967833e+00 -4.2847417163e+00 2.4737967833e+00 4.2847417163e+00 
21800 6.6138252716e+00 -1.1200314916e-01 2.4760734829e+00 -4.2886850757e+00 2.4760734829e+00 4.2886850757e+00 
21900 6.6130396538e+00 -1.1138270169e-01 2.4783355359e+00 -4.2926030663e+00 2.4783355359e+00 4.2926030663e+00 
22000 6.6122600526e+00 -1.1076347522e-01 2.4805830023e+00 -4.2964957923e+00 2.4805830023e+00 4.2964957923e+00 
22100 6.6114864242e+00 -1.1014568629e-01 2.4828159466e+00 -4.3003633654e+00 2.4828159466e+00 4.3003633654e+00 
22200 6.6107187294e+00 -1.0952953809e-01 2.4850344371e+00 -4.3042059037e+00 2.4850344371e+00 4.3042059037e+00 
22300 6.6099569332e+00 -1.0891522080e-01 2.4872385457e+00 -4.3080235317e+00 2.4872385457e+00 4.3080235317e+00 
22400 6.6092010052e+00 -1.0830291202e-01 2.4894283474e+00 -4.3118163795e+00 2.4894283474e+00 4.3118163795e+00 
22500 6.6084509190e+00 -1.0769277718e-01 2.4916039206e+00 -4.3155845828e+00 2.4916039206e+00 4.3155845828e+00 
22600 6.6077066525e+00 -1.0708496990e-01 2.4937653462e+00 -4.3193282818e+00 2.4937653462e+00 4.3193282818e+00 
22700 6.6069681873e+00 -1.0647963242e-01 2.4959127079e+00 -4.3230476214e+00 2.4959127079e+00 4.3230476214e+00 
22800 6.6062355089e+00 -1.0587689600e-01 2.4980460915e+00 -4.3267427502e+00 2.4980460915e+00 4.3267427502e+00 
22900 6.6055086062e+00 -1.0527688128e-01 2.5001655851e+00 -4.3304138208e+00 2.5001655851e+00 4.3304138208e+00 
23000 6.6047874717e+00 -1.0467969868e-01 2.5022712785e+00 -4.3340609888e+00 2.5022712785e+00 4.3340609888e+00 
23100 6.6040721011e+00 -1.0408544881e-01 2.5043632634e+00 -4.3376844128e+00 2.5043632634e+00 4.3376844128e+00 
23200 6.6033624931e+00 -1.0349422281e-01 2.5064416326e+00 -4.3412842539e+00 2.5064416326e+00 4.3412842539e+00 
23300 6.6026586493e+00 -1.0290610275e-01 2.5085064806e+00 -4.3448606755e+00 2.5085064806e+00 4.3448606755e+00 
23400 6.6019605739e+00 -1.0232116200e-01 2.5105579027e+00 -4.3484138429e+00 2.5105579027e+00 4.3484138429e+00 
23500 6.6012682737e+00 -1.0173946556e-01 2.5125959954e+00 -4.3519439230e+00 2.5125959954e+00 4.3519439230e+00 
23600 6.6005817575e+00 -1.0116107047e-01 2.5146208557e+00 -4.3554510839e+00 2.5146208557e+00 4.3554510839e+00 
23700 6.5999010364e+00 -1.0058602612e-01 2.5166325814e+00 -4.3589354949e+00 2.5166325814e+00 4.3589354949e+00 
23800 6.5992261233e+00 -1.0001437459e-01 2.5186312706e+00 -4.3623973262e+00 2.5186312706e+00 4.3623973262e+00 
23900 6.5985570328e+00 -9.9446151055e-02 2.5206170219e+00 -4.3658367483e+00 2.5206170219e+00 4.3658367483e+00 
24000 6.5978937808e+00 -9.8881384019e-02 2.5225899339e+00 -4.3692539321e+00 2.5225899339e+00 4.3692539321e+00 
24100 6.5972363847e+00 -9.8320095712e-02 2.5245501054e+00 -4.3726490488e+00 2.5245501054e+00 4.3726490488e+00 
24200 6.5965848627e+00 -9.7762302378e-02 2.5264976351e+00 -4.3760222692e+00 2.5264976351e+00 4.3760222692e+00 
24300 6.5959392342e+00 -9.7208014588e-02 2.5284326215e+00 -4.3793737639e+00 2.5284326215e+00 4.3793737639e+00 
24400 6.5952995191e+00 -9.6657237545e-02 2.5303551628e+00 -4.3827037031e+00 2.5303551628e+00 4.3827037031e+00 
24500 6.5946657378e+00 -9.6109971377e-02 2.5322653568e+00 -4.3860122562e+00 2.5322653568e+00 4.3860122562e+00 
24600 6.5940379112e+00 -9.5566211424e-02 2.5341633010e+00 -4.3892995920e+00 2.5341633010e+00 4.3892995920e+00 
24700 6.5934160601e+00 -9.5025948520e-02 2.5360490921e+00 -4.3925658781e+00 2.5360490921e+00 4.3925658781e+00 
24800 6.5928002056e+00 -9.4489169264e-02 2.5379228264e+00 -4.3958112810e+00 2.5379228264e+00 4.3958112810e+00 
24900 6.5921903684e+00 -9.3955856282e-02 2.5397845991e+00 -4.3990359660e+00 2.5397845991e+00 4.3990359660e+00 
25000 6.5915865691e+00 -9.3425988488e-02 2.5416345051e+00 -4.4022400971e+00 2.5416345051e+00 4.4022400971e+00 
25100 6.5909888275e+00 -9.2899541332e-02 2.5434726380e+00 -4.4054238366e+00 2.5434726380e+00 4.4054238366e+00 
25200 6.5903971630e+00 -9.2376487041e-02 2.5452990907e+00 -4.4085873456e+00 2.5452990907e+00 4.4085873456e+00 
25300 6.5898115944e+00 -9.1856794855e-02 2.5471139551e+00 -4.4117307830e+00 2.5471139551e+00 4.4117307830e+00 
25400 6.5892321393e+00 -9.1340431251e-02 2.5489173221e+00 -4.4148543062e+00 2.5489173221e+00 4.4148543062e+00 
25500 6.5886588145e+00 -9.0827360166e-02 2.5507092815e+00 -4.4179580709e+00 2.5507092815e+00 4.4179580709e+00 
25600 6.5880916356e+00 -9.0317543209e-02 2.5524899219e+00 -4.4210422305e+00 2.5524899219e+00 4.4210422305e+00 
25700 6.5875306170e+00 -8.9810939864e-02 2.5542593308e+00 -4.4241069367e+00 2.5542593308e+00 4.4241069367e+00 
25800 6.5869757717e+00 -8.9307507687e-02 2.5560175946e+00 -4.4271523390e+00 2.5560175946e+00 4.4271523390e+00 
25900 6.5864271114e+00 -8.8807202501e-02 2.5577647985e+00 -4.4301785847e+00 2.5577647985e+00 4.4301785847e+00 
26000 6.5858846462e+00 -8.8309978576e-02 2.5595010262e+00 -4.4331858193e+00 2.5595010262e+00 4.4331858193e+00 
26100 6.5853483846e+00 -8.7815788809e-02 2.5612263603e+00 -4.4361741858e+00 2.5612263603e+00 4.4361741858e+00 
26200 6.5848183334e+00 -8.7324584891e-02 2.5629408823e+00 -4.4391438250e+00 2.5629408823e+00 4.4391438250e+00 
26300 6.5842944977e+00 -8.6836317474e-02 2.5646446722e+00 -4.4420948756e+00 2.5646446722e+00 4.4420948756e+00 
26400 6.5837768808e+00 -8.6350936323e-02 2.5663378086e+00 -4.4450274738e+00 2.5663378086e+00 4.4450274738e+00 
26500 6.5832654842e+00 -8.5868390475e-02 2.5680203689e+00 -4.4479417538e+00 2.5680203689e+00 4.4479417538e+00 
26600 6.5827603074e+00 -8.5388628373e-02 2.5696924293e+00 -4.4508378474e+00 2.5696924293e+00 4.4508378474e+00 
26700 6.5822613480e+00 -8.4911598012e-02 2.5713540644e+00 -4.4537158838e+00 2.5713540644e+00 4.4537158838e+00 
26800 6.5817686016e+00 -8.4437247069e-02 2.5730053477e+00 -4.4565759903e+00 2.5730053477e+00 4.4565759903e+00 
26900 6.5812820618e+00 -8.3965523026e-02 2.5746463512e+00 -4.4594182918e+00 2.5746463512e+00 4.4594182918e+00 
27000 6.5808017202e+00 -8.3496373296e-02 2.5762771457e+00 -4.4622429107e+00 2.5762771457e+00 4.4622429107e+00 
27100 6.5803275663e+00 -8.3029745332e-02 2.5778978005e+00 -4.4650499672e+00 2.5778978005e+00 4.4650499672e+00 
27200 6.5798595877e+00 -8.2565586740e-02 2.5795083838e+00 -4.4678395794e+00 2.5795083838e+00 4.4678395794e+00 
27300 6.5793977697e+00 -8.2103845380e-02 2.5811089625e+00 -4.4706118629e+00 2.5811089625e+00 4.4706118629e+00 
27400 6.5789420957e+00 -8.1644469467e-02 2.5826996019e+00 -4.4733669311e+00 2.5826996019e+00 4.4733669311e+00 
27500 6.5784925469e+00 -8.1187407662e-02 2.5842803663e+00 -4.4761048954e+00 2.5842803663e+00 4.4761048954e+00 
27600 6.5780491026e+00 -8.0732609161e-02 2.5858513186e+00 -4.4788258647e+00 2.5858513186e+00 4.4788258647e+00 
27700 6.5776117400e+00 -8.0280023779e-02 2.5874125207e+00 -4.4815299460e+00 2.5874125207e+00 4.4815299460e+00 
27800 6.5771804343e+00 -7.9829602025e-02 2.5889640329e+00 -4.4842172439e+00 2.5889640329e+00 4.4842172439e+00 
27900 6.5767551586e+00 -7.9381295181e-02 2.5905059145e+00 -4.4868878612e+00 2.5905059145e+00 4.4868878612e+00 
28000 6.5763358841e+00 -7.8935055366e-02 2.5920382236e+00 -4.4895418984e+00 2.5920382236e+00 4.4895418984e+00 
28100 6.5759225802e+00 -7.8490835606e-02 2.5935610171e+00 -4.4921794541e+00 2.5935610171e+00 4.4921794541e+00 
28200 6.5755152142e+00 -7.8048589890e-02 2.5950743507e+00 -4.4948006249e+00 2.5950743507e+00 4.4948006249e+00 
28300 6.5751137515e+00 -7.7608273227e-02 2.5965782792e+00 -4.4974055054e+00 2.5965782792e+00 4.4974055054e+00 
28400 6.5747181558e+00 -7.7169841699e-02 2.5980728560e+00 -4.4999941883e+00 2.5980728560e+00 4.4999941883e+00 
28500 6.5743283891e+00 -7.6733252511e-02 2.5995581336e+00 -4.5025667646e+00 2.5995581336e+00 4.5025667646e+00 
28600 6.5739444113e+00 -7.6298464032e-02 2.6010341635e+00 -4.5051233234e+00 2.6010341635e+00 4.5051233234e+00 
28700 6.5735661809e+00 -7.5865435837e-02 2.6025009960e+00 -4.5076639519e+00 2.6025009960e+00 4.5076639519e+00 
28800 6.5731936548e+00 -7.5434128745e-02 2.6039586806e+00 -4.5101887357e+00 2.6039586806e+00 4.5101887357e+00 
28900 6.5728267880e+00 -7.5004504850e-02 2.6054072658e+00 -4.5126977588e+00 2.6054072658e+00 4.5126977588e+00 
29000 6.5724655343e+00 -7.4576527555e-02 2.6068467990e+00 -4.5151911035e+00 2.6068467990e+00 4.5151911035e+00 
29100 6.5721098457e+00 -7.4150161594e-02 2.6082773270e+00 -4.5176688506e+00 2.6082773270e+00 4.5176688506e+00 
29200 6.5717596731e+00 -7.3725373060e-02 2.6096988954e+00 -4.5201310793e+00 2.6096988954e+00 4.5201310793e+00 
29300 6.5714149658e+00 -7.3302129421e-02 2.6111115492e+00 -4.5225778674e+00 2.6111115492e+00 4.5225778674e+00 
29400 6.5710756718e+00 -7.2880399544e-02 2.6125153324e+00 -4.5250092913e+00 2.6125153324e+00 4.5250092913e+00 
29500 6.5707417379e+00 -7.2460153701e-02 2.6139102885e+00 -4.5274254261e+00 2.6139102885e+00 4.5274254261e+00 
29600 6.5704131099e+00 -7.2041363589e-02 2.6152964599e+00 -4.5298263454e+00 2.6152964599e+00 4.5298263454e+00 
29700 6.5700897321e+00 -7.1624002333e-02 2.6166738885e+00 -4.5322121217e+00 2.6166738885e+00 4.5322121217e+00 
29800 6.5697715480e+00 -7.1208044497e-02 2.6180426155e+00 -4.5345828264e+00 2.6180426155e+00 4.5345828264e+00 
29900 6.5694585001e+00 -7.0793466086e-02 2.6194026813e+00 -4.5369385295e+00 2.6194026813e+00 4.5369385295e+00 
30000 6.5691505298e+00 -7.0380244545e-02 2.6207541259e+00 -4.5392793001e+00 2.6207541259e+00 4.5392793001e+00 
30100 6.5688475778e+00 -6.9968358764e-02 2.6220969884e+00 -4.5416052063e+00 2.6220969884e+00 4.5416052063e+00 
30200 6.5685495840e+00 -6.9557789071e-02 2.6234313077e+00 -4.5439163150e+00 2.6234313077e+00 4.5439163150e+00 
30300 6.5682564873e+00 -6.9148517226e-02 2.6247571218e+00 -4.5462126924e+00 2.6247571218e+00 4.5462126924e+00 
30400 6.5679682261e+00 -6.8740526419e-02 2.6260744684e+00 -4.5484944037e+00 2.6260744684e+00 4.5484944037e+00 
30500 6.5676847384e+00 -6.8333801252e-02 2.6273833847e+00 -4.5507615132e+00 2.6273833847e+00 4.5507615132e+00 
30600 6.5674059612e+00 -6.7928327739e-02 2.6286839074e+00 -4.5530140846e+00 2.6286839074e+00 4.5530140846e+00 
30700 6.5671318312e+00 -6.7524093282e-02 2.6299760728e+00 -4.5552521808e+00 2.6299760728e+00 4.5552521808e+00 
30800 6.5668622849e+00 -6.7121086666e-02 2.6312599169e+00 -4.5574758640e+00 2.6312599169e+00 4.5574758640e+00 
30900 6.5665972580e+00 -6.6719298034e-02 2.6325354752e+00 -4.5596851957e+00 2.6325354752e+00 4.5596851957e+00 
31000 6.5663366861e+00 -6.6318718875e-02 2.6338027828e+00 -4.5618802370e+00 2.6338027828e+00 4.5618802370e+00 
31100 6.5660805046e+00 -6.5919342002e-02 2.6350618748e+00 -4.5640610483e+00 2.6350618748e+00 4.5640610483e+00 
31200 6.5658286485e+00 -6.5521161532e-02 2.6363127858e+00 -4.5662276896e+00 2.6363127858e+00 4.5662276896e+00 
31300 6.5655810529e+00 -6.5124172863e-02 2.6375555500e+00 -4.5683802204e+00 2.6375555500e+00 4.5683802204e+00 
31400 6.5653376526e+00 -6.4728372649e-02 2.6387902018e+00 -4.5705187000e+00 2.6387902018e+00 4.5705187000e+00 
31500 6.5650983824e+00 -6.4333758779e-02 2.6400167749e+00 -4.5726431870e+00 2.6400167749e+00 4.5726431870e+00 
31600 6.5648631771e+00 -6.3940330347e-02 2.6412353033e+00 -4.5747537400e+00 2.6412353033e+00 4.5747537400e+00 
31700 6.5646319717e+00 -6.3548087627e-02 2.6424458204e+00 -4.5768504172e+00 2.6424458204e+00 4.5768504172e+00 
31800 6.5644047011e+00 -6.3157032043e-02 2.6436483598e+00 -4.5789332765e+00 2.6436483598e+00 4.5789332765e+00 
31900 6.5641813005e+00 -6.2767166142e-02 2.6448429549e+00 -4.5810023759e+00 2.6448429549e+00 4.5810023759e+00 
32000 6.5639617052e+00 -6.2378493563e-02 2.6460296389e+00 -4.5830577729e+00 2.6460296389e+00 4.5830577729e+00 
32100 6.5637458509e+00 -6.1991019005e-02 2.6472084451e+00 -4.5850995251e+00 2.6472084451e+00 4.5850995251e+00 
32200 6.5635336734e+00 -6.1604748197e-02 2.6483794067e+00 -4.5871276901e+00 2.6483794067e+00 4.5871276901e+00 
32300 6.5633251088e+00 -6.1219687865e-02 2.6495425568e+00 -4.5891423251e+00 2.6495425568e+00 4.5891423251e+00 
32400 6.5631200939e+00 -6.0835845699e-02 2.6506979286e+00 -4.5911434878e+00 2.6506979286e+00 4.5911434878e+00 
32500 6.5629185656e+00 -6.0453230317e-02 2.6518455552e+00 -4.5931312355e+00 2.6518455552e+00 4.5931312355e+00 
32600 6.5627204612e+00 -6.0071851236e-02 2.6529854700e+00 -4.5951056258e+00 2.6529854700e+00 4.5951056258e+00 
32700 6.5625257187e+00 -5.9691718831e-02 2.6541177062e+00 -4.5970667164e+00 2.6541177062e+00 4.5970667164e+00 
32800 6.5623342766e+00 -5.9312844307e-02 2.6552422971e+00 -4.5990145650e+00 2.6552422971e+00 4.5990145650e+00 
32900 6.5621460737e+00 -5.8935239655e-02 2.6563592761e+00 -4.6009492294e+00 2.6563592761e+00 4.6009492294e+00 
33000 6.5619610495e+00 -5.8558917625e-02 2.6574686769e+00 -4.6028707679e+00 2.6574686769e+00 4.6028707679e+00 
33100 6.5617791443e+00 -5.8183891684e-02 2.6585705330e+00 -4.6047792387e+00 2.6585705330e+00 4.6047792387e+00 
33200 6.5616002987e+00 -5.7810175980e-02 2.6596648783e+00 -4.6066747003e+00 2.6596648783e+00 4.6066747003e+00 
33300 6.5614244541e+00 -5.7437785310e-02 2.6607517466e+00 -4.6085572115e+00 2.6607517466e+00 4.6085572115e+00 
33400 6.5612515525e+00 -5.7066735077e-02 2.6618311722e+00 -4.6104268314e+00 2.6618311722e+00 4.6104268314e+00 
33500 6.5610815369e+00 -5.6697041261e-02 2.6629031891e+00 -4.6122836192e+00 2.6629031891e+00 4.6122836192e+00 
33600 6.5609143505e+00 -5.6328720375e-02 2.6639678320e+00 -4.6141276347e+00 2.6639678320e+00 4.6141276347e+00 
33700 6.5607499376e+00 -5.5961789433e-02 2.6650251354e+00 -4.6159589379e+00 2.6650251354e+00 4.6159589379e+00 
33800 6.5605882433e+00 -5.5596265912e-02 2.6660751342e+00 -4.6177775892e+00 2.6660751342e+00 4.6177775892e+00 
33900 6.5604292131e+00 -5.5232167716e-02 2.6671178634e+00 -4.6195836491e+00 2.6671178634e+00 4.6195836491e+00 
34000 6.5602727936e+00 -5.4869513139e-02 2.6681533583e+00 -4.6213771790e+00 2.6681533583e+00 4.6213771790e+00 
34100 6.5601189322e+00 -5.4508320832e-02 2.6691816544e+00 -4.6231582401e+00 2.6691816544e+00 4.6231582401e+00 
34200 6.5599675768e+00 -5.4148609761e-02 2.6702027875e+00 -4.6249268945e+00 2.6702027875e+00 4.6249268945e+00 
34300 6.5598186765e+00 -5.3790399179e-02 2.6712167936e+00 -4.6266832045e+00 2.6712167936e+00 4.6266832045e+00 
34400 6.5596721809e+00 -5.3433708586e-02 2.6722237088e+00 -4.6284272328e+00 2.6722237088e+00 4.6284272328e+00 
34500 6.5595280407e+00 -5.3078557695e-02 2.6732235697e+00 -4.6301590427e+00 2.6732235697e+00 4.6301590427e+00 
34600 6.5593862072e+00 -5.2724966400e-02 2.6742164130e+00 -4.6318786977e+00 2.6742164130e+00 4.6318786977e+00 
34700 6.5592466327e+00 -5.2372954738e-02 2.6752022757e+00 -4.6335862620e+00 2.6752022757e+00 4.6335862620e+00 
34800 6.5591092703e+00 -5.2022542860e-02 2.6761811951e+00 -4.6352818001e+00 2.6761811951e+00 4.6352818001e+00 
34900 6.5589740739e+00 -5.1673750996e-02 2.6771532087e+00 -4.6369653771e+00 2.6771532087e+00 4.6369653771e+00 
35000 6.5588409983e+00 -5.1326599422e-02 2.6781183543e+00 -4.6386370584e+00 2.6781183543e+00 4.6386370584e+00 
35100 6.5587099992e+00 -5.0981108428e-02 2.6790766701e+00 -4.6402969099e+00 2.6790766701e+00 4.6402969099e+00 
35200 6.5585810331e+00 -5.0637298291e-02 2.6800281942e+00 -4.6419449981e+00 2.6800281942e+00 4.6419449981e+00 
35300 6.5584540573e+00 -5.0295189237e-02 2.6809729655e+00 -4.6435813900e+00 2.6809729655e+00 4.6435813900e+00 
35400 6.5583290300e+00 -4.9954801417e-02 2.6819110227e+00 -4.6452061527e+00 2.6819110227e+00 4.6452061527e+00 
35500 6.5582059102e+00 -4.9616154878e-02 2.6828424051e+00 -4.6468193543e+00 2.6828424051e+00 4.6468193543e+00 
35600 6.5580846578e+00 -4.9279269528e-02 2.6837671520e+00 -4.6484210629e+00 2.6837671520e+00 4.6484210629e+00 
35700 6.5579652336e+00 -4.8944165116e-02 2.6846853031e+00 -4.6500113473e+00 2.6846853031e+00 4.6500113473e+00 
35800 6.5578475990e+00 -4.8610861200e-02 2.6855968985e+00 -4.6515902768e+00 2.6855968985e+00 4.6515902768e+00 
35900 6.5577317163e+00 -4.8279377122e-02 2.6865019783e+00 -4.6531579211e+00 2.6865019783e+00 4.6531579211e+00 
36000 6.5576175489e+00 -4.7949731982e-02 2.6874005830e+00 -4.6547143501e+00 2.6874005830e+00 4.6547143501e+00 
36100 6.5575050606e+00 -4.7621944616e-02 2.6882927534e+00 -4.6562596345e+00 2.6882927534e+00 4.6562596345e+00 
36200 6.5573942162e+00 -4.7296033565e-02 2.6891785304e+00 -4.6577938453e+00 2.6891785304e+00 4.6577938453e+00 
36300 6.5572849813e+00 -4.6972017062e-02 2.6900579553e+00 -4.6593170539e+00 2.6900579553e+00 4.6593170539e+00 
36400 6.5571773221e+00 -4.6649912999e-02 2.6909310695e+00 -4.6608293321e+00 2.6909310695e+00 4.6608293321e+00 
36500 6.5570712060e+00 -4.6329738915e-02 2.6917979148e+00 -4.6623307521e+00 2.6917979148e+00 4.6623307521e+00 
36600 6.5569666006e+00 -4.6011511966e-02 2.6926585330e+00 -4.6638213866e+00 2.6926585330e+00 4.6638213866e+00 
36700 6.5568634746e+00 -4.5695248915e-02 2.6935129664e+00 -4.6653013086e+00 2.6935129664e+00 4.6653013086e+00 
36800 6.5567617974e+00 -4.5380966105e-02 2.6943612572e+00 -4.6667705914e+00 2.6943612572e+00 4.6667705914e+00 
36900 6.5566615391e+00 -4.5068679445e-02 2.6952034481e+00 -4.6682293088e+00 2.6952034481e+00 4.6682293088e+00 
37000 6.5565626703e+00 -4.4758404392e-02 2.6960395818e+00 -4.6696775348e+00 2.6960395818e+00 4.6696775348e+00 
37100 6.5564651628e+00 -4.4450155933e-02 2.6968697013e+00 -4.6711153440e+00 2.6968697013e+00 4.6711153440e+00 
37200 6.5563689885e+00 -4.4143948574e-02 2.6976938497e+00 -4.6725428109e+00 2.6976938497e+00 4.6725428109e+00 
37300 6.5562741204e+00 -4.3839796319e-02 2.6985120704e+00 -4.6739600108e+00 2.6985120704e+00 4.6739600108e+00 
37400 6.5561805320e+00 -4.3537712661e-02 2.6993244069e+00 -4.6753670188e+00 2.6993244069e+00 4.6753670188e+00 
37500 6.5560881974e+00 -4.3237710569e-02 2.7001309027e+00 -4.6767639106e+00 2.7001309027e+00 4.6767639106e+00 
37600 6.5559970915e+00 -4.2939802473e-02 2.7009316018e+00 -4.6781507621e+00 2.7009316018e+00 4.6781507621e+00 
37700 6.5559071897e+00 -4.2644000255e-02 2.7017265481e+00 -4.6795276494e+00 2.7017265481e+00 4.6795276494e+00 
37800 6.5558184680e+00 -4.2350315240e-02 2.7025157855e+00 -4.6808946488e+00 2.7025157855e+00 4.6808946488e+00 
37900 6.5557309031e+00 -4.2058758181e-02 2.7032993584e+00 -4.6822518368e+00 2.7032993584e+00 4.6822518368e+00 
38000 6.5556444722e+00 -4.1769339259e-02 2.7040773110e+00 -4.6835992902e+00 2.7040773110e+00 4.6835992902e+00 
38100 6.5555591530e+00 -4.1482068067e-02 2.7048496877e+00 -4.6849370859e+00 2.7048496877e+00 4.6849370859e+00 
38200 6.5554749239e+00 -4.1196953608e-02 2.7056165330e+00 -4.6862653010e+00 2.7056165330e+00 4.6862653010e+00 
38300 6.5553917639e+00 -4.0914004289e-02 2.7063778916e+00 -4.6875840127e+00 2.7063778916e+00 4.6875840127e+00 
38400 6.5553096522e+00 -4.0633227910e-02 2.7071338080e+00 -4.6888932983e+00 2.7071338080e+00 4.6888932983e+00 
38500 6.5552285689e+00 -4.0354631667e-02 2.7078843269e+00 -4.6901932352e+00 2.7078843269e+00 4.6901932352e+00 
38600 6.5551484943e+00 -4.0078222144e-02 2.7086294932e+00 -4.6914839011e+00 2.7086294932e+00 4.6914839011e+00 
38700 6.5550694094e+00 -3.9804005310e-02 2.7093693516e+00 -4.6927653735e+00 2.7093693516e+00 4.6927653735e+00 
38800 6.5549912957e+00 -3.9531986519e-02 2.7101039470e+00 -4.6940377300e+00 2.7101039470e+00 4.6940377300e+00 
38900 6.5549141349e+00 -3.9262170504e-02 2.7108333241e+00 -4.6953010483e+00 2.7108333241e+00 4.6953010483e+00 
39000 6.5548379093e+00 -3.8994561383e-02 2.7115575280e+00 -4.6965554061e+00 2.7115575280e+00 4.6965554061e+00 
39100 6.5547626018e+00 -3.8729162652e-02 2.7122766034e+00 -4.6978008812e+00 2.7122766034e+00 4.6978008812e+00 
39200 6.5546881955e+00 -3.8465977190e-02 2.7129905951e+00 -4.6990375511e+00 2.7129905951e+00 4.6990375511e+00 
39300 6.5546146741e+00 -3.8205007257e-02 2.7136995480e+00 -4.7002654936e+00 2.7136995480e+00 4.7002654936e+00 
39400 6.5545420214e+00 -3.7946254500e-02 2.7144035069e+00 -4.7014847862e+00 2.7144035069e+00 4.7014847862e+00 
39500 6.5544702219e+00 -3.7689719952e-02 2.7151025165e+00 -4.7026955063e+00 2.7151025165e+00 4.7026955063e+00 
39600 6.5543992604e+00 -3.7435404036e-02 2.7157966215e+00 -4.7038977315e+00 2.7157966215e+00 4.7038977315e+00 
39700 6.5543291220e+00 -3.7183306569e-02 2.7164858666e+00 -4.7050915389e+00 2.7164858666e+00 4.7050915389e+00 
39800 6.5542597922e+00 -3.6933426766e-02 2.7171702962e+00 -4.7062770058e+00 2.7171702962e+00 4.7062770058e+00 
39900 6.5541912569e+00 -3.6685763246e-02 2.7178499548e+00 -4.7074542091e+00 2.7178499548e+00 4.7074542091e+00 
40000 6.5541235022e+00 -3.6440314034e-02 2.7185248869e+00 -4.7086232257e+00 2.7185248869e+00 4.7086232257e+00 
40100 6.5540565147e+00 -3.6197076572e-02 2.7191951366e+00 -4.7097841323e+00 2.7191951366e+00 4.7097841323e+00 
40200 6.5539902811e+00 -3.5956047721e-02 2.7198607481e+00 -4.7109370053e+00 2.7198607481e+00 4.7109370053e+00 
40300 6.5539247886e+00 -3.5717223769e-02 2.7205217655e+00 -4.7120819209e+00 2.7205217655e+00 4.7120819209e+00 
40400 6.5538600246e+00 -3.5480600440e-02 2.7211782326e+00 -4.7132189553e+00 2.7211782326e+00 4.7132189553e+00 
40500 6.5537959769e+00 -3.5246172898e-02 2.7218301931e+00 -4.7143481841e+00 2.7218301931e+00 4.7143481841e+00 
40600 6.5537326334e+00 -3.5013935761e-02 2.7224776907e+00 -4.7154696828e+00 2.7224776907e+00 4.7154696828e+00 
40700 6.5536699824e+00 -3.4783883102e-02 2.7231207688e+00 -4.7165835267e+00 2.7231207688e+00 4.7165835267e+00 
40800 6.5536080124e+00 -3.4556008466e-02 2.7237594706e+00 -4.7176897907e+00 2.7237594706e+00 4.7176897907e+00 
40900 6.5535467122e+00 -3.4330304871e-02 2.7243938392e+00 -4.7187885493e+00 2.7243938392e+00 4.7187885493e+00 
41000 6.5534860708e+00 -3.4106764824e-02 2.7250239175e+00 -4.7198798769e+00 2.7250239175e+00 4.7198798769e+00 
41100 6.5534260775e+00 -3.3885380329e-02 2.7256497481e+00 -4.7209638474e+00 2.7256497481e+00 4.7209638474e+00 
41200 6.5533667218e+00 -3.3666142895e-02 2.7262713736e+00 -4.7220405343e+00 2.7262713736e+00 4.7220405343e+00 
41300 6.5533079934e+00 -3.3449043549e-02 2.7268888362e+00 -4.7231100110e+00 2.7268888362e+00 4.7231100110e+00 
41400 6.5532498821e+00 -3.3234072847e-02 2.7275021780e+00 -4.7241723501e+00 2.7275021780e+00 4.7241723501e+00 
41500 6.5531923783e+00 -3.3021220882e-02 2.7281114408e+00 -4.7252276241e+00 2.7281114408e+00 4.7252276241e+00 
41600 6.5531354721e+00 -3.2810477298e-02 2.7287166661e+00 -4.7262759051e+00 2.7287166661e+00 4.7262759051e+00 
41700 6.5530791541e+00 -3.2601831301e-02 2.7293178953e+00 -4.7273172646e+00 2.7293178953e+00 4.7273172646e+00 
41800 6.5530234151e+00 -3.2395271667e-02 2.7299151694e+00 -4.7283517738e+00 2.7299151694e+00 4.7283517738e+00 
41900 6.5529682460e+00 -3.2190786761e-02 2.7305085293e+00 -4.7293795033e+00 2.7305085293e+00 4.7293795033e+00 
42000 6.5529136378e+00 -3.1988364541e-02 2.7310980156e+00 -4.7304005234e+00 2.7310980156e+00 4.7304005234e+00 
42100 6.5528595818e+00 -3.1787992575e-02 2.7316836684e+00 -4.7314149040e+00 2.7316836684e+00 4.7314149040e+00 
42200 6.5528060695e+00 -3.1589658050e-02 2.7322655279e+00 -4.7324227141e+00 2.7322655279e+00 4.7324227141e+00 
42300 6.5527530924e+00 -3.1393347788e-02 2.7328436337e+00 -4.7334240228e+00 2.7328436337e+00 4.7334240228e+00 
42400 6.5527006423e+00 -3.1199048255e-02 2.7334180253e+00 -4.7344188982e+00 2.7334180253e+00 4.7344188982e+00 
42500 6.5526487111e+00 -3.1006745572e-02 2.7339887418e+00 -4.7354074081e+00 2.7339887418e+00 4.7354074081e+00 
42600 6.5525972909e+00 -3.0816425533e-02 2.7345558220e+00 -4.7363896198e+00 2.7345558220e+00 4.7363896198e+00 
42700 6.5525463737e+00 -3.0628073613e-02 2.7351193044e+00 -4.7373656000e+00 2.7351193044e+00 4.7373656000e+00 
42800 6.5524959521e+00 -3.0441674981e-02 2.7356792273e+00 -4.7383354149e+00 2.7356792273e+00 4.7383354149e+00 
42900 6.5524460185e+00 -3.0257214512e-02 2.7362356286e+00 -4.7392991301e+00 2.7362356286e+00 4.7392991301e+00 
43000 6.5523965654e+00 -3.0074676803e-02 2.7367885457e+00 -4.7402568108e+00 2.7367885457e+00 4.7402568108e+00 
43100 6.5523475856e+00 -2.9894046180e-02 2.7373380161e+00 -4.7412085213e+00 2.7373380161e+00 4.7412085213e+00 
43200 6.5522990719e+00 -2.9715306715e-02 2.7378840765e+00 -4.7421543257e+00 2.7378840765e+00 4.7421543257e+00 
43300 6.5522510175e+00 -2.9538442235e-02 2.7384267636e+00 -4.7430942874e+00 2.7384267636e+00 4.7430942874e+00 
43400 6.5522034152e+00 -2.9363436337e-02 2.7389661137e+00 -4.7440284691e+00 2.7389661137e+00 4.7440284691e+00 
43500 6.5521562585e+00 -2.9190272399e-02 2.7395021625e+00 -4.7449569330e+00 2.7395021625e+00 4.7449569330e+00 
43600 6.5521095405e+00 -2.9018933590e-02 2.7400349458e+00 -4.7458797406e+00 2.7400349458e+00 4.7458797406e+00 
43700 6.5520632548e+00 -2.8849402886e-02 2.7405644987e+00 -4.7467969531e+00 2.7405644987e+00 4.7467969531e+00 
43800 6.5520173949e+00 -2.8681663079e-02 2.7410908560e+00 -4.7477086308e+00 2.7410908560e+00 4.7477086308e+00 
43900 6.5519719544e+00 -2.8515696792e-02 2.7416140524e+00 -4.7486148335e+00 2.7416140524e+00 4.7486148335e+00 
44000 6.5519269271e+00 -2.8351486484e-02 2.7421341219e+00 -4.7495156204e+00 2.7421341219e+00 4.7495156204e+00 
44100 6.5518823069e+00 -2.8189014471e-02 2.7426510984e+00 -4.7504110499e+00 2.7426510984e+00 4.7504110499e+00 
44200 6.5518380877e+00 -2.8028262928e-02 2.7431650153e+00 -4.7513011801e+00 2.7431650153e+00 4.7513011801e+00 
44300 6.5517942636e+00 -2.7869213909e-02 2.7436759057e+00 -4.7521860682e+00 2.7436759057e+00 4.7521860682e+00 
44400 6.5517508288e+00 -2.7711849352e-02 2.7441838023e+00 -4.7530657709e+00 2.7441838023e+00 4.7530657709e+00 
44500 6.5517077773e+00 -2.7556151090e-02 2.7446887375e+00 -4.7539403443e+00 2.7446887375e+00 4.7539403443e+00 
44600 6.5516651037e+00 -2.7402100868e-02 2.7451907432e+00 -4.7548098438e+00 2.7451907432e+00 4.7548098438e+00 
44700 6.5516228022e+00 -2.7249680345e-02 2.7456898512e+00 -4.7556743241e+00 2.7456898512e+00 4.7556743241e+00 
44800 6.5515808675e+00 -2.7098871112e-02 2.7461860926e+00 -4.7565338395e+00 2.7461860926e+00 4.7565338395e+00 
44900 6.5515392940e+00 -2.6949654697e-02 2.7466794984e+00 -4.7573884434e+00 2.7466794984e+00 4.7573884434e+00 
45000 6.5514980765e+00 -2.6802012580e-02 2.7471700991e+00 -4.7582381887e+00 2.7471700991e+00 4.7582381887e+00 
45100 6.5514572098e+00 -2.6655926197e-02 2.7476579248e+00 -4.7590831276e+00 2.7476579248e+00 4.7590831276e+00 
45200 6.5514166885e+00 -2.6511376955e-02 2.7481430054e+00 -4.7599233119e+00 2.7481430054e+00 4.7599233119e+00 
45300 6.5513765077e+00 -2.6368346238e-02 2.7486253703e+00 -4.7607587923e+00 2.7486253703e+00 4.7607587923e+00 
45400 6.5513366624e+00 -2.6226815420e-02 2.7491050485e+00 -4.7615896193e+00 2.7491050485e+00 4.7615896193e+00 
45500 6.5512971475e+00 -2.6086765869e-02 2.7495820687e+00 -4.7624158426e+00 2.7495820687e+00 4.7624158426e+00 
45600 6.5512579583e+00 -2.5948178961e-02 2.7500564593e+00 -4.7632375111e+00 2.7500564593e+00 4.7632375111e+00 
45700 6.5512190900e+00 -2.5811036086e-02 2.7505282481e+00 -4.7640546734e+00 2.7505282481e+00 4.7640546734e+00 
45800 6.5511805378e+00 -2.5675318655e-02 2.7509974629e+00 -4.7648673773e+00 2.7509974629e+00 4.7648673773e+00 
45900 6.5511422971e+00 -2.5541008113e-02 2.7514641308e+00 -4.7656756698e+00 2.7514641308e+00 4.7656756698e+00 
46000 6.5511043633e+00 -2.5408085943e-02 2.7519282787e+00 -4.7664795975e+00 2.7519282787e+00 4.7664795975e+00 
46100 6.5510667319e+00 -2.5276533675e-02 2.7523899331e+00 -4.7672792064e+00 2.7523899331e+00 4.7672792064e+00 
46200 6.5510293985e+00 -2.5146332893e-02 2.7528491202e+00 -4.7680745417e+00 2.7528491202e+00 4.7680745417e+00 
46300 6.5509923588e+00 -2.5017465245e-02 2.7533058657e+00 -4.7688656481e+00 2.7533058657e+00 4.7688656481e+00 
46400 6.5509556083e+00 -2.4889912447e-02 2.7537601950e+00 -4.7696525696e+00 2.7537601950e+00 4.7696525696e+00 
46500 6.5509191429e+00 -2.4763656292e-02 2.7542121333e+00 -4.7704353497e+00 2.7542121333e+00 4.7704353497e+00 
46600 6.5508829585e+00 -2.4638678655e-02 2.7546617052e+00 -4.7712140311e+00 2.7546617052e+00 4.7712140311e+00 
46700 6.5508470508e+00 -2.4514961502e-02 2.7551089352e+00 -4.7719886561e+00 2.7551089352e+00 4.7719886561e+00 
46800 6.5508114159e+00 -2.4392486892e-02 2.7555538472e+00 -4.7727592664e+00 2.7555538472e+00 4.7727592664e+00 
46900 6.5507760497e+00 -2.4271236990e-02 2.7559964649e+00 -4.7735259028e+00 2.7559964649e+00 4.7735259028e+00 
47000 6.5507409484e+00 -2.4151194065e-02 2.7564368117e+00 -4.7742886057e+00 2.7564368117e+00 4.7742886057e+00 
47100 6.5507061081e+00 -2.4032340501e-02 2.7568749105e+00 -4.7750474151e+00 2.7568749105e+00 4.7750474151e+00 
47200 6.5506715250e+00 -2.3914658802e-02 2.7573107840e+00 -4.7758023702e+00 2.7573107840e+00 4.7758023702e+00 
47300 6.5506371953e+00 -2.3798131595e-02 2.7577444545e+00 -4.7765535095e+00 2.7577444545e+00 4.7765535095e+00 
47400 6.5506031154e+00 -2.3682741635e-02 2.7581759439e+00 -4.7773008711e+00 2.7581759439e+00 4.7773008711e+00 
47500 6.5505692816e+00 -2.3568471813e-02 2.7586052740e+00 -4.7780444925e+00 2.7586052740e+00 4.7780444925e+00 
47600 6.5505356903e+00 -2.3455305157e-02 2.7590324659e+00 -4.7787844107e+00 2.7590324659e+00 4.7787844107e+00 
47700 6.5505023381e+00 -2.3343224839e-02 2.7594575408e+00 -4.7795206620e+00 2.7594575408e+00 4.7795206620e+00 
47800 6.5504692215e+00 -2.3232214178e-02 2.7598805192e+00 -4.7802532821e+00 2.7598805192e+00 4.7802532821e+00 
47900 6.5504363371e+00 -2.3122256642e-02 2.7603014216e+00 -4.7809823064e+00 2.7603014216e+00 4.7809823064e+00 
48000 6.5504036815e+00 -2.3013335858e-02 2.7607202679e+00 -4.7817077695e+00 2.7607202679e+00 4.7817077695e+00 
48100 6.5503712514e+00 -2.2905435607e-02 2.7611370779e+00 -4.7824297056e+00 2.7611370779e+00 4.7824297056e+00 
48200 6.5503390437e+00 -2.2798539836e-02 2.7615518709e+00 -4.7831481482e+00 2.7615518709e+00 4.7831481482e+00 
48300 6.5503070550e+00 -2.2692632653e-02 2.7619646661e+00 -4.7838631305e+00 2.7619646661e+00 4.7838631305e+00 
48400 6.5502752824e+00 -2.2587698338e-02 2.7623754823e+00 -4.7845746850e+00 2.7623754823e+00 4.7845746850e+00 
48500 6.5502437226e+00 -2.2483721340e-02 2.7627843379e+00 -4.7852828437e+00 2.7627843379e+00 4.7852828437e+00 
48600 6.5502123726e+00 -2.2380686281e-02 2.7631912512e+00 -4.7859876382e+00 2.7631912512e+00 4.7859876382e+00 
48700 6.5501812295e+00 -2.2278577961e-02 2.7635962401e+00 -4.7866890994e+00 2.7635962401e+00 4.7866890994e+00 
48800 6.5501502903e+00 -2.2177381359e-02 2.7639993221e+00 -4.7873872580e+00 2.7639993221e+00 4.7873872580e+00 
48900 6.5501195522e+00 -2.2077081631e-02 2.7644005146e+00 -4.7880821438e+00 2.7644005146e+00 4.7880821438e+00 
49000 6.5500890122e+00 -2.1977664119e-02 2.7647998347e+00 -4.7887737865e+00 2.7647998347e+00 4.7887737865e+00 
49100 6.5500586677e+00 -2.1879114348e-02 2.7651972991e+00 -4.7894622151e+00 2.7651972991e+00 4.7894622151e+00 
49200 6.5500285158e+00 -2.1781418030e-02 2.7655929244e+00 -4.7901474580e+00 2.7655929244e+00 4.7901474580e+00 
49300 6.5499985539e+00 -2.1684561063e-02 2.7659867266e+00 -4.7908295436e+00 2.7659867266e+00 4.7908295436e+00 
49400 6.5499687792e+00 -2.1588529537e-02 2.7663787219e+00 -4.7915084993e+00 2.7663787219e+00 4.7915084993e+00 
49500 6.5499391893e+00 -2.1493309728e-02 2.7667689258e+00 -4.7921843523e+00 2.7667689258e+00 4.7921843523e+00 
49600 6.5499097815e+00 -2.1398888106e-02 2.7671573538e+00 -4.7928571294e+00 2.7671573538e+00 4.7928571294e+00 
49700 6.5498805533e+00 -2.1305251333e-02 2.7675440212e+00 -4.7935268568e+00 2.7675440212e+00 4.7935268568e+00 
49800 6.5498515023e+00 -2.1212386262e-02 2.7679289427e+00 -4.7941935605e+00 2.7679289427e+00 4.7941935605e+00 
49900 6.5498226259e+00 -2.1120279942e-02 2.7683121331e+00 -4.7948572657e+00 2.7683121331e+00 4.7948572657e+00 
50000 6.5497939219e+00 -2.1028919613e-02 2.7686936068e+00 -4.7955179975e+00 2.7686936068e+00 4.7955179975e+00 
50100 6.5497653879e+00 -2.0938292713e-02 2.7690733779e+00 -4.7961757805e+00 2.7690733779e+00 4.7961757805e+00 
50200 6.5497370215e+00 -2.0848386872e-02 2.7694514605e+00 -4.7968306387e+00 2.7694514605e+00 4.7968306387e+00 
50300 6.5497088206e+00 -2.0759189915e-02 2.7698278683e+00 -4.7974825961e+00 2.7698278683e+00 4.7974825961e+00 
50400 6.5496807828e+00 -2.0670689863e-02 2.7702026146e+00 -4.7981316758e+00 2.7702026146e+00 4.7981316758e+00 
50500 6.5496529061e+00 -2.0582874929e-02 2.7705757129e+00 -4.7987779009e+00 2.7705757129e+00 4.7987779009e+00 
50600 6.5496251882e+00 -2.0495733525e-02 2.7709471760e+00 -4.7994212939e+00 2.7709471760e+00 4.7994212939e+00 
50700 6.5495976271e+00 -2.0409254252e-02 2.7713170168e+00 -4.8000618771e+00 2.7713170168e+00 4.8000618771e+00 
50800 6.5495702207e+00 -2.0323425907e-02 2.7716852480e+00 -4.8006996721e+00 2.7716852480e+00 4.8006996721e+00 
50900 6.5495429670e+00 -2.0238237482e-02 2.7720518819e+00 -4.8013347006e+00 2.7720518819e+00 4.8013347006e+00 
51000 6.5495158639e+00 -2.0153678158e-02 2.7724169306e+00 -4.8019669836e+00 2.7724169306e+00 4.8019669836e+00 
51100 6.5494889096e+00 -2.0069737310e-02 2.7727804062e+00 -4.8025965418e+00 2.7727804062e+00 4.8025965418e+00 
51200 6.5494621021e+00 -1.9986404503e-02 2.7731423205e+00 -4.8032233957e+00 2.7731423205e+00 4.8032233957e+00 
51300 6.5494354396e+00 -1.9903669493e-02 2.7735026849e+00 -4.8038475652e+00 2.7735026849e+00 4.8038475652e+00 
51400 6.5494089201e+00 -1.9821522224e-02 2.7738615109e+00 -4.8044690701e+00 2.7738615109e+00 4.8044690701e+00 
51500 6.5493825420e+00 -1.9739952829e-02 2.7742188097e+00 -4.8050879298e+00 2.7742188097e+00 4.8050879298e+00 
51600 6.5493563034e+00 -1.9658951628e-02 2.7745745923e+00 -4.8057041633e+00 2.7745745923e+00 4.8057041633e+00 
51700 6.5493302025e+00 -1.9578509125e-02 2.7749288695e+00 -4.8063177894e+00 2.7749288695e+00 4.8063177894e+00 
51800 6.5493042378e+00 -1.9498616010e-02 2.7752816520e+00 -4.8069288265e+00 2.7752816520e+00 4.8069288265e+00 
51900 6.5492784074e+00 -1.9419263155e-02 2.7756329501e+00 -4.8075372928e+00 2.7756329501e+00 4.8075372928e+00 
52000 6.5492527098e+00 -1.9340441615e-02 2.7759827743e+00 -4.8081432060e+00 2.7759827743e+00 4.8081432060e+00 
52100 6.5492271434e+00 -1.9262142624e-02 2.7763311347e+00 -4.8087465839e+00 2.7763311347e+00 4.8087465839e+00 
52200 6.5492017066e+00 -1.9184357594e-02 2.7766780411e+00 -4.8093474435e+00 2.7766780411e+00 4.8093474435e+00 
52300 6.5491763978e+00 -1.9107078116e-02 2.7770235035e+00 -4.8099458018e+00 2.7770235035e+00 4.8099458018e+00 
52400 6.5491512156e+00 -1.9030295954e-02 2.7773675314e+00 -4.8105416757e+00 2.7773675314e+00 4.8105416757e+00 
52500 6.5491261584e+00 -1.8954003048e-02 2.7777101344e+00 -4.8111350814e+00 2.7777101344e+00 4.8111350814e+00 
52600 6.5491012248e+00 -1.8878191507e-02 2.7780513217e+00 -4.8117260352e+00 2.7780513217e+00 4.8117260352e+00 
52700 6.5490764133e+00 -1.8802853612e-02 2.7783911026e+00 -4.8123145530e+00 2.7783911026e+00 4.8123145530e+00 
52800 6.5490517227e+00 -1.8727981812e-02 2.7787294861e+00 -4.8129006505e+00 2.7787294861e+00 4.8129006505e+00 
52900 6.5490271515e+00 -1.8653568722e-02 2.7790664812e+00 -4.8134843430e+00 2.7790664812e+00 4.8134843430e+00 
53000 6.5490026983e+00 -1.8579607120e-02 2.7794020965e+00 -4.8140656457e+00 2.7794020965e+00 4.8140656457e+00 
53100 6.5489783620e+00 -1.8506089950e-02 2.7797363406e+00 -4.8146445736e+00 2.7797363406e+00 4.8146445736e+00 
53200 6.5489541411e+00 -1.8433010312e-02 2.7800692222e+00 -4.8152211414e+00 2.7800692222e+00 4.8152211414e+00 
53300 6.5489300345e+00 -1.8360361467e-02 2.7804007495e+00 -4.8157953635e+00 2.7804007495e+00 4.8157953635e+00 
53400 6.5489060408e+00 -1.8288136833e-02 2.7807309308e+00 -4.8163672542e+00 2.7807309308e+00 4.8163672542e+00 
53500 6.5488821590e+00 -1.8216329979e-02 2.7810597741e+00 -4.8169368276e+00 2.7810597741e+00 4.8169368276e+00 
53600 6.5488583878e+00 -1.8144934629e-02 2.7813872875e+00 -4.8175040975e+00 2.7813872875e+00 4.8175040975e+00 
53700 6.5488347260e+00 -1.8073944656e-02 2.7817134789e+00 -4.8180690775e+00 2.7817134789e+00 4.8180690775e+00 
53800 6.5488111726e+00 -1.8003354080e-02 2.7820383559e+00 -4.8186317810e+00 2.7820383559e+00 4.8186317810e+00 
53900 6.5487877264e+00 -1.7933157067e-02 2.7823619263e+00 -4.8191922213e+00 2.7823619263e+00 4.8191922213e+00 
54000 6.5487643864e+00 -1.7863347928e-02 2.7826841975e+00 -4.8197504114e+00 2.7826841975e+00 4.8197504114e+00 
54100 6.5487411515e+00 -1.7793921113e-02 2.7830051770e+00 -4.8203063642e+00 2.7830051770e+00 4.8203063642e+00 
54200 6.5487180207e+00 -1.7724871212e-02 2.7833248720e+00 -4.8208600924e+00 2.7833248720e+00 4.8208600924e+00 
54300 6.5486949929e+00 -1.7656192951e-02 2.7836432899e+00 -4.8214116083e+00 2.7836432899e+00 4.8214116083e+00 
54400 6.5486720671e+00 -1.7587881192e-02 2.7839604378e+00 -4.8219609245e+00 2.7839604378e+00 4.8219609245e+00 
54500 6.5486492425e+00 -1.7519930927e-02 2.7842763225e+00 -4.8225080529e+00 2.7842763225e+00 4.8225080529e+00 
54600 6.5486265180e+00 -1.7452337279e-02 2.7845909512e+00 -4.8230530057e+00 2.7845909512e+00 4.8230530057e+00 
54700 6.5486038927e+00 -1.7385095499e-02 2.7849043305e+00 -4.8235957946e+00 2.7849043305e+00 4.8235957946e+00 
54800 6.5485813657e+00 -1.7318200963e-02 2.7852164672e+00 -4.8241364313e+00 2.7852164672e+00 4.8241364313e+00 
54900 6.5485589362e+00 -1.7251649170e-02 2.7855273681e+00 -4.8246749274e+00 2.7855273681e+00 4.8246749274e+00 
55000 6.5485366032e+00 -1.7185435740e-02 2.7858370396e+00 -4.8252112942e+00 2.7858370396e+00 4.8252112942e+00 
55100 6.5485143659e+00 -1.7119556412e-02 2.7861454882e+00 -4.8257455429e+00 2.7861454882e+00 4.8257455429e+00 
55200 6.5484922235e+00 -1.7054007040e-02 2.7864527204e+00 -4.8262776846e+00 2.7864527204e+00 4.8262776846e+00 
55300 6.5484701751e+00 -1.6988783592e-02 2.7867587425e+00 -4.8268077304e+00 2.7867587425e+00 4.8268077304e+00 
55400 6.5484482200e+00 -1.6923882151e-02 2.7870635606e+00 -4.8273356909e+00 2.7870635606e+00 4.8273356909e+00 
55500 6.5484263575e+00 -1.6859298904e-02 2.7873671811e+00 -4.8278615769e+00 2.7873671811e+00 4.8278615769e+00 
55600 6.5484045866e+00 -1.6795030149e-02 2.7876696099e+00 -4.8283853990e+00 2.7876696099e+00 4.8283853990e+00 
55700 6.5483829068e+00 -1.6731072288e-02 2.7879708531e+00 -4.8289071676e+00 2.7879708531e+00 4.8289071676e+00 
55800 6.5483613172e+00 -1.6667421826e-02 2.7882709167e+00 -4.8294268931e+00 2.7882709167e+00 4.8294268931e+00 
55900 6.5483398172e+00 -1.6604075367e-02 2.7885698066e+00 -4.8299445855e+00 2.7885698066e+00 4.8299445855e+00 
56000 6.5483184061e+00 -1.6541029615e-02 2.7888675286e+00 -4.8304602551e+00 2.7888675286e+00 4.8304602551e+00 
56100 6.5482970832e+00 -1.6478281369e-02 2.7891640885e+00 -4.8309739119e+00 2.7891640885e+00 4.8309739119e+00 
56200 6.5482758478e+00 -1.6415827522e-02 2.7894594919e+00 -4.8314855656e+00 2.7894594919e+00 4.8314855656e+00 
56300 6.5482546993e+00 -1.6353665059e-02 2.7897537445e+00 -4.8319952261e+00 2.7897537445e+00 4.8319952261e+00 
56400 6.5482336371e+00 -1.6291791054e-02 2.7900468520e+00 -4.8325029031e+00 2.7900468520e+00 4.8325029031e+00 
56500 6.5482126605e+00 -1.6230202668e-02 2.7903388197e+00 -4.8330086061e+00 2.7903388197e+00 4.8330086061e+00 
56600 6.5481917689e+00 -1.6168897149e-02 2.7906296533e+00 -4.8335123446e+00 2.7906296533e+00 4.8335123446e+00 
56700 6.5481709618e+00 -1.6107871826e-02 2.7909193581e+00 -4.8340141281e+00 2.7909193581e+00 4.8340141281e+00 
56800 6.5481502386e+00 -1.6047124109e-02 2.7912079395e+00 -4.8345139658e+00 2.7912079395e+00 4.8345139658e+00 
56900 6.5481295986e+00 -1.5986651488e-02 2.7914954029e+00 -4.8350118669e+00 2.7914954029e+00 4.8350118669e+00 
57000 6.5481090415e+00 -1.5926451529e-02 2.7917817534e+00 -4.8355078406e+00 2.7917817534e+00 4.8355078406e+00 
57100 6.5480885665e+00 -1.5866521874e-02 2.7920669964e+00 -4.8360018959e+00 2.7920669964e+00 4.8360018959e+00 
57200 6.5480681732e+00 -1.5806860237e-02 2.7923511370e+00 -4.8364940418e+00 2.7923511370e+00 4.8364940418e+00 
57300 6.5480478611e+00 -1.5747464402e-02 2.7926341803e+00 -4.8369842873e+00 2.7926341803e+00 4.8369842873e+00 
57400 6.5480276296e+00 -1.5688332222e-02 2.7929161315e+00 -4.8374726410e+00 2.7929161315e+00 4.8374726410e+00 
57500 6.5480074783e+00 -1.5629461618e-02 2.7931969955e+00 -4.8379591118e+00 2.7931969955e+00 4.8379591118e+00 
57600 6.5479874067e+00 -1.5570850575e-02 2.7934767775e+00 -4.8384437084e+00 2.7934767775e+00 4.8384437084e+00 
57700 6.5479674143e+00 -1.5512497141e-02 2.7937554823e+00 -4.8389264393e+00 2.7937554823e+00 4.8389264393e+00 
57800 6.5479475007e+00 -1.5454399425e-02 2.7940331150e+00 -4.8394073132e+00 2.7940331150e+00 4.8394073132e+00 
57900 6.5479276654e+00 -1.5396555596e-02 2.7943096803e+00 -4.8398863384e+00 2.7943096803e+00 4.8398863384e+00 
58000 6.5479079080e+00 -1.5338963879e-02 2.7945851832e+00 -4.8403635234e+00 2.7945851832e+00 4.8403635234e+00 
58100 6.5478882279e+00 -1.5281622555e-02 2.7948596285e+00 -4.8408388766e+00 2.7948596285e+00 4.8408388766e+00 
58200 6.5478686249e+00 -1.5224529961e-02 2.7951330210e+00 -4.8413124062e+00 2.7951330210e+00 4.8413124062e+00 
58300 6.5478490985e+00 -1.5167684483e-02 2.7954053654e+00 -4.8417841206e+00 2.7954053654e+00 4.8417841206e+00 
58400 6.5478296483e+00 -1.5111084558e-02 2.7956766665e+00 -4.8422540279e+00 2.7956766665e+00 4.8422540279e+00 
58500 6.5478102739e+00 -1.5054728673e-02 2.7959469289e+00 -4.8427221361e+00 2.7959469289e+00 4.8427221361e+00 
58600 6.5477909749e+00 -1.4998615361e-02 2.7962161574e+00 -4.8431884535e+00 2.7962161574e+00 4.8431884535e+00 
58700 6.5477717509e+00 -1.4942743201e-02 2.7964843565e+00 -4.8436529881e+00 2.7964843565e+00 4.8436529881e+00 
58800 6.5477526016e+00 -1.4887110813e-02 2.7967515309e+00 -4.8441157477e+00 2.7967515309e+00 4.8441157477e+00 
58900 6.5477335266e+00 -1.4831716862e-02 2.7970176852e+00 -4.8445767404e+00 2.7970176852e+00 4.8445767404e+00 
59000 6.5477145256e+00 -1.4776560053e-02 2.7972828239e+00 -4.8450359741e+00 2.7972828239e+00 4.8450359741e+00 
59100 6.5476955981e+00 -1.4721639129e-02 2.7975469515e+00 -4.8454934565e+00 2.7975469515e+00 4.8454934565e+00 
59200 6.5476767439e+00 -1.4666952870e-02 2.7978100725e+00 -4.8459491955e+00 2.7978100725e+00 4.8459491955e+00 
59300 6.5476579626e+00 -1.4612500094e-02 2.7980721915e+00 -4.8464031989e+00 2.7980721915e+00 4.8464031989e+00 
59400 6.5476392539e+00 -1.4558279652e-02 2.7983333128e+00 -4.8468554743e+00 2.7983333128e+00 4.8468554743e+00 
59500 6.5476206175e+00 -1.4504290428e-02 2.7985934410e+00 -4.8473060295e+00 2.7985934410e+00 4.8473060295e+00 
59600 6.5476020530e+00 -1.4450531338e-02 2.7988525803e+00 -4.8477548720e+00 2.7988525803e+00 4.8477548720e+00 
59700 6.5475835602e+00 -1.4397001328e-02 2.7991107353e+00 -4.8482020095e+00 2.7991107353e+00 4.8482020095e+00 
59800 6.5475651387e+00 -1.4343699373e-02 2.7993679102e+00 -4.8486474496e+00 2.7993679102e+00 4.8486474496e+00 
59900 6.5475467882e+00 -1.4290624476e-02 2.7996241095e+00 -4.8490911997e+00 2.7996241095e+00 4.8490911997e+00 
60000 6.5475285085e+00 -1.4237775666e-02 2.7998793373e+00 -4.8495332673e+00 2.7998793373e+00 4.8495332673e+00 
60100 6.5475102993e+00 -1.4185151997e-02 2.8001335981e+00 -4.8499736599e+00 2.8001335981e+00 4.8499736599e+00 
60200 6.5474921603e+00 -1.4132752547e-02 2.8003868961e+00 -4.8504123850e+00 2.8003868961e+00 4.8504123850e+00 
60300 6.5474740912e+00 -1.4080576417e-02 2.8006392356e+00 -4.8508494498e+00 2.8006392356e+00 4.8508494498e+00 
60400 6.5474560917e+00 -1.4028622728e-02 2.8008906209e+00 -4.8512848618e+00 2.8008906209e+00 4.8512848618e+00 
60500 6.5474381617e+00 -1.3976890623e-02 2.8011410561e+00 -4.8517186283e+00 2.8011410561e+00 4.8517186283e+00 
60600 6.5474203007e+00 -1.3925379263e-02 2.8013905454e+00 -4.8521507565e+00 2.8013905454e+00 4.8521507565e+00 
60700 6.5474025086e+00 -1.3874087829e-02 2.8016390932e+00 -4.8525812538e+00 2.8016390932e+00 4.8525812538e+00 
60800 6.5473847851e+00 -1.3823015516e-02 2.8018867034e+00 -4.8530101274e+00 2.8018867034e+00 4.8530101274e+00 
60900 6.5473671300e+00 -1.3772161538e-02 2.8021333804e+00 -4.8534373844e+00 2.8021333804e+00 4.8534373844e+00 
61000 6.5473495429e+00 -1.3721525121e-02 2.8023791282e+00 -4.8538630321e+00 2.8023791282e+00 4.8538630321e+00 
61100 6.5473320238e+00 -1.3671105509e-02 2.8026239510e+00 -4.8542870776e+00 2.8026239510e+00 4.8542870776e+00 
61200 6.5473145723e+00 -1.3620901955e-02 2.8028678528e+00 -4.8547095280e+00 2.8028678528e+00 4.8547095280e+00 
61300 6.5472971882e+00 -1.3570913727e-02 2.8031108379e+00 -4.8551303904e+00 2.8031108379e+00 4.8551303904e+00 
61400 6.5472798714e+00 -1.3521140102e-02 2.8033529102e+00 -4.8555496720e+00 2.8033529102e+00 4.8555496720e+00 
61500 6.5472626214e+00 -1.3471580370e-02 2.8035940738e+00 -4.8559673796e+00 2.8035940738e+00 4.8559673796e+00 
61600 6.5472454382e+00 -1.3422233828e-02 2.8038343327e+00 -4.8563835203e+00 2.8038343327e+00 4.8563835203e+00 
61700 6.5472283215e+00 -1.3373099783e-02 2.8040736911e+00 -4.8567981012e+00 2.8040736911e+00 4.8567981012e+00 
61800 6.5472112712e+00 -1.3324177550e-02 2.8043121529e+00 -4.8572111291e+00 2.8043121529e+00 4.8572111291e+00 
61900 6.5471942869e+00 -1.3275466451e-02 2.8045497222e+00 -4.8576226111e+00 2.8045497222e+00 4.8576226111e+00 
62000 6.5471773685e+00 -1.3226965814e-02 2.8047864028e+00 -4.8580325540e+00 2.8047864028e+00 4.8580325540e+00 
62100 6.5471605158e+00 -1.3178674974e-02 2.8050221989e+00 -4.8584409648e+00 2.8050221989e+00 4.8584409648e+00 
62200 6.5471437285e+00 -1.3130593269e-02 2.8052571143e+00 -4.8588478502e+00 2.8052571143e+00 4.8588478502e+00 
62300 6.5471270065e+00 -1.3082720044e-02 2.8054911530e+00 -4.8592532172e+00 2.8054911530e+00 4.8592532172e+00 
62400 6.5471103496e+00 -1.3035054644e-02 2.8057243190e+00 -4.8596570725e+00 2.8057243190e+00 4.8596570725e+00 
62500 6.5470937576e+00 -1.2987596421e-02 2.8059566161e+00 -4.8600594229e+00 2.8059566161e+00 4.8600594229e+00 
62600 6.5470772303e+00 -1.2940344727e-02 2.8061880483e+00 -4.8604602753e+00 2.8061880483e+00 4.8604602753e+00 
62700 6.5470607674e+00 -1.2893298918e-02 2.8064186195e+00 -4.8608596363e+00 2.8064186195e+00 4.8608596363e+00 
62800 6.5470443689e+00 -1.2846458348e-02 2.8066483335e+00 -4.8612575126e+00 2.8066483335e+00 4.8612575126e+00 
62900 6.5470280345e+00 -1.2799822376e-02 2.8068771943e+00 -4.8616539111e+00 2.8068771943e+00 4.8616539111e+00 
63000 6.5470117640e+00 -1.2753390359e-02 2.8071052056e+00 -4.8620488383e+00 2.8071052056e+00 4.8620488383e+00 
63100 6.5469955572e+00 -1.2707161654e-02 2.8073323713e+00 -4.8624423009e+00 2.8073323713e+00 4.8624423009e+00 
63200 6.5469794141e+00 -1.2661135618e-02 2.8075586953e+00 -4.8628343055e+00 2.8075586953e+00 4.8628343055e+00 
63300 6.5469633343e+00 -1.2615311607e-02 2.8077841813e+00 -4.8632248588e+00 2.8077841813e+00 4.8632248588e+00 
63400 6.5469473177e+00 -1.2569688975e-02 2.8080088332e+00 -4.8636139672e+00 2.8080088332e+00 4.8636139672e+00 
63500 6.5469313642e+00 -1.2524267075e-02 2.8082326547e+00 -4.8640016375e+00 2.8082326547e+00 4.8640016375e+00 
63600 6.5469154735e+00 -1.2479045257e-02 2.8084556497e+00 -4.8643878760e+00 2.8084556497e+00 4.8643878760e+00 
63700 6.5468996455e+00 -1.2434022870e-02 2.8086778218e+00 -4.8647726894e+00 2.8086778218e+00 4.8647726894e+00 
63800 6.5468838800e+00 -1.2389199259e-02 2.8088991748e+00 -4.8651560841e+00 2.8088991748e+00 4.8651560841e+00 
63900 6.5468681769e+00 -1.2344573765e-02 2.8091197124e+00 -4.8655380665e+00 2.8091197124e+00 4.8655380665e+00 
64000 6.5468525359e+00 -1.2300145728e-02 2.8093394385e+00 -4.8659186432e+00 2.8093394385e+00 4.8659186432e+00 
64100 6.5468369570e+00 -1.2255914482e-02 2.8095583566e+00 -4.8662978204e+00 2.8095583566e+00 4.8662978204e+00 
64200 6.5468214398e+00 -1.2211879359e-02 2.8097764705e+00 -4.8666756047e+00 2.8097764705e+00 4.8666756047e+00 
64300 6.5468059844e+00 -1.2168039685e-02 2.8099937838e+00 -4.8670520024e+00 2.8099937838e+00 4.8670520024e+00 
64400 6.5467905905e+00 -1.2124394783e-02 2.8102103002e+00 -4.8674270199e+00 2.8102103002e+00 4.8674270199e+00 
64500 6.5467752579e+00 -1.2080943970e-02 2.8104260234e+00 -4.8678006634e+00 2.8104260234e+00 4.8678006634e+00 
64600 6.5467599866e+00 -1.2037686560e-02 2.8106409569e+00 -4.8681729393e+00 2.8106409569e+00 4.8681729393e+00 
64700 6.5467447762e+00 -1.1994621860e-02 2.8108551045e+00 -4.8685438537e+00 2.8108551045e+00 4.8685438537e+00 
64800 6.5467296267e+00 -1.1951749174e-02 2.8110684697e+00 -4.8689134131e+00 2.8110684697e+00 4.8689134131e+00 
64900 6.5467145380e+00 -1.1909067799e-02 2.8112810562e+00 -4.8692816236e+00 2.8112810562e+00 4.8692816236e+00 
65000 6.5466995097e+00 -1.1866577028e-02 2.8114928674e+00 -4.8696484914e+00 2.8114928674e+00 4.8696484914e+00 
65100 6.5466845419e+00 -1.1824276147e-02 2.8117039070e+00 -4.8700140227e+00 2.8117039070e+00 4.8700140227e+00 
65200 6.5466696343e+00 -1.1782164437e-02 2.8119141784e+00 -4.8703782236e+00 2.8119141784e+00 4.8703782236e+00 
65300 6.5466547868e+00 -1.1740241175e-02 2.8121236854e+00 -4.8707411003e+00 2.8121236854e+00 4.8707411003e+00 
65400 6.5466399992e+00 -1.1698505631e-02 2.8123324313e+00 -4.8711026588e+00 2.8123324313e+00 4.8711026588e+00 
65500 6.5466252714e+00 -1.1656957068e-02 2.8125404197e+00 -4.8714629052e+00 2.8125404197e+00 4.8714629052e+00 
65600 6.5466106031e+00 -1.1615594746e-02 2.8127476540e+00 -4.8718218457e+00 2.8127476540e+00 4.8718218457e+00 
65700 6.5465959944e+00 -1.1574417916e-02 2.8129541378e+00 -4.8721794861e+00 2.8129541378e+00 4.8721794861e+00 
65800 6.5465814449e+00 -1.1533425825e-02 2.8131598746e+00 -4.8725358326e+00 2.8131598746e+00 4.8725358326e+00 
65900 6.5465669546e+00 -1.1492617715e-02 2.8133648676e+00 -4.8728908910e+00 2.8133648676e+00 4.8728908910e+00 
66000 6.5465525233e+00 -1.1451992821e-02 2.8135691205e+00 -4.8732446673e+00 2.8135691205e+00 4.8732446673e+00 
66100 6.5465381509e+00 -1.1411550372e-02 2.8137726366e+00 -4.8735971675e+00 2.8137726366e+00 4.8735971675e+00 
66200 6.5465238371e+00 -1.1371289591e-02 2.8139754193e+00 -4.8739483974e+00 2.8139754193e+00 4.8739483974e+00 
66300 6.5465095819e+00 -1.1331209697e-02 2.8141774720e+00 -4.8742983629e+00 2.8141774720e+00 4.8742983629e+00 
66400 6.5464953851e+00 -1.1291309902e-02 2.8143787980e+00 -4.8746470699e+00 2.8143787980e+00 4.8746470699e+00 
66500 6.5464812465e+00 -1.1251589413e-02 2.8145794008e+00 -4.8749945241e+00 2.8145794008e+00 4.8749945241e+00 
66600 6.5464671661e+00 -1.1212047430e-02 2.8147792836e+00 -4.8753407313e+00 2.8147792836e+00 4.8753407313e+00 
66700 6.5464531435e+00 -1.1172683149e-02 2.8149784499e+00 -4.8756856974e+00 2.8149784499e+00 4.8756856974e+00 
66800 6.5464391788e+00 -1.1133495761e-02 2.8151769028e+00 -4.8760294279e+00 2.8151769028e+00 4.8760294279e+00 
66900 6.5464252717e+00 -1.1094484450e-02 2.8153746457e+00 -4.8763719287e+00 2.8153746457e+00 4.8763719287e+00 
67000 6.5464114221e+00 -1.1055648397e-02 2.8155716819e+00 -4.8767132054e+00 2.8155716819e+00 4.8767132054e+00 
67100 6.5463976298e+00 -1.1016986777e-02 2.8157680146e+00 -4.8770532636e+00 2.8157680146e+00 4.8770532636e+00 
67200 6.5463838947e+00 -1.0978498758e-02 2.8159636471e+00 -4.8773921091e+00 2.8159636471e+00 4.8773921091e+00 
67300 6.5463702167e+00 -1.0940183507e-02 2.8161585826e+00 -4.8777297472e+00 2.8161585826e+00 4.8777297472e+00 
67400 6.5463565956e+00 -1.0902040184e-02 2.8163528243e+00 -4.8780661837e+00 2.8163528243e+00 4.8780661837e+00 
67500 6.5463430312e+00 -1.0864067944e-02 2.8165463754e+00 -4.8784014241e+00 2.8165463754e+00 4.8784014241e+00 
67600 6.5463295234e+00 -1.0826265940e-02 2.8167392392e+00 -4.8787354739e+00 2.8167392392e+00 4.8787354739e+00 
67700 6.5463160721e+00 -1.0788633319e-02 2.8169314186e+00 -4.8790683385e+00 2.8169314186e+00 4.8790683385e+00 
67800 6.5463026771e+00 -1.0751169223e-02 2.8171229170e+00 -4.8794000234e+00 2.8171229170e+00 4.8794000234e+00 
67900 6.5462893382e+00 -1.0713872792e-02 2.8173137374e+00 -4.8797305340e+00 2.8173137374e+00 4.8797305340e+00 
68000 6.5462760553e+00 -1.0676743161e-02 2.8175038829e+00 -4.8800598758e+00 2.8175038829e+00 4.8800598758e+00 
68100 6.5462628283e+00 -1.0639779463e-02 2.8176933567e+00 -4.8803880540e+00 2.8176933567e+00 4.8803880540e+00 
68200 6.5462496570e+00 -1.0602980826e-02 2.8178821618e+00 -4.8807150741e+00 2.8178821618e+00 4.8807150741e+00 
68300 6.5462365413e+00 -1.0566346375e-02 2.8180703013e+00 -4.8810409412e+00 2.8180703013e+00 4.8810409412e+00 
68400 6.5462234809e+00 -1.0529875232e-02 2.8182577783e+00 -4.8813656608e+00 2.8182577783e+00 4.8813656608e+00 
68500 6.5462104758e+00 -1.0493566517e-02 2.8184445957e+00 -4.8816892380e+00 2.8184445957e+00 4.8816892380e+00 
68600 6.5461975258e+00 -1.0457419346e-02 2.8186307565e+00 -4.8820116781e+00 2.8186307565e+00 4.8820116781e+00 
68700 6.5461846308e+00 -1.0421432833e-02 2.8188162639e+00 -4.8823329863e+00 2.8188162639e+00 4.8823329863e+00 
68800 6.5461717906e+00 -1.0385606090e-02 2.8190011207e+00 -4.8826531676e+00 2.8190011207e+00 4.8826531676e+00 
68900 6.5461590051e+00 -1.0349938227e-02 2.8191853299e+00 -4.8829722273e+00 2.8191853299e+00 4.8829722273e+00 
69000 6.5461462741e+00 -1.0314428350e-02 2.8193688945e+00 -4.8832901705e+00 2.8193688945e+00 4.8832901705e+00 
69100 6.5461335974e+00 -1.0279075566e-02 2.8195518173e+00 -4.8836070021e+00 2.8195518173e+00 4.8836070021e+00 
69200 6.5461209750e+00 -1.0243878980e-02 2.8197341013e+00 -4.8839227274e+00 2.8197341013e+00 4.8839227274e+00 
69300 6.5461084066e+00 -1.0208837693e-02 2.8199157495e+00 -4.8842373512e+00 2.8199157495e+00 4.8842373512e+00 
69400 6.5460958921e+00 -1.0173950808e-02 2.8200967646e+00 -4.8845508785e+00 2.8200967646e+00 4.8845508785e+00 
69500 6.5460834314e+00 -1.0139217426e-02 2.8202771495e+00 -4.8848633144e+00 2.8202771495e+00 4.8848633144e+00 
69600 6.5460710244e+00 -1.0104636646e-02 2.8204569071e+00 -4.8851746637e+00 2.8204569071e+00 4.8851746637e+00 
69700 6.5460586707e+00 -1.0070207567e-02 2.8206360402e+00 -4.8854849313e+00 2.8206360402e+00 4.8854849313e+00 
69800 6.5460463704e+00 -1.0035929290e-02 2.8208145516e+00 -4.8857941221e+00 2.8208145516e+00 4.8857941221e+00 
69900 6.5460341233e+00 -1.0001800911e-02 2.8209924441e+00 -4.8861022410e+00 2.8209924441e+00 4.8861022410e+00 
70000 6.5460219292e+00 -9.9678215316e-03 2.8211697205e+00 -4.8864092926e+00 2.8211697205e+00 4.8864092926e+00 
70100 6.5460097879e+00 -9.9339902488e-03 2.8213463835e+00 -4.8867152819e+00 2.8213463835e+00 4.8867152819e+00 
70200 6.5459976994e+00 -9.9003061626e-03 2.8215224358e+00 -4.8870202135e+00 2.8215224358e+00 4.8870202135e+00 
70300 6.5459856634e+00 -9.8667683727e-03 2.8216978803e+00 -4.8873240922e+00 2.8216978803e+00 4.8873240922e+00 
70400 6.5459736798e+00 -9.8333759799e-03 2.8218727195e+00 -4.8876269227e+00 2.8218727195e+00 4.8876269227e+00 
70500 6.5459617485e+00 -9.8001280858e-03 2.8220469562e+00 -4.8879287095e+00 2.8220469562e+00 4.8879287095e+00 
70600 6.5459498693e+00 -9.7670237931e-03 2.8222205931e+00 -4.8882294574e+00 2.8222205931e+00 4.8882294574e+00 
70700 6.5459380421e+00 -9.7340622059e-03 2.8223936328e+00 -4.8885291710e+00 2.8223936328e+00 4.8885291710e+00 
70800 6.5459262666e+00 -9.7012424298e-03 2.8225660779e+00 -4.8888278547e+00 2.8225660779e+00 4.8888278547e+00 
70900 6.5459145429e+00 -9.6685635721e-03 2.8227379312e+00 -4.8891255132e+00 2.8227379312e+00 4.8891255132e+00 
71000 6.5459028706e+00 -9.6360247419e-03 2.8229091950e+00 -4.8894221510e+00 2.8229091950e+00 4.8894221510e+00 
71100 6.5458912496e+00 -9.6036250504e-03 2.8230798722e+00 -4.8897177725e+00 2.8230798722e+00 4.8897177725e+00 
71200 6.5458796799e+00 -9.5713636111e-03 2.8232499652e+00 -4.8900123821e+00 2.8232499652e+00 4.8900123821e+00 
71300 6.5458681612e+00 -9.5392395397e-03 2.8234194765e+00 -4.8903059845e+00 2.8234194765e+00 4.8903059845e+00 
71400 6.5458566934e+00 -9.5072519547e-03 2.8235884088e+00 -4.8905985838e+00 2.8235884088e+00 4.8905985838e+00 
71500 6.5458452763e+00 -9.4753999770e-03 2.8237567646e+00 -4.8908901845e+00 2.8237567646e+00 4.8908901845e+00 
71600 6.5458339098e+00 -9.4436827308e-03 2.8239245463e+00 -4.8911807909e+00 2.8239245463e+00 4.8911807909e+00 
71700 6.5458225937e+00 -9.4120993430e-03 2.8240917564e+00 -4.8914704073e+00 2.8240917564e+00 4.8914704073e+00 
71800 6.5458113280e+00 -9.3806489439e-03 2.8242583974e+00 -4.8917590381e+00 2.8242583974e+00 4.8917590381e+00 
71900 6.5458001123e+00 -9.3493306672e-03 2.8244244719e+00 -4.8920466874e+00 2.8244244719e+00 4.8920466874e+00 
72000 6.5457889466e+00 -9.3181436498e-03 2.8245899821e+00 -4.8923333595e+00 2.8245899821e+00 4.8923333595e+00 
72100 6.5457778307e+00 -9.2870870327e-03 2.8247549305e+00 -4.8926190586e+00 2.8247549305e+00 4.8926190586e+00 
72200 6.5457667645e+00 -9.2561599604e-03 2.8249193196e+00 -4.8929037888e+00 2.8249193196e+00 4.8929037888e+00 
72300 6.5457557478e+00 -9.2253615814e-03 2.8250831517e+00 -4.8931875543e+00 2.8250831517e+00 4.8931875543e+00 
72400 6.5457447805e+00 -9.1946910484e-03 2.8252464292e+00 -4.8934703593e+00 2.8252464292e+00 4.8934703593e+00 
72500 6.5457338623e+00 -9.1641475182e-03 2.8254091545e+00 -4.8937522077e+00 2.8254091545e+00 4.8937522077e+00 
72600 6.5457229932e+00 -9.1337301519e-03 2.8255713298e+00 -4.8940331037e+00 2.8255713298e+00 4.8940331037e+00 
72700 6.5457121730e+00 -9.1034381153e-03 2.8257329576e+00 -4.8943130512e+00 2.8257329576e+00 4.8943130512e+00 
72800 6.5457014015e+00 -9.0732705785e-03 2.8258940402e+00 -4.8945920543e+00 2.8258940402e+00 4.8945920543e+00 
72900 6.5456906785e+00 -9.0432267166e-03 2.8260545797e+00 -4.8948701170e+00 2.8260545797e+00 4.8948701170e+00 
73000 6.5456800041e+00 -9.0133057093e-03 2.8262145786e+00 -4.8951472433e+00 2.8262145786e+00 4.8951472433e+00 
73100 6.5456693778e+00 -8.9835067412e-03 2.8263740391e+00 -4.8954234369e+00 2.8263740391e+00 4.8954234369e+00 
73200 6.5456587997e+00 -8.9538290023e-03 2.8265329634e+00 -4.8956987019e+00 2.8265329634e+00 4.8956987019e+00 
73300 6.5456482696e+00 -8.9242716873e-03 2.8266913538e+00 -4.8959730421e+00 2.8266913538e+00 4.8959730421e+00 
73400 6.5456377872e+00 -8.8948339965e-03 2.8268492125e+00 -4.8962464613e+00 2.8268492125e+00 4.8962464613e+00 
73500 6.5456273525e+00 -8.8655151354e-03 2.8270065416e+00 -4.8965189634e+00 2.8270065416e+00 4.8965189634e+00 
73600 6.5456169653e+00 -8.8363143148e-03 2.8271633435e+00 -4.8967905522e+00 2.8271633435e+00 4.8967905522e+00 
73700 6.5456066254e+00 -8.8072307513e-03 2.8273196202e+00 -4.8970612314e+00 2.8273196202e+00 4.8970612314e+00 
73800 6.5455963327e+00 -8.7782636670e-03 2.8274753739e+00 -4.8973310048e+00 2.8274753739e+00 4.8973310048e+00 
73900 6.5455860870e+00 -8.7494122895e-03 2.8276306068e+00 -4.8975998760e+00 2.8276306068e+00 4.8975998760e+00 
74000 6.5455758882e+00 -8.7206758524e-03 2.8277853210e+00 -4.8978678489e+00 2.8277853210e+00 4.8978678489e+00 
74100 6.5455657360e+00 -8.6920535951e-03 2.8279395186e+00 -4.8981349270e+00 2.8279395186e+00 4.8981349270e+00 
74200 6.5455556305e+00 -8.6635447628e-03 2.8280932018e+00 -4.8984011140e+00 2.8280932018e+00 4.8984011140e+00 
74300 6.5455455713e+00 -8.6351486067e-03 2.8282463725e+00 -4.8986664135e+00 2.8282463725e+00 4.8986664135e+00 
74400 6.5455355584e+00 -8.6068643841e-03 2.8283990329e+00 -4.8989308291e+00 2.8283990329e+00 4.8989308291e+00 
74500 6.5455255915e+00 -8.5786913584e-03 2.8285511851e+00 -4.8991943644e+00 2.8285511851e+00 4.8991943644e+00 
74600 6.5455156706e+00 -8.5506287989e-03 2.8287028311e+00 -4.8994570230e+00 2.8287028311e+00 4.8994570230e+00 
74700 6.5455057954e+00 -8.5226759815e-03 2.8288539729e+00 -4.8997188083e+00 2.8288539729e+00 4.8997188083e+00 
74800 6.5454959659e+00 -8.4948321879e-03 2.8290046126e+00 -4.8999797238e+00 2.8290046126e+00 4.8999797238e+00 
74900 6.5454861818e+00 -8.4670967064e-03 2.8291547521e+00 -4.9002397730e+00 2.8291547521e+00 4.9002397730e+00 
75000 6.5454764430e+00 -8.4394688314e-03 2.8293043934e+00 -4.9004989595e+00 2.8293043934e+00 4.9004989595e+00 
75100 6.5454667493e+00 -8.4119478638e-03 2.8294535386e+00 -4.9007572865e+00 2.8294535386e+00 4.9007572865e+00 
75200 6.5454571006e+00 -8.3845331109e-03 2.8296021896e+00 -4.9010147576e+00 2.8296021896e+00 4.9010147576e+00 
75300 6.5454474968e+00 -8.3572238862e-03 2.8297503484e+00 -4.9012713761e+00 2.8297503484e+00 4.9012713761e+00 
75400 6.5454379376e+00 -8.3300195099e-03 2.8298980168e+00 -4.9015271453e+00 2.8298980168e+00 4.9015271453e+00 
75500 6.5454284230e+00 -8.3029193084e-03 2.8300451969e+00 -4.9017820687e+00 2.8300451969e+00 4.9017820687e+00 
75600 6.5454189526e+00 -8.2759226149e-03 2.8301918905e+00 -4.9020361495e+00 2.8301918905e+00 4.9020361495e+00 
75700 6.5454095265e+00 -8.2490287686e-03 2.8303380995e+00 -4.9022893910e+00 2.8303380995e+00 4.9022893910e+00 
75800 6.5454001445e+00 -8.2222371157e-03 2.8304838259e+00 -4.9025417965e+00 2.8304838259e+00 4.9025417965e+00 
75900 6.5453908063e+00 -8.1955470087e-03 2.8306290716e+00 -4.9027933693e+00 2.8306290716e+00 4.9027933693e+00 
76000 6.5453815118e+00 -8.1689578065e-03 2.8307738383e+00 -4.9030441126e+00 2.8307738383e+00 4.9030441126e+00 
76100 6.5453722609e+00 -8.1424688747e-03 2.8309181279e+00 -4.9032940296e+00 2.8309181279e+00 4.9032940296e+00 
76200 6.5453630534e+00 -8.1160795853e-03 2.8310619423e+00 -4.9035431235e+00 2.8310619423e+00 4.9035431235e+00 
76300 6.5453538892e+00 -8.0897893168e-03 2.8312052834e+00 -4.9037913975e+00 2.8312052834e+00 4.9037913975e+00 
76400 6.5453447681e+00 -8.0635974543e-03 2.8313481529e+00 -4.9040388547e+00 2.8313481529e+00 4.9040388547e+00 
76500 6.5453356899e+00 -8.0375033894e-03 2.8314905526e+00 -4.9042854983e+00 2.8314905526e+00 4.9042854983e+00 
76600 6.5453266545e+00 -8.0115065200e-03 2.8316324844e+00 -4.9045313314e+00 2.8316324844e+00 4.9045313314e+00 
76700 6.5453176618e+00 -7.9856062506e-03 2.8317739500e+00 -4.9047763570e+00 2.8317739500e+00 4.9047763570e+00 
76800 6.5453087115e+00 -7.9598019922e-03 2.8319149513e+00 -4.9050205783e+00 2.8319149513e+00 4.9050205783e+00 
76900 6.5452998035e+00 -7.9340931621e-03 2.8320554899e+00 -4.9052639984e+00 2.8320554899e+00 4.9052639984e+00 
77000 6.5452909377e+00 -7.9084791841e-03 2.8321955676e+00 -4.9055066201e+00 2.8321955676e+00 4.9055066201e+00 
77100 6.5452821139e+00 -7.8829594883e-03 2.8323351862e+00 -4.9057484466e+00 2.8323351862e+00 4.9057484466e+00 
77200 6.5452733319e+00 -7.8575335111e-03 2.8324743475e+00 -4.9059894809e+00 2.8324743475e+00 4.9059894809e+00 
77300 6.5452645916e+00 -7.8322006954e-03 2.8326130530e+00 -4.9062297260e+00 2.8326130530e+00 4.9062297260e+00 
77400 6.5452558929e+00 -7.8069604903e-03 2.8327513046e+00 -4.9064691847e+00 2.8327513046e+00 4.9064691847e+00 
77500 6.5452472355e+00 -7.7818123511e-03 2.8328891039e+00 -4.9067078601e+00 2.8328891039e+00 4.9067078601e+00 
77600 6.5452386194e+00 -7.7567557394e-03 2.8330264526e+00 -4.9069457551e+00 2.8330264526e+00 4.9069457551e+00 
77700 6.5452300443e+00 -7.7317901230e-03 2.8331633525e+00 -4.9071828726e+00 2.8331633525e+00 4.9071828726e+00 
77800 6.5452215101e+00 -7.7069149756e-03 2.8332998051e+00 -4.9074192155e+00 2.8332998051e+00 4.9074192155e+00 
77900 6.5452130167e+00 -7.6821297772e-03 2.8334358122e+00 -4.9076547867e+00 2.8334358122e+00 4.9076547867e+00 
78000 6.5452045639e+00 -7.6574340140e-03 2.8335713754e+00 -4.9078895890e+00 2.8335713754e+00 4.9078895890e+00 
78100 6.5451961515e+00 -7.6328271779e-03 2.8337064963e+00 -4.9081236253e+00 2.8337064963e+00 4.9081236253e+00 
78200 6.5451877795e+00 -7.6083087668e-03 2.8338411766e+00 -4.9083568984e+00 2.8338411766e+00 4.9083568984e+00 
78300 6.5451794475e+00 -7.5838782848e-03 2.8339754178e+00 -4.9085894111e+00 2.8339754178e+00 4.9085894111e+00 
78400 6.5451711555e+00 -7.5595352415e-03 2.8341092217e+00 -4.9088211662e+00 2.8341092217e+00 4.9088211662e+00 
78500 6.5451629034e+00 -7.5352791526e-03 2.8342425898e+00 -4.9090521665e+00 2.8342425898e+00 4.9090521665e+00 
78600 6.5451546909e+00 -7.5111095392e-03 2.8343755237e+00 -4.9092824148e+00 2.8343755237e+00 4.9092824148e+00 
78700 6.5451465179e+00 -7.4870259285e-03 2.8345080250e+00 -4.9095119137e+00 2.8345080250e+00 4.9095119137e+00 
78800 6.5451383843e+00 -7.4630278531e-03 2.8346400952e+00 -4.9097406661e+00 2.8346400952e+00 4.9097406661e+00 
78900 6.5451302899e+00 -7.4391148512e-03 2.8347717360e+00 -4.9099686747e+00 2.8347717360e+00 4.9099686747e+00 
79000 6.5451222346e+00 -7.4152864665e-03 2.8349029489e+00 -4.9101959421e+00 2.8349029489e+00 4.9101959421e+00 
79100 6.5451142181e+00 -7.3915422484e-03 2.8350337355e+00 -4.9104224710e+00 2.8350337355e+00 4.9104224710e+00 
79200 6.5451062404e+00 -7.3678817514e-03 2.8351640972e+00 -4.9106482642e+00 2.8351640972e+00 4.9106482642e+00 
79300 6.5450983013e+00 -7.3443045355e-03 2.8352940357e+00 -4.9108733242e+00 2.8352940357e+00 4.9108733242e+00 
79400 6.5450904006e+00 -7.3208101659e-03 2.8354235524e+00 -4.9110976538e+00 2.8354235524e+00 4.9110976538e+00 
79500 6.5450825382e+00 -7.2973982132e-03 2.8355526489e+00 -4.9113212555e+00 2.8355526489e+00 4.9113212555e+00 
79600 6.5450747139e+00 -7.2740682530e-03 2.8356813267e+00 -4.9115441320e+00 2.8356813267e+00 4.9115441320e+00 
79700 6.5450669276e+00 -7.2508198660e-03 2.8358095873e+00 -4.9117662858e+00 2.8358095873e+00 4.9117662858e+00 
79800 6.5450591791e+00 -7.2276526379e-03 2.8359374322e+00 -4.9119877197e+00 2.8359374322e+00 4.9119877197e+00 
79900 6.5450514683e+00 -7.2045661595e-03 2.8360648629e+00 -4.9122084360e+00 2.8360648629e+00 4.9122084360e+00 
80000 6.5450437951e+00 -7.1815600263e-03 2.8361918807e+00 -4.9124284375e+00 2.8361918807e+00 4.9124284375e+00 
80100 6.5450361591e+00 -7.1586338388e-03 2.8363184874e+00 -4.9126477266e+00 2.8363184874e+00 4.9126477266e+00 
80200 6.5450285604e+00 -7.1357872021e-03 2.8364446842e+00 -4.9128663059e+00 2.8364446842e+00 4.9128663059e+00 
80300 6.5450209988e+00 -7.1130197262e-03 2.8365704726e+00 -4.9130841779e+00 2.8365704726e+00 4.9130841779e+00 
80400 6.5450134741e+00 -7.0903310255e-03 2.8366958542e+00 -4.9133013451e+00 2.8366958542e+00 4.9133013451e+00 
80500 6.5450059861e+00 -7.0677207191e-03 2.8368208303e+00 -4.9135178100e+00 2.8368208303e+00 4.9135178100e+00 
80600 6.5449985348e+00 -7.0451884305e-03 2.8369454023e+00 -4.9137335752e+00 2.8369454023e+00 4.9137335752e+00 
80700 6.5449911199e+00 -7.0227337878e-03 2.8370695718e+00 -4.9139486430e+00 2.8370695718e+00 4.9139486430e+00 
80800 6.5449837414e+00 -7.0003564231e-03 2.8371933401e+00 -4.9141630159e+00 2.8371933401e+00 4.9141630159e+00 
80900 6.5449763990e+00 -6.9780559731e-03 2.8373167086e+00 -4.9143766965e+00 2.8373167086e+00 4.9143766965e+00 
81000 6.5449690926e+00 -6.9558320786e-03 2.8374396788e+00 -4.9145896871e+00 2.8374396788e+00 4.9145896871e+00 
81100 6.5449618220e+00 -6.9336843846e-03 2.8375622520e+00 -4.9148019901e+00 2.8375622520e+00 4.9148019901e+00 
81200 6.5449545872e+00 -6.9116125401e-03 2.8376844297e+00 -4.9150136080e+00 2.8376844297e+00 4.9150136080e+00 
81300 6.5449473880e+00 -6.8896161980e-03 2.8378062131e+00 -4.9152245432e+00 2.8378062131e+00 4.9152245432e+00 
81400 6.5449402241e+00 -6.8676950155e-03 2.8379276038e+00 -4.9154347981e+00 2.8379276038e+00 4.9154347981e+00 
81500 6.5449330956e+00 -6.8458486533e-03 2.8380486031e+00 -4.9156443749e+00 2.8380486031e+00 4.9156443749e+00 
81600 6.5449260021e+00 -6.8240767761e-03 2.8381692123e+00 -4.9158532763e+00 2.8381692123e+00 4.9158532763e+00 
81700 6.5449189436e+00 -6.8023790522e-03 2.8382894329e+00 -4.9160615044e+00 2.8382894329e+00 4.9160615044e+00 
81800 6.5449119200e+00 -6.7807551539e-03 2.8384092661e+00 -4.9162690616e+00 2.8384092661e+00 4.9162690616e+00 
81900 6.5449049310e+00 -6.7592047566e-03 2.8385287133e+00 -4.9164759502e+00 2.8385287133e+00 4.9164759502e+00 
82000 6.5448979765e+00 -6.7377275396e-03 2.8386477759e+00 -4.9166821727e+00 2.8386477759e+00 4.9166821727e+00 
82100 6.5448910565e+00 -6.7163231855e-03 2.8387664552e+00 -4.9168877313e+00 2.8387664552e+00 4.9168877313e+00 
82200 6.5448841706e+00 -6.6949913806e-03 2.8388847526e+00 -4.9170926283e+00 2.8388847526e+00 4.9170926283e+00 
82300 6.5448773189e+00 -6.6737318140e-03 2.8390026693e+00 -4.9172968660e+00 2.8390026693e+00 4.9172968660e+00 
82400 6.5448705011e+00 -6.6525441786e-03 2.8391202066e+00 -4.9175004467e+00 2.8391202066e+00 4.9175004467e+00 
82500 6.5448637171e+00 -6.6314281703e-03 2.8392373660e+00 -4.9177033726e+00 2.8392373660e+00 4.9177033726e+00 
82600 6.5448569668e+00 -6.6103834881e-03 2.8393541486e+00 -4.9179056461e+00 2.8393541486e+00 4.9179056461e+00 
82700 6.5448502500e+00 -6.5894098341e-03 2.8394705559e+00 -4.9181072694e+00 2.8394705559e+00 4.9181072694e+00 
82800 6.5448435665e+00 -6.5685069135e-03 2.8395865890e+00 -4.9183082447e+00 2.8395865890e+00 4.9183082447e+00 
82900 6.5448369163e+00 -6.5476744345e-03 2.8397022494e+00 -4.9185085743e+00 2.8397022494e+00 4.9185085743e+00 
83000 6.5448302991e+00 -6.5269121080e-03 2.8398175382e+00 -4.9187082604e+00 2.8398175382e+00 4.9187082604e+00 
83100 6.5448237149e+00 -6.5062196480e-03 2.8399324568e+00 -4.9189073052e+00 2.8399324568e+00 4.9189073052e+00 
83200 6.5448171634e+00 -6.4855967711e-03 2.8400470064e+00 -4.9191057110e+00 2.8400470064e+00 4.9191057110e+00 
83300 6.5448106446e+00 -6.4650431966e-03 2.8401611883e+00 -4.9193034799e+00 2.8401611883e+00 4.9193034799e+00 
83400 6.5448041584e+00 -6.4445586466e-03 2.8402750038e+00 -4.9195006141e+00 2.8402750038e+00 4.9195006141e+00 
83500 6.5447977044e+00 -6.4241428458e-03 2.8403884541e+00 -4.9196971158e+00 2.8403884541e+00 4.9196971158e+00 
83600 6.5447912828e+00 -6.4037955214e-03 2.8405015405e+00 -4.9198929872e+00 2.8405015405e+00 4.9198929872e+00 
83700 6.5447848931e+00 -6.3835164031e-03 2.8406142642e+00 -4.9200882304e+00 2.8406142642e+00 4.9200882304e+00 
83800 6.5447785355e+00 -6.3633052230e-03 2.8407266265e+00 -4.9202828476e+00 2.8407266265e+00 4.9202828476e+00 
83900 6.5447722096e+00 -6.3431617157e-03 2.8408386286e+00 -4.9204768409e+00 2.8408386286e+00 4.9204768409e+00 
84000 6.5447659154e+00 -6.3230856180e-03 2.8409502718e+00 -4.9206702125e+00 2.8409502718e+00 4.9206702125e+00 
84100 6.5447596527e+00 -6.3030766691e-03 2.8410615572e+00 -4.9208629645e+00 2.8410615572e+00 4.9208629645e+00 
84200 6.5447534213e+00 -6.2831346104e-03 2.8411724861e+00 -4.9210550990e+00 2.8411724861e+00 4.9210550990e+00 
84300 6.5447472213e+00 -6.2632591855e-03 2.8412830597e+00 -4.9212466182e+00 2.8412830597e+00 4.9212466182e+00 
84400 6.5447410523e+00 -6.2434501401e-03 2.8413932793e+00 -4.9214375240e+00 2.8413932793e+00 4.9214375240e+00 
84500 6.5447349143e+00 -6.2237072219e-03 2.8415031460e+00 -4.9216278188e+00 2.8415031460e+00 4.9216278188e+00 
84600 6.5447288071e+00 -6.2040301808e-03 2.8416126611e+00 -4.9218175044e+00 2.8416126611e+00 4.9218175044e+00 
84700 6.5447227306e+00 -6.1844187686e-03 2.8417218257e+00 -4.9220065830e+00 2.8417218257e+00 4.9220065830e+00 
84800 6.5447166846e+00 -6.1648727391e-03 2.8418306410e+00 -4.9221950567e+00 2.8418306410e+00 4.9221950567e+00 
84900 6.5447106690e+00 -6.1453918479e-03 2.8419391083e+00 -4.9223829275e+00 2.8419391083e+00 4.9223829275e+00 
85000 6.5447046838e+00 -6.1259758526e-03 2.8420472286e+00 -4.9225701975e+00 2.8420472286e+00 4.9225701975e+00 
85100 6.5446987286e+00 -6.1066245124e-03 2.8421550033e+00 -4.9227568687e+00 2.8421550033e+00 4.9227568687e+00 
85200 6.5446928035e+00 -6.0873375885e-03 2.8422624335e+00 -4.9229429432e+00 2.8422624335e+00 4.9229429432e+00 
85300 6.5446869082e+00 -6.0681148437e-03 2.8423695203e+00 -4.9231284230e+00 2.8423695203e+00 4.9231284230e+00 
85400 6.5446810427e+00 -6.0489560425e-03 2.8424762649e+00 -4.9233133101e+00 2.8424762649e+00 4.9233133101e+00 
85500 6.5446752068e+00 -6.0298609510e-03 2.8425826685e+00 -4.9234976065e+00 2.8425826685e+00 4.9234976065e+00 
85600 6.5446694003e+00 -6.0108293370e-03 2.8426887322e+00 -4.9236813143e+00 2.8426887322e+00 4.9236813143e+00 
85700 6.5446636232e+00 -5.9918609699e-03 2.8427944572e+00 -4.9238644354e+00 2.8427944572e+00 4.9238644354e+00 
85800 6.5446578752e+00 -5.9729556205e-03 2.8428998447e+00 -4.9240469719e+00 2.8428998447e+00 4.9240469719e+00 
85900 6.5446521563e+00 -5.9541130611e-03 2.8430048958e+00 -4.9242289256e+00 2.8430048958e+00 4.9242289256e+00 
86000 6.5446464664e+00 -5.9353330657e-03 2.8431096115e+00 -4.9244102987e+00 2.8431096115e+00 4.9244102987e+00 
86100 6.5446408052e+00 -5.9166154094e-03 2.8432139932e+00 -4.9245910930e+00 2.8432139932e+00 4.9245910930e+00 
86200 6.5446351728e+00 -5.8979598689e-03 2.8433180418e+00 -4.9247713105e+00 2.8433180418e+00 4.9247713105e+00 
86300 6.5446295688e+00 -5.8793662222e-03 2.8434217586e+00 -4.9249509533e+00 2.8434217586e+00 4.9249509533e+00 
86400 6.5446239932e+00 -5.8608342487e-03 2.8435251446e+00 -4.9251300231e+00 2.8435251446e+00 4.9251300231e+00 
86500 6.5446184460e+00 -5.8423637290e-03 2.8436282010e+00 -4.9253085221e+00 2.8436282010e+00 4.9253085221e+00 
86600 6.5446129268e+00 -5.8239544450e-03 2.8437309289e+00 -4.9254864520e+00 2.8437309289e+00 4.9254864520e+00 
86700 6.5446074357e+00 -5.8056061799e-03 2.8438333294e+00 -4.9256638149e+00 2.8438333294e+00 4.9256638149e+00 
86800 6.5446019724e+00 -5.7873187180e-03 2.8439354037e+00 -4.9258406126e+00 2.8439354037e+00 4.9258406126e+00 
86900 6.5445965370e+00 -5.7690918449e-03 2.8440371527e+00 -4.9260168471e+00 2.8440371527e+00 4.9260168471e+00 
87000 6.5445911291e+00 -5.7509253472e-03 2.8441385776e+00 -4.9261925202e+00 2.8441385776e+00 4.9261925202e+00 
87100 6.5445857487e+00 -5.7328190130e-03 2.8442396796e+00 -4.9263676339e+00 2.8442396796e+00 4.9263676339e+00 
87200 6.5445803957e+00 -5.7147726310e-03 2.8443404596e+00 -4.9265421901e+00 2.8443404596e+00 4.9265421901e+00 
87300 6.5445750699e+00 -5.6967859913e-03 2.8444409189e+00 -4.9267161907e+00 2.8444409189e+00 4.9267161907e+00 
87400 6.5445697713e+00 -5.6788588850e-03 2.8445410584e+00 -4.9268896374e+00 2.8445410584e+00 4.9268896374e+00 
87500 6.5445644996e+00 -5.6609911042e-03 2.8446408793e+00 -4.9270625322e+00 2.8446408793e+00 4.9270625322e+00 
87600 6.5445592548e+00 -5.6431824421e-03 2.8447403826e+00 -4.9272348770e+00 2.8447403826e+00 4.9272348770e+00 
87700 6.5445540367e+00 -5.6254326928e-03 2.8448395694e+00 -4.9274066737e+00 2.8448395694e+00 4.9274066737e+00 
87800 6.5445488453e+00 -5.6077416515e-03 2.8449384408e+00 -4.9275779240e+00 2.8449384408e+00 4.9275779240e+00 
87900 6.5445436803e+00 -5.5901091141e-03 2.8450369979e+00 -4.9277486297e+00 2.8450369979e+00 4.9277486297e+00 
88000 6.5445385417e+00 -5.5725348777e-03 2.8451352416e+00 -4.9279187929e+00 2.8451352416e+00 4.9279187929e+00 
88100 6.5445334293e+00 -5.5550187402e-03 2.8452331731e+00 -4.9280884152e+00 2.8452331731e+00 4.9280884152e+00 
88200 6.5445283430e+00 -5.5375605004e-03 2.8453307934e+00 -4.9282574985e+00 2.8453307934e+00 4.9282574985e+00 
88300 6.5445232828e+00 -5.5201599580e-03 2.8454281036e+00 -4.9284260447e+00 2.8454281036e+00 4.9284260447e+00 
88400 6.5445182483e+00 -5.5028169136e-03 2.8455251046e+00 -4.9285940555e+00 2.8455251046e+00 4.9285940555e+00 
88500 6.5445132397e+00 -5.4855311685e-03 2.8456217977e+00 -4.9287615327e+00 2.8456217977e+00 4.9287615327e+00 
88600 6.5445082566e+00 -5.4683025250e-03 2.8457181837e+00 -4.9289284781e+00 2.8457181837e+00 4.9289284781e+00 
88700 6.5445032991e+00 -5.4511307862e-03 2.8458142637e+00 -4.9290948936e+00 2.8458142637e+00 4.9290948936e+00 
88800 6.5444983669e+00 -5.4340157559e-03 2.8459100388e+00 -4.9292607809e+00 2.8459100388e+00 4.9292607809e+00 
88900 6.5444934600e+00 -5.4169572388e-03 2.8460055099e+00 -4.9294261418e+00 2.8460055099e+00 4.9294261418e+00 
89000 6.5444885782e+00 -5.3999550403e-03 2.8461006782e+00 -4.9295909780e+00 2.8461006782e+00 4.9295909780e+00 
89100 6.5444837214e+00 -5.3830089666e-03 2.8461955445e+00 -4.9297552914e+00 2.8461955445e+00 4.9297552914e+00 
89200 6.5444788896e+00 -5.3661188247e-03 2.8462901100e+00 -4.9299190837e+00 2.8462901100e+00 4.9299190837e+00 
89300 6.5444740825e+00 -5.3492844223e-03 2.8463843757e+00 -4.9300823566e+00 2.8463843757e+00 4.9300823566e+00 
89400 6.5444693001e+00 -5.3325055679e-03 2.8464783425e+00 -4.9302451119e+00 2.8464783425e+00 4.9302451119e+00 
89500 6.5444645422e+00 -5.3157820705e-03 2.8465720115e+00 -4.9304073514e+00 2.8465720115e+00 4.9304073514e+00 
89600 6.5444598087e+00 -5.2991137400e-03 2.8466653837e+00 -4.9305690767e+00 2.8466653837e+00 4.9305690767e+00 
89700 6.5444550996e+00 -5.2825003871e-03 2.8467584600e+00 -4.9307302896e+00 2.8467584600e+00 4.9307302896e+00 
89800 6.5444504146e+00 -5.2659418229e-03 2.8468512415e+00 -4.9308909918e+00 2.8468512415e+00 4.9308909918e+00 
89900 6.5444457537e+00 -5.2494378596e-03 2.8469437291e+00 -4.9310511851e+00 2.8469437291e+00 4.9310511851e+00 
90000 6.5444411168e+00 -5.2329883096e-03 2.8470359239e+00 -4.9312108711e+00 2.8470359239e+00 4.9312108711e+00 
90100 6.5444365037e+00 -5.2165929864e-03 2.8471278267e+00 -4.9313700516e+00 2.8471278267e+00 4.9313700516e+00 
90200 6.5444319144e+00 -5.2002517038e-03 2.8472194387e+00 -4.9315287282e+00 2.8472194387e+00 4.9315287282e+00 
90300 6.5444273486e+00 -5.1839642765e-03 2.8473107608e+00 -4.9316869027e+00 2.8473107608e+00 4.9316869027e+00 
90400 6.5444228064e+00 -5.1677305199e-03 2.8474017939e+00 -4.9318445767e+00 2.8474017939e+00 4.9318445767e+00 
90500 6.5444182875e+00 -5.1515502498e-03 2.8474925391e+00 -4.9320017519e+00 2.8474925391e+00 4.9320017519e+00 
90600 6.5444137919e+00 -5.1354232829e-03 2.8475829972e+00 -4.9321584300e+00 2.8475829972e+00 4.9321584300e+00 
90700 6.5444093195e+00 -5.1193494362e-03 2.8476731693e+00 -4.9323146126e+00 2.8476731693e+00 4.9323146126e+00 
90800 6.5444048701e+00 -5.1033285278e-03 2.8477630563e+00 -4.9324703015e+00 2.8477630563e+00 4.9324703015e+00 
90900 6.5444004436e+00 -5.0873603760e-03 2.8478526592e+00 -4.9326254982e+00 2.8478526592e+00 4.9326254982e+00 
91000 6.5443960400e+00 -5.0714447999e-03 2.8479419789e+00 -4.9327802045e+00 2.8479419789e+00 4.9327802045e+00 
91100 6.5443916591e+00 -5.0555816192e-03 2.8480310164e+00 -4.9329344219e+00 2.8480310164e+00 4.9329344219e+00 
91200 6.5443873007e+00 -5.0397706543e-03 2.8481197726e+00 -4.9330881521e+00 2.8481197726e+00 4.9330881521e+00 
91300 6.5443829649e+00 -5.0240117261e-03 2.8482082484e+00 -4.9332413968e+00 2.8482082484e+00 4.9332413968e+00 
91400 6.5443786515e+00 -5.0083046561e-03 2.8482964449e+00 -4.9333941576e+00 2.8482964449e+00 4.9333941576e+00 
91500 6.5443743603e+00 -4.9926492665e-03 2.8483843629e+00 -4.9335464360e+00 2.8483843629e+00 4.9335464360e+00 
91600 6.5443700912e+00 -4.9770453800e-03 2.8484720033e+00 -4.9336982337e+00 2.8484720033e+00 4.9336982337e+00 
91700 6.5443658443e+00 -4.9614928200e-03 2.8485593672e+00 -4.9338495524e+00 2.8485593672e+00 4.9338495524e+00 
91800 6.5443616192e+00 -4.9459914103e-03 2.8486464554e+00 -4.9340003936e+00 2.8486464554e+00 4.9340003936e+00 
91900 6.5443574160e+00 -4.9305409757e-03 2.8487332689e+00 -4.9341507589e+00 2.8487332689e+00 4.9341507589e+00 
92000 6.5443532346e+00 -4.9151413410e-03 2.8488198085e+00 -4.9343006499e+00 2.8488198085e+00 4.9343006499e+00 
92100 6.5443490747e+00 -4.8997923322e-03 2.8489060752e+00 -4.9344500682e+00 2.8489060752e+00 4.9344500682e+00 
92200 6.5443449364e+00 -4.8844937756e-03 2.8489920699e+00 -4.9345990154e+00 2.8489920699e+00 4.9345990154e+00 
92300 6.5443408194e+00 -4.8692454979e-03 2.8490777935e+00 -4.9347474931e+00 2.8490777935e+00 4.9347474931e+00 
92400 6.5443367238e+00 -4.8540473267e-03 2.8491632470e+00 -4.9348955028e+00 2.8491632470e+00 4.9348955028e+00 
92500 6.5443326494e+00 -4.8388990902e-03 2.8492484311e+00 -4.9350430461e+00 2.8492484311e+00 4.9350430461e+00 
92600 6.5443285961e+00 -4.8238006168e-03 2.8493333469e+00 -4.9351901245e+00 2.8493333469e+00 4.9351901245e+00 
92700 6.5443245637e+00 -4.8087517360e-03 2.8494179952e+00 -4.9353367397e+00 2.8494179952e+00 4.9353367397e+00 
92800 6.5443205523e+00 -4.7937522775e-03 2.8495023769e+00 -4.9354828931e+00 2.8495023769e+00 4.9354828931e+00 
92900 6.5443165616e+00 -4.7788020717e-03 2.8495864929e+00 -4.9356285863e+00 2.8495864929e+00 4.9356285863e+00 
93000 6.5443125916e+00 -4.7639009497e-03 2.8496703441e+00 -4.9357738209e+00 2.8496703441e+00 4.9357738209e+00 
93100 6.5443086422e+00 -4.7490487430e-03 2.8497539314e+00 -4.9359185983e+00 2.8497539314e+00 4.9359185983e+00 
93200 6.5443047132e+00 -4.7342452838e-03 2.8498372557e+00 -4.9360629201e+00 2.8498372557e+00 4.9360629201e+00 
93300 6.5443008046e+00 -4.7194904048e-03 2.8499203178e+00 -4.9362067879e+00 2.8499203178e+00 4.9362067879e+00 
93400 6.5442969163e+00 -4.7047839393e-03 2.8500031186e+00 -4.9363502031e+00 2.8500031186e+00 4.9363502031e+00 
93500 6.5442930482e+00 -4.6901257213e-03 2.8500856589e+00 -4.9364931672e+00 2.8500856589e+00 4.9364931672e+00 
93600 6.5442892001e+00 -4.6755155853e-03 2.8501679398e+00 -4.9366356818e+00 2.8501679398e+00 4.9366356818e+00 
93700 6.5442853720e+00 -4.6609533663e-03 2.8502499619e+00 -4.9367777483e+00 2.8502499619e+00 4.9367777483e+00 
93800 6.5442815638e+00 -4.6464388999e-03 2.8503317262e+00 -4.9369193683e+00 2.8503317262e+00 4.9369193683e+00 
93900 6.5442777753e+00 -4.6319720225e-03 2.8504132336e+00 -4.9370605432e+00 2.8504132336e+00 4.9370605432e+00 
94000 6.5442740065e+00 -4.6175525708e-03 2.8504944849e+00 -4.9372012745e+00 2.8504944849e+00 4.9372012745e+00 
94100 6.5442702573e+00 -4.6031803822e-03 2.8505754809e+00 -4.9373415638e+00 2.8505754809e+00 4.9373415638e+00 
94200 6.5442665275e+00 -4.5888552947e-03 2.8506562225e+00 -4.9374814124e+00 2.8506562225e+00 4.9374814124e+00 
94300 6.5442628171e+00 -4.5745771468e-03 2.8507367106e+00 -4.9376208218e+00 2.8507367106e+00 4.9376208218e+00 
94400 6.5442591260e+00 -4.5603457778e-03 2.8508169460e+00 -4.9377597935e+00 2.8508169460e+00 4.9377597935e+00 
94500 6.5442554541e+00 -4.5461610273e-03 2.8508969295e+00 -4.9378983291e+00 2.8508969295e+00 4.9378983291e+00 
94600 6.5442518013e+00 -4.5320227356e-03 2.8509766620e+00 -4.9380364298e+00 2.8509766620e+00 4.9380364298e+00 
94700 6.5442481675e+00 -4.5179307437e-03 2.8510561443e+00 -4.9381740972e+00 2.8510561443e+00 4.9381740972e+00 
94800 6.5442445525e+00 -4.5038848929e-03 2.8511353772e+00 -4.9383113327e+00 2.8511353772e+00 4.9383113327e+00 
94900 6.5442409564e+00 -4.4898850254e-03 2.8512143617e+00 -4.9384481377e+00 2.8512143617e+00 4.9384481377e+00 
95000 6.5442373789e+00 -4.4759309838e-03 2.8512930984e+00 -4.9385845137e+00 2.8512930984e+00 4.9385845137e+00 
95100 6.5442338201e+00 -4.4620226112e-03 2.8513715883e+00 -4.9387204621e+00 2.8513715883e+00 4.9387204621e+00 
95200 6.5442302798e+00 -4.4481597516e-03 2.8514498321e+00 -4.9388559844e+00 2.8514498321e+00 4.9388559844e+00 
95300 6.5442267579e+00 -4.4343422493e-03 2.8515278306e+00 -4.9389910818e+00 2.8515278306e+00 4.9389910818e+00 
95400 6.5442232543e+00 -4.4205699492e-03 2.8516055848e+00 -4.9391257560e+00 2.8516055848e+00 4.9391257560e+00 
95500 6.5442197690e+00 -4.4068426969e-03 2.8516830953e+00 -4.9392600082e+00 2.8516830953e+00 4.9392600082e+00 
95600 6.5442163018e+00 -4.3931603385e-03 2.8517603631e+00 -4.9393938398e+00 2.8517603631e+00 4.9393938398e+00 
95700 6.5442128527e+00 -4.3795227207e-03 2.8518373888e+00 -4.9395272524e+00 2.8518373888e+00 4.9395272524e+00 
95800 6.5442094215e+00 -4.3659296909e-03 2.8519141734e+00 -4.9396602471e+00 2.8519141734e+00 4.9396602471e+00 
95900 6.5442060082e+00 -4.3523810969e-03 2.8519907176e+00 -4.9397928256e+00 2.8519907176e+00 4.9397928256e+00 
96000 6.5442026127e+00 -4.3388767871e-03 2.8520670222e+00 -4.9399249890e+00 2.8520670222e+00 4.9399249890e+00 
96100 6.5441992349e+00 -4.3254166106e-03 2.8521430880e+00 -4.9400567389e+00 2.8521430880e+00 4.9400567389e+00 
96200 6.5441958747e+00 -4.3120004170e-03 2.8522189158e+00 -4.9401880765e+00 2.8522189158e+00 4.9401880765e+00 
96300 6.5441925320e+00 -4.2986280565e-03 2.8522945064e+00 -4.9403190033e+00 2.8522945064e+00 4.9403190033e+00 
96400 6.5441892067e+00 -4.2852993799e-03 2.8523698606e+00 -4.9404495206e+00 2.8523698606e+00 4.9404495206e+00 
96500 6.5441858987e+00 -4.2720142384e-03 2.8524449792e+00 -4.9405796297e+00 2.8524449792e+00 4.9405796297e+00 
96600 6.5441826080e+00 -4.2587724841e-03 2.8525198629e+00 -4.9407093321e+00 2.8525198629e+00 4.9407093321e+00 
96700 6.5441793344e+00 -4.2455739695e-03 2.8525945125e+00 -4.9408386291e+00 2.8525945125e+00 4.9408386291e+00 
96800 6.5441760779e+00 -4.2324185475e-03 2.8526689289e+00 -4.9409675219e+00 2.8526689289e+00 4.9409675219e+00 
96900 6.5441728384e+00 -4.2193060719e-03 2.8527431127e+00 -4.9410960121e+00 2.8527431127e+00 4.9410960121e+00 
97000 6.5441696158e+00 -4.2062363969e-03 2.8528170647e+00 -4.9412241008e+00 2.8528170647e+00 4.9412241008e+00 
97100 6.5441664100e+00 -4.1932093773e-03 2.8528907858e+00 -4.9413517894e+00 2.8528907858e+00 4.9413517894e+00 
97200 6.5441632210e+00 -4.1802248685e-03 2.8529642766e+00 -4.9414790793e+00 2.8529642766e+00 4.9414790793e+00 
97300 6.5441600485e+00 -4.1672827264e-03 2.8530375380e+00 -4.9416059718e+00 2.8530375380e+00 4.9416059718e+00 
97400 6.5441568926e+00 -4.1543828075e-03 2.8531105707e+00 -4.9417324681e+00 2.8531105707e+00 4.9417324681e+00 
97500 6.5441537532e+00 -4.1415249688e-03 2.8531833755e+00 -4.9418585696e+00 2.8531833755e+00 4.9418585696e+00 
97600 6.5441506302e+00 -4.1287090682e-03 2.8532559531e+00 -4.9419842777e+00 2.8532559531e+00 4.9419842777e+00 
97700 6.5441475235e+00 -4.1159349636e-03 2.8533283042e+00 -4.9421095935e+00 2.8533283042e+00 4.9421095935e+00 
97800 6.5441444329e+00 -4.1032025140e-03 2.8534004297e+00 -4.9422345185e+00 2.8534004297e+00 4.9422345185e+00 
97900 6.5441413586e+00 -4.0905115787e-03 2.8534723302e+00 -4.9423590539e+00 2.8534723302e+00 4.9423590539e+00 
98000 6.5441383002e+00 -4.0778620175e-03 2.8535440065e+00 -4.9424832009e+00 2.8535440065e+00 4.9424832009e+00 
98100 6.5441352579e+00 -4.0652536909e-03 2.8536154594e+00 -4.9426069609e+00 2.8536154594e+00 4.9426069609e+00 
98200 6.5441322314e+00 -4.0526864599e-03 2.8536866896e+00 -4.9427303352e+00 2.8536866896e+00 4.9427303352e+00 
98300 6.5441292207e+00 -4.0401601862e-03 2.8537576978e+00 -4.9428533250e+00 2.8537576978e+00 4.9428533250e+00 
98400 6.5441262258e+00 -4.0276747317e-03 2.8538284847e+00 -4.9429759317e+00 2.8538284847e+00 4.9429759317e+00 
98500 6.5441232465e+00 -4.0152299593e-03 2.8538990512e+00 -4.9430981564e+00 2.8538990512e+00 4.9430981564e+00 
98600 6.5441202828e+00 -4.0028257320e-03 2.8539693979e+00 -4.9432200004e+00 2.8539693979e+00 4.9432200004e+00 
98700 6.5441173345e+00 -3.9904619138e-03 2.8540395255e+00 -4.9433414650e+00 2.8540395255e+00 4.9433414650e+00 
98800 6.5441144016e+00 -3.9781383688e-03 2.8541094348e+00 -4.9434625515e+00 2.8541094348e+00 4.9434625515e+00 
98900 6.5441114841e+00 -3.9658549620e-03 2.8541791265e+00 -4.9435832610e+00 2.8541791265e+00 4.9435832610e+00 
99000 6.5441085818e+00 -3.9536115588e-03 2.8542486013e+00 -4.9437035949e+00 2.8542486013e+00 4.9437035949e+00 
99100 6.5441056947e+00 -3.9414080250e-03 2.8543178600e+00 -4.9438235544e+00 2.8543178600e+00 4.9438235544e+00 
99200 6.5441028227e+00 -3.9292442272e-03 2.8543869031e+00 -4.9439431407e+00 2.8543869031e+00 4.9439431407e+00 
99300 6.5440999657e+00 -3.9171200325e-03 2.8544557316e+00 -4.9440623551e+00 2.8544557316e+00 4.9440623551e+00 
99400 6.5440971236e+00 -3.9050353082e-03 2.8545243460e+00 -4.9441811987e+00 2.8545243460e+00 4.9441811987e+00 
99500 6.5440942964e+00 -3.8929899226e-03 2.8545927471e+00 -4.9442996728e+00 2.8545927471e+00 4.9442996728e+00 
99600 6.5440914839e+00 -3.8809837441e-03 2.8546609355e+00 -4.9444177787e+00 2.8546609355e+00 4.9444177787e+00 
99700 6.5440886862e+00 -3.8690166420e-03 2.8547289121e+00 -4.9445355175e+00 2.8547289121e+00 4.9445355175e+00 
99800 6.5440859030e+00 -3.8570884859e-03 2.8547966774e+00 -4.9446528905e+00 2.8547966774e+00 4.9446528905e+00 
99900 6.5440831345e+00 -3.8451991459e-03 2.8548642322e+00 -4.9447698988e+00 2.8548642322e+00 4.9447698988e+00 
100000 6.5440803804e+00 -3.8333484927e-03 2.8549315771e+00 -4.9448865437e+00 2.8549315771e+00 4.9448865437e+00 
100100 6.5440776407e+00 -3.8215363975e-03 2.8549987129e+00 -4.9450028264e+00 2.8549987129e+00 4.9450028264e+00 
100200 6.5440749153e+00 -3.8097627321e-03 2.8550656403e+00 -4.9451187480e+00 2.8550656403e+00 4.9451187480e+00 
100300 6.5440722042e+00 -3.7980273686e-03 2.8551323599e+00 -4.9452343097e+00 2.8551323599e+00 4.9452343097e+00 
100400 6.5440695072e+00 -3.7863301798e-03 2.8551988725e+00 -4.9453495128e+00 2.8551988725e+00 4.9453495128e+00 
100500 6.5440668244e+00 -3.7746710388e-03 2.8552651786e+00 -4.9454643584e+00 2.8552651786e+00 4.9454643584e+00 
100600 6.5440641556e+00 -3.7630498195e-03 2.8553312791e+00 -4.9455788478e+00 2.8553312791e+00 4.9455788478e+00 
100700 6.5440615007e+00 -3.7514663960e-03 2.8553971745e+00 -4.9456929820e+00 2.8553971745e+00 4.9456929820e+00 
100800 6.5440588598e+00 -3.7399206430e-03 2.8554628655e+00 -4.9458067622e+00 2.8554628655e+00 4.9458067622e+00 
100900 6.5440562326e+00 -3.7284124358e-03 2.8555283529e+00 -4.9459201896e+00 2.8555283529e+00 4.9459201896e+00 
101000 6.5440536192e+00 -3.7169416501e-03 2.8555936372e+00 -4.9460332655e+00 2.8555936372e+00 4.9460332655e+00 
101100 6.5440510195e+00 -3.7055081620e-03 2.8556587193e+00 -4.9461459908e+00 2.8556587193e+00 4.9461459908e+00 
101200 6.5440484334e+00 -3.6941118481e-03 2.8557235996e+00 -4.9462583669e+00 2.8557235996e+00 4.9462583669e+00 
101300 6.5440458607e+00 -3.6827525858e-03 2.8557882789e+00 -4.9463703948e+00 2.8557882789e+00 4.9463703948e+00 
101400 6.5440433016e+00 -3.6714302524e-03 2.8558527579e+00 -4.9464820756e+00 2.8558527579e+00 4.9464820756e+00 
101500 6.5440407558e+00 -3.6601447263e-03 2.8559170372e+00 -4.9465934106e+00 2.8559170372e+00 4.9465934106e+00 
101600 6.5440382234e+00 -3.6488958858e-03 2.8559811175e+00 -4.9467044009e+00 2.8559811175e+00 4.9467044009e+00 
101700 6.5440357042e+00 -3.6376836101e-03 2.8560449994e+00 -4.9468150476e+00 2.8560449994e+00 4.9468150476e+00 
101800 6.5440331982e+00 -3.6265077786e-03 2.8561086835e+00 -4.9469253518e+00 2.8561086835e+00 4.9469253518e+00 
101900 6.5440307053e+00 -3.6153682713e-03 2.8561721706e+00 -4.9470353147e+00 2.8561721706e+00 4.9470353147e+00 
102000 6.5440282254e+00 -3.6042649687e-03 2.8562354613e+00 -4.9471449374e+00 2.8562354613e+00 4.9471449374e+00 
102100 6.5440257586e+00 -3.5931977514e-03 2.8562985562e+00 -4.9472542209e+00 2.8562985562e+00 4.9472542209e+00 
102200 6.5440233046e+00 -3.5821665010e-03 2.8563614560e+00 -4.9473631666e+00 2.8563614560e+00 4.9473631666e+00 
102300 6.5440208634e+00 -3.5711710992e-03 2.8564241613e+00 -4.9474717753e+00 2.8564241613e+00 4.9474717753e+00 
102400 6.5440184351e+00 -3.5602114281e-03 2.8564866727e+00 -4.9475800483e+00 2.8564866727e+00 4.9475800483e+00 
102500 6.5440160194e+00 -3.5492873704e-03 2.8565489910e+00 -4.9476879867e+00 2.8565489910e+00 4.9476879867e+00 
102600 6.5440136164e+00 -3.5383988092e-03 2.8566111166e+00 -4.9477955915e+00 2.8566111166e+00 4.9477955915e+00 
102700 6.5440112260e+00 -3.5275456281e-03 2.8566730504e+00 -4.9479028638e+00 2.8566730504e+00 4.9479028638e+00 
102800 6.5440088481e+00 -3.5167277110e-03 2.8567347928e+00 -4.9480098049e+00 2.8567347928e+00 4.9480098049e+00 
102900 6.5440064826e+00 -3.5059449423e-03 2.8567963445e+00 -4.9481164156e+00 2.8567963445e+00 4.9481164156e+00 
103000 6.5440041295e+00 -3.4951972069e-03 2.8568577062e+00 -4.9482226972e+00 2.8568577062e+00 4.9482226972e+00 
103100 6.5440017887e+00 -3.4844843899e-03 2.8569188785e+00 -4.9483286507e+00 2.8569188785e+00 4.9483286507e+00 
103200 6.5439994601e+00 -3.4738063770e-03 2.8569798620e+00 -4.9484342772e+00 2.8569798620e+00 4.9484342772e+00 
103300 6.5439971438e+00 -3.4631630544e-03 2.8570406573e+00 -4.9485395777e+00 2.8570406573e+00 4.9485395777e+00 
103400 6.5439948395e+00 -3.4525543085e-03 2.8571012650e+00 -4.9486445534e+00 2.8571012650e+00 4.9486445534e+00 
103500 6.5439925473e+00 -3.4419800262e-03 2.8571616858e+00 -4.9487492053e+00 2.8571616858e+00 4.9487492053e+00 
103600 6.5439902672e+00 -3.4314400948e-03 2.8572219203e+00 -4.9488535344e+00 2.8572219203e+00 4.9488535344e+00 
103700 6.5439879989e+00 -3.4209344022e-03 2.8572819690e+00 -4.9489575419e+00 2.8572819690e+00 4.9489575419e+00 
103800 6.5439857425e+00 -3.4104628363e-03 2.8573418327e+00 -4.9490612288e+00 2.8573418327e+00 4.9490612288e+00 
103900 6.5439834979e+00 -3.4000252857e-03 2.8574015118e+00 -4.9491645961e+00 2.8574015118e+00 4.9491645961e+00 
104000 6.5439812651e+00 -3.3896216393e-03 2.8574610071e+00 -4.9492676449e+00 2.8574610071e+00 4.9492676449e+00 
104100 6.5439790440e+00 -3.3792517866e-03 2.8575203191e+00 -4.9493703763e+00 2.8575203191e+00 4.9493703763e+00 
104200 6.5439768344e+00 -3.3689156170e-03 2.8575794484e+00 -4.9494727912e+00 2.8575794484e+00 4.9494727912e+00 
104300 6.5439746365e+00 -3.3586130209e-03 2.8576383956e+00 -4.9495748908e+00 2.8576383956e+00 4.9495748908e+00 
104400 6.5439724500e+00 -3.3483438885e-03 2.8576971613e+00 -4.9496766760e+00 2.8576971613e+00 4.9496766760e+00 
104500 6.5439702750e+00 -3.3381081109e-03 2.8577557462e+00 -4.9497781480e+00 2.8577557462e+00 4.9497781480e+00 
104600 6.5439681113e+00 -3.3279055792e-03 2.8578141507e+00 -4.9498793077e+00 2.8578141507e+00 4.9498793077e+00 
104700 6.5439659590e+00 -3.3177361850e-03 2.8578723756e+00 -4.9499801561e+00 2.8578723756e+00 4.9499801561e+00 
104800 6.5439638180e+00 -3.3075998204e-03 2.8579304214e+00 -4.9500806943e+00 2.8579304214e+00 4.9500806943e+00 
104900 6.5439616881e+00 -3.2974963778e-03 2.8579882886e+00 -4.9501809233e+00 2.8579882886e+00 4.9501809233e+00 
105000 6.5439595694e+00 -3.2874257497e-03 2.8580459779e+00 -4.9502808441e+00 2.8580459779e+00 4.9502808441e+00 
105100 6.5439574617e+00 -3.2773878294e-03 2.8581034899e+00 -4.9503804578e+00 2.8581034899e+00 4.9503804578e+00 
105200 6.5439553651e+00 -3.2673825103e-03 2.8581608251e+00 -4.9504797652e+00 2.8581608251e+00 4.9504797652e+00 
105300 6.5439532795e+00 -3.2574096863e-03 2.8582179841e+00 -4.9505787676e+00 2.8582179841e+00 4.9505787676e+00 
105400 6.5439512048e+00 -3.2474692514e-03 2.8582749675e+00 -4.9506774657e+00 2.8582749675e+00 4.9506774657e+00 
105500 6.5439491409e+00 -3.2375611003e-03 2.8583317759e+00 -4.9507758607e+00 2.8583317759e+00 4.9507758607e+00 
105600 6.5439470878e+00 -3.2276851279e-03 2.8583884098e+00 -4.9508739536e+00 2.8583884098e+00 4.9508739536e+00 
105700 6.5439450455e+00 -3.2178412293e-03 2.8584448699e+00 -4.9509717453e+00 2.8584448699e+00 4.9509717453e+00 
105800 6.5439430139e+00 -3.2080293001e-03 2.8585011567e+00 -4.9510692368e+00 2.8585011567e+00 4.9510692368e+00 
105900 6.5439409928e+00 -3.1982492364e-03 2.8585572707e+00 -4.9511664292e+00 2.8585572707e+00 4.9511664292e+00 
106000 6.5439389824e+00 -3.1885009343e-03 2.8586132125e+00 -4.9512633233e+00 2.8586132125e+00 4.9512633233e+00 
106100 6.5439369824e+00 -3.1787842905e-03 2.8586689828e+00 -4.9513599202e+00 2.8586689828e+00 4.9513599202e+00 
106200 6.5439349930e+00 -3.1690992020e-03 2.8587245820e+00 -4.9514562208e+00 2.8587245820e+00 4.9514562208e+00 
106300 6.5439330139e+00 -3.1594455659e-03 2.8587800107e+00 -4.9515522262e+00 2.8587800107e+00 4.9515522262e+00 
106400 6.5439310452e+00 -3.1498232801e-03 2.8588352695e+00 -4.9516479373e+00 2.8588352695e+00 4.9516479373e+00 
106500 6.5439290867e+00 -3.1402322423e-03 2.8588903590e+00 -4.9517433550e+00 2.8588903590e+00 4.9517433550e+00 
106600 6.5439271386e+00 -3.1306723510e-03 2.8589452796e+00 -4.9518384804e+00 2.8589452796e+00 4.9518384804e+00 
106700 6.5439252006e+00 -3.1211435046e-03 2.8590000320e+00 -4.9519333143e+00 2.8590000320e+00 4.9519333143e+00 
106800 6.5439232727e+00 -3.1116456023e-03 2.8590546167e+00 -4.9520278578e+00 2.8590546167e+00 4.9520278578e+00 
106900 6.5439213549e+00 -3.1021785431e-03 2.8591090343e+00 -4.9521221118e+00 2.8591090343e+00 4.9521221118e+00 
107000 6.5439194471e+00 -3.0927422267e-03 2.8591632853e+00 -4.9522160772e+00 2.8591632853e+00 4.9522160772e+00 
107100 6.5439175494e+00 -3.0833365531e-03 2.8592173702e+00 -4.9523097550e+00 2.8592173702e+00 4.9523097550e+00 
107200 6.5439156615e+00 -3.0739614223e-03 2.8592712896e+00 -4.9524031462e+00 2.8592712896e+00 4.9524031462e+00 
107300 6.5439137835e+00 -3.0646167351e-03 2.8593250440e+00 -4.9524962516e+00 2.8593250440e+00 4.9524962516e+00 
107400 6.5439119153e+00 -3.0553023921e-03 2.8593786341e+00 -4.9525890723e+00 2.8593786341e+00 4.9525890723e+00 
107500 6.5439100569e+00 -3.0460182946e-03 2.8594320602e+00 -4.9526816091e+00 2.8594320602e+00 4.9526816091e+00 
107600 6.5439082082e+00 -3.0367643440e-03 2.8594853230e+00 -4.9527738630e+00 2.8594853230e+00 4.9527738630e+00 
107700 6.5439063692e+00 -3.0275404421e-03 2.8595384230e+00 -4.9528658349e+00 2.8595384230e+00 4.9528658349e+00 
107800 6.5439045398e+00 -3.0183464910e-03 2.8595913608e+00 -4.9529575257e+00 2.8595913608e+00 4.9529575257e+00 
107900 6.5439027199e+00 -3.0091823931e-03 2.8596441368e+00 -4.9530489364e+00 2.8596441368e+00 4.9530489364e+00 
108000 6.5439009096e+00 -3.0000480511e-03 2.8596967515e+00 -4.9531400679e+00 2.8596967515e+00 4.9531400679e+00 
108100 6.5438991087e+00 -2.9909433679e-03 2.8597492057e+00 -4.9532309211e+00 2.8597492057e+00 4.9532309211e+00 
108200 6.5438973172e+00 -2.9818682468e-03 2.8598014996e+00 -4.9533214969e+00 2.8598014996e+00 4.9533214969e+00 
108300 6.5438955351e+00 -2.9728225914e-03 2.8598536340e+00 -4.9534117962e+00 2.8598536340e+00 4.9534117962e+00 
108400 6.5438937623e+00 -2.9638063057e-03 2.8599056092e+00 -4.9535018200e+00 2.8599056092e+00 4.9535018200e+00 
108500 6.5438919988e+00 -2.9548192937e-03 2.8599574259e+00 -4.9535915691e+00 2.8599574259e+00 4.9535915691e+00 
108600 6.5438902444e+00 -2.9458614600e-03 2.8600090845e+00 -4.9536810444e+00 2.8600090845e+00 4.9536810444e+00 
108700 6.5438884993e+00 -2.9369327092e-03 2.8600605855e+00 -4.9537702469e+00 2.8600605855e+00 4.9537702469e+00 
108800 6.5438867632e+00 -2.9280329465e-03 2.8601119296e+00 -4.9538591774e+00 2.8601119296e+00 4.9538591774e+00 
108900 6.5438850362e+00 -2.9191620772e-03 2.8601631171e+00 -4.9539478368e+00 2.8601631171e+00 4.9539478368e+00 
109000 6.5438833183e+00 -2.9103200069e-03 2.8602141487e+00 -4.9540362260e+00 2.8602141487e+00 4.9540362260e+00 
109100 6.5438816093e+00 -2.9015066415e-03 2.8602650247e+00 -4.9541243459e+00 2.8602650247e+00 4.9541243459e+00 
109200 6.5438799092e+00 -2.8927218871e-03 2.8603157458e+00 -4.9542121974e+00 2.8603157458e+00 4.9542121974e+00 
109300 6.5438782180e+00 -2.8839656504e-03 2.8603663124e+00 -4.9542997814e+00 2.8603663124e+00 4.9542997814e+00 
109400 6.5438765357e+00 -2.8752378380e-03 2.8604167251e+00 -4.9543870987e+00 2.8604167251e+00 4.9543870987e+00 
109500 6.5438748621e+00 -2.8665383569e-03 2.8604669843e+00 -4.9544741502e+00 2.8604669843e+00 4.9544741502e+00 
109600 6.5438731973e+00 -2.8578671145e-03 2.8605170906e+00 -4.9545609369e+00 2.8605170906e+00 4.9545609369e+00 
109700 6.5438715411e+00 -2.8492240183e-03 2.8605670444e+00 -4.9546474594e+00 2.8605670444e+00 4.9546474594e+00 
109800 6.5438698936e+00 -2.8406089763e-03 2.8606168463e+00 -4.9547337188e+00 2.8606168463e+00 4.9547337188e+00 
109900 6.5438682548e+00 -2.8320218966e-03 2.8606664967e+00 -4.9548197159e+00 2.8606664967e+00 4.9548197159e+00 
110000 6.5438666244e+00 -2.8234626875e-03 2.8607159962e+00 -4.9549054515e+00 2.8607159962e+00 4.9549054515e+00 
110100 6.5438650026e+00 -2.8149312578e-03 2.8607653452e+00 -4.9549909265e+00 2.8607653452e+00 4.9549909265e+00 
110200 6.5438633892e+00 -2.8064275165e-03 2.8608145443e+00 -4.9550761418e+00 2.8608145443e+00 4.9550761418e+00 
110300 6.5438617843e+00 -2.7979513727e-03 2.8608635939e+00 -4.9551610982e+00 2.8608635939e+00 4.9551610982e+00 
110400 6.5438601877e+00 -2.7895027360e-03 2.8609124945e+00 -4.9552457965e+00 2.8609124945e+00 4.9552457965e+00 
110500 6.5438585994e+00 -2.7810815161e-03 2.8609612466e+00 -4.9553302376e+00 2.8609612466e+00 4.9553302376e+00 
110600 6.5438570195e+00 -2.7726876231e-03 2.8610098507e+00 -4.9554144224e+00 2.8610098507e+00 4.9554144224e+00 
110700 6.5438554478e+00 -2.7643209673e-03 2.8610583073e+00 -4.9554983517e+00 2.8610583073e+00 4.9554983517e+00 
110800 6.5438538843e+00 -2.7559814592e-03 2.8611066169e+00 -4.9555820263e+00 2.8611066169e+00 4.9555820263e+00 
110900 6.5438523289e+00 -2.7476690097e-03 2.8611547799e+00 -4.9556654470e+00 2.8611547799e+00 4.9556654470e+00 
111000 6.5438507817e+00 -2.7393835299e-03 2.8612027968e+00 -4.9557486148e+00 2.8612027968e+00 4.9557486148e+00 
111100 6.5438492425e+00 -2.7311249311e-03 2.8612506681e+00 -4.9558315303e+00 2.8612506681e+00 4.9558315303e+00 
111200 6.5438477113e+00 -2.7228931250e-03 2.8612983943e+00 -4.9559141945e+00 2.8612983943e+00 4.9559141945e+00 
111300 6.5438461882e+00 -2.7146880234e-03 2.8613459759e+00 -4.9559966082e+00 2.8613459759e+00 4.9559966082e+00 
111400 6.5438446729e+00 -2.7065095386e-03 2.8613934132e+00 -4.9560787722e+00 2.8613934132e+00 4.9560787722e+00 
111500 6.5438431656e+00 -2.6983575828e-03 2.8614407069e+00 -4.9561606872e+00 2.8614407069e+00 4.9561606872e+00 
111600 6.5438416661e+00 -2.6902320688e-03 2.8614878574e+00 -4.9562423542e+00 2.8614878574e+00 4.9562423542e+00 
111700 6.5438401745e+00 -2.6821329095e-03 2.8615348651e+00 -4.9563237740e+00 2.8615348651e+00 4.9563237740e+00 
111800 6.5438386906e+00 -2.6740600181e-03 2.8615817305e+00 -4.9564049472e+00 2.8615817305e+00 4.9564049472e+00 
111900 6.5438372145e+00 -2.6660133080e-03 2.8616284541e+00 -4.9564858749e+00 2.8616284541e+00 4.9564858749e+00 
112000 6.5438357460e+00 -2.6579926928e-03 2.8616750363e+00 -4.9565665577e+00 2.8616750363e+00 4.9565665577e+00 
112100 6.5438342852e+00 -2.6499980866e-03 2.8617214777e+00 -4.9566469964e+00 2.8617214777e+00 4.9566469964e+00 
112200 6.5438328320e+00 -2.6420294036e-03 2.8617677785e+00 -4.9567271919e+00 2.8617677785e+00 4.9567271919e+00 
112300 6.5438313864e+00 -2.6340865581e-03 2.8618139395e+00 -4.9568071450e+00 2.8618139395e+00 4.9568071450e+00 
112400 6.5438299483e+00 -2.6261694650e-03 2.8618599609e+00 -4.9568868564e+00 2.8618599609e+00 4.9568868564e+00 
112500 6.5438285178e+00 -2.6182780391e-03 2.8619058432e+00 -4.9569663269e+00 2.8619058432e+00 4.9569663269e+00 
112600 6.5438270946e+00 -2.6104121957e-03 2.8619515869e+00 -4.9570455574e+00 2.8619515869e+00 4.9570455574e+00 
112700 6.5438256789e+00 -2.6025718502e-03 2.8619971925e+00 -4.9571245485e+00 2.8619971925e+00 4.9571245485e+00 
112800 6.5438242705e+00 -2.5947569184e-03 2.8620426604e+00 -4.9572033012e+00 2.8620426604e+00 4.9572033012e+00 
112900 6.5438228695e+00 -2.5869673162e-03 2.8620879910e+00 -4.9572818162e+00 2.8620879910e+00 4.9572818162e+00 
113000 6.5438214758e+00 -2.5792029598e-03 2.8621331848e+00 -4.9573600942e+00 2.8621331848e+00 4.9573600942e+00 
113100 6.5438200893e+00 -2.5714637658e-03 2.8621782423e+00 -4.9574381360e+00 2.8621782423e+00 4.9574381360e+00 
113200 6.5438187101e+00 -2.5637496507e-03 2.8622231639e+00 -4.9575159424e+00 2.8622231639e+00 4.9575159424e+00 
113300 6.5438173380e+00 -2.5560605316e-03 2.8622679500e+00 -4.9575935142e+00 2.8622679500e+00 4.9575935142e+00 
113400 6.5438159731e+00 -2.5483963257e-03 2.8623126011e+00 -4.9576708522e+00 2.8623126011e+00 4.9576708522e+00 
113500 6.5438146153e+00 -2.5407569503e-03 2.8623571176e+00 -4.9577479570e+00 2.8623571176e+00 4.9577479570e+00 
113600 6.5438132645e+00 -2.5331423233e-03 2.8624014999e+00 -4.9578248295e+00 2.8624014999e+00 4.9578248295e+00 
113700 6.5438119208e+00 -2.5255523626e-03 2.8624457486e+00 -4.9579014705e+00 2.8624457486e+00 4.9579014705e+00 
113800 6.5438105840e+00 -2.5179869863e-03 2.8624898640e+00 -4.9579778806e+00 2.8624898640e+00 4.9579778806e+00 
113900 6.5438092542e+00 -2.5104461129e-03 2.8625338466e+00 -4.9580540606e+00 2.8625338466e+00 4.9580540606e+00 
114000 6.5438079314e+00 -2.5029296610e-03 2.8625776967e+00 -4.9581300114e+00 2.8625776967e+00 4.9581300114e+00 
114100 6.5438066154e+00 -2.4954375497e-03 2.8626214150e+00 -4.9582057335e+00 2.8626214150e+00 4.9582057335e+00 
114200 6.5438053063e+00 -2.4879696979e-03 2.8626650017e+00 -4.9582812279e+00 2.8626650017e+00 4.9582812279e+00 
114300 6.5438040039e+00 -2.4805260252e-03 2.8627084572e+00 -4.9583564952e+00 2.8627084572e+00 4.9583564952e+00 
114400 6.5438027084e+00 -2.4731064512e-03 2.8627517822e+00 -4.9584315362e+00 2.8627517822e+00 4.9584315362e+00 
114500 6.5438014196e+00 -2.4657108957e-03 2.8627949768e+00 -4.9585063515e+00 2.8627949768e+00 4.9585063515e+00 
114600 6.5438001374e+00 -2.4583392790e-03 2.8628380417e+00 -4.9585809421e+00 2.8628380417e+00 4.9585809421e+00 
114700 6.5437988620e+00 -2.4509915214e-03 2.8628809772e+00 -4.9586553085e+00 2.8628809772e+00 4.9586553085e+00 
114800 6.5437975931e+00 -2.4436675434e-03 2.8629237836e+00 -4.9587294515e+00 2.8629237836e+00 4.9587294515e+00 
114900 6.5437963309e+00 -2.4363672660e-03 2.8629664616e+00 -4.9588033718e+00 2.8629664616e+00 4.9588033718e+00 
115000 6.5437950752e+00 -2.4290906102e-03 2.8630090114e+00 -4.9588770702e+00 2.8630090114e+00 4.9588770702e+00 
115100 6.5437938261e+00 -2.4218374974e-03 2.8630514335e+00 -4.9589505475e+00 2.8630514335e+00 4.9589505475e+00 
115200 6.5437925834e+00 -2.4146078490e-03 2.8630937283e+00 -4.9590238042e+00 2.8630937283e+00 4.9590238042e+00 
115300 6.5437913472e+00 -2.4074015871e-03 2.8631358962e+00 -4.9590968412e+00 2.8631358962e+00 4.9590968412e+00 
115400 6.5437901175e+00 -2.4002186335e-03 2.8631779376e+00 -4.9591696591e+00 2.8631779376e+00 4.9591696591e+00 
115500 6.5437888941e+00 -2.3930589105e-03 2.8632198530e+00 -4.9592422587e+00 2.8632198530e+00 4.9592422587e+00 
115600 6.5437876770e+00 -2.3859223407e-03 2.8632616428e+00 -4.9593146406e+00 2.8632616428e+00 4.9593146406e+00 
115700 6.5437864663e+00 -2.3788088468e-03 2.8633033073e+00 -4.9593868057e+00 2.8633033073e+00 4.9593868057e+00 
115800 6.5437852619e+00 -2.3717183518e-03 2.8633448470e+00 -4.9594587546e+00 2.8633448470e+00 4.9594587546e+00 
115900 6.5437840637e+00 -2.3646507790e-03 2.8633862622e+00 -4.9595304879e+00 2.8633862622e+00 4.9595304879e+00 
116000 6.5437828718e+00 -2.3576060517e-03 2.8634275535e+00 -4.9596020065e+00 2.8634275535e+00 4.9596020065e+00 
116100 6.5437816860e+00 -2.3505840937e-03 2.8634687212e+00 -4.9596733109e+00 2.8634687212e+00 4.9596733109e+00 
116200 6.5437805064e+00 -2.3435848290e-03 2.8635097656e+00 -4.9597444020e+00 2.8635097656e+00 4.9597444020e+00 
116300 6.5437793329e+00 -2.3366081816e-03 2.8635506872e+00 -4.9598152804e+00 2.8635506872e+00 4.9598152804e+00 
116400 6.5437781655e+00 -2.3296540759e-03 2.8635914865e+00 -4.9598859467e+00 2.8635914865e+00 4.9598859467e+00 
116500 6.5437770042e+00 -2.3227224366e-03 2.8636321637e+00 -4.9599564017e+00 2.8636321637e+00 4.9599564017e+00 
116600 6.5437758489e+00 -2.3158131886e-03 2.8636727193e+00 -4.9600266461e+00 2.8636727193e+00 4.9600266461e+00 
116700 6.5437746995e+00 -2.3089262569e-03 2.8637131538e+00 -4.9600966806e+00 2.8637131538e+00 4.9600966806e+00 
116800 6.5437735562e+00 -2.3020615669e-03 2.8637534674e+00 -4.9601665058e+00 2.8637534674e+00 4.9601665058e+00 
116900 6.5437724188e+00 -2.2952190440e-03 2.8637936605e+00 -4.9602361224e+00 2.8637936605e+00 4.9602361224e+00 
117000 6.5437712872e+00 -2.2883986142e-03 2.8638337337e+00 -4.9603055312e+00 2.8638337337e+00 4.9603055312e+00 
117100 6.5437701616e+00 -2.2816002034e-03 2.8638736872e+00 -4.9603747327e+00 2.8638736872e+00 4.9603747327e+00 
117200 6.5437690417e+00 -2.2748237378e-03 2.8639135214e+00 -4.9604437276e+00 2.8639135214e+00 4.9604437276e+00 
117300 6.5437679277e+00 -2.2680691439e-03 2.8639532368e+00 -4.9605125167e+00 2.8639532368e+00 4.9605125167e+00 
117400 6.5437668195e+00 -2.2613363485e-03 2.8639928337e+00 -4.9605811006e+00 2.8639928337e+00 4.9605811006e+00 
117500 6.5437657170e+00 -2.2546252785e-03 2.8640323126e+00 -4.9606494799e+00 2.8640323126e+00 4.9606494799e+00 
117600 6.5437646202e+00 -2.2479358609e-03 2.8640716737e+00 -4.9607176554e+00 2.8640716737e+00 4.9607176554e+00 
117700 6.5437635291e+00 -2.2412680233e-03 2.8641109175e+00 -4.9607856276e+00 2.8641109175e+00 4.9607856276e+00 
117800 6.5437624436e+00 -2.2346216931e-03 2.8641500443e+00 -4.9608533973e+00 2.8641500443e+00 4.9608533973e+00 
117900 6.5437613638e+00 -2.2279967984e-03 2.8641890546e+00 -4.9609209651e+00 2.8641890546e+00 4.9609209651e+00 
118000 6.5437602896e+00 -2.2213932670e-03 2.8642279488e+00 -4.9609883317e+00 2.8642279488e+00 4.9609883317e+00 
118100 6.5437592209e+00 -2.2148110274e-03 2.8642667271e+00 -4.9610554977e+00 2.8642667271e+00 4.9610554977e+00 
118200 6.5437581578e+00 -2.2082500080e-03 2.8643053899e+00 -4.9611224638e+00 2.8643053899e+00 4.9611224638e+00 
118300 6.5437571002e+00 -2.2017101376e-03 2.8643439378e+00 -4.9611892306e+00 2.8643439378e+00 4.9611892306e+00 
118400 6.5437560480e+00 -2.1951913452e-03 2.8643823709e+00 -4.9612557987e+00 2.8643823709e+00 4.9612557987e+00 
118500 6.5437550013e+00 -2.1886935599e-03 2.8644206898e+00 -4.9613221689e+00 2.8644206898e+00 4.9613221689e+00 
118600 6.5437539600e+00 -2.1822167111e-03 2.8644588947e+00 -4.9613883418e+00 2.8644588947e+00 4.9613883418e+00 
118700 6.5437529241e+00 -2.1757607286e-03 2.8644969860e+00 -4.9614543179e+00 2.8644969860e+00 4.9614543179e+00 
118800 6.5437518936e+00 -2.1693255421e-03 2.8645349641e+00 -4.9615200980e+00 2.8645349641e+00 4.9615200980e+00 
118900 6.5437508684e+00 -2.1629110818e-03 2.8645728295e+00 -4.9615856826e+00 2.8645728295e+00 4.9615856826e+00 
119000 6.5437498485e+00 -2.1565172779e-03 2.8646105823e+00 -4.9616510725e+00 2.8646105823e+00 4.9616510725e+00 
119100 6.5437488339e+00 -2.1501440610e-03 2.8646482231e+00 -4.9617162682e+00 2.8646482231e+00 4.9617162682e+00 
119200 6.5437478245e+00 -2.1437913619e-03 2.8646857521e+00 -4.9617812703e+00 2.8646857521e+00 4.9617812703e+00 
119300 6.5437468204e+00 -2.1374591114e-03 2.8647231697e+00 -4.9618460796e+00 2.8647231697e+00 4.9618460796e+00 
119400 6.5437458214e+00 -2.1311472408e-03 2.8647604764e+00 -4.9619106966e+00 2.8647604764e+00 4.9619106966e+00 
119500 6.5437448276e+00 -2.1248556816e-03 2.8647976724e+00 -4.9619751219e+00 2.8647976724e+00 4.9619751219e+00 
119600 6.5437438390e+00 -2.1185843653e-03 2.8648347581e+00 -4.9620393562e+00 2.8648347581e+00 4.9620393562e+00 
119700 6.5437428555e+00 -2.1123332237e-03 2.8648717338e+00 -4.9621034001e+00 2.8648717338e+00 4.9621034001e+00 
119800 6.5437418770e+00 -2.1061021890e-03 2.8649086000e+00 -4.9621672542e+00 2.8649086000e+00 4.9621672542e+00 
119900 6.5437409036e+00 -2.0998911935e-03 2.8649453570e+00 -4.9622309192e+00 2.8649453570e+00 4.9622309192e+00 
120000 6.5437399353e+00 -2.0937001696e-03 2.8649820051e+00 -4.9622943955e+00 2.8649820051e+00 4.9622943955e+00 
120100 6.5437389719e+00 -2.0875290500e-03 2.8650185446e+00 -4.9623576839e+00 2.8650185446e+00 4.9623576839e+00 
120200 6.5437380135e+00 -2.0813777677e-03 2.8650549760e+00 -4.9624207850e+00 2.8650549760e+00 4.9624207850e+00 
120300 6.5437370601e+00 -2.0752462558e-03 2.8650912996e+00 -4.9624836993e+00 2.8650912996e+00 4.9624836993e+00 
120400 6.5437361116e+00 -2.0691344477e-03 2.8651275158e+00 -4.9625464275e+00 2.8651275158e+00 4.9625464275e+00 
120500 6.5437351680e+00 -2.0630422770e-03 2.8651636248e+00 -4.9626089701e+00 2.8651636248e+00 4.9626089701e+00 
120600 6.5437342293e+00 -2.0569696775e-03 2.8651996270e+00 -4.9626713279e+00 2.8651996270e+00 4.9626713279e+00 
120700 6.5437332954e+00 -2.0509165832e-03 2.8652355229e+00 -4.9627335013e+00 2.8652355229e+00 4.9627335013e+00 
120800 6.5437323663e+00 -2.0448829282e-03 2.8652713126e+00 -4.9627954909e+00 2.8652713126e+00 4.9627954909e+00 
120900 6.5437314421e+00 -2.0388686471e-03 2.8653069966e+00 -4.9628572974e+00 2.8653069966e+00 4.9628572974e+00 
121000 6.5437305226e+00 -2.0328736745e-03 2.8653425752e+00 -4.9629189214e+00 2.8653425752e+00 4.9629189214e+00 
121100 6.5437296078e+00 -2.0268979452e-03 2.8653780488e+00 -4.9629803634e+00 2.8653780488e+00 4.9629803634e+00 
121200 6.5437286978e+00 -2.0209413943e-03 2.8654134176e+00 -4.9630416240e+00 2.8654134176e+00 4.9630416240e+00 
121300 6.5437277925e+00 -2.0150039571e-03 2.8654486821e+00 -4.9631027039e+00 2.8654486821e+00 4.9631027039e+00 
121400 6.5437268918e+00 -2.0090855691e-03 2.8654838425e+00 -4.9631636035e+00 2.8654838425e+00 4.9631636035e+00 
121500 6.5437259958e+00 -2.0031861660e-03 2.8655188992e+00 -4.9632243235e+00 2.8655188992e+00 4.9632243235e+00 
121600 6.5437251044e+00 -1.9973056836e-03 2.8655538526e+00 -4.9632848645e+00 2.8655538526e+00 4.9632848645e+00 
121700 6.5437242176e+00 -1.9914440582e-03 2.8655887029e+00 -4.9633452271e+00 2.8655887029e+00 4.9633452271e+00 
121800 6.5437233354e+00 -1.9856012260e-03 2.8656234506e+00 -4.9634054117e+00 2.8656234506e+00 4.9634054117e+00 
121900 6.5437224577e+00 -1.9797771235e-03 2.8656580958e+00 -4.9634654191e+00 2.8656580958e+00 4.9634654191e+00 
122000 6.5437215846e+00 -1.9739716876e-03 2.8656926390e+00 -4.9635252497e+00 2.8656926390e+00 4.9635252497e+00 
122100 6.5437207160e+00 -1.9681848552e-03 2.8657270805e+00 -4.9635849041e+00 2.8657270805e+00 4.9635849041e+00 
122200 6.5437198518e+00 -1.9624165633e-03 2.8657614207e+00 -4.9636443830e+00 2.8657614207e+00 4.9636443830e+00 
122300 6.5437189921e+00 -1.9566667494e-03 2.8657956597e+00 -4.9637036868e+00 2.8657956597e+00 4.9637036868e+00 
122400 6.5437181368e+00 -1.9509353511e-03 2.8658297981e+00 -4.9637628162e+00 2.8658297981e+00 4.9637628162e+00 
122500 6.5437172859e+00 -1.9452223060e-03 2.8658638360e+00 -4.9638217716e+00 2.8658638360e+00 4.9638217716e+00 
122600 6.5437164395e+00 -1.9395275523e-03 2.8658977739e+00 -4.9638805537e+00 2.8658977739e+00 4.9638805537e+00 
122700 6.5437155973e+00 -1.9338510280e-03 2.8659316120e+00 -4.9639391630e+00 2.8659316120e+00 4.9639391630e+00 
122800 6.5437147595e+00 -1.9281926715e-03 2.8659653507e+00 -4.9639976001e+00 2.8659653507e+00 4.9639976001e+00 
122900 6.5437139261e+00 -1.9225524214e-03 2.8659989903e+00 -4.9640558656e+00 2.8659989903e+00 4.9640558656e+00 
123000 6.5437130969e+00 -1.9169302166e-03 2.8660325310e+00 -4.9641139599e+00 2.8660325310e+00 4.9641139599e+00 
123100 6.5437122720e+00 -1.9113259959e-03 2.8660659733e+00 -4.9641718836e+00 2.8660659733e+00 4.9641718836e+00 
123200 6.5437114513e+00 -1.9057396987e-03 2.8660993175e+00 -4.9642296374e+00 2.8660993175e+00 4.9642296374e+00 
123300 6.5437106349e+00 -1.9001712641e-03 2.8661325637e+00 -4.9642872216e+00 2.8661325637e+00 4.9642872216e+00 
123400 6.5437098226e+00 -1.8946206320e-03 2.8661657125e+00 -4.9643446370e+00 2.8661657125e+00 4.9643446370e+00 
123500 6.5437090146e+00 -1.8890877419e-03 2.8661987641e+00 -4.9644018839e+00 2.8661987641e+00 4.9644018839e+00 
123600 6.5437082107e+00 -1.8835725340e-03 2.8662317187e+00 -4.9644589631e+00 2.8662317187e+00 4.9644589631e+00 
123700 6.5437074109e+00 -1.8780749484e-03 2.8662645768e+00 -4.9645158749e+00 2.8662645768e+00 4.9645158749e+00 
123800 6.5437066153e+00 -1.8725949255e-03 2.8662973385e+00 -4.9645726200e+00 2.8662973385e+00 4.9645726200e+00 
123900 6.5437058237e+00 -1.8671324058e-03 2.8663300044e+00 -4.9646291988e+00 2.8663300044e+00 4.9646291988e+00 
124000 6.5437050362e+00 -1.8616873302e-03 2.8663625745e+00 -4.9646856119e+00 2.8663625745e+00 4.9646856119e+00 
124100 6.5437042528e+00 -1.8562596395e-03 2.8663950493e+00 -4.9647418599e+00 2.8663950493e+00 4.9647418599e+00 
124200 6.5437034734e+00 -1.8508492750e-03 2.8664274290e+00 -4.9647979433e+00 2.8664274290e+00 4.9647979433e+00 
124300 6.5437026980e+00 -1.8454561781e-03 2.8664597141e+00 -4.9648538626e+00 2.8664597141e+00 4.9648538626e+00 
124400 6.5437019266e+00 -1.8400802902e-03 2.8664919046e+00 -4.9649096183e+00 2.8664919046e+00 4.9649096183e+00 
124500 6.5437011591e+00 -1.8347215532e-03 2.8665240011e+00 -4.9649652110e+00 2.8665240011e+00 4.9649652110e+00 
124600 6.5437003956e+00 -1.8293799089e-03 2.8665560037e+00 -4.9650206411e+00 2.8665560037e+00 4.9650206411e+00 
124700 6.5436996360e+00 -1.8240552995e-03 2.8665879128e+00 -4.9650759093e+00 2.8665879128e+00 4.9650759093e+00 
124800 6.5436988804e+00 -1.8187476674e-03 2.8666197286e+00 -4.9651310159e+00 2.8666197286e+00 4.9651310159e+00 
124900 6.5436981286e+00 -1.8134569549e-03 2.8666514515e+00 -4.9651859616e+00 2.8666514515e+00 4.9651859616e+00 
125000 6.5436973806e+00 -1.8081831050e-03 2.8666830818e+00 -4.9652407469e+00 2.8666830818e+00 4.9652407469e+00 
125100 6.5436966366e+00 -1.8029260604e-03 2.8667146198e+00 -4.9652953723e+00 2.8667146198e+00 4.9652953723e+00 
125200 6.5436958963e+00 -1.7976857642e-03 2.8667460657e+00 -4.9653498382e+00 2.8667460657e+00 4.9653498382e+00 
125300 6.5436951598e+00 -1.7924621598e-03 2.8667774199e+00 -4.9654041452e+00 2.8667774199e+00 4.9654041452e+00 
125400 6.5436944271e+00 -1.7872551905e-03 2.8668086826e+00 -4.9654582938e+00 2.8668086826e+00 4.9654582938e+00 
125500 6.5436936982e+00 -1.7820648001e-03 2.8668398542e+00 -4.9655122846e+00 2.8668398542e+00 4.9655122846e+00 
125600 6.5436929730e+00 -1.7768909324e-03 2.8668709349e+00 -4.9655661179e+00 2.8668709349e+00 4.9655661179e+00 
125700 6.5436922515e+00 -1.7717335314e-03 2.8669019250e+00 -4.9656197944e+00 2.8669019250e+00 4.9656197944e+00 
125800 6.5436915338e+00 -1.7665925413e-03 2.8669328248e+00 -4.9656733145e+00 2.8669328248e+00 4.9656733145e+00 
125900 6.5436908197e+00 -1.7614679066e-03 2.8669636347e+00 -4.9657266787e+00 2.8669636347e+00 4.9657266787e+00 
126000 6.5436901093e+00 -1.7563595718e-03 2.8669943548e+00 -4.9657798876e+00 2.8669943548e+00 4.9657798876e+00 
126100 6.5436894025e+00 -1.7512674817e-03 2.8670249856e+00 -4.9658329416e+00 2.8670249856e+00 4.9658329416e+00 
126200 6.5436886994e+00 -1.7461915812e-03 2.8670555272e+00 -4.9658858412e+00 2.8670555272e+00 4.9658858412e+00 
126300 6.5436879998e+00 -1.7411318155e-03 2.8670859799e+00 -4.9659385869e+00 2.8670859799e+00 4.9659385869e+00 
126400 6.5436873039e+00 -1.7360881300e-03 2.8671163441e+00 -4.9659911792e+00 2.8671163441e+00 4.9659911792e+00 
126500 6.5436866115e+00 -1.7310604701e-03 2.8671466200e+00 -4.9660436186e+00 2.8671466200e+00 4.9660436186e+00 
126600 6.5436859227e+00 -1.7260487815e-03 2.8671768079e+00 -4.9660959056e+00 2.8671768079e+00 4.9660959056e+00 
126700 6.5436852374e+00 -1.7210530102e-03 2.8672069081e+00 -4.9661480407e+00 2.8672069081e+00 4.9661480407e+00 
126800 6.5436845556e+00 -1.7160731020e-03 2.8672369209e+00 -4.9662000243e+00 2.8672369209e+00 4.9662000243e+00 
126900 6.5436838773e+00 -1.7111090034e-03 2.8672668465e+00 -4.9662518570e+00 2.8672668465e+00 4.9662518570e+00 
127000 6.5436832024e+00 -1.7061606607e-03 2.8672966852e+00 -4.9663035392e+00 2.8672966852e+00 4.9663035392e+00 
127100 6.5436825311e+00 -1.7012280204e-03 2.8673264374e+00 -4.9663550714e+00 2.8673264374e+00 4.9663550714e+00 
127200 6.5436818632e+00 -1.6963110295e-03 2.8673561032e+00 -4.9664064541e+00 2.8673561032e+00 4.9664064541e+00 
127300 6.5436811986e+00 -1.6914096347e-03 2.8673856829e+00 -4.9664576877e+00 2.8673856829e+00 4.9664576877e+00 
127400 6.5436805375e+00 -1.6865237834e-03 2.8674151769e+00 -4.9665087728e+00 2.8674151769e+00 4.9665087728e+00 
127500 6.5436798798e+00 -1.6816534227e-03 2.8674445854e+00 -4.9665597098e+00 2.8674445854e+00 4.9665597098e+00 
127600 6.5436792255e+00 -1.6767985001e-03 2.8674739087e+00 -4.9666104992e+00 2.8674739087e+00 4.9666104992e+00 
127700 6.5436785745e+00 -1.6719589633e-03 2.8675031470e+00 -4.9666611414e+00 2.8675031470e+00 4.9666611414e+00 
127800 6.5436779268e+00 -1.6671347602e-03 2.8675323006e+00 -4.9667116369e+00 2.8675323006e+00 4.9667116369e+00 
127900 6.5436772824e+00 -1.6623258388e-03 2.8675613698e+00 -4.9667619863e+00 2.8675613698e+00 4.9667619863e+00 
128000 6.5436766414e+00 -1.6575321472e-03 2.8675903548e+00 -4.9668121899e+00 2.8675903548e+00 4.9668121899e+00 
128100 6.5436760036e+00 -1.6527536338e-03 2.8676192560e+00 -4.9668622482e+00 2.8676192560e+00 4.9668622482e+00 
128200 6.5436753691e+00 -1.6479902472e-03 2.8676480736e+00 -4.9669121617e+00 2.8676480736e+00 4.9669121617e+00 
128300 6.5436747378e+00 -1.6432419360e-03 2.8676768078e+00 -4.9669619308e+00 2.8676768078e+00 4.9669619308e+00 
128400 6.5436741098e+00 -1.6385086492e-03 2.8677054590e+00 -4.9670115561e+00 2.8677054590e+00 4.9670115561e+00 
128500 6.5436734850e+00 -1.6337903358e-03 2.8677340273e+00 -4.9670610379e+00 2.8677340273e+00 4.9670610379e+00 
128600 6.5436728633e+00 -1.6290869450e-03 2.8677625131e+00 -4.9671103767e+00 2.8677625131e+00 4.9671103767e+00 
128700 6.5436722449e+00 -1.6243984262e-03 2.8677909166e+00 -4.9671595730e+00 2.8677909166e+00 4.9671595730e+00 
128800 6.5436716296e+00 -1.6197247290e-03 2.8678192380e+00 -4.9672086272e+00 2.8678192380e+00 4.9672086272e+00 
128900 6.5436710174e+00 -1.6150658032e-03 2.8678474778e+00 -4.9672575398e+00 2.8678474778e+00 4.9672575398e+00 
129000 6.5436704084e+00 -1.6104215986e-03 2.8678756360e+00 -4.9673063113e+00 2.8678756360e+00 4.9673063113e+00 
129100 6.5436698025e+00 -1.6057920653e-03 2.8679037129e+00 -4.9673549420e+00 2.8679037129e+00 4.9673549420e+00 
129200 6.5436691997e+00 -1.6011771535e-03 2.8679317089e+00 -4.9674034324e+00 2.8679317089e+00 4.9674034324e+00 
129300 6.5436685999e+00 -1.5965768138e-03 2.8679596241e+00 -4.9674517830e+00 2.8679596241e+00 4.9674517830e+00 
129400 6.5436680033e+00 -1.5919909966e-03 2.8679874589e+00 -4.9674999942e+00 2.8679874589e+00 4.9674999942e+00 
129500 6.5436674096e+00 -1.5874196527e-03 2.8680152134e+00 -4.9675480665e+00 2.8680152134e+00 4.9675480665e+00 
129600 6.5436668190e+00 -1.5828627331e-03 2.8680428880e+00 -4.9675960003e+00 2.8680428880e+00 4.9675960003e+00 
129700 6.5436662315e+00 -1.5783201888e-03 2.8680704829e+00 -4.9676437960e+00 2.8680704829e+00 4.9676437960e+00 
129800 6.5436656469e+00 -1.5737919710e-03 2.8680979983e+00 -4.9676914541e+00 2.8680979983e+00 4.9676914541e+00 
129900 6.5436650653e+00 -1.5692780312e-03 2.8681254345e+00 -4.9677389750e+00 2.8681254345e+00 4.9677389750e+00 
130000 6.5436644867e+00 -1.5647783209e-03 2.8681527917e+00 -4.9677863591e+00 2.8681527917e+00 4.9677863591e+00 
130100 6.5436639110e+00 -1.5602927920e-03 2.8681800703e+00 -4.9678336070e+00 2.8681800703e+00 4.9678336070e+00 
130200 6.5436633383e+00 -1.5558213963e-03 2.8682072704e+00 -4.9678807189e+00 2.8682072704e+00 4.9678807189e+00 
130300 6.5436627685e+00 -1.5513640858e-03 2.8682343922e+00 -4.9679276954e+00 2.8682343922e+00 4.9679276954e+00 
130400 6.5436622015e+00 -1.5469208128e-03 2.8682614362e+00 -4.9679745368e+00 2.8682614362e+00 4.9679745368e+00 
130500 6.5436616375e+00 -1.5424915297e-03 2.8682884024e+00 -4.9680212437e+00 2.8682884024e+00 4.9680212437e+00 
130600 6.5436610764e+00 -1.5380761891e-03 2.8683152911e+00 -4.9680678164e+00 2.8683152911e+00 4.9680678164e+00 
130700 6.5436605181e+00 -1.5336747437e-03 2.8683421027e+00 -4.9681142553e+00 2.8683421027e+00 4.9681142553e+00 
130800 6.5436599627e+00 -1.5292871463e-03 2.8683688372e+00 -4.9681605609e+00 2.8683688372e+00 4.9681605609e+00 
130900 6.5436594101e+00 -1.5249133500e-03 2.8683954951e+00 -4.9682067336e+00 2.8683954951e+00 4.9682067336e+00 
131000 6.5436588603e+00 -1.5205533080e-03 2.8684220764e+00 -4.9682527739e+00 2.8684220764e+00 4.9682527739e+00 
131100 6.5436583133e+00 -1.5162069736e-03 2.8684485815e+00 -4.9682986820e+00 2.8684485815e+00 4.9682986820e+00 
131200 6.5436577691e+00 -1.5118743004e-03 2.8684750106e+00 -4.9683444585e+00 2.8684750106e+00 4.9683444585e+00 
131300 6.5436572277e+00 -1.5075552421e-03 2.8685013639e+00 -4.9683901038e+00 2.8685013639e+00 4.9683901038e+00 
131400 6.5436566890e+00 -1.5032497524e-03 2.8685276417e+00 -4.9684356183e+00 2.8685276417e+00 4.9684356183e+00 
131500 6.5436561531e+00 -1.4989577853e-03 2.8685538442e+00 -4.9684810024e+00 2.8685538442e+00 4.9684810024e+00 
131600 6.5436556199e+00 -1.4946792951e-03 2.8685799716e+00 -4.9685262564e+00 2.8685799716e+00 4.9685262564e+00 
131700 6.5436550895e+00 -1.4904142360e-03 2.8686060243e+00 -4.9685713809e+00 2.8686060243e+00 4.9685713809e+00 
131800 6.5436545617e+00 -1.4861625624e-03 2.8686320023e+00 -4.9686163763e+00 2.8686320023e+00 4.9686163763e+00 
131900 6.5436540366e+00 -1.4819242291e-03 2.8686579061e+00 -4.9686612428e+00 2.8686579061e+00 4.9686612428e+00 
132000 6.5436535142e+00 -1.4776991907e-03 2.8686837357e+00 -4.9687059810e+00 2.8686837357e+00 4.9687059810e+00 
132100 6.5436529944e+00 -1.4734874021e-03 2.8687094914e+00 -4.9687505913e+00 2.8687094914e+00 4.9687505913e+00 
132200 6.5436524773e+00 -1.4692888186e-03 2.8687351735e+00 -4.9687950740e+00 2.8687351735e+00 4.9687950740e+00 
132300 6.5436519628e+00 -1.4651033952e-03 2.8687607822e+00 -4.9688394295e+00 2.8687607822e+00 4.9688394295e+00 
132400 6.5436514510e+00 -1.4609310874e-03 2.8687863177e+00 -4.9688836583e+00 2.8687863177e+00 4.9688836583e+00 
132500 6.5436509417e+00 -1.4567718506e-03 2.8688117803e+00 -4.9689277608e+00 2.8688117803e+00 4.9689277608e+00 
132600 6.5436504351e+00 -1.4526256407e-03 2.8688371701e+00 -4.9689717373e+00 2.8688371701e+00 4.9689717373e+00 
132700 6.5436499310e+00 -1.4484924135e-03 2.8688624875e+00 -4.9690155883e+00 2.8688624875e+00 4.9690155883e+00 
132800 6.5436494294e+00 -1.4443721249e-03 2.8688877326e+00 -4.9690593141e+00 2.8688877326e+00 4.9690593141e+00 
132900 6.5436489305e+00 -1.4402647310e-03 2.8689129057e+00 -4.9691029151e+00 2.8689129057e+00 4.9691029151e+00 
133000 6.5436484340e+00 -1.4361701883e-03 2.8689380069e+00 -4.9691463918e+00 2.8689380069e+00 4.9691463918e+00 
133100 6.5436479401e+00 -1.4320884530e-03 2.8689630366e+00 -4.9691897444e+00 2.8689630366e+00 4.9691897444e+00 
133200 6.5436474487e+00 -1.4280194819e-03 2.8689879949e+00 -4.9692329735e+00 2.8689879949e+00 4.9692329735e+00 
133300 6.5436469598e+00 -1.4239632316e-03 2.8690128821e+00 -4.9692760794e+00 2.8690128821e+00 4.9692760794e+00 
133400 6.5436464734e+00 -1.4199196590e-03 2.8690376984e+00 -4.9693190625e+00 2.8690376984e+00 4.9693190625e+00 
133500 6.5436459894e+00 -1.4158887213e-03 2.8690624440e+00 -4.9693619232e+00 2.8690624440e+00 4.9693619232e+00 
133600 6.5436455079e+00 -1.4118703755e-03 2.8690871192e+00 -4.9694046618e+00 2.8690871192e+00 4.9694046618e+00 
133700 6.5436450289e+00 -1.4078645790e-03 2.8691117241e+00 -4.9694472787e+00 2.8691117241e+00 4.9694472787e+00 
133800 6.5436445523e+00 -1.4038712893e-03 2.8691362590e+00 -4.9694897744e+00 2.8691362590e+00 4.9694897744e+00 
133900 6.5436440781e+00 -1.3998904641e-03 2.8691607241e+00 -4.9695321492e+00 2.8691607241e+00 4.9695321492e+00 
134000 6.5436436063e+00 -1.3959220610e-03 2.8691851196e+00 -4.9695744034e+00 2.8691851196e+00 4.9695744034e+00 
134100 6.5436431369e+00 -1.3919660380e-03 2.8692094457e+00 -4.9696165375e+00 2.8692094457e+00 4.9696165375e+00 
134200 6.5436426699e+00 -1.3880223532e-03 2.8692337027e+00 -4.9696585519e+00 2.8692337027e+00 4.9696585519e+00 
134300 6.5436422052e+00 -1.3840909647e-03 2.8692578908e+00 -4.9697004468e+00 2.8692578908e+00 4.9697004468e+00 
134400 6.5436417429e+00 -1.3801718310e-03 2.8692820101e+00 -4.9697422228e+00 2.8692820101e+00 4.9697422228e+00 
134500 6.5436412830e+00 -1.3762649105e-03 2.8693060610e+00 -4.9697838801e+00 2.8693060610e+00 4.9697838801e+00 
134600 6.5436408254e+00 -1.3723701619e-03 2.8693300436e+00 -4.9698254191e+00 2.8693300436e+00 4.9698254191e+00 
134700 6.5436403701e+00 -1.3684875439e-03 2.8693539581e+00 -4.9698668402e+00 2.8693539581e+00 4.9698668402e+00 
134800 6.5436399172e+00 -1.3646170155e-03 2.8693778047e+00 -4.9699081439e+00 2.8693778047e+00 4.9699081439e+00 
134900 6.5436394665e+00 -1.3607585357e-03 2.8694015837e+00 -4.9699493303e+00 2.8694015837e+00 4.9699493303e+00 
135000 6.5436390181e+00 -1.3569120637e-03 2.8694252953e+00 -4.9699903999e+00 2.8694252953e+00 4.9699903999e+00 
135100 6.5436385720e+00 -1.3530775589e-03 2.8694489396e+00 -4.9700313532e+00 2.8694489396e+00 4.9700313532e+00 
135200 6.5436381281e+00 -1.3492549808e-03 2.8694725170e+00 -4.9700721903e+00 2.8694725170e+00 4.9700721903e+00 
135300 6.5436376865e+00 -1.3454442890e-03 2.8694960275e+00 -4.9701129118e+00 2.8694960275e+00 4.9701129118e+00 
135400 6.5436372471e+00 -1.3416454433e-03 2.8695194714e+00 -4.9701535179e+00 2.8695194714e+00 4.9701535179e+00 
135500 6.5436368100e+00 -1.3378584036e-03 2.8695428490e+00 -4.9701940090e+00 2.8695428490e+00 4.9701940090e+00 
135600 6.5436363751e+00 -1.3340831298e-03 2.8695661604e+00 -4.9702343855e+00 2.8695661604e+00 4.9702343855e+00 
135700 6.5436359424e+00 -1.3303195823e-03 2.8695894058e+00 -4.9702746477e+00 2.8695894058e+00 4.9702746477e+00 
135800 6.5436355118e+00 -1.3265677214e-03 2.8696125854e+00 -4.9703147960e+00 2.8696125854e+00 4.9703147960e+00 
135900 6.5436350835e+00 -1.3228275074e-03 2.8696356995e+00 -4.9703548308e+00 2.8696356995e+00 4.9703548308e+00 
136000 6.5436346573e+00 -1.3190989010e-03 2.8696587483e+00 -4.9703947524e+00 2.8696587483e+00 4.9703947524e+00 
136100 6.5436342333e+00 -1.3153818629e-03 2.8696817318e+00 -4.9704345611e+00 2.8696817318e+00 4.9704345611e+00 
136200 6.5436338114e+00 -1.3116763540e-03 2.8697046505e+00 -4.9704742573e+00 2.8697046505e+00 4.9704742573e+00 
136300 6.5436333917e+00 -1.3079823353e-03 2.8697275044e+00 -4.9705138414e+00 2.8697275044e+00 4.9705138414e+00 
136400 6.5436329740e+00 -1.3042997680e-03 2.8697502937e+00 -4.9705533137e+00 2.8697502937e+00 4.9705533137e+00 
136500 6.5436325585e+00 -1.3006286133e-03 2.8697730187e+00 -4.9705926746e+00 2.8697730187e+00 4.9705926746e+00 
136600 6.5436321451e+00 -1.2969688326e-03 2.8697956796e+00 -4.9706319244e+00 2.8697956796e+00 4.9706319244e+00 
136700 6.5436317338e+00 -1.2933203875e-03 2.8698182765e+00 -4.9706710634e+00 2.8698182765e+00 4.9706710634e+00 
136800 6.5436313246e+00 -1.2896832396e-03 2.8698408097e+00 -4.9707100920e+00 2.8698408097e+00 4.9707100920e+00 
136900 6.5436309174e+00 -1.2860573508e-03 2.8698632793e+00 -4.9707490105e+00 2.8698632793e+00 4.9707490105e+00 
137000 6.5436305123e+00 -1.2824426830e-03 2.8698856856e+00 -4.9707878193e+00 2.8698856856e+00 4.9707878193e+00 
137100 6.5436301093e+00 -1.2788391984e-03 2.8699080287e+00 -4.9708265187e+00 2.8699080287e+00 4.9708265187e+00 
137200 6.5436297083e+00 -1.2752468590e-03 2.8699303088e+00 -4.9708651091e+00 2.8699303088e+00 4.9708651091e+00 
137300 6.5436293093e+00 -1.2716656272e-03 2.8699525263e+00 -4.9709035908e+00 2.8699525263e+00 4.9709035908e+00 
137400 6.5436289123e+00 -1.2680954656e-03 2.8699746811e+00 -4.9709419641e+00 2.8699746811e+00 4.9709419641e+00 
137500 6.5436285174e+00 -1.2645363367e-03 2.8699967736e+00 -4.9709802294e+00 2.8699967736e+00 4.9709802294e+00 
137600 6.5436281244e+00 -1.2609882032e-03 2.8700188039e+00 -4.9710183870e+00 2.8700188039e+00 4.9710183870e+00 
137700 6.5436277334e+00 -1.2574510281e-03 2.8700407722e+00 -4.9710564373e+00 2.8700407722e+00 4.9710564373e+00 
137800 6.5436273444e+00 -1.2539247743e-03 2.8700626787e+00 -4.9710943805e+00 2.8700626787e+00 4.9710943805e+00 
137900 6.5436269574e+00 -1.2504094049e-03 2.8700845237e+00 -4.9711322170e+00 2.8700845237e+00 4.9711322170e+00 
138000 6.5436265723e+00 -1.2469048831e-03 2.8701063072e+00 -4.9711699472e+00 2.8701063072e+00 4.9711699472e+00 
138100 6.5436261892e+00 -1.2434111725e-03 2.8701280295e+00 -4.9712075713e+00 2.8701280295e+00 4.9712075713e+00 
138200 6.5436258080e+00 -1.2399282364e-03 2.8701496908e+00 -4.9712450897e+00 2.8701496908e+00 4.9712450897e+00 
138300 6.5436254287e+00 -1.2364560386e-03 2.8701712912e+00 -4.9712825028e+00 2.8701712912e+00 4.9712825028e+00 
138400 6.5436250513e+00 -1.2329945427e-03 2.8701928310e+00 -4.9713198108e+00 2.8701928310e+00 4.9713198108e+00 
138500 6.5436246759e+00 -1.2295437127e-03 2.8702143103e+00 -4.9713570141e+00 2.8702143103e+00 4.9713570141e+00 
138600 6.5436243023e+00 -1.2261035125e-03 2.8702357294e+00 -4.9713941130e+00 2.8702357294e+00 4.9713941130e+00 
138700 6.5436239306e+00 -1.2226739064e-03 2.8702570883e+00 -4.9714311078e+00 2.8702570883e+00 4.9714311078e+00 
138800 6.5436235608e+00 -1.2192548586e-03 2.8702783874e+00 -4.9714679988e+00 2.8702783874e+00 4.9714679988e+00 
138900 6.5436231929e+00 -1.2158463334e-03 2.8702996267e+00 -4.9715047864e+00 2.8702996267e+00 4.9715047864e+00 
139000 6.5436228268e+00 -1.2124482955e-03 2.8703208065e+00 -4.9715414709e+00 2.8703208065e+00 4.9715414709e+00 
139100 6.5436224626e+00 -1.2090607094e-03 2.8703419270e+00 -4.9715780527e+00 2.8703419270e+00 4.9715780527e+00 
139200 6.5436221002e+00 -1.2056835399e-03 2.8703629883e+00 -4.9716145319e+00 2.8703629883e+00 4.9716145319e+00 
139300 6.5436217396e+00 -1.2023167519e-03 2.8703839906e+00 -4.9716509089e+00 2.8703839906e+00 4.9716509089e+00 
139400 6.5436213809e+00 -1.1989603104e-03 2.8704049341e+00 -4.9716871842e+00 2.8704049341e+00 4.9716871842e+00 
139500 6.5436210239e+00 -1.1956141805e-03 2.8704258190e+00 -4.9717233579e+00 2.8704258190e+00 4.9717233579e+00 
139600 6.5436206688e+00 -1.1922783276e-03 2.8704466454e+00 -4.9717594303e+00 2.8704466454e+00 4.9717594303e+00 
139700 6.5436203154e+00 -1.1889527169e-03 2.8704674136e+00 -4.9717954019e+00 2.8704674136e+00 4.9717954019e+00 
139800 6.5436199638e+00 -1.1856373140e-03 2.8704881238e+00 -4.9718312729e+00 2.8704881238e+00 4.9718312729e+00 
139900 6.5436196140e+00 -1.1823320846e-03 2.8705087760e+00 -4.9718670435e+00 2.8705087760e+00 4.9718670435e+00 
140000 6.5436192660e+00 -1.1790369942e-03 2.8705293705e+00 -4.9719027143e+00 2.8705293705e+00 4.9719027143e+00 
140100 6.5436189197e+00 -1.1757520089e-03 2.8705499074e+00 -4.9719382853e+00 2.8705499074e+00 4.9719382853e+00 
140200 6.5436185752e+00 -1.1724770946e-03 2.8705703870e+00 -4.9719737570e+00 2.8705703870e+00 4.9719737570e+00 
140300 6.5436182324e+00 -1.1692122174e-03 2.8705908094e+00 -4.9720091296e+00 2.8705908094e+00 4.9720091296e+00 
140400 6.5436178913e+00 -1.1659573435e-03 2.8706111748e+00 -4.9720444035e+00 2.8706111748e+00 4.9720444035e+00 
140500 6.5436175519e+00 -1.1627124393e-03 2.8706314833e+00 -4.9720795789e+00 2.8706314833e+00 4.9720795789e+00 
140600 6.5436172143e+00 -1.1594774712e-03 2.8706517352e+00 -4.9721146562e+00 2.8706517352e+00 4.9721146562e+00 
140700 6.5436168783e+00 -1.1562524058e-03 2.8706719306e+00 -4.9721496356e+00 2.8706719306e+00 4.9721496356e+00 
140800 6.5436165441e+00 -1.1530372098e-03 2.8706920697e+00 -4.9721845176e+00 2.8706920697e+00 4.9721845176e+00 
140900 6.5436162115e+00 -1.1498318500e-03 2.8707121526e+00 -4.9722193022e+00 2.8707121526e+00 4.9722193022e+00 
141000 6.5436158806e+00 -1.1466362934e-03 2.8707321796e+00 -4.9722539899e+00 2.8707321796e+00 4.9722539899e+00 
141100 6.5436155514e+00 -1.1434505069e-03 2.8707521507e+00 -4.9722885810e+00 2.8707521507e+00 4.9722885810e+00 
141200 6.5436152238e+00 -1.1402744578e-03 2.8707720663e+00 -4.9723230758e+00 2.8707720663e+00 4.9723230758e+00 
141300 6.5436148978e+00 -1.1371081134e-03 2.8707919264e+00 -4.9723574744e+00 2.8707919264e+00 4.9723574744e+00 
141400 6.5436145735e+00 -1.1339514409e-03 2.8708117312e+00 -4.9723917774e+00 2.8708117312e+00 4.9723917774e+00 
141500 6.5436142509e+00 -1.1308044080e-03 2.8708314809e+00 -4.9724259848e+00 2.8708314809e+00 4.9724259848e+00 
141600 6.5436139298e+00 -1.1276669823e-03 2.8708511756e+00 -4.9724600971e+00 2.8708511756e+00 4.9724600971e+00 
141700 6.5436136104e+00 -1.1245391314e-03 2.8708708156e+00 -4.9724941145e+00 2.8708708156e+00 4.9724941145e+00 
141800 6.5436132926e+00 -1.1214208233e-03 2.8708904009e+00 -4.9725280374e+00 2.8708904009e+00 4.9725280374e+00 
141900 6.5436129763e+00 -1.1183120259e-03 2.8709099318e+00 -4.9725618659e+00 2.8709099318e+00 4.9725618659e+00 
142000 6.5436126617e+00 -1.1152127073e-03 2.8709294085e+00 -4.9725956004e+00 2.8709294085e+00 4.9725956004e+00 
142100 6.5436123487e+00 -1.1121228357e-03 2.8709488310e+00 -4.9726292412e+00 2.8709488310e+00 4.9726292412e+00 
142200 6.5436120372e+00 -1.1090423794e-03 2.8709681996e+00 -4.9726627886e+00 2.8709681996e+00 4.9726627886e+00 
142300 6.5436117273e+00 -1.1059713068e-03 2.8709875144e+00 -4.9726962428e+00 2.8709875144e+00 4.9726962428e+00 
142400 6.5436114189e+00 -1.1029095864e-03 2.8710067756e+00 -4.9727296042e+00 2.8710067756e+00 4.9727296042e+00 
142500 6.5436111121e+00 -1.0998571868e-03 2.8710259833e+00 -4.9727628729e+00 2.8710259833e+00 4.9727628729e+00 
142600 6.5436108068e+00 -1.0968140769e-03 2.8710451378e+00 -4.9727960494e+00 2.8710451378e+00 4.9727960494e+00 
142700 6.5436105031e+00 -1.0937802255e-03 2.8710642391e+00 -4.9728291339e+00 2.8710642391e+00 4.9728291339e+00 
142800 6.5436102009e+00 -1.0907556015e-03 2.8710832874e+00 -4.9728621266e+00 2.8710832874e+00 4.9728621266e+00 
142900 6.5436099002e+00 -1.0877401740e-03 2.8711022830e+00 -4.9728950279e+00 2.8711022830e+00 4.9728950279e+00 
143000 6.5436096010e+00 -1.0847339123e-03 2.8711212259e+00 -4.9729278380e+00 2.8711212259e+00 4.9729278380e+00 
143100 6.5436093033e+00 -1.0817367855e-03 2.8711401164e+00 -4.9729605572e+00 2.8711401164e+00 4.9729605572e+00 
143200 6.5436090071e+00 -1.0787487632e-03 2.8711589545e+00 -4.9729931858e+00 2.8711589545e+00 4.9729931858e+00 
143300 6.5436087124e+00 -1.0757698149e-03 2.8711777405e+00 -4.9730257240e+00 2.8711777405e+00 4.9730257240e+00 
143400 6.5436084192e+00 -1.0727999101e-03 2.8711964744e+00 -4.9730581722e+00 2.8711964744e+00 4.9730581722e+00 
143500 6.5436081274e+00 -1.0698390186e-03 2.8712151566e+00 -4.9730905306e+00 2.8712151566e+00 4.9730905306e+00 
143600 6.5436078371e+00 -1.0668871102e-03 2.8712337870e+00 -4.9731227995e+00 2.8712337870e+00 4.9731227995e+00 
143700 6.5436075483e+00 -1.0639441549e-03 2.8712523659e+00 -4.9731549791e+00 2.8712523659e+00 4.9731549791e+00 
143800 6.5436072609e+00 -1.0610101227e-03 2.8712708935e+00 -4.9731870698e+00 2.8712708935e+00 4.9731870698e+00 
143900 6.5436069750e+00 -1.0580849838e-03 2.8712893698e+00 -4.9732190717e+00 2.8712893698e+00 4.9732190717e+00 
144000 6.5436066905e+00 -1.0551687085e-03 2.8713077951e+00 -4.9732509852e+00 2.8713077951e+00 4.9732509852e+00 
144100 6.5436064074e+00 -1.0522612671e-03 2.8713261695e+00 -4.9732828106e+00 2.8713261695e+00 4.9732828106e+00 
144200 6.5436061257e+00 -1.0493626300e-03 2.8713444931e+00 -4.9733145481e+00 2.8713444931e+00 4.9733145481e+00 
144300 6.5436058455e+00 -1.0464727680e-03 2.8713627661e+00 -4.9733461979e+00 2.8713627661e+00 4.9733461979e+00 
144400 6.5436055666e+00 -1.0435916516e-03 2.8713809887e+00 -4.9733777604e+00 2.8713809887e+00 4.9733777604e+00 
144500 6.5436052892e+00 -1.0407192516e-03 2.8713991610e+00 -4.9734092357e+00 2.8713991610e+00 4.9734092357e+00 
144600 6.5436050131e+00 -1.0378555390e-03 2.8714172832e+00 -4.9734406243e+00 2.8714172832e+00 4.9734406243e+00 
144700 6.5436047384e+00 -1.0350004847e-03 2.8714353554e+00 -4.9734719262e+00 2.8714353554e+00 4.9734719262e+00 
144800 6.5436044651e+00 -1.0321540598e-03 2.8714533778e+00 -4.9735031419e+00 2.8714533778e+00 4.9735031419e+00 
144900 6.5436041932e+00 -1.0293162356e-03 2.8714713505e+00 -4.9735342715e+00 2.8714713505e+00 4.9735342715e+00 
145000 6.5436039226e+00 -1.0264869833e-03 2.8714892737e+00 -4.9735653154e+00 2.8714892737e+00 4.9735653154e+00 
145100 6.5436036534e+00 -1.0236662743e-03 2.8715071474e+00 -4.9735962737e+00 2.8715071474e+00 4.9735962737e+00 
145200 6.5436033855e+00 -1.0208540801e-03 2.8715249720e+00 -4.9736271467e+00 2.8715249720e+00 4.9736271467e+00 
145300 6.5436031190e+00 -1.0180503724e-03 2.8715427475e+00 -4.9736579348e+00 2.8715427475e+00 4.9736579348e+00 
145400 6.5436028538e+00 -1.0152551229e-03 2.8715604741e+00 -4.9736886381e+00 2.8715604741e+00 4.9736886381e+00 
145500 6.5436025899e+00 -1.0124683032e-03 2.8715781518e+00 -4.9737192569e+00 2.8715781518e+00 4.9737192569e+00 
145600 6.5436023274e+00 -1.0096898855e-03 2.8715957810e+00 -4.9737497915e+00 2.8715957810e+00 4.9737497915e+00 
145700 6.5436020661e+00 -1.0069198416e-03 2.8716133616e+00 -4.9737802421e+00 2.8716133616e+00 4.9737802421e+00 
145800 6.5436018062e+00 -1.0041581438e-03 2.8716308940e+00 -4.9738106089e+00 2.8716308940e+00 4.9738106089e+00 
145900 6.5436015476e+00 -1.0014047641e-03 2.8716483781e+00 -4.9738408923e+00 2.8716483781e+00 4.9738408923e+00 
146000 6.5436012903e+00 -9.9865967484e-04 2.8716658142e+00 -4.9738710925e+00 2.8716658142e+00 4.9738710925e+00 
146100 6.5436010342e+00 -9.9592284853e-04 2.8716832023e+00 -4.9739012097e+00 2.8716832023e+00 4.9739012097e+00 
146200 6.5436007794e+00 -9.9319425762e-04 2.8717005428e+00 -4.9739312442e+00 2.8717005428e+00 4.9739312442e+00 
146300 6.5436005260e+00 -9.9047387470e-04 2.8717178356e+00 -4.9739611962e+00 2.8717178356e+00 4.9739611962e+00 
146400 6.5436002737e+00 -9.8776167248e-04 2.8717350809e+00 -4.9739910660e+00 2.8717350809e+00 4.9739910660e+00 
146500 6.5436000228e+00 -9.8505762375e-04 2.8717522789e+00 -4.9740208538e+00 2.8717522789e+00 4.9740208538e+00 
146600 6.5435997731e+00 -9.8236170139e-04 2.8717694297e+00 -4.9740505599e+00 2.8717694297e+00 4.9740505599e+00 
146700 6.5435995246e+00 -9.7967387840e-04 2.8717865335e+00 -4.9740801846e+00 2.8717865335e+00 4.9740801846e+00 
146800 6.5435992774e+00 -9.7699412787e-04 2.8718035904e+00 -4.9741097280e+00 2.8718035904e+00 4.9741097280e+00 
146900 6.5435990314e+00 -9.7432242296e-04 2.8718206006e+00 -4.9741391904e+00 2.8718206006e+00 4.9741391904e+00 
147000 6.5435987866e+00 -9.7165873695e-04 2.8718375641e+00 -4.9741685721e+00 2.8718375641e+00 4.9741685721e+00 
147100 6.5435985431e+00 -9.6900304322e-04 2.8718544811e+00 -4.9741978732e+00 2.8718544811e+00 4.9741978732e+00 
147200 6.5435983008e+00 -9.6635531522e-04 2.8718713518e+00 -4.9742270941e+00 2.8718713518e+00 4.9742270941e+00 
147300 6.5435980597e+00 -9.6371552652e-04 2.8718881763e+00 -4.9742562350e+00 2.8718881763e+00 4.9742562350e+00 
147400 6.5435978198e+00 -9.6108365077e-04 2.8719049548e+00 -4.9742852962e+00 2.8719049548e+00 4.9742852962e+00 
147500 6.5435975811e+00 -9.5845966171e-04 2.8719216873e+00 -4.9743142777e+00 2.8719216873e+00 4.9743142777e+00 
147600 6.5435973436e+00 -9.5584353319e-04 2.8719383740e+00 -4.9743431800e+00 2.8719383740e+00 4.9743431800e+00 
147700 6.5435971072e+00 -9.5323523913e-04 2.8719550151e+00 -4.9743720033e+00 2.8719550151e+00 4.9743720033e+00 
147800 6.5435968721e+00 -9.5063475356e-04 2.8719716107e+00 -4.9744007477e+00 2.8719716107e+00 4.9744007477e+00 
147900 6.5435966381e+00 -9.4804205061e-04 2.8719881610e+00 -4.9744294135e+00 2.8719881610e+00 4.9744294135e+00 
148000 6.5435964053e+00 -9.4545710448e-04 2.8720046660e+00 -4.9744580010e+00 2.8720046660e+00 4.9744580010e+00 
148100 6.5435961737e+00 -9.4287988947e-04 2.8720211259e+00 -4.9744865104e+00 2.8720211259e+00 4.9744865104e+00 
148200 6.5435959432e+00 -9.4031037998e-04 2.8720375408e+00 -4.9745149419e+00 2.8720375408e+00 4.9745149419e+00 
148300 6.5435957138e+00 -9.3774855049e-04 2.8720539109e+00 -4.9745432957e+00 2.8720539109e+00 4.9745432957e+00 
148400 6.5435954856e+00 -9.3519437558e-04 2.8720702363e+00 -4.9745715722e+00 2.8720702363e+00 4.9745715722e+00 
148500 6.5435952586e+00 -9.3264782991e-04 2.8720865172e+00 -4.9745997715e+00 2.8720865172e+00 4.9745997715e+00 
148600 6.5435950327e+00 -9.3010888824e-04 2.8721027536e+00 -4.9746278938e+00 2.8721027536e+00 4.9746278938e+00 
148700 6.5435948079e+00 -9.2757752542e-04 2.8721189457e+00 -4.9746559394e+00 2.8721189457e+00 4.9746559394e+00 
148800 6.5435945842e+00 -9.2505371637e-04 2.8721350937e+00 -4.9746839085e+00 2.8721350937e+00 4.9746839085e+00 
148900 6.5435943616e+00 -9.2253743614e-04 2.8721511977e+00 -4.9747118014e+00 2.8721511977e+00 4.9747118014e+00 
149000 6.5435941402e+00 -9.2002865982e-04 2.8721672577e+00 -4.9747396182e+00 2.8721672577e+00 4.9747396182e+00 
149100 6.5435939198e+00 -9.1752736262e-04 2.8721832740e+00 -4.9747673593e+00 2.8721832740e+00 4.9747673593e+00 
149200 6.5435937006e+00 -9.1503351984e-04 2.8721992467e+00 -4.9747950247e+00 2.8721992467e+00 4.9747950247e+00 
149300 6.5435934824e+00 -9.1254710685e-04 2.8722151758e+00 -4.9748226148e+00 2.8722151758e+00 4.9748226148e+00 
149400 6.5435932653e+00 -9.1006809912e-04 2.8722310616e+00 -4.9748501298e+00 2.8722310616e+00 4.9748501298e+00 
149500 6.5435930493e+00 -9.0759647219e-04 2.8722469042e+00 -4.9748775699e+00 2.8722469042e+00 4.9748775699e+00 
149600 6.5435928344e+00 -9.0513220172e-04 2.8722627036e+00 -4.9749049353e+00 2.8722627036e+00 4.9749049353e+00 
149700 6.5435926206e+00 -9.0267526343e-04 2.8722784600e+00 -4.9749322263e+00 2.8722784600e+00 4.9749322263e+00 
149800 6.5435924078e+00 -9.0022563313e-04 2.8722941736e+00 -4.9749594430e+00 2.8722941736e+00 4.9749594430e+00 
149900 6.5435921961e+00 -8.9778328673e-04 2.8723098445e+00 -4.9749865858e+00 2.8723098445e+00 4.9749865858e+00 
150000 6.5435919854e+00 -8.9534820020e-04 2.8723254728e+00 -4.9750136547e+00 2.8723254728e+00 4.9750136547e+00 
150100 6.5435917758e+00 -8.9292034963e-04 2.8723410585e+00 -4.9750406501e+00 2.8723410585e+00 4.9750406501e+00 
150200 6.5435915672e+00 -8.9049971116e-04 2.8723566020e+00 -4.9750675721e+00 2.8723566020e+00 4.9750675721e+00 
150300 6.5435913597e+00 -8.8808626104e-04 2.8723721032e+00 -4.9750944210e+00 2.8723721032e+00 4.9750944210e+00 
150400 6.5435911532e+00 -8.8567997560e-04 2.8723875623e+00 -4.9751211970e+00 2.8723875623e+00 4.9751211970e+00 
150500 6.5435909477e+00 -8.8328083124e-04 2.8724029795e+00 -4.9751479003e+00 2.8724029795e+00 4.9751479003e+00 
150600 6.5435907433e+00 -8.8088880446e-04 2.8724183548e+00 -4.9751745311e+00 2.8724183548e+00 4.9751745311e+00 
150700 6.5435905398e+00 -8.7850387183e-04 2.8724336884e+00 -4.9752010896e+00 2.8724336884e+00 4.9752010896e+00 
150800 6.5435903374e+00 -8.7612601003e-04 2.8724489804e+00 -4.9752275761e+00 2.8724489804e+00 4.9752275761e+00 
150900 6.5435901360e+00 -8.7375519578e-04 2.8724642309e+00 -4.9752539908e+00 2.8724642309e+00 4.9752539908e+00 
151000 6.5435899356e+00 -8.7139140593e-04 2.8724794401e+00 -4.9752803339e+00 2.8724794401e+00 4.9752803339e+00 
151100 6.5435897361e+00 -8.6903461738e-04 2.8724946080e+00 -4.9753066055e+00 2.8724946080e+00 4.9753066055e+00 
151200 6.5435895377e+00 -8.6668480712e-04 2.8725097348e+00 -4.9753328060e+00 2.8725097348e+00 4.9753328060e+00 
151300 6.5435893403e+00 -8.6434195222e-04 2.8725248207e+00 -4.9753589355e+00 2.8725248207e+00 4.9753589355e+00 
151400 6.5435891438e+00 -8.6200602985e-04 2.8725398657e+00 -4.9753849942e+00 2.8725398657e+00 4.9753849942e+00 
151500 6.5435889483e+00 -8.5967701723e-04 2.8725548700e+00 -4.9754109823e+00 2.8725548700e+00 4.9754109823e+00 
151600 6.5435887538e+00 -8.5735489169e-04 2.8725698336e+00 -4.9754369001e+00 2.8725698336e+00 4.9754369001e+00 
151700 6.5435885603e+00 -8.5503963063e-04 2.8725847568e+00 -4.9754627477e+00 2.8725847568e+00 4.9754627477e+00 
151800 6.5435883677e+00 -8.5273121152e-04 2.8725996395e+00 -4.9754885255e+00 2.8725996395e+00 4.9754885255e+00 
151900 6.5435881761e+00 -8.5042961192e-04 2.8726144820e+00 -4.9755142334e+00 2.8726144820e+00 4.9755142334e+00 
152000 6.5435879854e+00 -8.4813480948e-04 2.8726292844e+00 -4.9755398719e+00 2.8726292844e+00 4.9755398719e+00 
152100 6.5435877957e+00 -8.4584678190e-04 2.8726440468e+00 -4.9755654411e+00 2.8726440468e+00 4.9755654411e+00 
152200 6.5435876069e+00 -8.4356550700e-04 2.8726587692e+00 -4.9755909411e+00 2.8726587692e+00 4.9755909411e+00 
152300 6.5435874190e+00 -8.4129096264e-04 2.8726734519e+00 -4.9756163722e+00 2.8726734519e+00 4.9756163722e+00 
152400 6.5435872321e+00 -8.3902312679e-04 2.8726880949e+00 -4.9756417347e+00 2.8726880949e+00 4.9756417347e+00 
152500 6.5435870461e+00 -8.3676197746e-04 2.8727026984e+00 -4.9756670286e+00 2.8727026984e+00 4.9756670286e+00 
152600 6.5435868611e+00 -8.3450749279e-04 2.8727172624e+00 -4.9756922543e+00 2.8727172624e+00 4.9756922543e+00 
152700 6.5435866769e+00 -8.3225965096e-04 2.8727317871e+00 -4.9757174118e+00 2.8727317871e+00 4.9757174118e+00 
152800 6.5435864937e+00 -8.3001843023e-04 2.8727462726e+00 -4.9757425015e+00 2.8727462726e+00 4.9757425015e+00 
152900 6.5435863114e+00 -8.2778380896e-04 2.8727607191e+00 -4.9757675234e+00 2.8727607191e+00 4.9757675234e+00 
153000 6.5435861300e+00 -8.2555576556e-04 2.8727751266e+00 -4.9757924779e+00 2.8727751266e+00 4.9757924779e+00 
153100 6.5435859494e+00 -8.2333427853e-04 2.8727894952e+00 -4.9758173651e+00 2.8727894952e+00 4.9758173651e+00 
153200 6.5435857698e+00 -8.2111932645e-04 2.8728038251e+00 -4.9758421852e+00 2.8728038251e+00 4.9758421852e+00 
153300 6.5435855911e+00 -8.1891088797e-04 2.8728181163e+00 -4.9758669384e+00 2.8728181163e+00 4.9758669384e+00 
153400 6.5435854132e+00 -8.1670894182e-04 2.8728323691e+00 -4.9758916249e+00 2.8728323691e+00 4.9758916249e+00 
153500 6.5435852363e+00 -8.1451346680e-04 2.8728465834e+00 -4.9759162449e+00 2.8728465834e+00 4.9759162449e+00 
153600 6.5435850602e+00 -8.1232444179e-04 2.8728607595e+00 -4.9759407986e+00 2.8728607595e+00 4.9759407986e+00 
153700 6.5435848850e+00 -8.1014184575e-04 2.8728748974e+00 -4.9759652862e+00 2.8728748974e+00 4.9759652862e+00 
153800 6.5435847106e+00 -8.0796565770e-04 2.8728889973e+00 -4.9759897078e+00 2.8728889973e+00 4.9759897078e+00 
153900 6.5435845372e+00 -8.0579585675e-04 2.8729030592e+00 -4.9760140638e+00 2.8729030592e+00 4.9760140638e+00 
154000 6.5435843646e+00 -8.0363242206e-04 2.8729170833e+00 -4.9760383542e+00 2.8729170833e+00 4.9760383542e+00 
154100 6.5435841928e+00 -8.0147533290e-04 2.8729310697e+00 -4.9760625793e+00 2.8729310697e+00 4.9760625793e+00 
154200 6.5435840219e+00 -7.9932456860e-04 2.8729450184e+00 -4.9760867392e+00 2.8729450184e+00 4.9760867392e+00 
154300 6.5435838518e+00 -7.9718010854e-04 2.8729589297e+00 -4.9761108342e+00 2.8729589297e+00 4.9761108342e+00 
154400 6.5435836826e+00 -7.9504193220e-04 2.8729728035e+00 -4.9761348645e+00 2.8729728035e+00 4.9761348645e+00 
154500 6.5435835142e+00 -7.9291001913e-04 2.8729866401e+00 -4.9761588301e+00 2.8729866401e+00 4.9761588301e+00 
154600 6.5435833467e+00 -7.9078434894e-04 2.8730004395e+00 -4.9761827314e+00 2.8730004395e+00 4.9761827314e+00 
154700 6.5435831799e+00 -7.8866490133e-04 2.8730142019e+00 -4.9762065685e+00 2.8730142019e+00 4.9762065685e+00 
154800 6.5435830140e+00 -7.8655165605e-04 2.8730279273e+00 -4.9762303416e+00 2.8730279273e+00 4.9762303416e+00 
154900 6.5435828490e+00 -7.8444459295e-04 2.8730416158e+00 -4.9762540509e+00 2.8730416158e+00 4.9762540509e+00 
155000 6.5435826847e+00 -7.8234369192e-04 2.8730552677e+00 -4.9762776965e+00 2.8730552677e+00 4.9762776965e+00 
155100 6.5435825213e+00 -7.8024893294e-04 2.8730688829e+00 -4.9763012788e+00 2.8730688829e+00 4.9763012788e+00 
155200 6.5435823587e+00 -7.7816029607e-04 2.8730824615e+00 -4.9763247977e+00 2.8730824615e+00 4.9763247977e+00 
155300 6.5435821968e+00 -7.7607776141e-04 2.8730960038e+00 -4.9763482536e+00 2.8730960038e+00 4.9763482536e+00 
155400 6.5435820358e+00 -7.7400130917e-04 2.8731095098e+00 -4.9763716466e+00 2.8731095098e+00 4.9763716466e+00 
155500 6.5435818756e+00 -7.7193091960e-04 2.8731229795e+00 -4.9763949769e+00 2.8731229795e+00 4.9763949769e+00 
155600 6.5435817161e+00 -7.6986657303e-04 2.8731364132e+00 -4.9764182447e+00 2.8731364132e+00 4.9764182447e+00 
155700 6.5435815575e+00 -7.6780824986e-04 2.8731498109e+00 -4.9764414502e+00 2.8731498109e+00 4.9764414502e+00 
155800 6.5435813996e+00 -7.6575593056e-04 2.8731631727e+00 -4.9764645935e+00 2.8731631727e+00 4.9764645935e+00 
155900 6.5435812425e+00 -7.6370959568e-04 2.8731764987e+00 -4.9764876748e+00 2.8731764987e+00 4.9764876748e+00 
156000 6.5435810862e+00 -7.6166922581e-04 2.8731897890e+00 -4.9765106944e+00 2.8731897890e+00 4.9765106944e+00 
156100 6.5435809307e+00 -7.5963480164e-04 2.8732030438e+00 -4.9765336523e+00 2.8732030438e+00 4.9765336523e+00 
156200 6.5435807759e+00 -7.5760630390e-04 2.8732162631e+00 -4.9765565488e+00 2.8732162631e+00 4.9765565488e+00 
156300 6.5435806219e+00 -7.5558371343e-04 2.8732294471e+00 -4.9765793841e+00 2.8732294471e+00 4.9765793841e+00 
156400 6.5435804687e+00 -7.5356701108e-04 2.8732425958e+00 -4.9766021583e+00 2.8732425958e+00 4.9766021583e+00 
156500 6.5435803162e+00 -7.5155617783e-04 2.8732557093e+00 -4.9766248716e+00 2.8732557093e+00 4.9766248716e+00 
156600 6.5435801645e+00 -7.4955119468e-04 2.8732687878e+00 -4.9766475242e+00 2.8732687878e+00 4.9766475242e+00 
156700 6.5435800135e+00 -7.4755204271e-04 2.8732818313e+00 -4.9766701163e+00 2.8732818313e+00 4.9766701163e+00 
156800 6.5435798633e+00 -7.4555870309e-04 2.8732948400e+00 -4.9766926480e+00 2.8732948400e+00 4.9766926480e+00 
156900 6.5435797138e+00 -7.4357115702e-04 2.8733078140e+00 -4.9767151196e+00 2.8733078140e+00 4.9767151196e+00 
157000 6.5435795651e+00 -7.4158938580e-04 2.8733207533e+00 -4.9767375311e+00 2.8733207533e+00 4.9767375311e+00 
157100 6.5435794171e+00 -7.3961337077e-04 2.8733336580e+00 -4.9767598828e+00 2.8733336580e+00 4.9767598828e+00 
157200 6.5435792698e+00 -7.3764309336e-04 2.8733465283e+00 -4.9767821748e+00 2.8733465283e+00 4.9767821748e+00 
157300 6.5435791232e+00 -7.3567853503e-04 2.8733593643e+00 -4.9768044073e+00 2.8733593643e+00 4.9768044073e+00 
157400 6.5435789774e+00 -7.3371967736e-04 2.8733721660e+00 -4.9768265806e+00 2.8733721660e+00 4.9768265806e+00 
157500 6.5435788323e+00 -7.3176650194e-04 2.8733849336e+00 -4.9768486947e+00 2.8733849336e+00 4.9768486947e+00 
157600 6.5435786879e+00 -7.2981899046e-04 2.8733976671e+00 -4.9768707498e+00 2.8733976671e+00 4.9768707498e+00 
157700 6.5435785442e+00 -7.2787712466e-04 2.8734103667e+00 -4.9768927462e+00 2.8734103667e+00 4.9768927462e+00 
157800 6.5435784012e+00 -7.2594088636e-04 2.8734230325e+00 -4.9769146839e+00 2.8734230325e+00 4.9769146839e+00 
157900 6.5435782590e+00 -7.2401025742e-04 2.8734356645e+00 -4.9769365631e+00 2.8734356645e+00 4.9769365631e+00 
158000 6.5435781174e+00 -7.2208521978e-04 2.8734482628e+00 -4.9769583841e+00 2.8734482628e+00 4.9769583841e+00 
158100 6.5435779766e+00 -7.2016575545e-04 2.8734608276e+00 -4.9769801470e+00 2.8734608276e+00 4.9769801470e+00 
158200 6.5435778364e+00 -7.1825184649e-04 2.8734733589e+00 -4.9770018519e+00 2.8734733589e+00 4.9770018519e+00 
158300 6.5435776969e+00 -7.1634347503e-04 2.8734858569e+00 -4.9770234990e+00 2.8734858569e+00 4.9770234990e+00 
158400 6.5435775581e+00 -7.1444062326e-04 2.8734983216e+00 -4.9770450886e+00 2.8734983216e+00 4.9770450886e+00 
158500 6.5435774200e+00 -7.1254327343e-04 2.8735107532e+00 -4.9770666206e+00 2.8735107532e+00 4.9770666206e+00 
158600 6.5435772826e+00 -7.1065140787e-04 2.8735231517e+00 -4.9770880955e+00 2.8735231517e+00 4.9770880955e+00 
158700 6.5435771459e+00 -7.0876500896e-04 2.8735355172e+00 -4.9771095132e+00 2.8735355172e+00 4.9771095132e+00 
158800 6.5435770098e+00 -7.0688405912e-04 2.8735478498e+00 -4.9771308739e+00 2.8735478498e+00 4.9771308739e+00 
158900 6.5435768744e+00 -7.0500854089e-04 2.8735601497e+00 -4.9771521779e+00 2.8735601497e+00 4.9771521779e+00 
159000 6.5435767397e+00 -7.0313843681e-04 2.8735724169e+00 -4.9771734252e+00 2.8735724169e+00 4.9771734252e+00 
159100 6.5435766056e+00 -7.0127372951e-04 2.8735846514e+00 -4.9771946162e+00 2.8735846514e+00 4.9771946162e+00 
159200 6.5435764722e+00 -6.9941440170e-04 2.8735968535e+00 -4.9772157508e+00 2.8735968535e+00 4.9772157508e+00 
159300 6.5435763394e+00 -6.9756043611e-04 2.8736090232e+00 -4.9772368293e+00 2.8736090232e+00 4.9772368293e+00 
159400 6.5435762073e+00 -6.9571181556e-04 2.8736211606e+00 -4.9772578518e+00 2.8736211606e+00 4.9772578518e+00 
159500 6.5435760759e+00 -6.9386852292e-04 2.8736332657e+00 -4.9772788186e+00 2.8736332657e+00 4.9772788186e+00 
159600 6.5435759451e+00 -6.9203054112e-04 2.8736453388e+00 -4.9772997296e+00 2.8736453388e+00 4.9772997296e+00 
159700 6.5435758150e+00 -6.9019785317e-04 2.8736573797e+00 -4.9773205853e+00 2.8736573797e+00 4.9773205853e+00 
159800 6.5435756854e+00 -6.8837044210e-04 2.8736693888e+00 -4.9773413856e+00 2.8736693888e+00 4.9773413856e+00 
159900 6.5435755566e+00 -6.8654829105e-04 2.8736813660e+00 -4.9773621307e+00 2.8736813660e+00 4.9773621307e+00 
160000 6.5435754283e+00 -6.8473138316e-04 2.8736933115e+00 -4.9773828208e+00 2.8736933115e+00 4.9773828208e+00 
160100 6.5435753007e+00 -6.8291970169e-04 2.8737052253e+00 -4.9774034561e+00 2.8737052253e+00 4.9774034561e+00 
160200 6.5435751738e+00 -6.8111322992e-04 2.8737171075e+00 -4.9774240368e+00 2.8737171075e+00 4.9774240368e+00 
160300 6.5435750474e+00 -6.7931195120e-04 2.8737289582e+00 -4.9774445628e+00 2.8737289582e+00 4.9774445628e+00 
160400 6.5435749217e+00 -6.7751584895e-04 2.8737407776e+00 -4.9774650346e+00 2.8737407776e+00 4.9774650346e+00 
160500 6.5435747966e+00 -6.7572490662e-04 2.8737525656e+00 -4.9774854521e+00 2.8737525656e+00 4.9774854521e+00 
160600 6.5435746721e+00 -6.7393910774e-04 2.8737643225e+00 -4.9775058155e+00 2.8737643225e+00 4.9775058155e+00 
160700 6.5435745482e+00 -6.7215843591e-04 2.8737760482e+00 -4.9775261251e+00 2.8737760482e+00 4.9775261251e+00 
160800 6.5435744249e+00 -6.7038287475e-04 2.8737877429e+00 -4.9775463809e+00 2.8737877429e+00 4.9775463809e+00 
160900 6.5435743023e+00 -6.6861240798e-04 2.8737994067e+00 -4.9775665831e+00 2.8737994067e+00 4.9775665831e+00 
161000 6.5435741802e+00 -6.6684701934e-04 2.8738110396e+00 -4.9775867319e+00 2.8738110396e+00 4.9775867319e+00 
161100 6.5435740587e+00 -6.6508669265e-04 2.8738226417e+00 -4.9776068274e+00 2.8738226417e+00 4.9776068274e+00 
161200 6.5435739379e+00 -6.6333141179e-04 2.8738342132e+00 -4.9776268698e+00 2.8738342132e+00 4.9776268698e+00 
161300 6.5435738176e+00 -6.6158116067e-04 2.8738457541e+00 -4.9776468592e+00 2.8738457541e+00 4.9776468592e+00 
161400 6.5435736979e+00 -6.5983592330e-04 2.8738572645e+00 -4.9776667958e+00 2.8738572645e+00 4.9776667958e+00 
161500 6.5435735789e+00 -6.5809568369e-04 2.8738687445e+00 -4.9776866797e+00 2.8738687445e+00 4.9776866797e+00 
161600 6.5435734604e+00 -6.5636042597e-04 2.8738801941e+00 -4.9777065111e+00 2.8738801941e+00 4.9777065111e+00 
161700 6.5435733424e+00 -6.5463013427e-04 2.8738916135e+00 -4.9777262901e+00 2.8738916135e+00 4.9777262901e+00 
161800 6.5435732251e+00 -6.5290479280e-04 2.8739030028e+00 -4.9777460169e+00 2.8739030028e+00 4.9777460169e+00 
161900 6.5435731083e+00 -6.5118438584e-04 2.8739143620e+00 -4.9777656916e+00 2.8739143620e+00 4.9777656916e+00 
162000 6.5435729921e+00 -6.4946889770e-04 2.8739256912e+00 -4.9777853144e+00 2.8739256912e+00 4.9777853144e+00 
162100 6.5435728765e+00 -6.4775831275e-04 2.8739369906e+00 -4.9778048854e+00 2.8739369906e+00 4.9778048854e+00 
162200 6.5435727615e+00 -6.4605261543e-04 2.8739482601e+00 -4.9778244048e+00 2.8739482601e+00 4.9778244048e+00 
162300 6.5435726470e+00 -6.4435179021e-04 2.8739594999e+00 -4.9778438728e+00 2.8739594999e+00 4.9778438728e+00 
162400 6.5435725331e+00 -6.4265582165e-04 2.8739707101e+00 -4.9778632894e+00 2.8739707101e+00 4.9778632894e+00 
162500 6.5435724197e+00 -6.4096469433e-04 2.8739818907e+00 -4.9778826548e+00 2.8739818907e+00 4.9778826548e+00 
162600 6.5435723069e+00 -6.3927839290e-04 2.8739930419e+00 -4.9779019692e+00 2.8739930419e+00 4.9779019692e+00 
162700 6.5435721947e+00 -6.3759690207e-04 2.8740041637e+00 -4.9779212327e+00 2.8740041637e+00 4.9779212327e+00 
162800 6.5435720830e+00 -6.3592020658e-04 2.8740152562e+00 -4.9779404455e+00 2.8740152562e+00 4.9779404455e+00 
162900 6.5435719718e+00 -6.3424829126e-04 2.8740263195e+00 -4.9779596076e+00 2.8740263195e+00 4.9779596076e+00 
163000 6.5435718612e+00 -6.3258114095e-04 2.8740373536e+00 -4.9779787193e+00 2.8740373536e+00 4.9779787193e+00 
163100 6.5435717512e+00 -6.3091874057e-04 2.8740483587e+00 -4.9779977807e+00 2.8740483587e+00 4.9779977807e+00 
163200 6.5435716417e+00 -6.2926107510e-04 2.8740593349e+00 -4.9780167920e+00 2.8740593349e+00 4.9780167920e+00 
163300 6.5435715327e+00 -6.2760812955e-04 2.8740702821e+00 -4.9780357532e+00 2.8740702821e+00 4.9780357532e+00 
163400 6.5435714242e+00 -6.2595988900e-04 2.8740812006e+00 -4.9780546645e+00 2.8740812006e+00 4.9780546645e+00 
163500 6.5435713163e+00 -6.2431633858e-04 2.8740920903e+00 -4.9780735261e+00 2.8740920903e+00 4.9780735261e+00 
163600 6.5435712089e+00 -6.2267746345e-04 2.8741029514e+00 -4.9780923381e+00 2.8741029514e+00 4.9780923381e+00 
163700 6.5435711021e+00 -6.2104324886e-04 2.8741137840e+00 -4.9781111006e+00 2.8741137840e+00 4.9781111006e+00 
163800 6.5435709958e+00 -6.1941368008e-04 2.8741245881e+00 -4.9781298139e+00 2.8741245881e+00 4.9781298139e+00 
163900 6.5435708899e+00 -6.1778874245e-04 2.8741353638e+00 -4.9781484779e+00 2.8741353638e+00 4.9781484779e+00 
164000 6.5435707847e+00 -6.1616842135e-04 2.8741461112e+00 -4.9781670929e+00 2.8741461112e+00 4.9781670929e+00 
164100 6.5435706799e+00 -6.1455270222e-04 2.8741568303e+00 -4.9781856591e+00 2.8741568303e+00 4.9781856591e+00 
164200 6.5435705756e+00 -6.1294157055e-04 2.8741675214e+00 -4.9782041765e+00 2.8741675214e+00 4.9782041765e+00 
164300 6.5435704719e+00 -6.1133501186e-04 2.8741781843e+00 -4.9782226452e+00 2.8741781843e+00 4.9782226452e+00 
164400 6.5435703686e+00 -6.0973301176e-04 2.8741888193e+00 -4.9782410655e+00 2.8741888193e+00 4.9782410655e+00 
164500 6.5435702659e+00 -6.0813555588e-04 2.8741994263e+00 -4.9782594375e+00 2.8741994263e+00 4.9782594375e+00 
164600 6.5435701637e+00 -6.0654262991e-04 2.8742100055e+00 -4.9782777612e+00 2.8742100055e+00 4.9782777612e+00 
164700 6.5435700620e+00 -6.0495421958e-04 2.8742205570e+00 -4.9782960369e+00 2.8742205570e+00 4.9782960369e+00 
164800 6.5435699607e+00 -6.0337031070e-04 2.8742310808e+00 -4.9783142647e+00 2.8742310808e+00 4.9783142647e+00 
164900 6.5435698600e+00 -6.0179088909e-04 2.8742415770e+00 -4.9783324446e+00 2.8742415770e+00 4.9783324446e+00 
165000 6.5435697598e+00 -6.0021594064e-04 2.8742520457e+00 -4.9783505770e+00 2.8742520457e+00 4.9783505770e+00 
165100 6.5435696600e+00 -5.9864545130e-04 2.8742624870e+00 -4.9783686617e+00 2.8742624870e+00 4.9783686617e+00 
165200 6.5435695608e+00 -5.9707940704e-04 2.8742729009e+00 -4.9783866992e+00 2.8742729009e+00 4.9783866992e+00 
165300 6.5435694620e+00 -5.9551779391e-04 2.8742832875e+00 -4.9784046893e+00 2.8742832875e+00 4.9784046893e+00 
165400 6.5435693637e+00 -5.9396059799e-04 2.8742936469e+00 -4.9784226324e+00 2.8742936469e+00 4.9784226324e+00 
165500 6.5435692659e+00 -5.9240780541e-04 2.8743039792e+00 -4.9784405284e+00 2.8743039792e+00 4.9784405284e+00 
165600 6.5435691686e+00 -5.9085940235e-04 2.8743142845e+00 -4.9784583776e+00 2.8743142845e+00 4.9784583776e+00 
165700 6.5435690717e+00 -5.8931537504e-04 2.8743245627e+00 -4.9784761801e+00 2.8743245627e+00 4.9784761801e+00 
165800 6.5435689753e+00 -5.8777570976e-04 2.8743348141e+00 -4.9784939360e+00 2.8743348141e+00 4.9784939360e+00 
165900 6.5435688794e+00 -5.8624039284e-04 2.8743450387e+00 -4.9785116455e+00 2.8743450387e+00 4.9785116455e+00 
166000 6.5435687840e+00 -5.8470941064e-04 2.8743552365e+00 -4.9785293086e+00 2.8743552365e+00 4.9785293086e+00 
166100 6.5435686890e+00 -5.8318274960e-04 2.8743654076e+00 -4.9785469256e+00 2.8743654076e+00 4.9785469256e+00 
166200 6.5435685945e+00 -5.8166039617e-04 2.8743755522e+00 -4.9785644964e+00 2.8743755522e+00 4.9785644964e+00 
166300 6.5435685005e+00 -5.8014233688e-04 2.8743856702e+00 -4.9785820214e+00 2.8743856702e+00 4.9785820214e+00 
166400 6.5435684069e+00 -5.7862855827e-04 2.8743957618e+00 -4.9785995005e+00 2.8743957618e+00 4.9785995005e+00 
166500 6.5435683138e+00 -5.7711904698e-04 2.8744058271e+00 -4.9786169340e+00 2.8744058271e+00 4.9786169340e+00 
166600 6.5435682212e+00 -5.7561378964e-04 2.8744158660e+00 -4.9786343220e+00 2.8744158660e+00 4.9786343220e+00 
166700 6.5435681290e+00 -5.7411277296e-04 2.8744258787e+00 -4.9786516645e+00 2.8744258787e+00 4.9786516645e+00 
166800 6.5435680372e+00 -5.7261598369e-04 2.8744358653e+00 -4.9786689617e+00 2.8744358653e+00 4.9786689617e+00 
166900 6.5435679459e+00 -5.7112340862e-04 2.8744458258e+00 -4.9786862138e+00 2.8744458258e+00 4.9786862138e+00 
167000 6.5435678550e+00 -5.6963503459e-04 2.8744557603e+00 -4.9787034209e+00 2.8744557603e+00 4.9787034209e+00 
167100 6.5435677646e+00 -5.6815084850e-04 2.8744656688e+00 -4.9787205831e+00 2.8744656688e+00 4.9787205831e+00 
167200 6.5435676746e+00 -5.6667083727e-04 2.8744755516e+00 -4.9787377004e+00 2.8744755516e+00 4.9787377004e+00 
167300 6.5435675851e+00 -5.6519498787e-04 2.8744854085e+00 -4.9787547732e+00 2.8744854085e+00 4.9787547732e+00 
167400 6.5435674960e+00 -5.6372328734e-04 2.8744952398e+00 -4.9787718014e+00 2.8744952398e+00 4.9787718014e+00 
167500 6.5435674074e+00 -5.6225572273e-04 2.8745050454e+00 -4.9787887852e+00 2.8745050454e+00 4.9787887852e+00 
167600 6.5435673191e+00 -5.6079228116e-04 2.8745148254e+00 -4.9788057248e+00 2.8745148254e+00 4.9788057248e+00 
167700 6.5435672313e+00 -5.5933294979e-04 2.8745245800e+00 -4.9788226201e+00 2.8745245800e+00 4.9788226201e+00 
167800 6.5435671440e+00 -5.5787771582e-04 2.8745343091e+00 -4.9788394715e+00 2.8745343091e+00 4.9788394715e+00 
167900 6.5435670570e+00 -5.5642656650e-04 2.8745440129e+00 -4.9788562790e+00 2.8745440129e+00 4.9788562790e+00 
168000 6.5435669705e+00 -5.5497948911e-04 2.8745536915e+00 -4.9788730427e+00 2.8745536915e+00 4.9788730427e+00 
168100 6.5435668844e+00 -5.5353647098e-04 2.8745633448e+00 -4.9788897627e+00 2.8745633448e+00 4.9788897627e+00 
168200 6.5435667988e+00 -5.5209749951e-04 2.8745729730e+00 -4.9789064392e+00 2.8745729730e+00 4.9789064392e+00 
168300 6.5435667135e+00 -5.5066256211e-04 2.8745825761e+00 -4.9789230723e+00 2.8745825761e+00 4.9789230723e+00 
168400 6.5435666287e+00 -5.4923164624e-04 2.8745921542e+00 -4.9789396622e+00 2.8745921542e+00 4.9789396622e+00 
168500 6.5435665443e+00 -5.4780473941e-04 2.8746017074e+00 -4.9789562088e+00 2.8746017074e+00 4.9789562088e+00 
168600 6.5435664603e+00 -5.4638182919e-04 2.8746112358e+00 -4.9789727124e+00 2.8746112358e+00 4.9789727124e+00 
168700 6.5435663767e+00 -5.4496290315e-04 2.8746207394e+00 -4.9789891731e+00 2.8746207394e+00 4.9789891731e+00 
168800 6.5435662935e+00 -5.4354794895e-04 2.8746302183e+00 -4.9790055910e+00 2.8746302183e+00 4.9790055910e+00 
168900 6.5435662107e+00 -5.4213695425e-04 2.8746396725e+00 -4.9790219662e+00 2.8746396725e+00 4.9790219662e+00 
169000 6.5435661283e+00 -5.4072990679e-04 2.8746491021e+00 -4.9790382989e+00 2.8746491021e+00 4.9790382989e+00 
169100 6.5435660464e+00 -5.3932679434e-04 2.8746585073e+00 -4.9790545891e+00 2.8746585073e+00 4.9790545891e+00 
169200 6.5435659648e+00 -5.3792760469e-04 2.8746678880e+00 -4.9790708369e+00 2.8746678880e+00 4.9790708369e+00 
169300 6.5435658836e+00 -5.3653232570e-04 2.8746772444e+00 -4.9790870426e+00 2.8746772444e+00 4.9790870426e+00 
169400 6.5435658028e+00 -5.3514094527e-04 2.8746865764e+00 -4.9791032062e+00 2.8746865764e+00 4.9791032062e+00 
169500 6.5435657225e+00 -5.3375345133e-04 2.8746958842e+00 -4.9791193278e+00 2.8746958842e+00 4.9791193278e+00 
169600 6.5435656425e+00 -5.3236983184e-04 2.8747051679e+00 -4.9791354076e+00 2.8747051679e+00 4.9791354076e+00 
169700 6.5435655629e+00 -5.3099007484e-04 2.8747144274e+00 -4.9791514456e+00 2.8747144274e+00 4.9791514456e+00 
169800 6.5435654837e+00 -5.2961416839e-04 2.8747236630e+00 -4.9791674420e+00 2.8747236630e+00 4.9791674420e+00 
169900 6.5435654048e+00 -5.2824210057e-04 2.8747328746e+00 -4.9791833969e+00 2.8747328746e+00 4.9791833969e+00 
170000 6.5435653264e+00 -5.2687385953e-04 2.8747420622e+00 -4.9791993104e+00 2.8747420622e+00 4.9791993104e+00 
170100 6.5435652483e+00 -5.2550943346e-04 2.8747512261e+00 -4.9792151827e+00 2.8747512261e+00 4.9792151827e+00 
170200 6.5435651707e+00 -5.2414881057e-04 2.8747603662e+00 -4.9792310138e+00 2.8747603662e+00 4.9792310138e+00 
170300 6.5435650934e+00 -5.2279197914e-04 2.8747694826e+00 -4.9792468039e+00 2.8747694826e+00 4.9792468039e+00 
170400 6.5435650164e+00 -5.2143892746e-04 2.8747785753e+00 -4.9792625530e+00 2.8747785753e+00 4.9792625530e+00 
170500 6.5435649399e+00 -5.2008964388e-04 2.8747876445e+00 -4.9792782613e+00 2.8747876445e+00 4.9792782613e+00 
170600 6.5435648637e+00 -5.1874411678e-04 2.8747966903e+00 -4.9792939289e+00 2.8747966903e+00 4.9792939289e+00 
170700 6.5435647879e+00 -5.1740233459e-04 2.8748057125e+00 -4.9793095560e+00 2.8748057125e+00 4.9793095560e+00 
170800 6.5435647125e+00 -5.1606428577e-04 2.8748147114e+00 -4.9793251426e+00 2.8748147114e+00 4.9793251426e+00 
170900 6.5435646374e+00 -5.1472995882e-04 2.8748236871e+00 -4.9793406888e+00 2.8748236871e+00 4.9793406888e+00 
171000 6.5435645628e+00 -5.1339934230e-04 2.8748326394e+00 -4.9793561948e+00 2.8748326394e+00 4.9793561948e+00 
171100 6.5435644884e+00 -5.1207242478e-04 2.8748415686e+00 -4.9793716606e+00 2.8748415686e+00 4.9793716606e+00 
171200 6.5435644145e+00 -5.1074919488e-04 2.8748504747e+00 -4.9793870864e+00 2.8748504747e+00 4.9793870864e+00 
171300 6.5435643408e+00 -5.0942964126e-04 2.8748593578e+00 -4.9794024723e+00 2.8748593578e+00 4.9794024723e+00 
171400 6.5435642676e+00 -5.0811375264e-04 2.8748682179e+00 -4.9794178185e+00 2.8748682179e+00 4.9794178185e+00 
171500 6.5435641947e+00 -5.0680151773e-04 2.8748770551e+00 -4.9794331249e+00 2.8748770551e+00 4.9794331249e+00 
171600 6.5435641222e+00 -5.0549292533e-04 2.8748858694e+00 -4.9794483917e+00 2.8748858694e+00 4.9794483917e+00 
171700 6.5435640500e+00 -5.0418796425e-04 2.8748946609e+00 -4.9794636191e+00 2.8748946609e+00 4.9794636191e+00 
171800 6.5435639782e+00 -5.0288662334e-04 2.8749034297e+00 -4.9794788072e+00 2.8749034297e+00 4.9794788072e+00 
171900 6.5435639067e+00 -5.0158889149e-04 2.8749121759e+00 -4.9794939559e+00 2.8749121759e+00 4.9794939559e+00 
172000 6.5435638356e+00 -5.0029475764e-04 2.8749208994e+00 -4.9795090656e+00 2.8749208994e+00 4.9795090656e+00 
172100 6.5435637648e+00 -4.9900421076e-04 2.8749296005e+00 -4.9795241362e+00 2.8749296005e+00 4.9795241362e+00 
172200 6.5435636943e+00 -4.9771723985e-04 2.8749382790e+00 -4.9795391679e+00 2.8749382790e+00 4.9795391679e+00 
172300 6.5435636242e+00 -4.9643383395e-04 2.8749469352e+00 -4.9795541608e+00 2.8749469352e+00 4.9795541608e+00 
172400 6.5435635545e+00 -4.9515398215e-04 2.8749555690e+00 -4.9795691149e+00 2.8749555690e+00 4.9795691149e+00 
172500 6.5435634851e+00 -4.9387767357e-04 2.8749641805e+00 -4.9795840305e+00 2.8749641805e+00 4.9795840305e+00 
172600 6.5435634160e+00 -4.9260489737e-04 2.8749727698e+00 -4.9795989076e+00 2.8749727698e+00 4.9795989076e+00 
172700 6.5435633472e+00 -4.9133564273e-04 2.8749813369e+00 -4.9796137463e+00 2.8749813369e+00 4.9796137463e+00 
172800 6.5435632788e+00 -4.9006989888e-04 2.8749898819e+00 -4.9796285467e+00 2.8749898819e+00 4.9796285467e+00 
172900 6.5435632108e+00 -4.8880765510e-04 2.8749984049e+00 -4.9796433090e+00 2.8749984049e+00 4.9796433090e+00 
173000 6.5435631430e+00 -4.8754890070e-04 2.8750069059e+00 -4.9796580331e+00 2.8750069059e+00 4.9796580331e+00 
173100 6.5435630756e+00 -4.8629362499e-04 2.8750153850e+00 -4.9796727194e+00 2.8750153850e+00 4.9796727194e+00 
173200 6.5435630085e+00 -4.8504181738e-04 2.8750238422e+00 -4.9796873677e+00 2.8750238422e+00 4.9796873677e+00 
173300 6.5435629418e+00 -4.8379346727e-04 2.8750322777e+00 -4.9797019784e+00 2.8750322777e+00 4.9797019784e+00 
173400 6.5435628754e+00 -4.8254856411e-04 2.8750406914e+00 -4.9797165513e+00 2.8750406914e+00 4.9797165513e+00 
173500 6.5435628092e+00 -4.8130709738e-04 2.8750490834e+00 -4.9797310868e+00 2.8750490834e+00 4.9797310868e+00 
173600 6.5435627435e+00 -4.8006905661e-04 2.8750574538e+00 -4.9797455847e+00 2.8750574538e+00 4.9797455847e+00 
173700 6.5435626780e+00 -4.7883443134e-04 2.8750658027e+00 -4.9797600454e+00 2.8750658027e+00 4.9797600454e+00 
173800 6.5435626128e+00 -4.7760321119e-04 2.8750741301e+00 -4.9797744688e+00 2.8750741301e+00 4.9797744688e+00 
173900 6.5435625480e+00 -4.7637538577e-04 2.8750824360e+00 -4.9797888551e+00 2.8750824360e+00 4.9797888551e+00 
174000 6.5435624835e+00 -4.7515094475e-04 2.8750907206e+00 -4.9798032044e+00 2.8750907206e+00 4.9798032044e+00 
174100 6.5435624193e+00 -4.7392987782e-04 2.8750989838e+00 -4.9798175167e+00 2.8750989838e+00 4.9798175167e+00 
174200 6.5435623554e+00 -4.7271217473e-04 2.8751072258e+00 -4.9798317923e+00 2.8751072258e+00 4.9798317923e+00 
174300 6.5435622918e+00 -4.7149782523e-04 2.8751154466e+00 -4.9798460311e+00 2.8751154466e+00 4.9798460311e+00 
174400 6.5435622286e+00 -4.7028681914e-04 2.8751236462e+00 -4.9798602333e+00 2.8751236462e+00 4.9798602333e+00 
174500 6.5435621656e+00 -4.6907914628e-04 2.8751318248e+00 -4.9798743989e+00 2.8751318248e+00 4.9798743989e+00 
174600 6.5435621030e+00 -4.6787479654e-04 2.8751399823e+00 -4.9798885282e+00 2.8751399823e+00 4.9798885282e+00 
174700 6.5435620406e+00 -4.6667375982e-04 2.8751481188e+00 -4.9799026211e+00 2.8751481188e+00 4.9799026211e+00 
174800 6.5435619786e+00 -4.6547602607e-04 2.8751562345e+00 -4.9799166778e+00 2.8751562345e+00 4.9799166778e+00 
174900 6.5435619168e+00 -4.6428158525e-04 2.8751643293e+00 -4.9799306984e+00 2.8751643293e+00 4.9799306984e+00 
175000 6.5435618554e+00 -4.6309042738e-04 2.8751724033e+00 -4.9799446830e+00 2.8751724033e+00 4.9799446830e+00 
175100 6.5435617942e+00 -4.6190254250e-04 2.8751804566e+00 -4.9799586317e+00 2.8751804566e+00 4.9799586317e+00 
175200 6.5435617334e+00 -4.6071792070e-04 2.8751884892e+00 -4.9799725445e+00 2.8751884892e+00 4.9799725445e+00 
175300 6.5435616728e+00 -4.5953655207e-04 2.8751965011e+00 -4.9799864217e+00 2.8751965011e+00 4.9799864217e+00 
175400 6.5435616126e+00 -4.5835842677e-04 2.8752044925e+00 -4.9800002632e+00 2.8752044925e+00 4.9800002632e+00 
175500 6.5435615526e+00 -4.5718353497e-04 2.8752124634e+00 -4.9800140692e+00 2.8752124634e+00 4.9800140692e+00 
175600 6.5435614929e+00 -4.5601186688e-04 2.8752204138e+00 -4.9800278397e+00 2.8752204138e+00 4.9800278397e+00 
175700 6.5435614336e+00 -4.5484341276e-04 2.8752283439e+00 -4.9800415749e+00 2.8752283439e+00 4.9800415749e+00 
175800 6.5435613745e+00 -4.5367816287e-04 2.8752362536e+00 -4.9800552749e+00 2.8752362536e+00 4.9800552749e+00 
175900 6.5435613157e+00 -4.5251610754e-04 2.8752441430e+00 -4.9800689398e+00 2.8752441430e+00 4.9800689398e+00 
176000 6.5435612571e+00 -4.5135723709e-04 2.8752520122e+00 -4.9800825696e+00 2.8752520122e+00 4.9800825696e+00 
176100 6.5435611989e+00 -4.5020154191e-04 2.8752598612e+00 -4.9800961645e+00 2.8752598612e+00 4.9800961645e+00 
176200 6.5435611409e+00 -4.4904901241e-04 2.8752676901e+00 -4.9801097245e+00 2.8752676901e+00 4.9801097245e+00 
176300 6.5435610833e+00 -4.4789963902e-04 2.8752754989e+00 -4.9801232498e+00 2.8752754989e+00 4.9801232498e+00 
176400 6.5435610259e+00 -4.4675341223e-04 2.8752832877e+00 -4.9801367404e+00 2.8752832877e+00 4.9801367404e+00 
176500 6.5435609688e+00 -4.4561032254e-04 2.8752910566e+00 -4.9801501965e+00 2.8752910566e+00 4.9801501965e+00 
176600 6.5435609119e+00 -4.4447036047e-04 2.8752988055e+00 -4.9801636181e+00 2.8752988055e+00 4.9801636181e+00 
176700 6.5435608554e+00 -4.4333351662e-04 2.8753065346e+00 -4.9801770053e+00 2.8753065346e+00 4.9801770053e+00 
176800 6.5435607991e+00 -4.4219978156e-04 2.8753142440e+00 -4.9801903583e+00 2.8753142440e+00 4.9801903583e+00 
176900 6.5435607431e+00 -4.4106914595e-04 2.8753219336e+00 -4.9802036770e+00 2.8753219336e+00 4.9802036770e+00 
177000 6.5435606873e+00 -4.3994160044e-04 2.8753296035e+00 -4.9802169617e+00 2.8753296035e+00 4.9802169617e+00 
177100 6.5435606319e+00 -4.3881713572e-04 2.8753372538e+00 -4.9802302124e+00 2.8753372538e+00 4.9802302124e+00 
177200 6.5435605767e+00 -4.3769574254e-04 2.8753448845e+00 -4.9802434292e+00 2.8753448845e+00 4.9802434292e+00 
177300 6.5435605217e+00 -4.3657741164e-04 2.8753524957e+00 -4.9802566122e+00 2.8753524957e+00 4.9802566122e+00 
177400 6.5435604671e+00 -4.3546213382e-04 2.8753600874e+00 -4.9802697614e+00 2.8753600874e+00 4.9802697614e+00 
177500 6.5435604127e+00 -4.3434989990e-04 2.8753676597e+00 -4.9802828770e+00 2.8753676597e+00 4.9802828770e+00 
177600 6.5435603585e+00 -4.3324070073e-04 2.8753752126e+00 -4.9802959591e+00 2.8753752126e+00 4.9802959591e+00 
177700 6.5435603047e+00 -4.3213452719e-04 2.8753827463e+00 -4.9803090078e+00 2.8753827463e+00 4.9803090078e+00 
177800 6.5435602510e+00 -4.3103137020e-04 2.8753902607e+00 -4.9803220231e+00 2.8753902607e+00 4.9803220231e+00 
177900 6.5435601977e+00 -4.2993122069e-04 2.8753977559e+00 -4.9803350051e+00 2.8753977559e+00 4.9803350051e+00 
178000 6.5435601446e+00 -4.2883406966e-04 2.8754052319e+00 -4.9803479540e+00 2.8754052319e+00 4.9803479540e+00 
178100 6.5435600918e+00 -4.2773990809e-04 2.8754126888e+00 -4.9803608698e+00 2.8754126888e+00 4.9803608698e+00 
178200 6.5435600392e+00 -4.2664872702e-04 2.8754201267e+00 -4.9803737526e+00 2.8754201267e+00 4.9803737526e+00 
178300 6.5435599869e+00 -4.2556051753e-04 2.8754275456e+00 -4.9803866025e+00 2.8754275456e+00 4.9803866025e+00 
178400 6.5435599348e+00 -4.2447527070e-04 2.8754349456e+00 -4.9803994196e+00 2.8754349456e+00 4.9803994196e+00 
178500 6.5435598830e+00 -4.2339297766e-04 2.8754423266e+00 -4.9804122040e+00 2.8754423266e+00 4.9804122040e+00 
178600 6.5435598314e+00 -4.2231362957e-04 2.8754496889e+00 -4.9804249557e+00 2.8754496889e+00 4.9804249557e+00 
178700 6.5435597801e+00 -4.2123721760e-04 2.8754570323e+00 -4.9804376749e+00 2.8754570323e+00 4.9804376749e+00 
178800 6.5435597290e+00 -4.2016373299e-04 2.8754643570e+00 -4.9804503617e+00 2.8754643570e+00 4.9804503617e+00 
178900 6.5435596782e+00 -4.1909316695e-04 2.8754716630e+00 -4.9804630161e+00 2.8754716630e+00 4.9804630161e+00 
179000 6.5435596276e+00 -4.1802551078e-04 2.8754789504e+00 -4.9804756382e+00 2.8754789504e+00 4.9804756382e+00 
179100 6.5435595773e+00 -4.1696075577e-04 2.8754862192e+00 -4.9804882281e+00 2.8754862192e+00 4.9804882281e+00 
179200 6.5435595272e+00 -4.1589889325e-04 2.8754934695e+00 -4.9805007860e+00 2.8754934695e+00 4.9805007860e+00 
179300 6.5435594774e+00 -4.1483991459e-04 2.8755007013e+00 -4.9805133118e+00 2.8755007013e+00 4.9805133118e+00 
179400 6.5435594278e+00 -4.1378381117e-04 2.8755079146e+00 -4.9805258057e+00 2.8755079146e+00 4.9805258057e+00 
179500 6.5435593784e+00 -4.1273057441e-04 2.8755151096e+00 -4.9805382677e+00 2.8755151096e+00 4.9805382677e+00 
179600 6.5435593293e+00 -4.1168019576e-04 2.8755222862e+00 -4.9805506980e+00 2.8755222862e+00 4.9805506980e+00 
179700 6.5435592804e+00 -4.1063266669e-04 2.8755294446e+00 -4.9805630967e+00 2.8755294446e+00 4.9805630967e+00 
179800 6.5435592318e+00 -4.0958797871e-04 2.8755365847e+00 -4.9805754637e+00 2.8755365847e+00 4.9805754637e+00 
179900 6.5435591834e+00 -4.0854612335e-04 2.8755437067e+00 -4.9805877993e+00 2.8755437067e+00 4.9805877993e+00 
180000 6.5435591352e+00 -4.0750709217e-04 2.8755508105e+00 -4.9806001035e+00 2.8755508105e+00 4.9806001035e+00 
180100 6.5435590872e+00 -4.0647087675e-04 2.8755578962e+00 -4.9806123763e+00 2.8755578962e+00 4.9806123763e+00 
180200 6.5435590395e+00 -4.0543746872e-04 2.8755649639e+00 -4.9806246179e+00 2.8755649639e+00 4.9806246179e+00 
180300 6.5435589920e+00 -4.0440685972e-04 2.8755720136e+00 -4.9806368283e+00 2.8755720136e+00 4.9806368283e+00 
180400 6.5435589448e+00 -4.0337904141e-04 2.8755790453e+00 -4.9806490077e+00 2.8755790453e+00 4.9806490077e+00 
180500 6.5435588978e+00 -4.0235400551e-04 2.8755860592e+00 -4.9806611561e+00 2.8755860592e+00 4.9806611561e+00 
180600 6.5435588510e+00 -4.0133174374e-04 2.8755930553e+00 -4.9806732736e+00 2.8755930553e+00 4.9806732736e+00 
180700 6.5435588044e+00 -4.0031224786e-04 2.8756000335e+00 -4.9806853603e+00 2.8756000335e+00 4.9806853603e+00 
180800 6.5435587581e+00 -3.9929550964e-04 2.8756069940e+00 -4.9806974162e+00 2.8756069940e+00 4.9806974162e+00 
180900 6.5435587120e+00 -3.9828152090e-04 2.8756139368e+00 -4.9807094415e+00 2.8756139368e+00 4.9807094415e+00 
181000 6.5435586661e+00 -3.9727027347e-04 2.8756208620e+00 -4.9807214362e+00 2.8756208620e+00 4.9807214362e+00 
181100 6.5435586204e+00 -3.9626175923e-04 2.8756277695e+00 -4.9807334005e+00 2.8756277695e+00 4.9807334005e+00 
181200 6.5435585750e+00 -3.9525597005e-04 2.8756346595e+00 -4.9807453343e+00 2.8756346595e+00 4.9807453343e+00 
181300 6.5435585297e+00 -3.9425289787e-04 2.8756415320e+00 -4.9807572379e+00 2.8756415320e+00 4.9807572379e+00 
181400 6.5435584847e+00 -3.9325253462e-04 2.8756483871e+00 -4.9807691111e+00 2.8756483871e+00 4.9807691111e+00 
181500 6.5435584399e+00 -3.9225487228e-04 2.8756552247e+00 -4.9807809543e+00 2.8756552247e+00 4.9807809543e+00 
181600 6.5435583954e+00 -3.9125990284e-04 2.8756620450e+00 -4.9807927673e+00 2.8756620450e+00 4.9807927673e+00 
181700 6.5435583510e+00 -3.9026761834e-04 2.8756688480e+00 -4.9808045504e+00 2.8756688480e+00 4.9808045504e+00 
181800 6.5435583068e+00 -3.8927801082e-04 2.8756756336e+00 -4.9808163036e+00 2.8756756336e+00 4.9808163036e+00 
181900 6.5435582629e+00 -3.8829107236e-04 2.8756824021e+00 -4.9808280269e+00 2.8756824021e+00 4.9808280269e+00 
182000 6.5435582192e+00 -3.8730679507e-04 2.8756891534e+00 -4.9808397205e+00 2.8756891534e+00 4.9808397205e+00 
182100 6.5435581757e+00 -3.8632517108e-04 2.8756958876e+00 -4.9808513844e+00 2.8756958876e+00 4.9808513844e+00 
182200 6.5435581324e+00 -3.8534619253e-04 2.8757026046e+00 -4.9808630187e+00 2.8757026046e+00 4.9808630187e+00 
182300 6.5435580893e+00 -3.8436985163e-04 2.8757093047e+00 -4.9808746235e+00 2.8757093047e+00 4.9808746235e+00 
182400 6.5435580464e+00 -3.8339614057e-04 2.8757159877e+00 -4.9808861989e+00 2.8757159877e+00 4.9808861989e+00 
182500 6.5435580038e+00 -3.8242505159e-04 2.8757226538e+00 -4.9808977449e+00 2.8757226538e+00 4.9808977449e+00 
182600 6.5435579613e+00 -3.8145657695e-04 2.8757293030e+00 -4.9809092616e+00 2.8757293030e+00 4.9809092616e+00 
182700 6.5435579190e+00 -3.8049070893e-04 2.8757359354e+00 -4.9809207492e+00 2.8757359354e+00 4.9809207492e+00 
182800 6.5435578770e+00 -3.7952743985e-04 2.8757425509e+00 -4.9809322077e+00 2.8757425509e+00 4.9809322077e+00 
182900 6.5435578351e+00 -3.7856676204e-04 2.8757491497e+00 -4.9809436371e+00 2.8757491497e+00 4.9809436371e+00 
183000 6.5435577935e+00 -3.7760866786e-04 2.8757557317e+00 -4.9809550375e+00 2.8757557317e+00 4.9809550375e+00 
183100 6.5435577520e+00 -3.7665314971e-04 2.8757622971e+00 -4.9809664091e+00 2.8757622971e+00 4.9809664091e+00 
183200 6.5435577108e+00 -3.7570019998e-04 2.8757688459e+00 -4.9809777519e+00 2.8757688459e+00 4.9809777519e+00 
183300 6.5435576697e+00 -3.7474981113e-04 2.8757753780e+00 -4.9809890659e+00 2.8757753780e+00 4.9809890659e+00 
183400 6.5435576289e+00 -3.7380197561e-04 2.8757818937e+00 -4.9810003513e+00 2.8757818937e+00 4.9810003513e+00 
183500 6.5435575882e+00 -3.7285668591e-04 2.8757883928e+00 -4.9810116082e+00 2.8757883928e+00 4.9810116082e+00 
183600 6.5435575478e+00 -3.7191393454e-04 2.8757948755e+00 -4.9810228365e+00 2.8757948755e+00 4.9810228365e+00 
183700 6.5435575075e+00 -3.7097371404e-04 2.8758013418e+00 -4.9810340365e+00 2.8758013418e+00 4.9810340365e+00 
183800 6.5435574674e+00 -3.7003601696e-04 2.8758077917e+00 -4.9810452080e+00 2.8758077917e+00 4.9810452080e+00 
183900 6.5435574276e+00 -3.6910083590e-04 2.8758142253e+00 -4.9810563514e+00 2.8758142253e+00 4.9810563514e+00 
184000 6.5435573879e+00 -3.6816816346e-04 2.8758206426e+00 -4.9810674665e+00 2.8758206426e+00 4.9810674665e+00 
184100 6.5435573484e+00 -3.6723799228e-04 2.8758270437e+00 -4.9810785535e+00 2.8758270437e+00 4.9810785535e+00 
184200 6.5435573091e+00 -3.6631031501e-04 2.8758334287e+00 -4.9810896125e+00 2.8758334287e+00 4.9810896125e+00 
184300 6.5435572700e+00 -3.6538512435e-04 2.8758397974e+00 -4.9811006436e+00 2.8758397974e+00 4.9811006436e+00 
184400 6.5435572311e+00 -3.6446241298e-04 2.8758461501e+00 -4.9811116467e+00 2.8758461501e+00 4.9811116467e+00 
184500 6.5435571924e+00 -3.6354217366e-04 2.8758524867e+00 -4.9811226221e+00 2.8758524867e+00 4.9811226221e+00 
184600 6.5435571538e+00 -3.6262439912e-04 2.8758588073e+00 -4.9811335697e+00 2.8758588073e+00 4.9811335697e+00 
184700 6.5435571155e+00 -3.6170908215e-04 2.8758651119e+00 -4.9811444896e+00 2.8758651119e+00 4.9811444896e+00 
184800 6.5435570773e+00 -3.6079621555e-04 2.8758714006e+00 -4.9811553820e+00 2.8758714006e+00 4.9811553820e+00 
184900 6.5435570393e+00 -3.5988579214e-04 2.8758776735e+00 -4.9811662468e+00 2.8758776735e+00 4.9811662468e+00 
185000 6.5435570015e+00 -3.5897780478e-04 2.8758839304e+00 -4.9811770842e+00 2.8758839304e+00 4.9811770842e+00 
185100 6.5435569639e+00 -3.5807224634e-04 2.8758901716e+00 -4.9811878942e+00 2.8758901716e+00 4.9811878942e+00 
185200 6.5435569264e+00 -3.5716910970e-04 2.8758963970e+00 -4.9811986770e+00 2.8758963970e+00 4.9811986770e+00 
185300 6.5435568892e+00 -3.5626838780e-04 2.8759026067e+00 -4.9812094325e+00 2.8759026067e+00 4.9812094325e+00 
185400 6.5435568521e+00 -3.5537007357e-04 2.8759088008e+00 -4.9812201609e+00 2.8759088008e+00 4.9812201609e+00 
185500 6.5435568152e+00 -3.5447415997e-04 2.8759149792e+00 -4.9812308622e+00 2.8759149792e+00 4.9812308622e+00 
185600 6.5435567785e+00 -3.5358064001e-04 2.8759211420e+00 -4.9812415365e+00 2.8759211420e+00 4.9812415365e+00 
185700 6.5435567419e+00 -3.5268950668e-04 2.8759272892e+00 -4.9812521838e+00 2.8759272892e+00 4.9812521838e+00 
185800 6.5435567056e+00 -3.5180075302e-04 2.8759334210e+00 -4.9812628043e+00 2.8759334210e+00 4.9812628043e+00 
185900 6.5435566694e+00 -3.5091437209e-04 2.8759395373e+00 -4.9812733981e+00 2.8759395373e+00 4.9812733981e+00 
186000 6.5435566334e+00 -3.5003035696e-04 2.8759456381e+00 -4.9812839651e+00 2.8759456381e+00 4.9812839651e+00 
186100 6.5435565975e+00 -3.4914870075e-04 2.8759517236e+00 -4.9812945054e+00 2.8759517236e+00 4.9812945054e+00 
186200 6.5435565618e+00 -3.4826939657e-04 2.8759577938e+00 -4.9813050192e+00 2.8759577938e+00 4.9813050192e+00 
186300 6.5435565263e+00 -3.4739243757e-04 2.8759638486e+00 -4.9813155065e+00 2.8759638486e+00 4.9813155065e+00 
186400 6.5435564910e+00 -3.4651781692e-04 2.8759698882e+00 -4.9813259674e+00 2.8759698882e+00 4.9813259674e+00 
186500 6.5435564559e+00 -3.4564552782e-04 2.8759759126e+00 -4.9813364019e+00 2.8759759126e+00 4.9813364019e+00 
186600 6.5435564209e+00 -3.4477556347e-04 2.8759819218e+00 -4.9813468101e+00 2.8759819218e+00 4.9813468101e+00 
186700 6.5435563860e+00 -3.4390791711e-04 2.8759879158e+00 -4.9813571921e+00 2.8759879158e+00 4.9813571921e+00 
186800 6.5435563514e+00 -3.4304258200e-04 2.8759938948e+00 -4.9813675480e+00 2.8759938948e+00 4.9813675480e+00 
186900 6.5435563169e+00 -3.4217955141e-04 2.8759998587e+00 -4.9813778778e+00 2.8759998587e+00 4.9813778778e+00 
187000 6.5435562826e+00 -3.4131881866e-04 2.8760058075e+00 -4.9813881815e+00 2.8760058075e+00 4.9813881815e+00 
187100 6.5435562484e+00 -3.4046037707e-04 2.8760117415e+00 -4.9813984594e+00 2.8760117415e+00 4.9813984594e+00 
187200 6.5435562145e+00 -3.3960421997e-04 2.8760176604e+00 -4.9814087113e+00 2.8760176604e+00 4.9814087113e+00 
187300 6.5435561806e+00 -3.3875034073e-04 2.8760235645e+00 -4.9814189375e+00 2.8760235645e+00 4.9814189375e+00 
187400 6.5435561470e+00 -3.3789873276e-04 2.8760294537e+00 -4.9814291379e+00 2.8760294537e+00 4.9814291379e+00 
187500 6.5435561135e+00 -3.3704938944e-04 2.8760353281e+00 -4.9814393126e+00 2.8760353281e+00 4.9814393126e+00 
187600 6.5435560801e+00 -3.3620230422e-04 2.8760411877e+00 -4.9814494618e+00 2.8760411877e+00 4.9814494618e+00 
187700 6.5435560470e+00 -3.3535747055e-04 2.8760470326e+00 -4.9814595854e+00 2.8760470326e+00 4.9814595854e+00 
187800 6.5435560139e+00 -3.3451488190e-04 2.8760528628e+00 -4.9814696836e+00 2.8760528628e+00 4.9814696836e+00 
187900 6.5435559811e+00 -3.3367453177e-04 2.8760586783e+00 -4.9814797564e+00 2.8760586783e+00 4.9814797564e+00 
188000 6.5435559484e+00 -3.3283641367e-04 2.8760644792e+00 -4.9814898038e+00 2.8760644792e+00 4.9814898038e+00 
188100 6.5435559159e+00 -3.3200052113e-04 2.8760702655e+00 -4.9814998260e+00 2.8760702655e+00 4.9814998260e+00 
188200 6.5435558835e+00 -3.3116684773e-04 2.8760760373e+00 -4.9815098231e+00 2.8760760373e+00 4.9815098231e+00 
188300 6.5435558512e+00 -3.3033538703e-04 2.8760817946e+00 -4.9815197949e+00 2.8760817946e+00 4.9815197949e+00 
188400 6.5435558192e+00 -3.2950613263e-04 2.8760875374e+00 -4.9815297418e+00 2.8760875374e+00 4.9815297418e+00 
188500 6.5435557872e+00 -3.2867907816e-04 2.8760932658e+00 -4.9815396636e+00 2.8760932658e+00 4.9815396636e+00 
188600 6.5435557555e+00 -3.2785421726e-04 2.8760989797e+00 -4.9815495605e+00 2.8760989797e+00 4.9815495605e+00 
188700 6.5435557239e+00 -3.2703154358e-04 2.8761046794e+00 -4.9815594326e+00 2.8761046794e+00 4.9815594326e+00 
188800 6.5435556924e+00 -3.2621105081e-04 2.8761103647e+00 -4.9815692798e+00 2.8761103647e+00 4.9815692798e+00 
188900 6.5435556611e+00 -3.2539273266e-04 2.8761160358e+00 -4.9815791024e+00 2.8761160358e+00 4.9815791024e+00 
189000 6.5435556300e+00 -3.2457658283e-04 2.8761216926e+00 -4.9815889003e+00 2.8761216926e+00 4.9815889003e+00 
189100 6.5435555989e+00 -3.2376259509e-04 2.8761273352e+00 -4.9815986736e+00 2.8761273352e+00 4.9815986736e+00 
189200 6.5435555681e+00 -3.2295076319e-04 2.8761329636e+00 -4.9816084223e+00 2.8761329636e+00 4.9816084223e+00 
189300 6.5435555374e+00 -3.2214108090e-04 2.8761385779e+00 -4.9816181466e+00 2.8761385779e+00 4.9816181466e+00 
189400 6.5435555068e+00 -3.2133354205e-04 2.8761441782e+00 -4.9816278465e+00 2.8761441782e+00 4.9816278465e+00 
189500 6.5435554764e+00 -3.2052814044e-04 2.8761497644e+00 -4.9816375221e+00 2.8761497644e+00 4.9816375221e+00 
189600 6.5435554461e+00 -3.1972486993e-04 2.8761553365e+00 -4.9816471734e+00 2.8761553365e+00 4.9816471734e+00 
189700 6.5435554160e+00 -3.1892372437e-04 2.8761608948e+00 -4.9816568005e+00 2.8761608948e+00 4.9816568005e+00 
189800 6.5435553860e+00 -3.1812469765e-04 2.8761664390e+00 -4.9816664034e+00 2.8761664390e+00 4.9816664034e+00 
189900 6.5435553562e+00 -3.1732778367e-04 2.8761719694e+00 -4.9816759823e+00 2.8761719694e+00 4.9816759823e+00 
190000 6.5435553265e+00 -3.1653297636e-04 2.8761774859e+00 -4.9816855371e+00 2.8761774859e+00 4.9816855371e+00 
190100 6.5435552970e+00 -3.1574026964e-04 2.8761829885e+00 -4.9816950680e+00 2.8761829885e+00 4.9816950680e+00 
190200 6.5435552676e+00 -3.1494965749e-04 2.8761884774e+00 -4.9817045750e+00 2.8761884774e+00 4.9817045750e+00 
190300 6.5435552383e+00 -3.1416113389e-04 2.8761939525e+00 -4.9817140582e+00 2.8761939525e+00 4.9817140582e+00 
190400 6.5435552092e+00 -3.1337469283e-04 2.8761994139e+00 -4.9817235177e+00 2.8761994139e+00 4.9817235177e+00 
190500 6.5435551802e+00 -3.1259032833e-04 2.8762048617e+00 -4.9817329534e+00 2.8762048617e+00 4.9817329534e+00 
190600 6.5435551514e+00 -3.1180803443e-04 2.8762102958e+00 -4.9817423655e+00 2.8762102958e+00 4.9817423655e+00 
190700 6.5435551227e+00 -3.1102780520e-04 2.8762157162e+00 -4.9817517540e+00 2.8762157162e+00 4.9817517540e+00 
190800 6.5435550941e+00 -3.1024963469e-04 2.8762211231e+00 -4.9817611190e+00 2.8762211231e+00 4.9817611190e+00 
190900 6.5435550657e+00 -3.0947351702e-04 2.8762265165e+00 -4.9817704606e+00 2.8762265165e+00 4.9817704606e+00 
191000 6.5435550374e+00 -3.0869944629e-04 2.8762318963e+00 -4.9817797788e+00 2.8762318963e+00 4.9817797788e+00 
191100 6.5435550092e+00 -3.0792741664e-04 2.8762372627e+00 -4.9817890736e+00 2.8762372627e+00 4.9817890736e+00 
191200 6.5435549812e+00 -3.0715742221e-04 2.8762426157e+00 -4.9817983452e+00 2.8762426157e+00 4.9817983452e+00 
191300 6.5435549533e+00 -3.0638945719e-04 2.8762479552e+00 -4.9818075936e+00 2.8762479552e+00 4.9818075936e+00 
191400 6.5435549256e+00 -3.0562351575e-04 2.8762532814e+00 -4.9818168189e+00 2.8762532814e+00 4.9818168189e+00 
191500 6.5435548980e+00 -3.0485959211e-04 2.8762585943e+00 -4.9818260211e+00 2.8762585943e+00 4.9818260211e+00 
191600 6.5435548705e+00 -3.0409768049e-04 2.8762638939e+00 -4.9818352002e+00 2.8762638939e+00 4.9818352002e+00 
191700 6.5435548431e+00 -3.0333777514e-04 2.8762691802e+00 -4.9818443564e+00 2.8762691802e+00 4.9818443564e+00 
191800 6.5435548159e+00 -3.0257987031e-04 2.8762744533e+00 -4.9818534897e+00 2.8762744533e+00 4.9818534897e+00 
191900 6.5435547888e+00 -3.0182396030e-04 2.8762797133e+00 -4.9818626002e+00 2.8762797133e+00 4.9818626002e+00 
192000 6.5435547619e+00 -3.0107003940e-04 2.8762849601e+00 -4.9818716879e+00 2.8762849601e+00 4.9818716879e+00 
192100 6.5435547351e+00 -3.0031810193e-04 2.8762901937e+00 -4.9818807528e+00 2.8762901937e+00 4.9818807528e+00 
192200 6.5435547084e+00 -2.9956814222e-04 2.8762954143e+00 -4.9818897951e+00 2.8762954143e+00 4.9818897951e+00 
192300 6.5435546818e+00 -2.9882015462e-04 2.8763006218e+00 -4.9818988149e+00 2.8763006218e+00 4.9818988149e+00 
192400 6.5435546553e+00 -2.9807413352e-04 2.8763058164e+00 -4.9819078120e+00 2.8763058164e+00 4.9819078120e+00 
192500 6.5435546290e+00 -2.9733007330e-04 2.8763109979e+00 -4.9819167867e+00 2.8763109979e+00 4.9819167867e+00 
192600 6.5435546028e+00 -2.9658796836e-04 2.8763161665e+00 -4.9819257390e+00 2.8763161665e+00 4.9819257390e+00 
192700 6.5435545768e+00 -2.9584781314e-04 2.8763213222e+00 -4.9819346689e+00 2.8763213222e+00 4.9819346689e+00 
192800 6.5435545508e+00 -2.9510960207e-04 2.8763264650e+00 -4.9819435766e+00 2.8763264650e+00 4.9819435766e+00 
192900 6.5435545250e+00 -2.9437332962e-04 2.8763315950e+00 -4.9819524619e+00 2.8763315950e+00 4.9819524619e+00 
193000 6.5435544993e+00 -2.9363899027e-04 2.8763367122e+00 -4.9819613251e+00 2.8763367122e+00 4.9819613251e+00 
193100 6.5435544738e+00 -2.9290657850e-04 2.8763418166e+00 -4.9819701662e+00 2.8763418166e+00 4.9819701662e+00 
193200 6.5435544483e+00 -2.9217608884e-04 2.8763469082e+00 -4.9819789852e+00 2.8763469082e+00 4.9819789852e+00 
193300 6.5435544230e+00 -2.9144751582e-04 2.8763519872e+00 -4.9819877822e+00 2.8763519872e+00 4.9819877822e+00 
193400 6.5435543978e+00 -2.9072085398e-04 2.8763570534e+00 -4.9819965572e+00 2.8763570534e+00 4.9819965572e+00 
193500 6.5435543727e+00 -2.8999609789e-04 2.8763621071e+00 -4.9820053104e+00 2.8763621071e+00 4.9820053104e+00 
193600 6.5435543478e+00 -2.8927324213e-04 2.8763671481e+00 -4.9820140417e+00 2.8763671481e+00 4.9820140417e+00 
193700 6.5435543229e+00 -2.8855228130e-04 2.8763721765e+00 -4.9820227512e+00 2.8763721765e+00 4.9820227512e+00 
193800 6.5435542982e+00 -2.8783321003e-04 2.8763771924e+00 -4.9820314390e+00 2.8763771924e+00 4.9820314390e+00 
193900 6.5435542736e+00 -2.8711602293e-04 2.8763821958e+00 -4.9820401052e+00 2.8763821958e+00 4.9820401052e+00 
194000 6.5435542491e+00 -2.8640071467e-04 2.8763871868e+00 -4.9820487497e+00 2.8763871868e+00 4.9820487497e+00 
194100 6.5435542248e+00 -2.8568727991e-04 2.8763921652e+00 -4.9820573727e+00 2.8763921652e+00 4.9820573727e+00 
194200 6.5435542005e+00 -2.8497571334e-04 2.8763971313e+00 -4.9820659742e+00 2.8763971313e+00 4.9820659742e+00 
194300 6.5435541764e+00 -2.8426600966e-04 2.8764020850e+00 -4.9820745542e+00 2.8764020850e+00 4.9820745542e+00 
194400 6.5435541524e+00 -2.8355816358e-04 2.8764070264e+00 -4.9820831129e+00 2.8764070264e+00 4.9820831129e+00 
194500 6.5435541285e+00 -2.8285216985e-04 2.8764119554e+00 -4.9820916502e+00 2.8764119554e+00 4.9820916502e+00 
194600 6.5435541047e+00 -2.8214802321e-04 2.8764168721e+00 -4.9821001663e+00 2.8764168721e+00 4.9821001663e+00 
194700 6.5435540810e+00 -2.8144571843e-04 2.8764217766e+00 -4.9821086612e+00 2.8764217766e+00 4.9821086612e+00 
194800 6.5435540575e+00 -2.8074525030e-04 2.8764266689e+00 -4.9821171348e+00 2.8764266689e+00 4.9821171348e+00 
194900 6.5435540340e+00 -2.8004661362e-04 2.8764315490e+00 -4.9821255874e+00 2.8764315490e+00 4.9821255874e+00 
195000 6.5435540107e+00 -2.7934980320e-04 2.8764364170e+00 -4.9821340190e+00 2.8764364170e+00 4.9821340190e+00 
195100 6.5435539875e+00 -2.7865481389e-04 2.8764412728e+00 -4.9821424295e+00 2.8764412728e+00 4.9821424295e+00 
195200 6.5435539644e+00 -2.7796164052e-04 2.8764461166e+00 -4.9821508191e+00 2.8764461166e+00 4.9821508191e+00 
195300 6.5435539414e+00 -2.7727027797e-04 2.8764509483e+00 -4.9821591879e+00 2.8764509483e+00 4.9821591879e+00 
195400 6.5435539185e+00 -2.7658072112e-04 2.8764557679e+00 -4.9821675358e+00 2.8764557679e+00 4.9821675358e+00 
195500 6.5435538957e+00 -2.7589296487e-04 2.8764605756e+00 -4.9821758629e+00 2.8764605756e+00 4.9821758629e+00 
195600 6.5435538730e+00 -2.7520700413e-04 2.8764653713e+00 -4.9821841693e+00 2.8764653713e+00 4.9821841693e+00 
195700 6.5435538505e+00 -2.7452283383e-04 2.8764701551e+00 -4.9821924550e+00 2.8764701551e+00 4.9821924550e+00 
195800 6.5435538280e+00 -2.7384044893e-04 2.8764749269e+00 -4.9822007201e+00 2.8764749269e+00 4.9822007201e+00 
195900 6.5435538057e+00 -2.7315984437e-04 2.8764796869e+00 -4.9822089647e+00 2.8764796869e+00 4.9822089647e+00 
196000 6.5435537835e+00 -2.7248101515e-04 2.8764844351e+00 -4.9822171888e+00 2.8764844351e+00 4.9822171888e+00 
196100 6.5435537613e+00 -2.7180395626e-04 2.8764891715e+00 -4.9822253924e+00 2.8764891715e+00 4.9822253924e+00 
196200 6.5435537393e+00 -2.7112866270e-04 2.8764938960e+00 -4.9822335756e+00 2.8764938960e+00 4.9822335756e+00 
196300 6.5435537174e+00 -2.7045512950e-04 2.8764986089e+00 -4.9822417385e+00 2.8764986089e+00 4.9822417385e+00 
196400 6.5435536956e+00 -2.6978335170e-04 2.8765033100e+00 -4.9822498810e+00 2.8765033100e+00 4.9822498810e+00 
196500 6.5435536739e+00 -2.6911332436e-04 2.8765079994e+00 -4.9822580034e+00 2.8765079994e+00 4.9822580034e+00 
196600 6.5435536523e+00 -2.6844504255e-04 2.8765126772e+00 -4.9822661055e+00 2.8765126772e+00 4.9822661055e+00 
196700 6.5435536308e+00 -2.6777850136e-04 2.8765173434e+00 -4.9822741875e+00 2.8765173434e+00 4.9822741875e+00 
196800 6.5435536094e+00 -2.6711369589e-04 2.8765219979e+00 -4.9822822495e+00 2.8765219979e+00 4.9822822495e+00 
196900 6.5435535881e+00 -2.6645062126e-04 2.8765266409e+00 -4.9822902914e+00 2.8765266409e+00 4.9822902914e+00 
197000 6.5435535669e+00 -2.6578927261e-04 2.8765312724e+00 -4.9822983133e+00 2.8765312724e+00 4.9822983133e+00 
197100 6.5435535458e+00 -2.6512964507e-04 2.8765358923e+00 -4.9823063153e+00 2.8765358923e+00 4.9823063153e+00 
197200 6.5435535248e+00 -2.6447173383e-04 2.8765405008e+00 -4.9823142975e+00 2.8765405008e+00 4.9823142975e+00 
197300 6.5435535039e+00 -2.6381553404e-04 2.8765450979e+00 -4.9823222598e+00 2.8765450979e+00 4.9823222598e+00 
197400 6.5435534832e+00 -2.6316104092e-04 2.8765496835e+00 -4.9823302023e+00 2.8765496835e+00 4.9823302023e+00 
197500 6.5435534625e+00 -2.6250824967e-04 2.8765542578e+00 -4.9823381252e+00 2.8765542578e+00 4.9823381252e+00 
197600 6.5435534419e+00 -2.6185715551e-04 2.8765588207e+00 -4.9823460283e+00 2.8765588207e+00 4.9823460283e+00 
197700 6.5435534214e+00 -2.6120775368e-04 2.8765633722e+00 -4.9823539119e+00 2.8765633722e+00 4.9823539119e+00 
197800 6.5435534010e+00 -2.6056003943e-04 2.8765679125e+00 -4.9823617759e+00 2.8765679125e+00 4.9823617759e+00 
197900 6.5435533807e+00 -2.5991400804e-04 2.8765724415e+00 -4.9823696204e+00 2.8765724415e+00 4.9823696204e+00 
198000 6.5435533605e+00 -2.5926965479e-04 2.8765769593e+00 -4.9823774454e+00 2.8765769593e+00 4.9823774454e+00 
198100 6.5435533404e+00 -2.5862697497e-04 2.8765814659e+00 -4.9823852510e+00 2.8765814659e+00 4.9823852510e+00 
198200 6.5435533204e+00 -2.5798596390e-04 2.8765859612e+00 -4.9823930372e+00 2.8765859612e+00 4.9823930372e+00 
198300 6.5435533005e+00 -2.5734661691e-04 2.8765904455e+00 -4.9824008041e+00 2.8765904455e+00 4.9824008041e+00 
198400 6.5435532807e+00 -2.5670892933e-04 2.8765949186e+00 -4.9824085518e+00 2.8765949186e+00 4.9824085518e+00 
198500 6.5435532610e+00 -2.5607289653e-04 2.8765993806e+00 -4.9824162803e+00 2.8765993806e+00 4.9824162803e+00 
198600 6.5435532414e+00 -2.5543851387e-04 2.8766038316e+00 -4.9824239896e+00 2.8766038316e+00 4.9824239896e+00 
198700 6.5435532218e+00 -2.5480577674e-04 2.8766082715e+00 -4.9824316798e+00 2.8766082715e+00 4.9824316798e+00 
198800 6.5435532024e+00 -2.5417468054e-04 2.8766127005e+00 -4.9824393509e+00 2.8766127005e+00 4.9824393509e+00 
198900 6.5435531831e+00 -2.5354522068e-04 2.8766171184e+00 -4.9824470030e+00 2.8766171184e+00 4.9824470030e+00 
199000 6.5435531638e+00 -2.5291739259e-04 2.8766215254e+00 -4.9824546362e+00 2.8766215254e+00 4.9824546362e+00 
199100 6.5435531447e+00 -2.5229119172e-04 2.8766259215e+00 -4.9824622504e+00 2.8766259215e+00 4.9824622504e+00 
199200 6.5435531256e+00 -2.5166661352e-04 2.8766303067e+00 -4.9824698458e+00 2.8766303067e+00 4.9824698458e+00 
199300 6.5435531066e+00 -2.5104365345e-04 2.8766346810e+00 -4.9824774224e+00 2.8766346810e+00 4.9824774224e+00 
199400 6.5435530877e+00 -2.5042230701e-04 2.8766390445e+00 -4.9824849802e+00 2.8766390445e+00 4.9824849802e+00 
199500 6.5435530689e+00 -2.4980256970e-04 2.8766433972e+00 -4.9824925192e+00 2.8766433972e+00 4.9824925192e+00 
199600 6.5435530502e+00 -2.4918443701e-04 2.8766477391e+00 -4.9825000396e+00 2.8766477391e+00 4.9825000396e+00 
199700 6.5435530316e+00 -2.4856790450e-04 2.8766520703e+00 -4.9825075414e+00 2.8766520703e+00 4.9825075414e+00 
199800 6.5435530131e+00 -2.4795296768e-04 2.8766563907e+00 -4.9825150247e+00 2.8766563907e+00 4.9825150247e+00 
199900 6.5435529947e+00 -2.4733962211e-04 2.8766607005e+00 -4.9825224894e+00 2.8766607005e+00 4.9825224894e+00 
200000 6.5435529763e+00 -2.4672786337e-04 2.8766649995e+00 -4.9825299356e+00 2.8766649995e+00 4.9825299356e+00 
200100 6.5435529581e+00 -2.4611768704e-04 2.8766692880e+00 -4.9825373634e+00 2.8766692880e+00 4.9825373634e+00 
200200 6.5435529399e+00 -2.4550908870e-04 2.8766735658e+00 -4.9825447728e+00 2.8766735658e+00 4.9825447728e+00 
200300 6.5435529218e+00 -2.4490206397e-04 2.8766778331e+00 -4.9825521639e+00 2.8766778331e+00 4.9825521639e+00 
200400 6.5435529038e+00 -2.4429660847e-04 2.8766820897e+00 -4.9825595366e+00 2.8766820897e+00 4.9825595366e+00 
200500 6.5435528859e+00 -2.4369271784e-04 2.8766863359e+00 -4.9825668912e+00 2.8766863359e+00 4.9825668912e+00 
200600 6.5435528681e+00 -2.4309038772e-04 2.8766905715e+00 -4.9825742276e+00 2.8766905715e+00 4.9825742276e+00 
200700 6.5435528503e+00 -2.4248961378e-04 2.8766947967e+00 -4.9825815458e+00 2.8766947967e+00 4.9825815458e+00 
200800 6.5435528327e+00 -2.4189039170e-04 2.8766990114e+00 -4.9825888459e+00 2.8766990114e+00 4.9825888459e+00 
200900 6.5435528151e+00 -2.4129271715e-04 2.8767032157e+00 -4.9825961280e+00 2.8767032157e+00 4.9825961280e+00 
201000 6.5435527976e+00 -2.4069658585e-04 2.8767074097e+00 -4.9826033920e+00 2.8767074097e+00 4.9826033920e+00 
201100 6.5435527802e+00 -2.4010199352e-04 2.8767115932e+00 -4.9826106381e+00 2.8767115932e+00 4.9826106381e+00 
201200 6.5435527629e+00 -2.3950893587e-04 2.8767157664e+00 -4.9826178663e+00 2.8767157664e+00 4.9826178663e+00 
201300 6.5435527457e+00 -2.3891740865e-04 2.8767199293e+00 -4.9826250767e+00 2.8767199293e+00 4.9826250767e+00 
201400 6.5435527285e+00 -2.3832740763e-04 2.8767240819e+00 -4.9826322692e+00 2.8767240819e+00 4.9826322692e+00 
201500 6.5435527115e+00 -2.3773892855e-04 2.8767282242e+00 -4.9826394439e+00 2.8767282242e+00 4.9826394439e+00 
201600 6.5435526945e+00 -2.3715196722e-04 2.8767323563e+00 -4.9826466010e+00 2.8767323563e+00 4.9826466010e+00 
201700 6.5435526776e+00 -2.3656651941e-04 2.8767364782e+00 -4.9826537403e+00 2.8767364782e+00 4.9826537403e+00 
201800 6.5435526607e+00 -2.3598258095e-04 2.8767405900e+00 -4.9826608620e+00 2.8767405900e+00 4.9826608620e+00 
201900 6.5435526440e+00 -2.3540014764e-04 2.8767446915e+00 -4.9826679661e+00 2.8767446915e+00 4.9826679661e+00 
202000 6.5435526273e+00 -2.3481921532e-04 2.8767487830e+00 -4.9826750527e+00 2.8767487830e+00 4.9826750527e+00 
202100 6.5435526107e+00 -2.3423977984e-04 2.8767528643e+00 -4.9826821218e+00 2.8767528643e+00 4.9826821218e+00 
202200 6.5435525942e+00 -2.3366183705e-04 2.8767569355e+00 -4.9826891734e+00 2.8767569355e+00 4.9826891734e+00 
202300 6.5435525778e+00 -2.3308538283e-04 2.8767609967e+00 -4.9826962076e+00 2.8767609967e+00 4.9826962076e+00 
202400 6.5435525614e+00 -2.3251041306e-04 2.8767650479e+00 -4.9827032244e+00 2.8767650479e+00 4.9827032244e+00 
202500 6.5435525452e+00 -2.3193692363e-04 2.8767690891e+00 -4.9827102240e+00 2.8767690891e+00 4.9827102240e+00 
202600 6.5435525290e+00 -2.3136491045e-04 2.8767731203e+00 -4.9827172062e+00 2.8767731203e+00 4.9827172062e+00 
202700 6.5435525129e+00 -2.3079436945e-04 2.8767771416e+00 -4.9827241713e+00 2.8767771416e+00 4.9827241713e+00 
202800 6.5435524968e+00 -2.3022529656e-04 2.8767811529e+00 -4.9827311191e+00 2.8767811529e+00 4.9827311191e+00 
202900 6.5435524809e+00 -2.2965768773e-04 2.8767851543e+00 -4.9827380498e+00 2.8767851543e+00 4.9827380498e+00 
203000 6.5435524650e+00 -2.2909153891e-04 2.8767891459e+00 -4.9827449634e+00 2.8767891459e+00 4.9827449634e+00 
203100 6.5435524492e+00 -2.2852684608e-04 2.8767931276e+00 -4.9827518599e+00 2.8767931276e+00 4.9827518599e+00 
203200 6.5435524334e+00 -2.2796360521e-04 2.8767970995e+00 -4.9827587395e+00 2.8767970995e+00 4.9827587395e+00 
203300 6.5435524178e+00 -2.2740181231e-04 2.8768010617e+00 -4.9827656020e+00 2.8768010617e+00 4.9827656020e+00 
203400 6.5435524022e+00 -2.2684146338e-04 2.8768050140e+00 -4.9827724477e+00 2.8768050140e+00 4.9827724477e+00 
203500 6.5435523867e+00 -2.2628255444e-04 2.8768089566e+00 -4.9827792765e+00 2.8768089566e+00 4.9827792765e+00 
203600 6.5435523712e+00 -2.2572508153e-04 2.8768128895e+00 -4.9827860884e+00 2.8768128895e+00 4.9827860884e+00 
203700 6.5435523559e+00 -2.2516904068e-04 2.8768168126e+00 -4.9827928836e+00 2.8768168126e+00 4.9827928836e+00 
203800 6.5435523406e+00 -2.2461442796e-04 2.8768207262e+00 -4.9827996620e+00 2.8768207262e+00 4.9827996620e+00 
203900 6.5435523254e+00 -2.2406123943e-04 2.8768246300e+00 -4.9828064237e+00 2.8768246300e+00 4.9828064237e+00 
204000 6.5435523102e+00 -2.2350947117e-04 2.8768285243e+00 -4.9828131687e+00 2.8768285243e+00 4.9828131687e+00 
204100 6.5435522952e+00 -2.2295911927e-04 2.8768324089e+00 -4.9828198971e+00 2.8768324089e+00 4.9828198971e+00 
204200 6.5435522802e+00 -2.2241017985e-04 2.8768362840e+00 -4.9828266089e+00 2.8768362840e+00 4.9828266089e+00 
204300 6.5435522652e+00 -2.2186264901e-04 2.8768401495e+00 -4.9828333042e+00 2.8768401495e+00 4.9828333042e+00 
204400 6.5435522504e+00 -2.2131652288e-04 2.8768440055e+00 -4.9828399831e+00 2.8768440055e+00 4.9828399831e+00 
204500 6.5435522356e+00 -2.2077179760e-04 2.8768478521e+00 -4.9828466454e+00 2.8768478521e+00 4.9828466454e+00 
204600 6.5435522209e+00 -2.2022846932e-04 2.8768516891e+00 -4.9828532914e+00 2.8768516891e+00 4.9828532914e+00 
204700 6.5435522062e+00 -2.1968653421e-04 2.8768555167e+00 -4.9828599210e+00 2.8768555167e+00 4.9828599210e+00 
204800 6.5435521917e+00 -2.1914598844e-04 2.8768593349e+00 -4.9828665342e+00 2.8768593349e+00 4.9828665342e+00 
204900 6.5435521772e+00 -2.1860682819e-04 2.8768631436e+00 -4.9828731312e+00 2.8768631436e+00 4.9828731312e+00 
205000 6.5435521627e+00 -2.1806904967e-04 2.8768669430e+00 -4.9828797120e+00 2.8768669430e+00 4.9828797120e+00 
205100 6.5435521484e+00 -2.1753264908e-04 2.8768707331e+00 -4.9828862765e+00 2.8768707331e+00 4.9828862765e+00 
205200 6.5435521341e+00 -2.1699762265e-04 2.8768745138e+00 -4.9828928249e+00 2.8768745138e+00 4.9828928249e+00 
205300 6.5435521198e+00 -2.1646396660e-04 2.8768782852e+00 -4.9828993572e+00 2.8768782852e+00 4.9828993572e+00 
205400 6.5435521057e+00 -2.1593167717e-04 2.8768820474e+00 -4.9829058734e+00 2.8768820474e+00 4.9829058734e+00 
205500 6.5435520916e+00 -2.1540075064e-04 2.8768858002e+00 -4.9829123736e+00 2.8768858002e+00 4.9829123736e+00 
205600 6.5435520776e+00 -2.1487118325e-04 2.8768895439e+00 -4.9829188578e+00 2.8768895439e+00 4.9829188578e+00 
205700 6.5435520636e+00 -2.1434297129e-04 2.8768932783e+00 -4.9829253260e+00 2.8768932783e+00 4.9829253260e+00 
205800 6.5435520497e+00 -2.1381611104e-04 2.8768970036e+00 -4.9829317783e+00 2.8768970036e+00 4.9829317783e+00 
205900 6.5435520359e+00 -2.1329059881e-04 2.8769007197e+00 -4.9829382148e+00 2.8769007197e+00 4.9829382148e+00 
206000 6.5435520221e+00 -2.1276643091e-04 2.8769044266e+00 -4.9829446354e+00 2.8769044266e+00 4.9829446354e+00 
206100 6.5435520084e+00 -2.1224360366e-04 2.8769081244e+00 -4.9829510402e+00 2.8769081244e+00 4.9829510402e+00 
206200 6.5435519948e+00 -2.1172211339e-04 2.8769118132e+00 -4.9829574293e+00 2.8769118132e+00 4.9829574293e+00 
206300 6.5435519813e+00 -2.1120195645e-04 2.8769154929e+00 -4.9829638027e+00 2.8769154929e+00 4.9829638027e+00 
206400 6.5435519678e+00 -2.1068312919e-04 2.8769191635e+00 -4.9829701604e+00 2.8769191635e+00 4.9829701604e+00 
206500 6.5435519543e+00 -2.1016562799e-04 2.8769228251e+00 -4.9829765025e+00 2.8769228251e+00 4.9829765025e+00 
206600 6.5435519410e+00 -2.0964944920e-04 2.8769264777e+00 -4.9829828291e+00 2.8769264777e+00 4.9829828291e+00 
206700 6.5435519276e+00 -2.0913458924e-04 2.8769301214e+00 -4.9829891400e+00 2.8769301214e+00 4.9829891400e+00 
206800 6.5435519144e+00 -2.0862104448e-04 2.8769337560e+00 -4.9829954355e+00 2.8769337560e+00 4.9829954355e+00 
206900 6.5435519012e+00 -2.0810881136e-04 2.8769373818e+00 -4.9830017155e+00 2.8769373818e+00 4.9830017155e+00 
207000 6.5435518881e+00 -2.0759788627e-04 2.8769409986e+00 -4.9830079800e+00 2.8769409986e+00 4.9830079800e+00 
207100 6.5435518751e+00 -2.0708826567e-04 2.8769446066e+00 -4.9830142292e+00 2.8769446066e+00 4.9830142292e+00 
207200 6.5435518621e+00 -2.0657994598e-04 2.8769482057e+00 -4.9830204630e+00 2.8769482057e+00 4.9830204630e+00 
207300 6.5435518491e+00 -2.0607292367e-04 2.8769517960e+00 -4.9830266815e+00 2.8769517960e+00 4.9830266815e+00 
207400 6.5435518363e+00 -2.0556719519e-04 2.8769553774e+00 -4.9830328848e+00 2.8769553774e+00 4.9830328848e+00 
207500 6.5435518235e+00 -2.0506275702e-04 2.8769589501e+00 -4.9830390728e+00 2.8769589501e+00 4.9830390728e+00 
207600 6.5435518107e+00 -2.0455960565e-04 2.8769625140e+00 -4.9830452456e+00 2.8769625140e+00 4.9830452456e+00 
207700 6.5435517980e+00 -2.0405773756e-04 2.8769660691e+00 -4.9830514033e+00 2.8769660691e+00 4.9830514033e+00 
207800 6.5435517854e+00 -2.0355714928e-04 2.8769696155e+00 -4.9830575459e+00 2.8769696155e+00 4.9830575459e+00 
207900 6.5435517729e+00 -2.0305783731e-04 2.8769731532e+00 -4.9830636733e+00 2.8769731532e+00 4.9830636733e+00 
208000 6.5435517604e+00 -2.0255979818e-04 2.8769766822e+00 -4.9830697858e+00 2.8769766822e+00 4.9830697858e+00 
208100 6.5435517479e+00 -2.0206302842e-04 2.8769802026e+00 -4.9830758832e+00 2.8769802026e+00 4.9830758832e+00 
208200 6.5435517355e+00 -2.0156752459e-04 2.8769837143e+00 -4.9830819657e+00 2.8769837143e+00 4.9830819657e+00 
208300 6.5435517232e+00 -2.0107328324e-04 2.8769872174e+00 -4.9830880333e+00 2.8769872174e+00 4.9830880333e+00 
208400 6.5435517109e+00 -2.0058030095e-04 2.8769907119e+00 -4.9830940859e+00 2.8769907119e+00 4.9830940859e+00 
208500 6.5435516987e+00 -2.0008857428e-04 2.8769941978e+00 -4.9831001238e+00 2.8769941978e+00 4.9831001238e+00 
208600 6.5435516866e+00 -1.9959809983e-04 2.8769976752e+00 -4.9831061468e+00 2.8769976752e+00 4.9831061468e+00 
208700 6.5435516745e+00 -1.9910887420e-04 2.8770011441e+00 -4.9831121550e+00 2.8770011441e+00 4.9831121550e+00 
208800 6.5435516625e+00 -1.9862089400e-04 2.8770046045e+00 -4.9831181485e+00 2.8770046045e+00 4.9831181485e+00 
208900 6.5435516505e+00 -1.9813415585e-04 2.8770080563e+00 -4.9831241273e+00 2.8770080563e+00 4.9831241273e+00 
209000 6.5435516386e+00 -1.9764865637e-04 2.8770114997e+00 -4.9831300915e+00 2.8770114997e+00 4.9831300915e+00 
209100 6.5435516267e+00 -1.9716439220e-04 2.8770149347e+00 -4.9831360410e+00 2.8770149347e+00 4.9831360410e+00 
209200 6.5435516149e+00 -1.9668136000e-04 2.8770183612e+00 -4.9831419760e+00 2.8770183612e+00 4.9831419760e+00 
209300 6.5435516031e+00 -1.9619955643e-04 2.8770217794e+00 -4.9831478964e+00 2.8770217794e+00 4.9831478964e+00 
209400 6.5435515915e+00 -1.9571897815e-04 2.8770251892e+00 -4.9831538023e+00 2.8770251892e+00 4.9831538023e+00 
209500 6.5435515798e+00 -1.9523962184e-04 2.8770285906e+00 -4.9831596937e+00 2.8770285906e+00 4.9831596937e+00 
209600 6.5435515682e+00 -1.9476148419e-04 2.8770319836e+00 -4.9831655707e+00 2.8770319836e+00 4.9831655707e+00 
209700 6.5435515567e+00 -1.9428456191e-04 2.8770353684e+00 -4.9831714333e+00 2.8770353684e+00 4.9831714333e+00 
209800 6.5435515452e+00 -1.9380885169e-04 2.8770387449e+00 -4.9831772815e+00 2.8770387449e+00 4.9831772815e+00 
209900 6.5435515338e+00 -1.9333435027e-04 2.8770421131e+00 -4.9831831154e+00 2.8770421131e+00 4.9831831154e+00 
210000 6.5435515225e+00 -1.9286105436e-04 2.8770454730e+00 -4.9831889350e+00 2.8770454730e+00 4.9831889350e+00 
210100 6.5435515112e+00 -1.9238896071e-04 2.8770488248e+00 -4.9831947403e+00 2.8770488248e+00 4.9831947403e+00 
210200 6.5435514999e+00 -1.9191806607e-04 2.8770521683e+00 -4.9832005315e+00 2.8770521683e+00 4.9832005315e+00 
210300 6.5435514887e+00 -1.9144836718e-04 2.8770555036e+00 -4.9832063084e+00 2.8770555036e+00 4.9832063084e+00 
210400 6.5435514775e+00 -1.9097986083e-04 2.8770588308e+00 -4.9832120712e+00 2.8770588308e+00 4.9832120712e+00 
210500 6.5435514665e+00 -1.9051254378e-04 2.8770621498e+00 -4.9832178199e+00 2.8770621498e+00 4.9832178199e+00 
210600 6.5435514554e+00 -1.9004641282e-04 2.8770654607e+00 -4.9832235546e+00 2.8770654607e+00 4.9832235546e+00 
210700 6.5435514444e+00 -1.8958146475e-04 2.8770687634e+00 -4.9832292751e+00 2.8770687634e+00 4.9832292751e+00 
210800 6.5435514335e+00 -1.8911769638e-04 2.8770720581e+00 -4.9832349817e+00 2.8770720581e+00 4.9832349817e+00 
210900 6.5435514226e+00 -1.8865510452e-04 2.8770753448e+00 -4.9832406744e+00 2.8770753448e+00 4.9832406744e+00 
211000 6.5435514118e+00 -1.8819368599e-04 2.8770786234e+00 -4.9832463530e+00 2.8770786234e+00 4.9832463530e+00 
211100 6.5435514010e+00 -1.8773343762e-04 2.8770818939e+00 -4.9832520178e+00 2.8770818939e+00 4.9832520178e+00 
211200 6.5435513903e+00 -1.8727435627e-04 2.8770851565e+00 -4.9832576688e+00 2.8770851565e+00 4.9832576688e+00 
211300 6.5435513796e+00 -1.8681643878e-04 2.8770884111e+00 -4.9832633059e+00 2.8770884111e+00 4.9832633059e+00 
211400 6.5435513690e+00 -1.8635968201e-04 2.8770916577e+00 -4.9832689292e+00 2.8770916577e+00 4.9832689292e+00 
211500 6.5435513584e+00 -1.8590408284e-04 2.8770948964e+00 -4.9832745388e+00 2.8770948964e+00 4.9832745388e+00 
211600 6.5435513479e+00 -1.8544963815e-04 2.8770981272e+00 -4.9832801346e+00 2.8770981272e+00 4.9832801346e+00 
211700 6.5435513374e+00 -1.8499634482e-04 2.8771013500e+00 -4.9832857168e+00 2.8771013500e+00 4.9832857168e+00 
211800 6.5435513270e+00 -1.8454419976e-04 2.8771045650e+00 -4.9832912853e+00 2.8771045650e+00 4.9832912853e+00 
211900 6.5435513166e+00 -1.8409319987e-04 2.8771077721e+00 -4.9832968401e+00 2.8771077721e+00 4.9832968401e+00 
212000 6.5435513063e+00 -1.8364334207e-04 2.8771109714e+00 -4.9833023815e+00 2.8771109714e+00 4.9833023815e+00 
212100 6.5435512960e+00 -1.8319462329e-04 2.8771141628e+00 -4.9833079092e+00 2.8771141628e+00 4.9833079092e+00 
212200 6.5435512858e+00 -1.8274704046e-04 2.8771173465e+00 -4.9833134235e+00 2.8771173465e+00 4.9833134235e+00 
212300 6.5435512756e+00 -1.8230059052e-04 2.8771205224e+00 -4.9833189242e+00 2.8771205224e+00 4.9833189242e+00 
212400 6.5435512654e+00 -1.8185527043e-04 2.8771236905e+00 -4.9833244116e+00 2.8771236905e+00 4.9833244116e+00 
212500 6.5435512554e+00 -1.8141107716e-04 2.8771268508e+00 -4.9833298855e+00 2.8771268508e+00 4.9833298855e+00 
212600 6.5435512453e+00 -1.8096800767e-04 2.8771300035e+00 -4.9833353460e+00 2.8771300035e+00 4.9833353460e+00 
212700 6.5435512353e+00 -1.8052605894e-04 2.8771331484e+00 -4.9833407932e+00 2.8771331484e+00 4.9833407932e+00 
212800 6.5435512254e+00 -1.8008522797e-04 2.8771362857e+00 -4.9833462271e+00 2.8771362857e+00 4.9833462271e+00 
212900 6.5435512155e+00 -1.7964551174e-04 2.8771394153e+00 -4.9833516477e+00 2.8771394153e+00 4.9833516477e+00 
213000 6.5435512057e+00 -1.7920690727e-04 2.8771425372e+00 -4.9833570551e+00 2.8771425372e+00 4.9833570551e+00 
213100 6.5435511959e+00 -1.7876941158e-04 2.8771456515e+00 -4.9833624492e+00 2.8771456515e+00 4.9833624492e+00 
213200 6.5435511861e+00 -1.7833302168e-04 2.8771487583e+00 -4.9833678302e+00 2.8771487583e+00 4.9833678302e+00 
213300 6.5435511764e+00 -1.7789773461e-04 2.8771518574e+00 -4.9833731981e+00 2.8771518574e+00 4.9833731981e+00 
213400 6.5435511668e+00 -1.7746354741e-04 2.8771549489e+00 -4.9833785528e+00 2.8771549489e+00 4.9833785528e+00 
213500 6.5435511571e+00 -1.7703045713e-04 2.8771580330e+00 -4.9833838945e+00 2.8771580330e+00 4.9833838945e+00 
213600 6.5435511476e+00 -1.7659846084e-04 2.8771611094e+00 -4.9833892231e+00 2.8771611094e+00 4.9833892231e+00 
213700 6.5435511381e+00 -1.7616755560e-04 2.8771641784e+00 -4.9833945387e+00 2.8771641784e+00 4.9833945387e+00 
213800 6.5435511286e+00 -1.7573773848e-04 2.8771672399e+00 -4.9833998414e+00 2.8771672399e+00 4.9833998414e+00 
213900 6.5435511192e+00 -1.7530900658e-04 2.8771702939e+00 -4.9834051311e+00 2.8771702939e+00 4.9834051311e+00 
214000 6.5435511098e+00 -1.7488135698e-04 2.8771733404e+00 -4.9834104078e+00 2.8771733404e+00 4.9834104078e+00 
214100 6.5435511004e+00 -1.7445478678e-04 2.8771763796e+00 -4.9834156717e+00 2.8771763796e+00 4.9834156717e+00 
214200 6.5435510911e+00 -1.7402929311e-04 2.8771794113e+00 -4.9834209228e+00 2.8771794113e+00 4.9834209228e+00 
214300 6.5435510819e+00 -1.7360487307e-04 2.8771824356e+00 -4.9834261611e+00 2.8771824356e+00 4.9834261611e+00 
214400 6.5435510727e+00 -1.7318152379e-04 2.8771854525e+00 -4.9834313865e+00 2.8771854525e+00 4.9834313865e+00 
214500 6.5435510635e+00 -1.7275924242e-04 2.8771884621e+00 -4.9834365992e+00 2.8771884621e+00 4.9834365992e+00 
214600 6.5435510544e+00 -1.7233802608e-04 2.8771914643e+00 -4.9834417992e+00 2.8771914643e+00 4.9834417992e+00 
214700 6.5435510453e+00 -1.7191787195e-04 2.8771944592e+00 -4.9834469866e+00 2.8771944592e+00 4.9834469866e+00 
214800 6.5435510363e+00 -1.7149877717e-04 2.8771974468e+00 -4.9834521612e+00 2.8771974468e+00 4.9834521612e+00 
214900 6.5435510273e+00 -1.7108073892e-04 2.8772004271e+00 -4.9834573233e+00 2.8772004271e+00 4.9834573233e+00 
215000 6.5435510183e+00 -1.7066375437e-04 2.8772034001e+00 -4.9834624727e+00 2.8772034001e+00 4.9834624727e+00 
215100 6.5435510094e+00 -1.7024782071e-04 2.8772063659e+00 -4.9834676097e+00 2.8772063659e+00 4.9834676097e+00 
215200 6.5435510006e+00 -1.6983293514e-04 2.8772093245e+00 -4.9834727340e+00 2.8772093245e+00 4.9834727340e+00 
215300 6.5435509917e+00 -1.6941909486e-04 2.8772122758e+00 -4.9834778459e+00 2.8772122758e+00 4.9834778459e+00 
215400 6.5435509830e+00 -1.6900629707e-04 2.8772152200e+00 -4.9834829453e+00 2.8772152200e+00 4.9834829453e+00 
215500 6.5435509742e+00 -1.6859453899e-04 2.8772181570e+00 -4.9834880323e+00 2.8772181570e+00 4.9834880323e+00 
215600 6.5435509655e+00 -1.6818381786e-04 2.8772210868e+00 -4.9834931069e+00 2.8772210868e+00 4.9834931069e+00 
215700 6.5435509569e+00 -1.6777413090e-04 2.8772240095e+00 -4.9834981692e+00 2.8772240095e+00 4.9834981692e+00 
215800 6.5435509483e+00 -1.6736547537e-04 2.8772269250e+00 -4.9835032190e+00 2.8772269250e+00 4.9835032190e+00 
215900 6.5435509397e+00 -1.6695784850e-04 2.8772298335e+00 -4.9835082566e+00 2.8772298335e+00 4.9835082566e+00 
216000 6.5435509312e+00 -1.6655124756e-04 2.8772327348e+00 -4.9835132819e+00 2.8772327348e+00 4.9835132819e+00 
216100 6.5435509227e+00 -1.6614566982e-04 2.8772356291e+00 -4.9835182950e+00 2.8772356291e+00 4.9835182950e+00 
216200 6.5435509142e+00 -1.6574111254e-04 2.8772385164e+00 -4.9835232959e+00 2.8772385164e+00 4.9835232959e+00 
216300 6.5435509058e+00 -1.6533757302e-04 2.8772413966e+00 -4.9835282845e+00 2.8772413966e+00 4.9835282845e+00 
216400 6.5435508974e+00 -1.6493504854e-04 2.8772442698e+00 -4.9835332611e+00 2.8772442698e+00 4.9835332611e+00 
216500 6.5435508891e+00 -1.6453353641e-04 2.8772471360e+00 -4.9835382255e+00 2.8772471360e+00 4.9835382255e+00 
216600 6.5435508808e+00 -1.6413303392e-04 2.8772499952e+00 -4.9835431778e+00 2.8772499952e+00 4.9835431778e+00 
216700 6.5435508726e+00 -1.6373353839e-04 2.8772528475e+00 -4.9835481180e+00 2.8772528475e+00 4.9835481180e+00 
216800 6.5435508644e+00 -1.6333504715e-04 2.8772556928e+00 -4.9835530463e+00 2.8772556928e+00 4.9835530463e+00 
216900 6.5435508562e+00 -1.6293755752e-04 2.8772585312e+00 -4.9835579625e+00 2.8772585312e+00 4.9835579625e+00 
217000 6.5435508481e+00 -1.6254106684e-04 2.8772613626e+00 -4.9835628667e+00 2.8772613626e+00 4.9835628667e+00 
217100 6.5435508400e+00 -1.6214557245e-04 2.8772641872e+00 -4.9835677590e+00 2.8772641872e+00 4.9835677590e+00 
217200 6.5435508319e+00 -1.6175107171e-04 2.8772670049e+00 -4.9835726395e+00 2.8772670049e+00 4.9835726395e+00 
217300 6.5435508239e+00 -1.6135756199e-04 2.8772698158e+00 -4.9835775080e+00 2.8772698158e+00 4.9835775080e+00 
217400 6.5435508159e+00 -1.6096504064e-04 2.8772726198e+00 -4.9835823647e+00 2.8772726198e+00 4.9835823647e+00 
217500 6.5435508080e+00 -1.6057350504e-04 2.8772754169e+00 -4.9835872095e+00 2.8772754169e+00 4.9835872095e+00 
217600 6.5435508001e+00 -1.6018295258e-04 2.8772782073e+00 -4.9835920426e+00 2.8772782073e+00 4.9835920426e+00 
217700 6.5435507922e+00 -1.5979338065e-04 2.8772809909e+00 -4.9835968639e+00 2.8772809909e+00 4.9835968639e+00 
217800 6.5435507844e+00 -1.5940478664e-04 2.8772837677e+00 -4.9836016735e+00 2.8772837677e+00 4.9836016735e+00 
217900 6.5435507766e+00 -1.5901716796e-04 2.8772865378e+00 -4.9836064714e+00 2.8772865378e+00 4.9836064714e+00 
218000 6.5435507688e+00 -1.5863052203e-04 2.8772893011e+00 -4.9836112576e+00 2.8772893011e+00 4.9836112576e+00 
218100 6.5435507611e+00 -1.5824484626e-04 2.8772920577e+00 -4.9836160321e+00 2.8772920577e+00 4.9836160321e+00 
218200 6.5435507534e+00 -1.5786013809e-04 2.8772948076e+00 -4.9836207951e+00 2.8772948076e+00 4.9836207951e+00 
218300 6.5435507458e+00 -1.5747639494e-04 2.8772975508e+00 -4.9836255465e+00 2.8772975508e+00 4.9836255465e+00 
218400 6.5435507382e+00 -1.5709361427e-04 2.8773002873e+00 -4.9836302863e+00 2.8773002873e+00 4.9836302863e+00 
218500 6.5435507306e+00 -1.5671179353e-04 2.8773030172e+00 -4.9836350146e+00 2.8773030172e+00 4.9836350146e+00 
218600 6.5435507231e+00 -1.5633093017e-04 2.8773057404e+00 -4.9836397314e+00 2.8773057404e+00 4.9836397314e+00 
218700 6.5435507156e+00 -1.5595102165e-04 2.8773084571e+00 -4.9836444367e+00 2.8773084571e+00 4.9836444367e+00 
218800 6.5435507081e+00 -1.5557206545e-04 2.8773111671e+00 -4.9836491306e+00 2.8773111671e+00 4.9836491306e+00 
218900 6.5435507007e+00 -1.5519405905e-04 2.8773138705e+00 -4.9836538130e+00 2.8773138705e+00 4.9836538130e+00 
219000 6.5435506933e+00 -1.5481699994e-04 2.8773165674e+00 -4.9836584841e+00 2.8773165674e+00 4.9836584841e+00 
219100 6.5435506859e+00 -1.5444088561e-04 2.8773192577e+00 -4.9836631439e+00 2.8773192577e+00 4.9836631439e+00 
219200 6.5435506786e+00 -1.5406571356e-04 2.8773219414e+00 -4.9836677923e+00 2.8773219414e+00 4.9836677923e+00 
219300 6.5435506713e+00 -1.5369148131e-04 2.8773246187e+00 -4.9836724294e+00 2.8773246187e+00 4.9836724294e+00 
219400 6.5435506641e+00 -1.5331818636e-04 2.8773272894e+00 -4.9836770553e+00 2.8773272894e+00 4.9836770553e+00 
219500 6.5435506568e+00 -1.5294582624e-04 2.8773299537e+00 -4.9836816699e+00 2.8773299537e+00 4.9836816699e+00 
219600 6.5435506496e+00 -1.5257439848e-04 2.8773326114e+00 -4.9836862733e+00 2.8773326114e+00 4.9836862733e+00 
219700 6.5435506425e+00 -1.5220390062e-04 2.8773352627e+00 -4.9836908655e+00 2.8773352627e+00 4.9836908655e+00 
219800 6.5435506354e+00 -1.5183433021e-04 2.8773379076e+00 -4.9836954466e+00 2.8773379076e+00 4.9836954466e+00 
219900 6.5435506283e+00 -1.5146568478e-04 2.8773405461e+00 -4.9837000165e+00 2.8773405461e+00 4.9837000165e+00 
220000 6.5435506212e+00 -1.5109796191e-04 2.8773431781e+00 -4.9837045753e+00 2.8773431781e+00 4.9837045753e+00 
220100 6.5435506142e+00 -1.5073115916e-04 2.8773458038e+00 -4.9837091231e+00 2.8773458038e+00 4.9837091231e+00 
220200 6.5435506072e+00 -1.5036527410e-04 2.8773484230e+00 -4.9837136598e+00 2.8773484230e+00 4.9837136598e+00 
220300 6.5435506003e+00 -1.5000030430e-04 2.8773510360e+00 -4.9837181855e+00 2.8773510360e+00 4.9837181855e+00 
220400 6.5435505934e+00 -1.4963624737e-04 2.8773536425e+00 -4.9837227002e+00 2.8773536425e+00 4.9837227002e+00 
220500 6.5435505865e+00 -1.4927310088e-04 2.8773562428e+00 -4.9837272040e+00 2.8773562428e+00 4.9837272040e+00 
220600 6.5435505796e+00 -1.4891086244e-04 2.8773588367e+00 -4.9837316968e+00 2.8773588367e+00 4.9837316968e+00 
220700 6.5435505728e+00 -1.4854952966e-04 2.8773614243e+00 -4.9837361787e+00 2.8773614243e+00 4.9837361787e+00 
220800 6.5435505660e+00 -1.4818910015e-04 2.8773640057e+00 -4.9837406497e+00 2.8773640057e+00 4.9837406497e+00 
220900 6.5435505593e+00 -1.4782957153e-04 2.8773665808e+00 -4.9837451099e+00 2.8773665808e+00 4.9837451099e+00 
221000 6.5435505526e+00 -1.4747094143e-04 2.8773691496e+00 -4.9837495592e+00 2.8773691496e+00 4.9837495592e+00 
221100 6.5435505459e+00 -1.4711320748e-04 2.8773717122e+00 -4.9837539978e+00 2.8773717122e+00 4.9837539978e+00 
221200 6.5435505392e+00 -1.4675636732e-04 2.8773742686e+00 -4.9837584256e+00 2.8773742686e+00 4.9837584256e+00 
221300 6.5435505326e+00 -1.4640041861e-04 2.8773768188e+00 -4.9837628426e+00 2.8773768188e+00 4.9837628426e+00 
221400 6.5435505260e+00 -1.4604535899e-04 2.8773793628e+00 -4.9837672489e+00 2.8773793628e+00 4.9837672489e+00 
221500 6.5435505194e+00 -1.4569118613e-04 2.8773819006e+00 -4.9837716446e+00 2.8773819006e+00 4.9837716446e+00 
221600 6.5435505129e+00 -1.4533789770e-04 2.8773844322e+00 -4.9837760295e+00 2.8773844322e+00 4.9837760295e+00 
221700 6.5435505064e+00 -1.4498549137e-04 2.8773869578e+00 -4.9837804039e+00 2.8773869578e+00 4.9837804039e+00 
221800 6.5435504999e+00 -1.4463396482e-04 2.8773894772e+00 -4.9837847676e+00 2.8773894772e+00 4.9837847676e+00 
221900 6.5435504935e+00 -1.4428331574e-04 2.8773919904e+00 -4.9837891207e+00 2.8773919904e+00 4.9837891207e+00 
222000 6.5435504871e+00 -1.4393354182e-04 2.8773944976e+00 -4.9837934633e+00 2.8773944976e+00 4.9837934633e+00 
222100 6.5435504807e+00 -1.4358464077e-04 2.8773969987e+00 -4.9837977954e+00 2.8773969987e+00 4.9837977954e+00 
222200 6.5435504744e+00 -1.4323661029e-04 2.8773994938e+00 -4.9838021169e+00 2.8773994938e+00 4.9838021169e+00 
222300 6.5435504680e+00 -1.4288944809e-04 2.8774019828e+00 -4.9838064280e+00 2.8774019828e+00 4.9838064280e+00 
222400 6.5435504617e+00 -1.4254315191e-04 2.8774044657e+00 -4.9838107286e+00 2.8774044657e+00 4.9838107286e+00 
222500 6.5435504555e+00 -1.4219771945e-04 2.8774069427e+00 -4.9838150188e+00 2.8774069427e+00 4.9838150188e+00 
222600 6.5435504493e+00 -1.4185314847e-04 2.8774094136e+00 -4.9838192986e+00 2.8774094136e+00 4.9838192986e+00 
222700 6.5435504431e+00 -1.4150943669e-04 2.8774118786e+00 -4.9838235680e+00 2.8774118786e+00 4.9838235680e+00 
222800 6.5435504369e+00 -1.4116658187e-04 2.8774143375e+00 -4.9838278270e+00 2.8774143375e+00 4.9838278270e+00 
222900 6.5435504308e+00 -1.4082458175e-04 2.8774167905e+00 -4.9838320758e+00 2.8774167905e+00 4.9838320758e+00 
223000 6.5435504246e+00 -1.4048343410e-04 2.8774192376e+00 -4.9838363142e+00 2.8774192376e+00 4.9838363142e+00 
223100 6.5435504186e+00 -1.4014313668e-04 2.8774216787e+00 -4.9838405424e+00 2.8774216787e+00 4.9838405424e+00 
223200 6.5435504125e+00 -1.3980368727e-04 2.8774241140e+00 -4.9838447603e+00 2.8774241140e+00 4.9838447603e+00 
223300 6.5435504065e+00 -1.3946508364e-04 2.8774265433e+00 -4.9838489680e+00 2.8774265433e+00 4.9838489680e+00 
223400 6.5435504005e+00 -1.3912732357e-04 2.8774289667e+00 -4.9838531655e+00 2.8774289667e+00 4.9838531655e+00 
223500 6.5435503945e+00 -1.3879040486e-04 2.8774313843e+00 -4.9838573529e+00 2.8774313843e+00 4.9838573529e+00 
223600 6.5435503886e+00 -1.3845432531e-04 2.8774337960e+00 -4.9838615301e+00 2.8774337960e+00 4.9838615301e+00 
223700 6.5435503827e+00 -1.3811908271e-04 2.8774362019e+00 -4.9838656971e+00 2.8774362019e+00 4.9838656971e+00 
223800 6.5435503768e+00 -1.3778467488e-04 2.8774386019e+00 -4.9838698541e+00 2.8774386019e+00 4.9838698541e+00 
223900 6.5435503709e+00 -1.3745109964e-04 2.8774409961e+00 -4.9838740011e+00 2.8774409961e+00 4.9838740011e+00 
224000 6.5435503651e+00 -1.3711835480e-04 2.8774433845e+00 -4.9838781379e+00 2.8774433845e+00 4.9838781379e+00 
224100 6.5435503593e+00 -1.3678643819e-04 2.8774457672e+00 -4.9838822648e+00 2.8774457672e+00 4.9838822648e+00 
224200 6.5435503535e+00 -1.3645534765e-04 2.8774481441e+00 -4.9838863817e+00 2.8774481441e+00 4.9838863817e+00 
224300 6.5435503478e+00 -1.3612508102e-04 2.8774505152e+00 -4.9838904886e+00 2.8774505152e+00 4.9838904886e+00 
224400 6.5435503421e+00 -1.3579563615e-04 2.8774528806e+00 -4.9838945855e+00 2.8774528806e+00 4.9838945855e+00 
224500 6.5435503364e+00 -1.3546701088e-04 2.8774552402e+00 -4.9838986725e+00 2.8774552402e+00 4.9838986725e+00 
224600 6.5435503307e+00 -1.3513920307e-04 2.8774575941e+00 -4.9839027497e+00 2.8774575941e+00 4.9839027497e+00 
224700 6.5435503251e+00 -1.3481221060e-04 2.8774599424e+00 -4.9839068169e+00 2.8774599424e+00 4.9839068169e+00 
224800 6.5435503195e+00 -1.3448603133e-04 2.8774622849e+00 -4.9839108744e+00 2.8774622849e+00 4.9839108744e+00 
224900 6.5435503139e+00 -1.3416066314e-04 2.8774646218e+00 -4.9839149220e+00 2.8774646218e+00 4.9839149220e+00 
225000 6.5435503083e+00 -1.3383610391e-04 2.8774669531e+00 -4.9839189598e+00 2.8774669531e+00 4.9839189598e+00 
225100 6.5435503028e+00 -1.3351235153e-04 2.8774692786e+00 -4.9839229878e+00 2.8774692786e+00 4.9839229878e+00 
225200 6.5435502973e+00 -1.3318940390e-04 2.8774715986e+00 -4.9839270061e+00 2.8774715986e+00 4.9839270061e+00 
225300 6.5435502918e+00 -1.3286725891e-04 2.8774739130e+00 -4.9839310147e+00 2.8774739130e+00 4.9839310147e+00 
225400 6.5435502864e+00 -1.3254591447e-04 2.8774762217e+00 -4.9839350136e+00 2.8774762217e+00 4.9839350136e+00 
225500 6.5435502810e+00 -1.3222536850e-04 2.8774785249e+00 -4.9839390028e+00 2.8774785249e+00 4.9839390028e+00 
225600 6.5435502756e+00 -1.3190561890e-04 2.8774808225e+00 -4.9839429823e+00 2.8774808225e+00 4.9839429823e+00 
225700 6.5435502702e+00 -1.3158666362e-04 2.8774831145e+00 -4.9839469522e+00 2.8774831145e+00 4.9839469522e+00 
225800 6.5435502648e+00 -1.3126850058e-04 2.8774854010e+00 -4.9839509125e+00 2.8774854010e+00 4.9839509125e+00 
225900 6.5435502595e+00 -1.3095112770e-04 2.8774876819e+00 -4.9839548633e+00 2.8774876819e+00 4.9839548633e+00 
226000 6.5435502542e+00 -1.3063454295e-04 2.8774899574e+00 -4.9839588045e+00 2.8774899574e+00 4.9839588045e+00 
226100 6.5435502489e+00 -1.3031874425e-04 2.8774922273e+00 -4.9839627361e+00 2.8774922273e+00 4.9839627361e+00 
226200 6.5435502437e+00 -1.3000372957e-04 2.8774944918e+00 -4.9839666582e+00 2.8774944918e+00 4.9839666582e+00 
226300 6.5435502385e+00 -1.2968949687e-04 2.8774967507e+00 -4.9839705709e+00 2.8774967507e+00 4.9839705709e+00 
226400 6.5435502333e+00 -1.2937604410e-04 2.8774990043e+00 -4.9839744741e+00 2.8774990043e+00 4.9839744741e+00 
226500 6.5435502281e+00 -1.2906336925e-04 2.8775012523e+00 -4.9839783679e+00 2.8775012523e+00 4.9839783679e+00 
226600 6.5435502229e+00 -1.2875147028e-04 2.8775034950e+00 -4.9839822522e+00 2.8775034950e+00 4.9839822522e+00 
226700 6.5435502178e+00 -1.2844034518e-04 2.8775057322e+00 -4.9839861272e+00 2.8775057322e+00 4.9839861272e+00 
226800 6.5435502127e+00 -1.2812999193e-04 2.8775079640e+00 -4.9839899928e+00 2.8775079640e+00 4.9839899928e+00 
226900 6.5435502076e+00 -1.2782040854e-04 2.8775101904e+00 -4.9839938490e+00 2.8775101904e+00 4.9839938490e+00 
227000 6.5435502026e+00 -1.2751159299e-04 2.8775124114e+00 -4.9839976959e+00 2.8775124114e+00 4.9839976959e+00 
227100 6.5435501976e+00 -1.2720354329e-04 2.8775146270e+00 -4.9840015336e+00 2.8775146270e+00 4.9840015336e+00 
227200 6.5435501926e+00 -1.2689625746e-04 2.8775168373e+00 -4.9840053619e+00 2.8775168373e+00 4.9840053619e+00 
227300 6.5435501876e+00 -1.2658973350e-04 2.8775190423e+00 -4.9840091810e+00 2.8775190423e+00 4.9840091810e+00 
227400 6.5435501826e+00 -1.2628396945e-04 2.8775212419e+00 -4.9840129909e+00 2.8775212419e+00 4.9840129909e+00 
227500 6.5435501777e+00 -1.2597896332e-04 2.8775234363e+00 -4.9840167916e+00 2.8775234363e+00 4.9840167916e+00 
227600 6.5435501728e+00 -1.2567471314e-04 2.8775256253e+00 -4.9840205831e+00 2.8775256253e+00 4.9840205831e+00 
227700 6.5435501679e+00 -1.2537121697e-04 2.8775278090e+00 -4.9840243654e+00 2.8775278090e+00 4.9840243654e+00 
227800 6.5435501630e+00 -1.2506847283e-04 2.8775299875e+00 -4.9840281386e+00 2.8775299875e+00 4.9840281386e+00 
227900 6.5435501582e+00 -1.2476647878e-04 2.8775321607e+00 -4.9840319027e+00 2.8775321607e+00 4.9840319027e+00 
228000 6.5435501534e+00 -1.2446523287e-04 2.8775343286e+00 -4.9840356577e+00 2.8775343286e+00 4.9840356577e+00 
228100 6.5435501486e+00 -1.2416473316e-04 2.8775364913e+00 -4.9840394036e+00 2.8775364913e+00 4.9840394036e+00 
228200 6.5435501438e+00 -1.2386497772e-04 2.8775386488e+00 -4.9840431404e+00 2.8775386488e+00 4.9840431404e+00 
228300 6.5435501391e+00 -1.2356596462e-04 2.8775408011e+00 -4.9840468683e+00 2.8775408011e+00 4.9840468683e+00 
228400 6.5435501343e+00 -1.2326769193e-04 2.8775429481e+00 -4.9840505871e+00 2.8775429481e+00 4.9840505871e+00 
228500 6.5435501296e+00 -1.2297015773e-04 2.8775450900e+00 -4.9840542970e+00 2.8775450900e+00 4.9840542970e+00 
228600 6.5435501250e+00 -1.2267336011e-04 2.8775472267e+00 -4.9840579979e+00 2.8775472267e+00 4.9840579979e+00 
228700 6.5435501203e+00 -1.2237729717e-04 2.8775493583e+00 -4.9840616899e+00 2.8775493583e+00 4.9840616899e+00 
228800 6.5435501157e+00 -1.2208196700e-04 2.8775514847e+00 -4.9840653729e+00 2.8775514847e+00 4.9840653729e+00 
228900 6.5435501110e+00 -1.2178736770e-04 2.8775536060e+00 -4.9840690471e+00 2.8775536060e+00 4.9840690471e+00 
229000 6.5435501064e+00 -1.2149349737e-04 2.8775557222e+00 -4.9840727124e+00 2.8775557222e+00 4.9840727124e+00 
229100 6.5435501019e+00 -1.2120035415e-04 2.8775578332e+00 -4.9840763689e+00 2.8775578332e+00 4.9840763689e+00 
229200 6.5435500973e+00 -1.2090793613e-04 2.8775599392e+00 -4.9840800165e+00 2.8775599392e+00 4.9840800165e+00 
229300 6.5435500928e+00 -1.2061624145e-04 2.8775620401e+00 -4.9840836553e+00 2.8775620401e+00 4.9840836553e+00 
229400 6.5435500883e+00 -1.2032526823e-04 2.8775641359e+00 -4.9840872854e+00 2.8775641359e+00 4.9840872854e+00 
229500 6.5435500838e+00 -1.2003501462e-04 2.8775662266e+00 -4.9840909066e+00 2.8775662266e+00 4.9840909066e+00 
229600 6.5435500793e+00 -1.1974547874e-04 2.8775683123e+00 -4.9840945192e+00 2.8775683123e+00 4.9840945192e+00 
229700 6.5435500749e+00 -1.1945665874e-04 2.8775703930e+00 -4.9840981230e+00 2.8775703930e+00 4.9840981230e+00 
229800 6.5435500705e+00 -1.1916855277e-04 2.8775724686e+00 -4.9841017182e+00 2.8775724686e+00 4.9841017182e+00 
229900 6.5435500661e+00 -1.1888115899e-04 2.8775745393e+00 -4.9841053046e+00 2.8775745393e+00 4.9841053046e+00 
230000 6.5435500617e+00 -1.1859447555e-04 2.8775766049e+00 -4.9841088824e+00 2.8775766049e+00 4.9841088824e+00 
230100 6.5435500573e+00 -1.1830850062e-04 2.8775786656e+00 -4.9841124516e+00 2.8775786656e+00 4.9841124516e+00 
230200 6.5435500530e+00 -1.1802323238e-04 2.8775807213e+00 -4.9841160122e+00 2.8775807213e+00 4.9841160122e+00 
230300 6.5435500487e+00 -1.1773866899e-04 2.8775827720e+00 -4.9841195641e+00 2.8775827720e+00 4.9841195641e+00 
230400 6.5435500444e+00 -1.1745480864e-04 2.8775848178e+00 -4.9841231076e+00 2.8775848178e+00 4.9841231076e+00 
230500 6.5435500401e+00 -1.1717164951e-04 2.8775868587e+00 -4.9841266424e+00 2.8775868587e+00 4.9841266424e+00 
230600 6.5435500358e+00 -1.1688918978e-04 2.8775888946e+00 -4.9841301688e+00 2.8775888946e+00 4.9841301688e+00 
230700 6.5435500316e+00 -1.1660742767e-04 2.8775909256e+00 -4.9841336866e+00 2.8775909256e+00 4.9841336866e+00 
230800 6.5435500274e+00 -1.1632636137e-04 2.8775929518e+00 -4.9841371960e+00 2.8775929518e+00 4.9841371960e+00 
230900 6.5435500232e+00 -1.1604598908e-04 2.8775949730e+00 -4.9841406969e+00 2.8775949730e+00 4.9841406969e+00 
231000 6.5435500190e+00 -1.1576630901e-04 2.8775969894e+00 -4.9841441893e+00 2.8775969894e+00 4.9841441893e+00 
231100 6.5435500149e+00 -1.1548731938e-04 2.8775990009e+00 -4.9841476734e+00 2.8775990009e+00 4.9841476734e+00 
231200 6.5435500107e+00 -1.1520901840e-04 2.8776010076e+00 -4.9841511490e+00 2.8776010076e+00 4.9841511490e+00 
231300 6.5435500066e+00 -1.1493140432e-04 2.8776030094e+00 -4.9841546163e+00 2.8776030094e+00 4.9841546163e+00 
231400 6.5435500025e+00 -1.1465447534e-04 2.8776050064e+00 -4.9841580752e+00 2.8776050064e+00 4.9841580752e+00 
231500 6.5435499984e+00 -1.1437822971e-04 2.8776069986e+00 -4.9841615257e+00 2.8776069986e+00 4.9841615257e+00 
231600 6.5435499944e+00 -1.1410266568e-04 2.8776089860e+00 -4.9841649680e+00 2.8776089860e+00 4.9841649680e+00 
231700 6.5435499903e+00 -1.1382778147e-04 2.8776109686e+00 -4.9841684020e+00 2.8776109686e+00 4.9841684020e+00 
231800 6.5435499863e+00 -1.1355357534e-04 2.8776129464e+00 -4.9841718276e+00 2.8776129464e+00 4.9841718276e+00 
231900 6.5435499823e+00 -1.1328004555e-04 2.8776149194e+00 -4.9841752451e+00 2.8776149194e+00 4.9841752451e+00 
232000 6.5435499783e+00 -1.1300719036e-04 2.8776168877e+00 -4.9841786543e+00 2.8776168877e+00 4.9841786543e+00 
232100 6.5435499744e+00 -1.1273500803e-04 2.8776188513e+00 -4.9841820552e+00 2.8776188513e+00 4.9841820552e+00 
232200 6.5435499704e+00 -1.1246349683e-04 2.8776208101e+00 -4.9841854480e+00 2.8776208101e+00 4.9841854480e+00 
232300 6.5435499665e+00 -1.1219265503e-04 2.8776227642e+00 -4.9841888326e+00 2.8776227642e+00 4.9841888326e+00 
232400 6.5435499626e+00 -1.1192248090e-04 2.8776247136e+00 -4.9841922091e+00 2.8776247136e+00 4.9841922091e+00 
232500 6.5435499587e+00 -1.1165297275e-04 2.8776266583e+00 -4.9841955774e+00 2.8776266583e+00 4.9841955774e+00 
232600 6.5435499548e+00 -1.1138412884e-04 2.8776285983e+00 -4.9841989376e+00 2.8776285983e+00 4.9841989376e+00 
232700 6.5435499510e+00 -1.1111594748e-04 2.8776305337e+00 -4.9842022897e+00 2.8776305337e+00 4.9842022897e+00 
232800 6.5435499471e+00 -1.1084842696e-04 2.8776324644e+00 -4.9842056338e+00 2.8776324644e+00 4.9842056338e+00 
232900 6.5435499433e+00 -1.1058156558e-04 2.8776343904e+00 -4.9842089698e+00 2.8776343904e+00 4.9842089698e+00 
233000 6.5435499395e+00 -1.1031536165e-04 2.8776363118e+00 -4.9842122977e+00 2.8776363118e+00 4.9842122977e+00 
233100 6.5435499357e+00 -1.1004981349e-04 2.8776382286e+00 -4.9842156177e+00 2.8776382286e+00 4.9842156177e+00 
233200 6.5435499320e+00 -1.0978491940e-04 2.8776401407e+00 -4.9842189296e+00 2.8776401407e+00 4.9842189296e+00 
233300 6.5435499282e+00 -1.0952067770e-04 2.8776420483e+00 -4.9842222336e+00 2.8776420483e+00 4.9842222336e+00 
233400 6.5435499245e+00 -1.0925708673e-04 2.8776439512e+00 -4.9842255296e+00 2.8776439512e+00 4.9842255296e+00 
233500 6.5435499208e+00 -1.0899414481e-04 2.8776458496e+00 -4.9842288177e+00 2.8776458496e+00 4.9842288177e+00 
233600 6.5435499171e+00 -1.0873185028e-04 2.8776477434e+00 -4.9842320979e+00 2.8776477434e+00 4.9842320979e+00 
233700 6.5435499134e+00 -1.0847020148e-04 2.8776496327e+00 -4.9842353702e+00 2.8776496327e+00 4.9842353702e+00 
233800 6.5435499098e+00 -1.0820919674e-04 2.8776515174e+00 -4.9842386345e+00 2.8776515174e+00 4.9842386345e+00 
233900 6.5435499061e+00 -1.0794883442e-04 2.8776533975e+00 -4.9842418911e+00 2.8776533975e+00 4.9842418911e+00 
234000 6.5435499025e+00 -1.0768911287e-04 2.8776552732e+00 -4.9842451398e+00 2.8776552732e+00 4.9842451398e+00 
234100 6.5435498989e+00 -1.0743003045e-04 2.8776571443e+00 -4.9842483807e+00 2.8776571443e+00 4.9842483807e+00 
234200 6.5435498953e+00 -1.0717158552e-04 2.8776590109e+00 -4.9842516138e+00 2.8776590109e+00 4.9842516138e+00 
234300 6.5435498917e+00 -1.0691377644e-04 2.8776608730e+00 -4.9842548391e+00 2.8776608730e+00 4.9842548391e+00 
234400 6.5435498882e+00 -1.0665660158e-04 2.8776627307e+00 -4.9842580566e+00 2.8776627307e+00 4.9842580566e+00 
234500 6.5435498847e+00 -1.0640005933e-04 2.8776645839e+00 -4.9842612664e+00 2.8776645839e+00 4.9842612664e+00 
234600 6.5435498811e+00 -1.0614414806e-04 2.8776664326e+00 -4.9842644685e+00 2.8776664326e+00 4.9842644685e+00 
234700 6.5435498776e+00 -1.0588886615e-04 2.8776682769e+00 -4.9842676629e+00 2.8776682769e+00 4.9842676629e+00 
234800 6.5435498741e+00 -1.0563421199e-04 2.8776701167e+00 -4.9842708496e+00 2.8776701167e+00 4.9842708496e+00 
234900 6.5435498707e+00 -1.0538018398e-04 2.8776719521e+00 -4.9842740286e+00 2.8776719521e+00 4.9842740286e+00 
235000 6.5435498672e+00 -1.0512678051e-04 2.8776737831e+00 -4.9842772000e+00 2.8776737831e+00 4.9842772000e+00 
235100 6.5435498638e+00 -1.0487399998e-04 2.8776756097e+00 -4.9842803637e+00 2.8776756097e+00 4.9842803637e+00 
235200 6.5435498604e+00 -1.0462184081e-04 2.8776774319e+00 -4.9842835199e+00 2.8776774319e+00 4.9842835199e+00 
235300 6.5435498569e+00 -1.0437030139e-04 2.8776792497e+00 -4.9842866684e+00 2.8776792497e+00 4.9842866684e+00 
235400 6.5435498536e+00 -1.0411938015e-04 2.8776810632e+00 -4.9842898094e+00 2.8776810632e+00 4.9842898094e+00 
235500 6.5435498502e+00 -1.0386907551e-04 2.8776828723e+00 -4.9842929428e+00 2.8776828723e+00 4.9842929428e+00 
235600 6.5435498468e+00 -1.0361938588e-04 2.8776846770e+00 -4.9842960687e+00 2.8776846770e+00 4.9842960687e+00 
235700 6.5435498435e+00 -1.0337030969e-04 2.8776864774e+00 -4.9842991871e+00 2.8776864774e+00 4.9842991871e+00 
235800 6.5435498402e+00 -1.0312184539e-04 2.8776882735e+00 -4.9843022980e+00 2.8776882735e+00 4.9843022980e+00 
235900 6.5435498369e+00 -1.0287399140e-04 2.8776900652e+00 -4.9843054014e+00 2.8776900652e+00 4.9843054014e+00 
236000 6.5435498336e+00 -1.0262674616e-04 2.8776918527e+00 -4.9843084973e+00 2.8776918527e+00 4.9843084973e+00 
236100 6.5435498303e+00 -1.0238010812e-04 2.8776936358e+00 -4.9843115858e+00 2.8776936358e+00 4.9843115858e+00 
236200 6.5435498270e+00 -1.0213407572e-04 2.8776954147e+00 -4.9843146669e+00 2.8776954147e+00 4.9843146669e+00 
236300 6.5435498238e+00 -1.0188864743e-04 2.8776971892e+00 -4.9843177406e+00 2.8776971892e+00 4.9843177406e+00 
236400 6.5435498205e+00 -1.0164382170e-04 2.8776989596e+00 -4.9843208068e+00 2.8776989596e+00 4.9843208068e+00 
236500 6.5435498173e+00 -1.0139959699e-04 2.8777007256e+00 -4.9843238657e+00 2.8777007256e+00 4.9843238657e+00 
236600 6.5435498141e+00 -1.0115597176e-04 2.8777024874e+00 -4.9843269173e+00 2.8777024874e+00 4.9843269173e+00 
236700 6.5435498109e+00 -1.0091294449e-04 2.8777042450e+00 -4.9843299615e+00 2.8777042450e+00 4.9843299615e+00 
236800 6.5435498078e+00 -1.0067051365e-04 2.8777059984e+00 -4.9843329984e+00 2.8777059984e+00 4.9843329984e+00 
236900 6.5435498046e+00 -1.0042867772e-04 2.8777077475e+00 -4.9843360280e+00 2.8777077475e+00 4.9843360280e+00 
237000 6.5435498015e+00 -1.0018743518e-04 2.8777094925e+00 -4.9843390504e+00 2.8777094925e+00 4.9843390504e+00 
237100 6.5435497983e+00 -9.9946784514e-05 2.8777112332e+00 -4.9843420654e+00 2.8777112332e+00 4.9843420654e+00 
237200 6.5435497952e+00 -9.9706724220e-05 2.8777129698e+00 -4.9843450732e+00 2.8777129698e+00 4.9843450732e+00 
237300 6.5435497921e+00 -9.9467252789e-05 2.8777147022e+00 -4.9843480738e+00 2.8777147022e+00 4.9843480738e+00 
237400 6.5435497890e+00 -9.9228368721e-05 2.8777164304e+00 -4.9843510672e+00 2.8777164304e+00 4.9843510672e+00 
237500 6.5435497860e+00 -9.8990070517e-05 2.8777181545e+00 -4.9843540534e+00 2.8777181545e+00 4.9843540534e+00 
237600 6.5435497829e+00 -9.8752356688e-05 2.8777198744e+00 -4.9843570325e+00 2.8777198744e+00 4.9843570325e+00 
237700 6.5435497799e+00 -9.8515225741e-05 2.8777215902e+00 -4.9843600043e+00 2.8777215902e+00 4.9843600043e+00 
237800 6.5435497769e+00 -9.8278676194e-05 2.8777233019e+00 -4.9843629691e+00 2.8777233019e+00 4.9843629691e+00 
237900 6.5435497739e+00 -9.8042706566e-05 2.8777250095e+00 -4.9843659267e+00 2.8777250095e+00 4.9843659267e+00 
238000 6.5435497709e+00 -9.7807315377e-05 2.8777267130e+00 -4.9843688772e+00 2.8777267130e+00 4.9843688772e+00 
238100 6.5435497679e+00 -9.7572501160e-05 2.8777284124e+00 -4.9843718206e+00 2.8777284124e+00 4.9843718206e+00 
238200 6.5435497649e+00 -9.7338262441e-05 2.8777301077e+00 -4.9843747569e+00 2.8777301077e+00 4.9843747569e+00 
238300 6.5435497620e+00 -9.7104597758e-05 2.8777317989e+00 -4.9843776863e+00 2.8777317989e+00 4.9843776863e+00 
238400 6.5435497590e+00 -9.6871505651e-05 2.8777334861e+00 -4.9843806085e+00 2.8777334861e+00 4.9843806085e+00 
238500 6.5435497561e+00 -9.6638984661e-05 2.8777351692e+00 -4.9843835238e+00 2.8777351692e+00 4.9843835238e+00 
238600 6.5435497532e+00 -9.6407033335e-05 2.8777368483e+00 -4.9843864320e+00 2.8777368483e+00 4.9843864320e+00 
238700 6.5435497503e+00 -9.6175650228e-05 2.8777385233e+00 -4.9843893333e+00 2.8777385233e+00 4.9843893333e+00 
238800 6.5435497474e+00 -9.5944833889e-05 2.8777401944e+00 -4.9843922276e+00 2.8777401944e+00 4.9843922276e+00 
238900 6.5435497445e+00 -9.5714582883e-05 2.8777418614e+00 -4.9843951150e+00 2.8777418614e+00 4.9843951150e+00 
239000 6.5435497417e+00 -9.5484895770e-05 2.8777435244e+00 -4.9843979954e+00 2.8777435244e+00 4.9843979954e+00 
239100 6.5435497388e+00 -9.5255771117e-05 2.8777451834e+00 -4.9844008689e+00 2.8777451834e+00 4.9844008689e+00 
239200 6.5435497360e+00 -9.5027207493e-05 2.8777468385e+00 -4.9844037355e+00 2.8777468385e+00 4.9844037355e+00 
239300 6.5435497332e+00 -9.4799203476e-05 2.8777484895e+00 -4.9844065953e+00 2.8777484895e+00 4.9844065953e+00 
239400 6.5435497304e+00 -9.4571757641e-05 2.8777501366e+00 -4.9844094481e+00 2.8777501366e+00 4.9844094481e+00 
239500 6.5435497276e+00 -9.4344868571e-05 2.8777517798e+00 -4.9844122942e+00 2.8777517798e+00 4.9844122942e+00 
239600 6.5435497248e+00 -9.4118534854e-05 2.8777534190e+00 -4.9844151334e+00 2.8777534190e+00 4.9844151334e+00 
239700 6.5435497220e+00 -9.3892755076e-05 2.8777550543e+00 -4.9844179657e+00 2.8777550543e+00 4.9844179657e+00 
239800 6.5435497193e+00 -9.3667527836e-05 2.8777566856e+00 -4.9844207913e+00 2.8777566856e+00 4.9844207913e+00 
239900 6.5435497166e+00 -9.3442851729e-05 2.8777583131e+00 -4.9844236101e+00 2.8777583131e+00 4.9844236101e+00 
240000 6.5435497138e+00 -9.3218725353e-05 2.8777599366e+00 -4.9844264222e+00 2.8777599366e+00 4.9844264222e+00 
240100 6.5435497111e+00 -9.2995147316e-05 2.8777615562e+00 -4.9844292275e+00 2.8777615562e+00 4.9844292275e+00 
240200 6.5435497084e+00 -9.2772116227e-05 2.8777631720e+00 -4.9844320261e+00 2.8777631720e+00 4.9844320261e+00 
240300 6.5435497057e+00 -9.2549630699e-05 2.8777647839e+00 -4.9844348179e+00 2.8777647839e+00 4.9844348179e+00 
240400 6.5435497031e+00 -9.2327689347e-05 2.8777663919e+00 -4.9844376031e+00 2.8777663919e+00 4.9844376031e+00 
240500 6.5435497004e+00 -9.2106290792e-05 2.8777679960e+00 -4.9844403815e+00 2.8777679960e+00 4.9844403815e+00 
240600 6.5435496977e+00 -9.1885433657e-05 2.8777695964e+00 -4.9844431534e+00 2.8777695964e+00 4.9844431534e+00 
240700 6.5435496951e+00 -9.1665116570e-05 2.8777711928e+00 -4.9844459185e+00 2.8777711928e+00 4.9844459185e+00 
240800 6.5435496925e+00 -9.1445338160e-05 2.8777727855e+00 -4.9844486771e+00 2.8777727855e+00 4.9844486771e+00 
240900 6.5435496899e+00 -9.1226097066e-05 2.8777743743e+00 -4.9844514290e+00 2.8777743743e+00 4.9844514290e+00 
241000 6.5435496873e+00 -9.1007391922e-05 2.8777759593e+00 -4.9844541743e+00 2.8777759593e+00 4.9844541743e+00 
241100 6.5435496847e+00 -9.0789221374e-05 2.8777775405e+00 -4.9844569130e+00 2.8777775405e+00 4.9844569130e+00 
241200 6.5435496821e+00 -9.0571584066e-05 2.8777791179e+00 -4.9844596452e+00 2.8777791179e+00 4.9844596452e+00 
241300 6.5435496796e+00 -9.0354478647e-05 2.8777806916e+00 -4.9844623708e+00 2.8777806916e+00 4.9844623708e+00 
241400 6.5435496770e+00 -9.0137903773e-05 2.8777822614e+00 -4.9844650899e+00 2.8777822614e+00 4.9844650899e+00 
241500 6.5435496745e+00 -8.9921858096e-05 2.8777838275e+00 -4.9844678025e+00 2.8777838275e+00 4.9844678025e+00 
241600 6.5435496719e+00 -8.9706340280e-05 2.8777853899e+00 -4.9844705085e+00 2.8777853899e+00 4.9844705085e+00 
241700 6.5435496694e+00 -8.9491348988e-05 2.8777869485e+00 -4.9844732081e+00 2.8777869485e+00 4.9844732081e+00 
241800 6.5435496669e+00 -8.9276882889e-05 2.8777885033e+00 -4.9844759012e+00 2.8777885033e+00 4.9844759012e+00 
241900 6.5435496644e+00 -8.9062940652e-05 2.8777900545e+00 -4.9844785879e+00 2.8777900545e+00 4.9844785879e+00 
242000 6.5435496620e+00 -8.8849520951e-05 2.8777916019e+00 -4.9844812681e+00 2.8777916019e+00 4.9844812681e+00 
242100 6.5435496595e+00 -8.8636622468e-05 2.8777931456e+00 -4.9844839419e+00 2.8777931456e+00 4.9844839419e+00 
242200 6.5435496570e+00 -8.8424243879e-05 2.8777946856e+00 -4.9844866092e+00 2.8777946856e+00 4.9844866092e+00 
242300 6.5435496546e+00 -8.8212383877e-05 2.8777962219e+00 -4.9844892702e+00 2.8777962219e+00 4.9844892702e+00 
242400 6.5435496522e+00 -8.8001041144e-05 2.8777977546e+00 -4.9844919248e+00 2.8777977546e+00 4.9844919248e+00 
242500 6.5435496497e+00 -8.7790214376e-05 2.8777992835e+00 -4.9844945731e+00 2.8777992835e+00 4.9844945731e+00 
242600 6.5435496473e+00 -8.7579902268e-05 2.8778008088e+00 -4.9844972150e+00 2.8778008088e+00 4.9844972150e+00 
242700 6.5435496449e+00 -8.7370103520e-05 2.8778023305e+00 -4.9844998505e+00 2.8778023305e+00 4.9844998505e+00 
242800 6.5435496425e+00 -8.7160816834e-05 2.8778038485e+00 -4.9845024798e+00 2.8778038485e+00 4.9845024798e+00 
242900 6.5435496402e+00 -8.6952040917e-05 2.8778053629e+00 -4.9845051028e+00 2.8778053629e+00 4.9845051028e+00 
243000 6.5435496378e+00 -8.6743774478e-05 2.8778068736e+00 -4.9845077194e+00 2.8778068736e+00 4.9845077194e+00 
243100 6.5435496355e+00 -8.6536016230e-05 2.8778083807e+00 -4.9845103298e+00 2.8778083807e+00 4.9845103298e+00 
243200 6.5435496331e+00 -8.6328764893e-05 2.8778098842e+00 -4.9845129340e+00 2.8778098842e+00 4.9845129340e+00 
243300 6.5435496308e+00 -8.6122019184e-05 2.8778113841e+00 -4.9845155319e+00 2.8778113841e+00 4.9845155319e+00 
243400 6.5435496285e+00 -8.5915777827e-05 2.8778128804e+00 -4.9845181236e+00 2.8778128804e+00 4.9845181236e+00 
243500 6.5435496262e+00 -8.5710039549e-05 2.8778143731e+00 -4.9845207090e+00 2.8778143731e+00 4.9845207090e+00 
243600 6.5435496239e+00 -8.5504803083e-05 2.8778158623e+00 -4.9845232883e+00 2.8778158623e+00 4.9845232883e+00 
243700 6.5435496216e+00 -8.5300067160e-05 2.8778173479e+00 -4.9845258614e+00 2.8778173479e+00 4.9845258614e+00 
243800 6.5435496193e+00 -8.5095830518e-05 2.8778188299e+00 -4.9845284284e+00 2.8778188299e+00 4.9845284284e+00 
243900 6.5435496170e+00 -8.4892091897e-05 2.8778203084e+00 -4.9845309892e+00 2.8778203084e+00 4.9845309892e+00 
244000 6.5435496148e+00 -8.4688850041e-05 2.8778217833e+00 -4.9845335439e+00 2.8778217833e+00 4.9845335439e+00 
244100 6.5435496125e+00 -8.4486103699e-05 2.8778232547e+00 -4.9845360924e+00 2.8778232547e+00 4.9845360924e+00 
244200 6.5435496103e+00 -8.4283851620e-05 2.8778247226e+00 -4.9845386349e+00 2.8778247226e+00 4.9845386349e+00 
244300 6.5435496081e+00 -8.4082092560e-05 2.8778261870e+00 -4.9845411712e+00 2.8778261870e+00 4.9845411712e+00 
244400 6.5435496059e+00 -8.3880825273e-05 2.8778276478e+00 -4.9845437015e+00 2.8778276478e+00 4.9845437015e+00 
244500 6.5435496037e+00 -8.3680048522e-05 2.8778291052e+00 -4.9845462257e+00 2.8778291052e+00 4.9845462257e+00 
244600 6.5435496015e+00 -8.3479761071e-05 2.8778305591e+00 -4.9845487439e+00 2.8778305591e+00 4.9845487439e+00 
244700 6.5435495993e+00 -8.3279961687e-05 2.8778320095e+00 -4.9845512561e+00 2.8778320095e+00 4.9845512561e+00 
244800 6.5435495971e+00 -8.3080649139e-05 2.8778334564e+00 -4.9845537622e+00 2.8778334564e+00 4.9845537622e+00 
244900 6.5435495950e+00 -8.2881822206e-05 2.8778348999e+00 -4.9845562624e+00 2.8778348999e+00 4.9845562624e+00 
245000 6.5435495928e+00 -8.2683479660e-05 2.8778363399e+00 -4.9845587565e+00 2.8778363399e+00 4.9845587565e+00 
245100 6.5435495907e+00 -8.2485620282e-05 2.8778377764e+00 -4.9845612447e+00 2.8778377764e+00 4.9845612447e+00 
245200 6.5435495885e+00 -8.2288242854e-05 2.8778392095e+00 -4.9845637269e+00 2.8778392095e+00 4.9845637269e+00 
245300 6.5435495864e+00 -8.2091346169e-05 2.8778406392e+00 -4.9845662032e+00 2.8778406392e+00 4.9845662032e+00 
245400 6.5435495843e+00 -8.1894929010e-05 2.8778420655e+00 -4.9845686736e+00 2.8778420655e+00 4.9845686736e+00 
245500 6.5435495822e+00 -8.1698990175e-05 2.8778434883e+00 -4.9845711380e+00 2.8778434883e+00 4.9845711380e+00 
245600 6.5435495801e+00 -8.1503528459e-05 2.8778449078e+00 -4.9845735966e+00 2.8778449078e+00 4.9845735966e+00 
245700 6.5435495780e+00 -8.1308542663e-05 2.8778463238e+00 -4.9845760493e+00 2.8778463238e+00 4.9845760493e+00 
245800 6.5435495760e+00 -8.1114031587e-05 2.8778477365e+00 -4.9845784961e+00 2.8778477365e+00 4.9845784961e+00 
245900 6.5435495739e+00 -8.0919994040e-05 2.8778491458e+00 -4.9845809370e+00 2.8778491458e+00 4.9845809370e+00 
246000 6.5435495719e+00 -8.0726428829e-05 2.8778505517e+00 -4.9845833721e+00 2.8778505517e+00 4.9845833721e+00 
246100 6.5435495698e+00 -8.0533334768e-05 2.8778519542e+00 -4.9845858014e+00 2.8778519542e+00 4.9845858014e+00 
246200 6.5435495678e+00 -8.0340710671e-05 2.8778533534e+00 -4.9845882249e+00 2.8778533534e+00 4.9845882249e+00 
246300 6.5435495658e+00 -8.0148555360e-05 2.8778547493e+00 -4.9845906426e+00 2.8778547493e+00 4.9845906426e+00 
246400 6.5435495638e+00 -7.9956867654e-05 2.8778561418e+00 -4.9845930545e+00 2.8778561418e+00 4.9845930545e+00 
246500 6.5435495618e+00 -7.9765646379e-05 2.8778575310e+00 -4.9845954606e+00 2.8778575310e+00 4.9845954606e+00 
246600 6.5435495598e+00 -7.9574890362e-05 2.8778589168e+00 -4.9845978609e+00 2.8778589168e+00 4.9845978609e+00 
246700 6.5435495578e+00 -7.9384598438e-05 2.8778602994e+00 -4.9846002556e+00 2.8778602994e+00 4.9846002556e+00 
246800 6.5435495558e+00 -7.9194769436e-05 2.8778616786e+00 -4.9846026445e+00 2.8778616786e+00 4.9846026445e+00 
246900 6.5435495538e+00 -7.9005402198e-05 2.8778630545e+00 -4.9846050276e+00 2.8778630545e+00 4.9846050276e+00 
247000 6.5435495519e+00 -7.8816495562e-05 2.8778644272e+00 -4.9846074051e+00 2.8778644272e+00 4.9846074051e+00 
247100 6.5435495499e+00 -7.8628048371e-05 2.8778657965e+00 -4.9846097769e+00 2.8778657965e+00 4.9846097769e+00 
247200 6.5435495480e+00 -7.8440059475e-05 2.8778671626e+00 -4.9846121430e+00 2.8778671626e+00 4.9846121430e+00 
247300 6.5435495461e+00 -7.8252527719e-05 2.8778685254e+00 -4.9846145035e+00 2.8778685254e+00 4.9846145035e+00 
247400 6.5435495442e+00 -7.8065451960e-05 2.8778698850e+00 -4.9846168583e+00 2.8778698850e+00 4.9846168583e+00 
247500 6.5435495423e+00 -7.7878831054e-05 2.8778712413e+00 -4.9846192075e+00 2.8778712413e+00 4.9846192075e+00 
247600 6.5435495403e+00 -7.7692663856e-05 2.8778725943e+00 -4.9846215511e+00 2.8778725943e+00 4.9846215511e+00 
247700 6.5435495385e+00 -7.7506949230e-05 2.8778739442e+00 -4.9846238891e+00 2.8778739442e+00 4.9846238891e+00 
247800 6.5435495366e+00 -7.7321686042e-05 2.8778752908e+00 -4.9846262215e+00 2.8778752908e+00 4.9846262215e+00 
247900 6.5435495347e+00 -7.7136873160e-05 2.8778766341e+00 -4.9846285483e+00 2.8778766341e+00 4.9846285483e+00 
248000 6.5435495328e+00 -7.6952509453e-05 2.8778779743e+00 -4.9846308695e+00 2.8778779743e+00 4.9846308695e+00 
248100 6.5435495310e+00 -7.6768593795e-05 2.8778793113e+00 -4.9846331852e+00 2.8778793113e+00 4.9846331852e+00 
248200 6.5435495291e+00 -7.6585125064e-05 2.8778806451e+00 -4.9846354954e+00 2.8778806451e+00 4.9846354954e+00 
248300 6.5435495273e+00 -7.6402102138e-05 2.8778819756e+00 -4.9846378000e+00 2.8778819756e+00 4.9846378000e+00 
248400 6.5435495255e+00 -7.6219523904e-05 2.8778833030e+00 -4.9846400991e+00 2.8778833030e+00 4.9846400991e+00 
248500 6.5435495236e+00 -7.6037389244e-05 2.8778846273e+00 -4.9846423927e+00 2.8778846273e+00 4.9846423927e+00 
248600 6.5435495218e+00 -7.5855697046e-05 2.8778859483e+00 -4.9846446809e+00 2.8778859483e+00 4.9846446809e+00 
248700 6.5435495200e+00 -7.5674446206e-05 2.8778872662e+00 -4.9846469636e+00 2.8778872662e+00 4.9846469636e+00 
248800 6.5435495182e+00 -7.5493635616e-05 2.8778885810e+00 -4.9846492408e+00 2.8778885810e+00 4.9846492408e+00 
248900 6.5435495164e+00 -7.5313264173e-05 2.8778898926e+00 -4.9846515126e+00 2.8778898926e+00 4.9846515126e+00 
249000 6.5435495147e+00 -7.5133330777e-05 2.8778912011e+00 -4.9846537789e+00 2.8778912011e+00 4.9846537789e+00 
249100 6.5435495129e+00 -7.4953834335e-05 2.8778925064e+00 -4.9846560399e+00 2.8778925064e+00 4.9846560399e+00 
249200 6.5435495111e+00 -7.4774773747e-05 2.8778938087e+00 -4.9846582954e+00 2.8778938087e+00 4.9846582954e+00 
249300 6.5435495094e+00 -7.4596147929e-05 2.8778951078e+00 -4.9846605456e+00 2.8778951078e+00 4.9846605456e+00 
249400 6.5435495076e+00 -7.4417955786e-05 2.8778964038e+00 -4.9846627903e+00 2.8778964038e+00 4.9846627903e+00 
249500 6.5435495059e+00 -7.4240196238e-05 2.8778976967e+00 -4.9846650297e+00 2.8778976967e+00 4.9846650297e+00 
249600 6.5435495042e+00 -7.4062868200e-05 2.8778989866e+00 -4.9846672638e+00 2.8778989866e+00 4.9846672638e+00 
249700 6.5435495024e+00 -7.3885970594e-05 2.8779002733e+00 -4.9846694925e+00 2.8779002733e+00 4.9846694925e+00 
249800 6.5435495007e+00 -7.3709502344e-05 2.8779015570e+00 -4.9846717159e+00 2.8779015570e+00 4.9846717159e+00 
249900 6.5435494990e+00 -7.3533462377e-05 2.8779028376e+00 -4.9846739340e+00 2.8779028376e+00 4.9846739340e+00 
250000 6.5435494973e+00 -7.3357849618e-05 2.8779041152e+00 -4.9846761468e+00 2.8779041152e+00 4.9846761468e+00 
250100 6.5435494956e+00 -7.3182663002e-05 2.8779053897e+00 -4.9846783543e+00 2.8779053897e+00 4.9846783543e+00 
250200 6.5435494940e+00 -7.3007901462e-05 2.8779066611e+00 -4.9846805565e+00 2.8779066611e+00 4.9846805565e+00 
250300 6.5435494923e+00 -7.2833563937e-05 2.8779079296e+00 -4.9846827535e+00 2.8779079296e+00 4.9846827535e+00 
250400 6.5435494906e+00 -7.2659649369e-05 2.8779091949e+00 -4.9846849452e+00 2.8779091949e+00 4.9846849452e+00 
250500 6.5435494890e+00 -7.2486156697e-05 2.8779104573e+00 -4.9846871317e+00 2.8779104573e+00 4.9846871317e+00 
250600 6.5435494873e+00 -7.2313084869e-05 2.8779117167e+00 -4.9846893130e+00 2.8779117167e+00 4.9846893130e+00 
250700 6.5435494857e+00 -7.2140432834e-05 2.8779129730e+00 -4.9846914890e+00 2.8779129730e+00 4.9846914890e+00 
250800 6.5435494840e+00 -7.1968199542e-05 2.8779142264e+00 -4.9846936599e+00 2.8779142264e+00 4.9846936599e+00 
250900 6.5435494824e+00 -7.1796383949e-05 2.8779154767e+00 -4.9846958256e+00 2.8779154767e+00 4.9846958256e+00 
251000 6.5435494808e+00 -7.1624985012e-05 2.8779167241e+00 -4.9846979861e+00 2.8779167241e+00 4.9846979861e+00 
251100 6.5435494792e+00 -7.1454001690e-05 2.8779179685e+00 -4.9847001414e+00 2.8779179685e+00 4.9847001414e+00 
251200 6.5435494776e+00 -7.1283432943e-05 2.8779192099e+00 -4.9847022916e+00 2.8779192099e+00 4.9847022916e+00 
251300 6.5435494760e+00 -7.1113277738e-05 2.8779204483e+00 -4.9847044367e+00 2.8779204483e+00 4.9847044367e+00 
251400 6.5435494744e+00 -7.0943535045e-05 2.8779216838e+00 -4.9847065766e+00 2.8779216838e+00 4.9847065766e+00 
251500 6.5435494728e+00 -7.0774203830e-05 2.8779229164e+00 -4.9847087115e+00 2.8779229164e+00 4.9847087115e+00 
251600 6.5435494712e+00 -7.0605283072e-05 2.8779241460e+00 -4.9847108412e+00 2.8779241460e+00 4.9847108412e+00 
251700 6.5435494697e+00 -7.1279818644e-05 2.8779241460e+00 -4.9847108412e+00 2.8779241460e+00 4.9847108412e+00 
251800 6.5435494682e+00 -7.1110612402e-05 2.8779253844e+00 -4.9847129861e+00 2.8779253844e+00 4.9847129861e+00 
251900 6.5435494666e+00 -7.0940720403e-05 2.8779266198e+00 -4.9847151260e+00 2.8779266198e+00 4.9847151260e+00 
252000 6.5435494651e+00 -7.0770454775e-05 2.8779278523e+00 -4.9847172608e+00 2.8779278523e+00 4.9847172608e+00 
252100 6.5435494636e+00 -7.0600035106e-05 2.8779290819e+00 -4.9847193904e+00 2.8779290819e+00 4.9847193904e+00 
252200 6.5435494621e+00 -7.1272600907e-05 2.8779290819e+00 -4.9847193904e+00 2.8779290819e+00 4.9847193904e+00 
252300 6.5435494606e+00 -7.1101188402e-05 2.8779303201e+00 -4.9847215351e+00 2.8779303201e+00 4.9847215351e+00 
252400 6.5435494591e+00 -7.0928869673e-05 2.8779315554e+00 -4.9847236747e+00 2.8779315554e+00 4.9847236747e+00 
252500 6.5435494575e+00 -7.0756012111e-05 2.8779327877e+00 -4.9847258091e+00 2.8779327877e+00 4.9847258091e+00 
252600 6.5435494560e+00 -7.0582874411e-05 2.8779340170e+00 -4.9847279383e+00 2.8779340170e+00 4.9847279383e+00 
252700 6.5435494546e+00 -7.1252419194e-05 2.8779340170e+00 -4.9847279383e+00 2.8779340170e+00 4.9847279383e+00 
252800 6.5435494531e+00 -7.1078111121e-05 2.8779352549e+00 -4.9847300824e+00 2.8779352549e+00 4.9847300824e+00 
252900 6.5435494516e+00 -7.0902831351e-05 2.8779364898e+00 -4.9847322213e+00 2.8779364898e+00 4.9847322213e+00 
253000 6.5435494502e+00 -7.0726956362e-05 2.8779377216e+00 -4.9847343549e+00 2.8779377216e+00 4.9847343549e+00 
253100 6.5435494487e+00 -7.0550750887e-05 2.8779389504e+00 -4.9847364832e+00 2.8779389504e+00 4.9847364832e+00 
253200 6.5435494473e+00 -7.1216798136e-05 2.8779389504e+00 -4.9847364832e+00 2.8779389504e+00 4.9847364832e+00 
253300 6.5435494459e+00 -7.1039331850e-05 2.8779401877e+00 -4.9847386262e+00 2.8779401877e+00 4.9847386262e+00 
253400 6.5435494444e+00 -7.0860851155e-05 2.8779414219e+00 -4.9847407639e+00 2.8779414219e+00 4.9847407639e+00 
253500 6.5435494430e+00 -7.0681732684e-05 2.8779426530e+00 -4.9847428962e+00 2.8779426530e+00 4.9847428962e+00 
253600 6.5435494416e+00 -7.1346202262e-05 2.8779426530e+00 -4.9847428962e+00 2.8779426530e+00 4.9847428962e+00 
253700 6.5435494402e+00 -7.1165417335e-05 2.8779438925e+00 -4.9847450432e+00 2.8779438925e+00 4.9847450432e+00 
253800 6.5435494388e+00 -7.0983479828e-05 2.8779451289e+00 -4.9847471847e+00 2.8779451289e+00 4.9847471847e+00 
253900 6.5435494373e+00 -7.0800793690e-05 2.8779463621e+00 -4.9847493207e+00 2.8779463621e+00 4.9847493207e+00 
254000 6.5435494359e+00 -7.0617642346e-05 2.8779475922e+00 -4.9847514512e+00 2.8779475922e+00 4.9847514512e+00 
254100 6.5435494346e+00 -7.1277420838e-05 2.8779475922e+00 -4.9847514512e+00 2.8779475922e+00 4.9847514512e+00 
254200 6.5435494332e+00 -7.1092771308e-05 2.8779488305e+00 -4.9847535961e+00 2.8779488305e+00 4.9847535961e+00 
254300 6.5435494318e+00 -7.0906997671e-05 2.8779500657e+00 -4.9847557354e+00 2.8779500657e+00 4.9847557354e+00 
254400 6.5435494304e+00 -7.0720480080e-05 2.8779512976e+00 -4.9847578691e+00 2.8779512976e+00 4.9847578691e+00 
254500 6.5435494291e+00 -7.0533484907e-05 2.8779525262e+00 -4.9847599972e+00 2.8779525262e+00 4.9847599972e+00 
254600 6.5435494278e+00 -7.1188390137e-05 2.8779525262e+00 -4.9847599972e+00 2.8779525262e+00 4.9847599972e+00 
254700 6.5435494264e+00 -7.0999839942e-05 2.8779537630e+00 -4.9847621394e+00 2.8779537630e+00 4.9847621394e+00 
254800 6.5435494250e+00 -7.0810127210e-05 2.8779549965e+00 -4.9847642759e+00 2.8779549965e+00 4.9847642759e+00 
254900 6.5435494237e+00 -7.0619627229e-05 2.8779562268e+00 -4.9847664067e+00 2.8779562268e+00 4.9847664067e+00 
255000 6.5435494224e+00 -7.1271823308e-05 2.8779562268e+00 -4.9847664067e+00 2.8779562268e+00 4.9847664067e+00 
255100 6.5435494211e+00 -7.1079354521e-05 2.8779574650e+00 -4.9847685514e+00 2.8779574650e+00 4.9847685514e+00 
255200 6.5435494198e+00 -7.0885580890e-05 2.8779586999e+00 -4.9847706903e+00 2.8779586999e+00 4.9847706903e+00 
255300 6.5435494184e+00 -7.0690905307e-05 2.8779599314e+00 -4.9847728233e+00 2.8779599314e+00 4.9847728233e+00 
255400 6.5435494172e+00 -7.1339682112e-05 2.8779599314e+00 -4.9847728233e+00 2.8779599314e+00 4.9847728233e+00 
255500 6.5435494159e+00 -7.1142860930e-05 2.8779611708e+00 -4.9847749701e+00 2.8779611708e+00 4.9847749701e+00 
255600 6.5435494146e+00 -7.0944663585e-05 2.8779624068e+00 -4.9847771109e+00 2.8779624068e+00 4.9847771109e+00 
255700 6.5435494133e+00 -7.0745500999e-05 2.8779636394e+00 -4.9847792457e+00 2.8779636394e+00 4.9847792457e+00 
255800 6.5435494120e+00 -7.0545661945e-05 2.8779648685e+00 -4.9847813746e+00 2.8779648685e+00 4.9847813746e+00 
255900 6.5435494107e+00 -7.1187686613e-05 2.8779648685e+00 -4.9847813746e+00 2.8779648685e+00 4.9847813746e+00 
256000 6.5435494095e+00 -7.0985939973e-05 2.8779661052e+00 -4.9847835167e+00 2.8779661052e+00 4.9847835167e+00 
256100 6.5435494082e+00 -7.0782870640e-05 2.8779673385e+00 -4.9847856528e+00 2.8779673385e+00 4.9847856528e+00 
256200 6.5435494069e+00 -7.0578861876e-05 2.8779685682e+00 -4.9847877828e+00 2.8779685682e+00 4.9847877828e+00 
256300 6.5435494057e+00 -7.1216916975e-05 2.8779685682e+00 -4.9847877828e+00 2.8779685682e+00 4.9847877828e+00 
256400 6.5435494045e+00 -7.1010654542e-05 2.8779698055e+00 -4.9847899258e+00 2.8779698055e+00 4.9847899258e+00 
256500 6.5435494032e+00 -7.0802953477e-05 2.8779710392e+00 -4.9847920626e+00 2.8779710392e+00 4.9847920626e+00 
256600 6.5435494020e+00 -7.0594221462e-05 2.8779722693e+00 -4.9847941932e+00 2.8779722693e+00 4.9847941932e+00 
256700 6.5435494008e+00 -7.1227662963e-05 2.8779722693e+00 -4.9847941932e+00 2.8779722693e+00 4.9847941932e+00 
256800 6.5435493996e+00 -7.1016542521e-05 2.8779735067e+00 -4.9847963365e+00 2.8779735067e+00 4.9847963365e+00 
256900 6.5435493983e+00 -7.0803932361e-05 2.8779747405e+00 -4.9847984735e+00 2.8779747405e+00 4.9847984735e+00 
257000 6.5435493971e+00 -7.0590247743e-05 2.8779759706e+00 -4.9848006041e+00 2.8779759706e+00 4.9848006041e+00 
257100 6.5435493960e+00 -7.1218651576e-05 2.8779759706e+00 -4.9848006041e+00 2.8779759706e+00 4.9848006041e+00 
257200 6.5435493947e+00 -7.1002508080e-05 2.8779772079e+00 -4.9848027472e+00 2.8779772079e+00 4.9848027472e+00 
257300 6.5435493935e+00 -7.0784846008e-05 2.8779784415e+00 -4.9848048838e+00 2.8779784415e+00 4.9848048838e+00 
257400 6.5435493923e+00 -7.0566083921e-05 2.8779796713e+00 -4.9848070138e+00 2.8779796713e+00 4.9848070138e+00 
257500 6.5435493912e+00 -7.1189099022e-05 2.8779796713e+00 -4.9848070138e+00 2.8779796713e+00 4.9848070138e+00 
257600 6.5435493900e+00 -7.0967835615e-05 2.8779809081e+00 -4.9848091560e+00 2.8779809081e+00 4.9848091560e+00 
257700 6.5435493888e+00 -7.0745036309e-05 2.8779821410e+00 -4.9848112915e+00 2.8779821410e+00 4.9848112915e+00 
257800 6.5435493877e+00 -7.0521121788e-05 2.8779833701e+00 -4.9848134203e+00 2.8779833701e+00 4.9848134203e+00 
257900 6.5435493865e+00 -7.1138434330e-05 2.8779833701e+00 -4.9848134203e+00 2.8779833701e+00 4.9848134203e+00 
258000 6.5435493854e+00 -7.0911994798e-05 2.8779846060e+00 -4.9848155610e+00 2.8779846060e+00 4.9848155610e+00 
258100 6.5435493842e+00 -7.0684010857e-05 2.8779858380e+00 -4.9848176948e+00 2.8779858380e+00 4.9848176948e+00 
258200 6.5435493831e+00 -7.1298894096e-05 2.8779858380e+00 -4.9848176948e+00 2.8779858380e+00 4.9848176948e+00 
258300 6.5435493820e+00 -7.1067860102e-05 2.8779870766e+00 -4.9848198403e+00 2.8779870766e+00 4.9848198403e+00 
258400 6.5435493808e+00 -7.0835123955e-05 2.8779883113e+00 -4.9848219788e+00 2.8779883113e+00 4.9848219788e+00 
258500 6.5435493797e+00 -7.0601153088e-05 2.8779895420e+00 -4.9848241103e+00 2.8779895420e+00 4.9848241103e+00 
258600 6.5435493786e+00 -7.1209279407e-05 2.8779895420e+00 -4.9848241103e+00 2.8779895420e+00 4.9848241103e+00 
258700 6.5435493775e+00 -7.0972636189e-05 2.8779907791e+00 -4.9848262531e+00 2.8779907791e+00 4.9848262531e+00 
258800 6.5435493764e+00 -7.0734405573e-05 2.8779920121e+00 -4.9848283888e+00 2.8779920121e+00 4.9848283888e+00 
258900 6.5435493752e+00 -7.0495024536e-05 2.8779932410e+00 -4.9848305173e+00 2.8779932410e+00 4.9848305173e+00 
259000 6.5435493742e+00 -7.1096536537e-05 2.8779932410e+00 -4.9848305173e+00 2.8779932410e+00 4.9848305173e+00 
259100 6.5435493731e+00 -7.0854596931e-05 2.8779944762e+00 -4.9848326567e+00 2.8779944762e+00 4.9848326567e+00 
259200 6.5435493720e+00 -7.0611110740e-05 2.8779957072e+00 -4.9848347888e+00 2.8779957072e+00 4.9848347888e+00 
259300 6.5435493709e+00 -7.1209626462e-05 2.8779957072e+00 -4.9848347888e+00 2.8779957072e+00 4.9848347888e+00 
259400 6.5435493698e+00 -7.0963108871e-05 2.8779969443e+00 -4.9848369315e+00 2.8779969443e+00 4.9848369315e+00 
259500 6.5435493688e+00 -7.0714908671e-05 2.8779981772e+00 -4.9848390669e+00 2.8779981772e+00 4.9848390669e+00 
259600 6.5435493677e+00 -7.0465498677e-05 2.8779994057e+00 -4.9848411948e+00 2.8779994057e+00 4.9848411948e+00 
259700 6.5435493667e+00 -7.1056595774e-05 2.8779994057e+00 -4.9848411948e+00 2.8779994057e+00 4.9848411948e+00 
259800 6.5435493656e+00 -7.0804580366e-05 2.8780006402e+00 -4.9848433330e+00 2.8780006402e+00 4.9848433330e+00 
259900 6.5435493645e+00 -7.0551019423e-05 2.8780018703e+00 -4.9848454636e+00 2.8780018703e+00 4.9848454636e+00 
260000 6.5435493635e+00 -7.1138754711e-05 2.8780018703e+00 -4.9848454636e+00 2.8780018703e+00 4.9848454636e+00 
260100 6.5435493625e+00 -7.0882195849e-05 2.8780031062e+00 -4.9848476042e+00 2.8780031062e+00 4.9848476042e+00 
260200 6.5435493614e+00 -7.0623982844e-05 2.8780043376e+00 -4.9848497372e+00 2.8780043376e+00 4.9848497372e+00 
260300 6.5435493604e+00 -7.1207865912e-05 2.8780043376e+00 -4.9848497372e+00 2.8780043376e+00 4.9848497372e+00 
260400 6.5435493594e+00 -7.0946537509e-05 2.8780055747e+00 -4.9848518799e+00 2.8780055747e+00 4.9848518799e+00 
260500 6.5435493583e+00 -7.0683528121e-05 2.8780068073e+00 -4.9848540148e+00 2.8780068073e+00 4.9848540148e+00 
260600 6.5435493574e+00 -7.1263313176e-05 2.8780068073e+00 -4.9848540148e+00 2.8780068073e+00 4.9848540148e+00 
260700 6.5435493563e+00 -7.0997172443e-05 2.8780080454e+00 -4.9848561592e+00 2.8780080454e+00 4.9848561592e+00 
260800 6.5435493553e+00 -7.0729355135e-05 2.8780092788e+00 -4.9848582955e+00 2.8780092788e+00 4.9848582955e+00 
260900 6.5435493543e+00 -7.0460359615e-05 2.8780105076e+00 -4.9848604239e+00 2.8780105076e+00 4.9848604239e+00 
261000 6.5435493533e+00 -7.1031860599e-05 2.8780105076e+00 -4.9848604239e+00 2.8780105076e+00 4.9848604239e+00 
261100 6.5435493523e+00 -7.0760376520e-05 2.8780117416e+00 -4.9848625613e+00 2.8780117416e+00 4.9848625613e+00 
261200 6.5435493513e+00 -7.0487424872e-05 2.8780129710e+00 -4.9848646906e+00 2.8780129710e+00 4.9848646906e+00 
261300 6.5435493504e+00 -7.1055097326e-05 2.8780129710e+00 -4.9848646906e+00 2.8780129710e+00 4.9848646906e+00 
261400 6.5435493494e+00 -7.0779331419e-05 2.8780142054e+00 -4.9848668287e+00 2.8780142054e+00 4.9848668287e+00 
261500 6.5435493484e+00 -7.0502014391e-05 2.8780154351e+00 -4.9848689585e+00 2.8780154351e+00 4.9848689585e+00 
261600 6.5435493474e+00 -7.1065445200e-05 2.8780154351e+00 -4.9848689585e+00 2.8780154351e+00 4.9848689585e+00 
261700 6.5435493465e+00 -7.0785236288e-05 2.8780166697e+00 -4.9848710969e+00 2.8780166697e+00 4.9848710969e+00 
261800 6.5435493455e+00 -7.0503466034e-05 2.8780178995e+00 -4.9848732269e+00 2.8780178995e+00 4.9848732269e+00 
261900 6.5435493446e+00 -7.1062462942e-05 2.8780178995e+00 -4.9848732269e+00 2.8780178995e+00 4.9848732269e+00 
262000 6.5435493436e+00 -7.0777813689e-05 2.8780191340e+00 -4.9848753653e+00 2.8780191340e+00 4.9848753653e+00 
262100 6.5435493426e+00 -7.0491620546e-05 2.8780203637e+00 -4.9848774951e+00 2.8780203637e+00 4.9848774951e+00 
262200 6.5435493417e+00 -7.1046075379e-05 2.8780203637e+00 -4.9848774951e+00 2.8780203637e+00 4.9848774951e+00 
262300 6.5435493408e+00 -7.0757051612e-05 2.8780215979e+00 -4.9848796329e+00 2.8780215979e+00 4.9848796329e+00 
262400 6.5435493398e+00 -7.0466512844e-05 2.8780228272e+00 -4.9848817621e+00 2.8780228272e+00 4.9848817621e+00 
262500 6.5435493389e+00 -7.1016353147e-05 2.8780228272e+00 -4.9848817621e+00 2.8780228272e+00 4.9848817621e+00 
262600 6.5435493380e+00 -7.0723047650e-05 2.8780240610e+00 -4.9848838990e+00 2.8780240610e+00 4.9848838990e+00 
262700 6.5435493371e+00 -7.0428261425e-05 2.8780252897e+00 -4.9848860271e+00 2.8780252897e+00 4.9848860271e+00 
262800 6.5435493362e+00 -7.0973432672e-05 2.8780252897e+00 -4.9848860271e+00 2.8780252897e+00 4.9848860271e+00 
262900 6.5435493352e+00 -7.0675951499e-05 2.8780265227e+00 -4.9848881628e+00 2.8780265227e+00 4.9848881628e+00 
263000 6.5435493344e+00 -7.1220919123e-05 2.8780265227e+00 -4.9848881628e+00 2.8780265227e+00 4.9848881628e+00 
263100 6.5435493335e+00 -7.0919948421e-05 2.8780277600e+00 -4.9848903059e+00 2.8780277600e+00 4.9848903059e+00 
263200 6.5435493325e+00 -7.0617306553e-05 2.8780289921e+00 -4.9848924400e+00 2.8780289921e+00 4.9848924400e+00 
263300 6.5435493317e+00 -7.1156761434e-05 2.8780289921e+00 -4.9848924400e+00 2.8780289921e+00 4.9848924400e+00 
263400 6.5435493308e+00 -7.0851236290e-05 2.8780302283e+00 -4.9848945811e+00 2.8780302283e+00 4.9848945811e+00 
263500 6.5435493299e+00 -7.0544234096e-05 2.8780314592e+00 -4.9848967131e+00 2.8780314592e+00 4.9848967131e+00 
263600 6.5435493290e+00 -7.1078605073e-05 2.8780314592e+00 -4.9848967131e+00 2.8780314592e+00 4.9848967131e+00 
263700 6.5435493281e+00 -7.0768987183e-05 2.8780326940e+00 -4.9848988519e+00 2.8780326940e+00 4.9848988519e+00 
263800 6.5435493272e+00 -7.0457988466e-05 2.8780339235e+00 -4.9849009814e+00 2.8780339235e+00 4.9849009814e+00 
263900 6.5435493264e+00 -7.0987413097e-05 2.8780339235e+00 -4.9849009814e+00 2.8780339235e+00 4.9849009814e+00 
264000 6.5435493255e+00 -7.0673948862e-05 2.8780351568e+00 -4.9849031175e+00 2.8780351568e+00 4.9849031175e+00 
264100 6.5435493247e+00 -7.1203034021e-05 2.8780351568e+00 -4.9849031175e+00 2.8780351568e+00 4.9849031175e+00 
264200 6.5435493238e+00 -7.0886333896e-05 2.8780363938e+00 -4.9849052601e+00 2.8780363938e+00 4.9849052601e+00 
264300 6.5435493230e+00 -7.0568095221e-05 2.8780376253e+00 -4.9849073931e+00 2.8780376253e+00 4.9849073931e+00 
264400 6.5435493221e+00 -7.1091500683e-05 2.8780376253e+00 -4.9849073931e+00 2.8780376253e+00 4.9849073931e+00 
264500 6.5435493213e+00 -7.0770651546e-05 2.8780388604e+00 -4.9849095323e+00 2.8780388604e+00 4.9849095323e+00 
264600 6.5435493204e+00 -7.0448464675e-05 2.8780400898e+00 -4.9849116618e+00 2.8780400898e+00 4.9849116618e+00 
264700 6.5435493196e+00 -7.0966647471e-05 2.8780400898e+00 -4.9849116618e+00 2.8780400898e+00 4.9849116618e+00 
264800 6.5435493188e+00 -7.0642127453e-05 2.8780413227e+00 -4.9849137973e+00 2.8780413227e+00 4.9849137973e+00 
264900 6.5435493180e+00 -7.1159857865e-05 2.8780413227e+00 -4.9849137973e+00 2.8780413227e+00 4.9849137973e+00 
265000 6.5435493171e+00 -7.0832270731e-05 2.8780425590e+00 -4.9849159385e+00 2.8780425590e+00 4.9849159385e+00 
265100 6.5435493163e+00 -7.0503237355e-05 2.8780437896e+00 -4.9849180699e+00 2.8780437896e+00 4.9849180699e+00 
265200 6.5435493155e+00 -7.1015168988e-05 2.8780437896e+00 -4.9849180699e+00 2.8780437896e+00 4.9849180699e+00 
265300 6.5435493147e+00 -7.0683719205e-05 2.8780450233e+00 -4.9849202068e+00 2.8780450233e+00 4.9849202068e+00 
265400 6.5435493139e+00 -7.1195016912e-05 2.8780450233e+00 -4.9849202068e+00 2.8780450233e+00 4.9849202068e+00 
265500 6.5435493131e+00 -7.0860517958e-05 2.8780462602e+00 -4.9849223491e+00 2.8780462602e+00 4.9849223491e+00 
265600 6.5435493123e+00 -7.0524603102e-05 2.8780474912e+00 -4.9849244814e+00 2.8780474912e+00 4.9849244814e+00 
265700 6.5435493115e+00 -7.1029947954e-05 2.8780474912e+00 -4.9849244814e+00 2.8780474912e+00 4.9849244814e+00 
265800 6.5435493107e+00 -7.0691702011e-05 2.8780487252e+00 -4.9849266187e+00 2.8780487252e+00 4.9849266187e+00 
265900 6.5435493099e+00 -7.1196349387e-05 2.8780487252e+00 -4.9849266187e+00 2.8780487252e+00 4.9849266187e+00 
266000 6.5435493091e+00 -7.0855158559e-05 2.8780499621e+00 -4.9849287611e+00 2.8780499621e+00 4.9849287611e+00 
266100 6.5435493083e+00 -7.0512608121e-05 2.8780511931e+00 -4.9849308932e+00 2.8780511931e+00 4.9849308932e+00 
266200 6.5435493076e+00 -7.1011232175e-05 2.8780511931e+00 -4.9849308932e+00 2.8780511931e+00 4.9849308932e+00 
266300 6.5435493068e+00 -7.0666468094e-05 2.8780524267e+00 -4.9849330299e+00 2.8780524267e+00 4.9849330299e+00 
266400 6.5435493060e+00 -7.1164356295e-05 2.8780524267e+00 -4.9849330299e+00 2.8780524267e+00 4.9849330299e+00 
266500 6.5435493052e+00 -7.0816768815e-05 2.8780536631e+00 -4.9849351713e+00 2.8780536631e+00 4.9849351713e+00 
266600 6.5435493045e+00 -7.0467883321e-05 2.8780548933e+00 -4.9849373023e+00 2.8780548933e+00 4.9849373023e+00 
266700 6.5435493037e+00 -7.0959699891e-05 2.8780548933e+00 -4.9849373023e+00 2.8780548933e+00 4.9849373023e+00 
266800 6.5435493030e+00 -7.0608724787e-05 2.8780561261e+00 -4.9849394375e+00 2.8780561261e+00 4.9849394375e+00 
266900 6.5435493022e+00 -7.1099774811e-05 2.8780561261e+00 -4.9849394375e+00 2.8780561261e+00 4.9849394375e+00 
267000 6.5435493015e+00 -7.0746101757e-05 2.8780573613e+00 -4.9849415769e+00 2.8780573613e+00 4.9849415769e+00 
267100 6.5435493007e+00 -7.0391193588e-05 2.8780585904e+00 -4.9849437057e+00 2.8780585904e+00 4.9849437057e+00 
267200 6.5435493000e+00 -7.0876134167e-05 2.8780585904e+00 -4.9849437057e+00 2.8780585904e+00 4.9849437057e+00 
267300 6.5435492992e+00 -7.0519262216e-05 2.8780598217e+00 -4.9849458384e+00 2.8780598217e+00 4.9849458384e+00 
267400 6.5435492985e+00 -7.1003410196e-05 2.8780598217e+00 -4.9849458384e+00 2.8780598217e+00 4.9849458384e+00 
267500 6.5435492978e+00 -7.0643967413e-05 2.8780610552e+00 -4.9849479749e+00 2.8780610552e+00 4.9849479749e+00 
267600 6.5435492971e+00 -7.1126863205e-05 2.8780610552e+00 -4.9849479749e+00 2.8780610552e+00 4.9849479749e+00 
267700 6.5435492963e+00 -7.0764562092e-05 2.8780622909e+00 -4.9849501152e+00 2.8780622909e+00 4.9849501152e+00 
267800 6.5435492956e+00 -7.0401011905e-05 2.8780635203e+00 -4.9849522445e+00 2.8780635203e+00 4.9849522445e+00 
267900 6.5435492949e+00 -7.0877441393e-05 2.8780635203e+00 -4.9849522445e+00 2.8780635203e+00 4.9849522445e+00 
268000 6.5435492942e+00 -7.0511974109e-05 2.8780647516e+00 -4.9849543773e+00 2.8780647516e+00 4.9849543773e+00 
268100 6.5435492935e+00 -7.0987486729e-05 2.8780647516e+00 -4.9849543773e+00 2.8780647516e+00 4.9849543773e+00 
268200 6.5435492928e+00 -7.0619552551e-05 2.8780659849e+00 -4.9849565133e+00 2.8780659849e+00 4.9849565133e+00 
268300 6.5435492921e+00 -7.1093729456e-05 2.8780659849e+00 -4.9849565133e+00 2.8780659849e+00 4.9849565133e+00 
268400 6.5435492914e+00 -7.0723070318e-05 2.8780672200e+00 -4.9849586526e+00 2.8780672200e+00 4.9849586526e+00 
268500 6.5435492906e+00 -7.0351235008e-05 2.8780684486e+00 -4.9849607807e+00 2.8780684486e+00 4.9849607807e+00 
268600 6.5435492900e+00 -7.0818860175e-05 2.8780684486e+00 -4.9849607807e+00 2.8780684486e+00 4.9849607807e+00 
268700 6.5435492893e+00 -7.0445260513e-05 2.8780696789e+00 -4.9849629117e+00 2.8780696789e+00 4.9849629117e+00 
268800 6.5435492886e+00 -7.0911922769e-05 2.8780696789e+00 -4.9849629117e+00 2.8780696789e+00 4.9849629117e+00 
268900 6.5435492879e+00 -7.0536015032e-05 2.8780709109e+00 -4.9849650454e+00 2.8780709109e+00 4.9849650454e+00 
269000 6.5435492873e+00 -7.1001301294e-05 2.8780709109e+00 -4.9849650454e+00 2.8780709109e+00 4.9849650454e+00 
269100 6.5435492866e+00 -7.0622830640e-05 2.8780721444e+00 -4.9849671819e+00 2.8780721444e+00 4.9849671819e+00 
269200 6.5435492859e+00 -7.1086522867e-05 2.8780721444e+00 -4.9849671819e+00 2.8780721444e+00 4.9849671819e+00 
269300 6.5435492852e+00 -7.0705377466e-05 2.8780733793e+00 -4.9849693209e+00 2.8780733793e+00 4.9849693209e+00 
269400 6.5435492846e+00 -7.1167354669e-05 2.8780733793e+00 -4.9849693209e+00 2.8780733793e+00 4.9849693209e+00 
269500 6.5435492839e+00 -7.0783494176e-05 2.8780746157e+00 -4.9849714624e+00 2.8780746157e+00 4.9849714624e+00 
269600 6.5435492832e+00 -7.0398507916e-05 2.8780758454e+00 -4.9849735923e+00 2.8780758454e+00 4.9849735923e+00 
269700 6.5435492826e+00 -7.0853616460e-05 2.8780758454e+00 -4.9849735923e+00 2.8780758454e+00 4.9849735923e+00 
269800 6.5435492819e+00 -7.0467018198e-05 2.8780770763e+00 -4.9849757243e+00 2.8780770763e+00 4.9849757243e+00 
269900 6.5435492813e+00 -7.0921033990e-05 2.8780770763e+00 -4.9849757243e+00 2.8780770763e+00 4.9849757243e+00 
270000 6.5435492806e+00 -7.0532318663e-05 2.8780783084e+00 -4.9849778583e+00 2.8780783084e+00 4.9849778583e+00 
270100 6.5435492800e+00 -7.0984856807e-05 2.8780783084e+00 -4.9849778583e+00 2.8780783084e+00 4.9849778583e+00 
270200 6.5435492793e+00 -7.0593789001e-05 2.8780795416e+00 -4.9849799943e+00 2.8780795416e+00 4.9849799943e+00 
270300 6.5435492787e+00 -7.1044646448e-05 2.8780795416e+00 -4.9849799943e+00 2.8780795416e+00 4.9849799943e+00 
270400 6.5435492781e+00 -7.0651123920e-05 2.8780807759e+00 -4.9849821321e+00 2.8780807759e+00 4.9849821321e+00 
270500 6.5435492774e+00 -7.1100187901e-05 2.8780807759e+00 -4.9849821321e+00 2.8780807759e+00 4.9849821321e+00 
270600 6.5435492768e+00 -7.0704174822e-05 2.8780820111e+00 -4.9849842715e+00 2.8780820111e+00 4.9849842715e+00 
270700 6.5435492762e+00 -7.1151377887e-05 2.8780820111e+00 -4.9849842715e+00 2.8780820111e+00 4.9849842715e+00 
270800 6.5435492755e+00 -7.0752871882e-05 2.8780832471e+00 -4.9849864125e+00 2.8780832471e+00 4.9849864125e+00 
270900 6.5435492749e+00 -7.0353359027e-05 2.8780844763e+00 -4.9849885415e+00 2.8780844763e+00 4.9849885415e+00 
271000 6.5435492743e+00 -7.0793523705e-05 2.8780844763e+00 -4.9849885415e+00 2.8780844763e+00 4.9849885415e+00 
271100 6.5435492737e+00 -7.0392645093e-05 2.8780857062e+00 -4.9849906717e+00 2.8780857062e+00 4.9849906717e+00 
271200 6.5435492731e+00 -7.0831618116e-05 2.8780857062e+00 -4.9849906717e+00 2.8780857062e+00 4.9849906717e+00 
271300 6.5435492724e+00 -7.0428875380e-05 2.8780869367e+00 -4.9849928030e+00 2.8780869367e+00 4.9849928030e+00 
271400 6.5435492719e+00 -7.0866278391e-05 2.8780869367e+00 -4.9849928030e+00 2.8780869367e+00 4.9849928030e+00 
271500 6.5435492712e+00 -7.0461439441e-05 2.8780881679e+00 -4.9849949354e+00 2.8780881679e+00 4.9849949354e+00 
271600 6.5435492707e+00 -7.0897073726e-05 2.8780881679e+00 -4.9849949354e+00 2.8780881679e+00 4.9849949354e+00 
271700 6.5435492700e+00 -7.0490038067e-05 2.8780893995e+00 -4.9849970687e+00 2.8780893995e+00 4.9849970687e+00 
271800 6.5435492695e+00 -7.0923794264e-05 2.8780893995e+00 -4.9849970687e+00 2.8780893995e+00 4.9849970687e+00 
271900 6.5435492689e+00 -7.0514527235e-05 2.8780906317e+00 -4.9849992028e+00 2.8780906317e+00 4.9849992028e+00 
272000 6.5435492683e+00 -7.0946341055e-05 2.8780906317e+00 -4.9849992028e+00 2.8780906317e+00 4.9849992028e+00 
272100 6.5435492677e+00 -7.0534841358e-05 2.8780918642e+00 -4.9850013376e+00 2.8780918642e+00 4.9850013376e+00 
272200 6.5435492671e+00 -7.0964671597e-05 2.8780918642e+00 -4.9850013376e+00 2.8780918642e+00 4.9850013376e+00 
272300 6.5435492665e+00 -7.0550955059e-05 2.8780930970e+00 -4.9850034730e+00 2.8780930970e+00 4.9850034730e+00 
272400 6.5435492660e+00 -7.0978772512e-05 2.8780930970e+00 -4.9850034730e+00 2.8780930970e+00 4.9850034730e+00 
272500 6.5435492654e+00 -7.0562863812e-05 2.8780943301e+00 -4.9850056087e+00 2.8780943301e+00 4.9850056087e+00 
272600 6.5435492648e+00 -7.0988645602e-05 2.8780943301e+00 -4.9850056087e+00 2.8780943301e+00 4.9850056087e+00 
272700 6.5435492642e+00 -7.0570574012e-05 2.8780955634e+00 -4.9850077448e+00 2.8780955634e+00 4.9850077448e+00 
272800 6.5435492637e+00 -7.0994300629e-05 2.8780955634e+00 -4.9850077448e+00 2.8780955634e+00 4.9850077448e+00 
272900 6.5435492631e+00 -7.0574097773e-05 2.8780967967e+00 -4.9850098810e+00 2.8780967967e+00 4.9850098810e+00 
273000 6.5435492626e+00 -7.0995751518e-05 2.8780967967e+00 -4.9850098810e+00 2.8780967967e+00 4.9850098810e+00 
273100 6.5435492620e+00 -7.0573450176e-05 2.8780980301e+00 -4.9850120173e+00 2.8780980301e+00 4.9850120173e+00 
273200 6.5435492614e+00 -7.0993014338e-05 2.8780980301e+00 -4.9850120173e+00 2.8780980301e+00 4.9850120173e+00 
273300 6.5435492609e+00 -7.0568647852e-05 2.8780992634e+00 -4.9850141535e+00 2.8780992634e+00 4.9850141535e+00 
273400 6.5435492603e+00 -7.0986106283e-05 2.8780992634e+00 -4.9850141535e+00 2.8780992634e+00 4.9850141535e+00 
273500 6.5435492598e+00 -7.0559708237e-05 2.8781004967e+00 -4.9850162895e+00 2.8781004967e+00 4.9850162895e+00 
273600 6.5435492592e+00 -7.0975045168e-05 2.8781004967e+00 -4.9850162895e+00 2.8781004967e+00 4.9850162895e+00 
273700 6.5435492587e+00 -7.0546649252e-05 2.8781017297e+00 -4.9850184251e+00 2.8781017297e+00 4.9850184251e+00 
273800 6.5435492582e+00 -7.0959849213e-05 2.8781017297e+00 -4.9850184251e+00 2.8781017297e+00 4.9850184251e+00 
273900 6.5435492576e+00 -7.0529489211e-05 2.8781029624e+00 -4.9850205603e+00 2.8781029624e+00 4.9850205603e+00 
274000 6.5435492571e+00 -7.0940537040e-05 2.8781029624e+00 -4.9850205603e+00 2.8781029624e+00 4.9850205603e+00 
274100 6.5435492565e+00 -7.0508246829e-05 2.8781041948e+00 -4.9850226949e+00 2.8781041948e+00 4.9850226949e+00 
274200 6.5435492560e+00 -7.0917127712e-05 2.8781041948e+00 -4.9850226949e+00 2.8781041948e+00 4.9850226949e+00 
274300 6.5435492555e+00 -7.0482941334e-05 2.8781054269e+00 -4.9850248289e+00 2.8781054269e+00 4.9850248289e+00 
274400 6.5435492550e+00 -7.0889640881e-05 2.8781054269e+00 -4.9850248289e+00 2.8781054269e+00 4.9850248289e+00 
274500 6.5435492544e+00 -7.0453592597e-05 2.8781066584e+00 -4.9850269619e+00 2.8781066584e+00 4.9850269619e+00 
274600 6.5435492539e+00 -7.0858096916e-05 2.8781066584e+00 -4.9850269619e+00 2.8781066584e+00 4.9850269619e+00 
274700 6.5435492534e+00 -7.0420221295e-05 2.8781078894e+00 -4.9850290941e+00 2.8781078894e+00 4.9850290941e+00 
274800 6.5435492529e+00 -7.0822517078e-05 2.8781078894e+00 -4.9850290941e+00 2.8781078894e+00 4.9850290941e+00 
274900 6.5435492523e+00 -7.0382849056e-05 2.8781091197e+00 -4.9850312251e+00 2.8781091197e+00 4.9850312251e+00 
275000 6.5435492518e+00 -7.0782923667e-05 2.8781091197e+00 -4.9850312251e+00 2.8781091197e+00 4.9850312251e+00 
275100 6.5435492513e+00 -7.0341498624e-05 2.8781103494e+00 -4.9850333550e+00 2.8781103494e+00 4.9850333550e+00 
275200 6.5435492508e+00 -7.0739340170e-05 2.8781103494e+00 -4.9850333550e+00 2.8781103494e+00 4.9850333550e+00 
275300 6.5435492503e+00 -7.0296193998e-05 2.8781115783e+00 -4.9850354835e+00 2.8781115783e+00 4.9850354835e+00 
275400 6.5435492498e+00 -7.0691791406e-05 2.8781115783e+00 -4.9850354835e+00 2.8781115783e+00 4.9850354835e+00 
275500 6.5435492494e+00 -7.1091041666e-05 2.8781115783e+00 -4.9850354835e+00 2.8781115783e+00 4.9850354835e+00 
275600 6.5435492488e+00 -7.0644506560e-05 2.8781128134e+00 -4.9850376227e+00 2.8781128134e+00 4.9850376227e+00 
275700 6.5435492484e+00 -7.1040443124e-05 2.8781128134e+00 -4.9850376227e+00 2.8781128134e+00 4.9850376227e+00 
275800 6.5435492478e+00 -7.0591485313e-05 2.8781140475e+00 -4.9850397603e+00 2.8781140475e+00 4.9850397603e+00 
275900 6.5435492474e+00 -7.0984601145e-05 2.8781140475e+00 -4.9850397603e+00 2.8781140475e+00 4.9850397603e+00 
276000 6.5435492468e+00 -7.0533627683e-05 2.8781152807e+00 -4.9850418962e+00 2.8781152807e+00 4.9850418962e+00 
276100 6.5435492464e+00 -7.0924163867e-05 2.8781152807e+00 -4.9850418962e+00 2.8781152807e+00 4.9850418962e+00 
276200 6.5435492459e+00 -7.0471397595e-05 2.8781165128e+00 -4.9850440303e+00 2.8781165128e+00 4.9850440303e+00 
276300 6.5435492454e+00 -7.0859471187e-05 2.8781165128e+00 -4.9850440303e+00 2.8781165128e+00 4.9850440303e+00 
276400 6.5435492449e+00 -7.0405043553e-05 2.8781177438e+00 -4.9850461625e+00 2.8781177438e+00 4.9850461625e+00 
276500 6.5435492445e+00 -7.0790709951e-05 2.8781177438e+00 -4.9850461625e+00 2.8781177438e+00 4.9850461625e+00 
276600 6.5435492440e+00 -7.0334706580e-05 2.8781189736e+00 -4.9850482926e+00 2.8781189736e+00 4.9850482926e+00 
276700 6.5435492435e+00 -7.0717990296e-05 2.8781189736e+00 -4.9850482926e+00 2.8781189736e+00 4.9850482926e+00 
276800 6.5435492430e+00 -7.0260473644e-05 2.8781202022e+00 -4.9850504205e+00 2.8781202022e+00 4.9850504205e+00 
276900 6.5435492426e+00 -7.0641383748e-05 2.8781202022e+00 -4.9850504205e+00 2.8781202022e+00 4.9850504205e+00 
277000 6.5435492421e+00 -7.1025883707e-05 2.8781202022e+00 -4.9850504205e+00 2.8781202022e+00 4.9850504205e+00 
277100 6.5435492416e+00 -7.0565315034e-05 2.8781214361e+00 -4.9850525576e+00 2.8781214361e+00 4.9850525576e+00 
277200 6.5435492412e+00 -7.0946388200e-05 2.8781214361e+00 -4.9850525576e+00 2.8781214361e+00 4.9850525576e+00 
277300 6.5435492407e+00 -7.0483629985e-05 2.8781226686e+00 -4.9850546924e+00 2.8781226686e+00 4.9850546924e+00 
277400 6.5435492403e+00 -7.0861775114e-05 2.8781226686e+00 -4.9850546924e+00 2.8781226686e+00 4.9850546924e+00 
277500 6.5435492398e+00 -7.0397237903e-05 2.8781238996e+00 -4.9850568246e+00 2.8781238996e+00 4.9850568246e+00 
277600 6.5435492394e+00 -7.0772700517e-05 2.8781238996e+00 -4.9850568246e+00 2.8781238996e+00 4.9850568246e+00 
277700 6.5435492389e+00 -7.0306609656e-05 2.8781251291e+00 -4.9850589542e+00 2.8781251291e+00 4.9850589542e+00 
277800 6.5435492385e+00 -7.0679510727e-05 2.8781251291e+00 -4.9850589542e+00 2.8781251291e+00 4.9850589542e+00 
277900 6.5435492381e+00 -7.1055934288e-05 2.8781251291e+00 -4.9850589542e+00 2.8781251291e+00 4.9850589542e+00 
278000 6.5435492376e+00 -7.0586872253e-05 2.8781263635e+00 -4.9850610922e+00 2.8781263635e+00 4.9850610922e+00 
278100 6.5435492372e+00 -7.0959755788e-05 2.8781263635e+00 -4.9850610922e+00 2.8781263635e+00 4.9850610922e+00 
278200 6.5435492367e+00 -7.0488602138e-05 2.8781275963e+00 -4.9850632274e+00 2.8781275963e+00 4.9850632274e+00 
278300 6.5435492363e+00 -7.0858467077e-05 2.8781275963e+00 -4.9850632274e+00 2.8781275963e+00 4.9850632274e+00 
278400 6.5435492358e+00 -7.0385649028e-05 2.8781288273e+00 -4.9850653595e+00 2.8781288273e+00 4.9850653595e+00 
278500 6.5435492354e+00 -7.0752753400e-05 2.8781288273e+00 -4.9850653595e+00 2.8781288273e+00 4.9850653595e+00 
278600 6.5435492349e+00 -7.0278505304e-05 2.8781300564e+00 -4.9850674885e+00 2.8781300564e+00 4.9850674885e+00 
278700 6.5435492345e+00 -7.0642977317e-05 2.8781300564e+00 -4.9850674885e+00 2.8781300564e+00 4.9850674885e+00 
278800 6.5435492341e+00 -7.1010935983e-05 2.8781300564e+00 -4.9850674885e+00 2.8781300564e+00 4.9850674885e+00 
278900 6.5435492337e+00 -7.0533911202e-05 2.8781312900e+00 -4.9850696252e+00 2.8781312900e+00 4.9850696252e+00 
279000 6.5435492333e+00 -7.0898265698e-05 2.8781312900e+00 -4.9850696252e+00 2.8781312900e+00 4.9850696252e+00 
279100 6.5435492328e+00 -7.0419282319e-05 2.8781325217e+00 -4.9850717585e+00 2.8781325217e+00 4.9850717585e+00 
279200 6.5435492324e+00 -7.0780556626e-05 2.8781325217e+00 -4.9850717585e+00 2.8781325217e+00 4.9850717585e+00 
279300 6.5435492320e+00 -7.0300043379e-05 2.8781337513e+00 -4.9850738883e+00 2.8781337513e+00 4.9850738883e+00 
279400 6.5435492316e+00 -7.0658497792e-05 2.8781337513e+00 -4.9850738883e+00 2.8781337513e+00 4.9850738883e+00 
279500 6.5435492312e+00 -7.1020373861e-05 2.8781337513e+00 -4.9850738883e+00 2.8781337513e+00 4.9850738883e+00 
279600 6.5435492308e+00 -7.0537099810e-05 2.8781349851e+00 -4.9850760253e+00 2.8781349851e+00 4.9850760253e+00 
279700 6.5435492304e+00 -7.0895270534e-05 2.8781349851e+00 -4.9850760253e+00 2.8781349851e+00 4.9850760253e+00 
279800 6.5435492299e+00 -7.0410098865e-05 2.8781362167e+00 -4.9850781585e+00 2.8781362167e+00 4.9850781585e+00 
279900 6.5435492295e+00 -7.0765113341e-05 2.8781362167e+00 -4.9850781585e+00 2.8781362167e+00 4.9850781585e+00 
280000 6.5435492291e+00 -7.0278491358e-05 2.8781374461e+00 -4.9850802878e+00 2.8781374461e+00 4.9850802878e+00 
280100 6.5435492287e+00 -7.0630623484e-05 2.8781374461e+00 -4.9850802878e+00 2.8781374461e+00 4.9850802878e+00 
280200 6.5435492284e+00 -7.0986147480e-05 2.8781374461e+00 -4.9850802878e+00 2.8781374461e+00 4.9850802878e+00 
280300 6.5435492279e+00 -7.0496901552e-05 2.8781386793e+00 -4.9850824238e+00 2.8781386793e+00 4.9850824238e+00 
280400 6.5435492276e+00 -7.0848668526e-05 2.8781386793e+00 -4.9850824238e+00 2.8781386793e+00 4.9850824238e+00 
280500 6.5435492271e+00 -7.0357622303e-05 2.8781399101e+00 -4.9850845556e+00 2.8781399101e+00 4.9850845556e+00 
280600 6.5435492268e+00 -7.0706185096e-05 2.8781399101e+00 -4.9850845556e+00 2.8781399101e+00 4.9850845556e+00 
280700 6.5435492264e+00 -7.1058041413e-05 2.8781399101e+00 -4.9850845556e+00 2.8781399101e+00 4.9850845556e+00 
280800 6.5435492260e+00 -7.0564193777e-05 2.8781411445e+00 -4.9850866937e+00 2.8781411445e+00 4.9850866937e+00 
280900 6.5435492256e+00 -7.0912149222e-05 2.8781411445e+00 -4.9850866937e+00 2.8781411445e+00 4.9850866937e+00 
281000 6.5435492252e+00 -7.0416486627e-05 2.8781423765e+00 -4.9850888274e+00 2.8781423765e+00 4.9850888274e+00 
281100 6.5435492248e+00 -7.0761144244e-05 2.8781423765e+00 -4.9850888274e+00 2.8781423765e+00 4.9850888274e+00 
281200 6.5435492244e+00 -7.0264153766e-05 2.8781436057e+00 -4.9850909566e+00 2.8781436057e+00 4.9850909566e+00 
281300 6.5435492241e+00 -7.0605816008e-05 2.8781436057e+00 -4.9850909566e+00 2.8781436057e+00 4.9850909566e+00 
281400 6.5435492237e+00 -7.0950818654e-05 2.8781436057e+00 -4.9850909566e+00 2.8781436057e+00 4.9850909566e+00 
281500 6.5435492233e+00 -7.0451424201e-05 2.8781448383e+00 -4.9850930915e+00 2.8781448383e+00 4.9850930915e+00 
281600 6.5435492229e+00 -7.0792578056e-05 2.8781448383e+00 -4.9850930915e+00 2.8781448383e+00 4.9850930915e+00 
281700 6.5435492225e+00 -7.0291542082e-05 2.8781460682e+00 -4.9850952216e+00 2.8781460682e+00 4.9850952216e+00 
281800 6.5435492222e+00 -7.0629407255e-05 2.8781460682e+00 -4.9850952216e+00 2.8781460682e+00 4.9850952216e+00 
281900 6.5435492218e+00 -7.0970520782e-05 2.8781460682e+00 -4.9850952216e+00 2.8781460682e+00 4.9850952216e+00 
282000 6.5435492214e+00 -7.0466931328e-05 2.8781473011e+00 -4.9850973571e+00 2.8781473011e+00 4.9850973571e+00 
282100 6.5435492211e+00 -7.0804067631e-05 2.8781473011e+00 -4.9850973571e+00 2.8781473011e+00 4.9850973571e+00 
282200 6.5435492207e+00 -7.0298832632e-05 2.8781485311e+00 -4.9850994876e+00 2.8781485311e+00 4.9850994876e+00 
282300 6.5435492204e+00 -7.0632597977e-05 2.8781485311e+00 -4.9850994876e+00 2.8781485311e+00 4.9850994876e+00 
282400 6.5435492200e+00 -7.0969580749e-05 2.8781485311e+00 -4.9850994876e+00 2.8781485311e+00 4.9850994876e+00 
282500 6.5435492196e+00 -7.0461844773e-05 2.8781497640e+00 -4.9851016231e+00 2.8781497640e+00 4.9851016231e+00 
282600 6.5435492193e+00 -7.0794799370e-05 2.8781497640e+00 -4.9851016231e+00 2.8781497640e+00 4.9851016231e+00 
282700 6.5435492189e+00 -7.0285471291e-05 2.8781509939e+00 -4.9851037532e+00 2.8781509939e+00 4.9851037532e+00 
282800 6.5435492186e+00 -7.0615013598e-05 2.8781509939e+00 -4.9851037532e+00 2.8781509939e+00 4.9851037532e+00 
282900 6.5435492182e+00 -7.0947753832e-05 2.8781509939e+00 -4.9851037532e+00 2.8781509939e+00 4.9851037532e+00 
283000 6.5435492179e+00 -7.0436017373e-05 2.8781522264e+00 -4.9851058880e+00 2.8781522264e+00 4.9851058880e+00 
283100 6.5435492175e+00 -7.0764695737e-05 2.8781522264e+00 -4.9851058880e+00 2.8781522264e+00 4.9851058880e+00 
283200 6.5435492172e+00 -7.0251433216e-05 2.8781534557e+00 -4.9851080173e+00 2.8781534557e+00 4.9851080173e+00 
283300 6.5435492168e+00 -7.0576668258e-05 2.8781534557e+00 -4.9851080173e+00 2.8781534557e+00 4.9851080173e+00 
283400 6.5435492165e+00 -7.0905083998e-05 2.8781534557e+00 -4.9851080173e+00 2.8781534557e+00 4.9851080173e+00 
283500 6.5435492161e+00 -7.0389515821e-05 2.8781546875e+00 -4.9851101508e+00 2.8781546875e+00 4.9851101508e+00 
283600 6.5435492158e+00 -7.0713841963e-05 2.8781546875e+00 -4.9851101508e+00 2.8781546875e+00 4.9851101508e+00 
283700 6.5435492154e+00 -7.0196817796e-05 2.8781559160e+00 -4.9851122786e+00 2.8781559160e+00 4.9851122786e+00 
283800 6.5435492151e+00 -7.0517674148e-05 2.8781559160e+00 -4.9851122786e+00 2.8781559160e+00 4.9851122786e+00 
283900 6.5435492148e+00 -7.0841694582e-05 2.8781559160e+00 -4.9851122786e+00 2.8781559160e+00 4.9851122786e+00 
284000 6.5435492144e+00 -7.0322471991e-05 2.8781571467e+00 -4.9851144102e+00 2.8781571467e+00 4.9851144102e+00 
284100 6.5435492141e+00 -7.0642379189e-05 2.8781571467e+00 -4.9851144102e+00 2.8781571467e+00 4.9851144102e+00 
284200 6.5435492138e+00 -7.0965264285e-05 2.8781571467e+00 -4.9851144102e+00 2.8781571467e+00 4.9851144102e+00 
284300 6.5435492135e+00 -7.0443295593e-05 2.8781583795e+00 -4.9851165455e+00 2.8781583795e+00 4.9851165455e+00 
284400 6.5435492131e+00 -7.0761817589e-05 2.8781583795e+00 -4.9851165455e+00 2.8781583795e+00 4.9851165455e+00 
284500 6.5435492128e+00 -7.0238328270e-05 2.8781596088e+00 -4.9851186747e+00 2.8781596088e+00 4.9851186747e+00 
284600 6.5435492125e+00 -7.0553216407e-05 2.8781596088e+00 -4.9851186747e+00 2.8781596088e+00 4.9851186747e+00 
284700 6.5435492122e+00 -7.0871212228e-05 2.8781596088e+00 -4.9851186747e+00 2.8781596088e+00 4.9851186747e+00 
284800 6.5435492118e+00 -7.0345565162e-05 2.8781608400e+00 -4.9851208072e+00 2.8781608400e+00 4.9851208072e+00 
284900 6.5435492115e+00 -7.0659355834e-05 2.8781608400e+00 -4.9851208072e+00 2.8781608400e+00 4.9851208072e+00 
285000 6.5435492112e+00 -7.0976088599e-05 2.8781608400e+00 -4.9851208072e+00 2.8781608400e+00 4.9851208072e+00 
285100 6.5435492109e+00 -7.0447805743e-05 2.8781620730e+00 -4.9851229428e+00 2.8781620730e+00 4.9851229428e+00 
285200 6.5435492106e+00 -7.0760111310e-05 2.8781620730e+00 -4.9851229428e+00 2.8781620730e+00 4.9851229428e+00 
285300 6.5435492102e+00 -7.0230397546e-05 2.8781633022e+00 -4.9851250719e+00 2.8781633022e+00 4.9851250719e+00 
285400 6.5435492099e+00 -7.0539013935e-05 2.8781633022e+00 -4.9851250719e+00 2.8781633022e+00 4.9851250719e+00 
285500 6.5435492096e+00 -7.0850711603e-05 2.8781633022e+00 -4.9851250719e+00 2.8781633022e+00 4.9851250719e+00 
285600 6.5435492093e+00 -7.0318985424e-05 2.8781645331e+00 -4.9851272038e+00 2.8781645331e+00 4.9851272038e+00 
285700 6.5435492090e+00 -7.0626429528e-05 2.8781645331e+00 -4.9851272038e+00 2.8781645331e+00 4.9851272038e+00 
285800 6.5435492087e+00 -7.0936790443e-05 2.8781645331e+00 -4.9851272038e+00 2.8781645331e+00 4.9851272038e+00 
285900 6.5435492084e+00 -7.0402580094e-05 2.8781657654e+00 -4.9851293383e+00 2.8781657654e+00 4.9851293383e+00 
286000 6.5435492081e+00 -7.0708469265e-05 2.8781657654e+00 -4.9851293383e+00 2.8781657654e+00 4.9851293383e+00 
286100 6.5435492078e+00 -7.1017210996e-05 2.8781657654e+00 -4.9851293383e+00 2.8781657654e+00 4.9851293383e+00 
286200 6.5435492075e+00 -7.0480372291e-05 2.8781669991e+00 -4.9851314751e+00 2.8781669991e+00 4.9851314751e+00 
286300 6.5435492072e+00 -7.0784545433e-05 2.8781669991e+00 -4.9851314751e+00 2.8781669991e+00 4.9851314751e+00 
286400 6.5435492069e+00 -7.0246353479e-05 2.8781682288e+00 -4.9851336050e+00 2.8781682288e+00 4.9851336050e+00 
286500 6.5435492066e+00 -7.0546732003e-05 2.8781682288e+00 -4.9851336050e+00 2.8781682288e+00 4.9851336050e+00 
286600 6.5435492063e+00 -7.0850147630e-05 2.8781682288e+00 -4.9851336050e+00 2.8781682288e+00 4.9851336050e+00 
286700 6.5435492060e+00 -7.0310104714e-05 2.8781694596e+00 -4.9851357368e+00 2.8781694596e+00 4.9851357368e+00 
286800 6.5435492057e+00 -7.0609186050e-05 2.8781694596e+00 -4.9851357368e+00 2.8781694596e+00 4.9851357368e+00 
286900 6.5435492054e+00 -7.0911146150e-05 2.8781694596e+00 -4.9851357368e+00 2.8781694596e+00 4.9851357368e+00 
287000 6.5435492051e+00 -7.0368804238e-05 2.8781706915e+00 -4.9851378705e+00 2.8781706915e+00 4.9851378705e+00 
287100 6.5435492048e+00 -7.0666222740e-05 2.8781706915e+00 -4.9851378705e+00 2.8781706915e+00 4.9851378705e+00 
287200 6.5435492046e+00 -7.0966457802e-05 2.8781706915e+00 -4.9851378705e+00 2.8781706915e+00 4.9851378705e+00 
287300 6.5435492043e+00 -7.0421683095e-05 2.8781719243e+00 -4.9851400059e+00 2.8781719243e+00 4.9851400059e+00 
287400 6.5435492040e+00 -7.0717285712e-05 2.8781719243e+00 -4.9851400059e+00 2.8781719243e+00 4.9851400059e+00 
287500 6.5435492037e+00 -7.0171291132e-05 2.8781731528e+00 -4.9851421337e+00 2.8781731528e+00 4.9851421337e+00 
287600 6.5435492034e+00 -7.0463037686e-05 2.8781731528e+00 -4.9851421337e+00 2.8781731528e+00 4.9851421337e+00 
287700 6.5435492032e+00 -7.0757786074e-05 2.8781731528e+00 -4.9851421337e+00 2.8781731528e+00 4.9851421337e+00 
287800 6.5435492028e+00 -7.0210144307e-05 2.8781743821e+00 -4.9851442628e+00 2.8781743821e+00 4.9851442628e+00 
287900 6.5435492026e+00 -7.0500501654e-05 2.8781743821e+00 -4.9851442628e+00 2.8781743821e+00 4.9851442628e+00 
288000 6.5435492023e+00 -7.0793702983e-05 2.8781743821e+00 -4.9851442628e+00 2.8781743821e+00 4.9851442628e+00 
288100 6.5435492020e+00 -7.0243970871e-05 2.8781756119e+00 -4.9851463929e+00 2.8781756119e+00 4.9851463929e+00 
288200 6.5435492017e+00 -7.0532578527e-05 2.8781756119e+00 -4.9851463929e+00 2.8781756119e+00 4.9851463929e+00 
288300 6.5435492015e+00 -7.0823968585e-05 2.8781756119e+00 -4.9851463929e+00 2.8781756119e+00 4.9851463929e+00 
288400 6.5435492012e+00 -7.0272017388e-05 2.8781768423e+00 -4.9851485240e+00 2.8781768423e+00 4.9851485240e+00 
288500 6.5435492009e+00 -7.0558728010e-05 2.8781768423e+00 -4.9851485240e+00 2.8781768423e+00 4.9851485240e+00 
288600 6.5435492007e+00 -7.0848193613e-05 2.8781768423e+00 -4.9851485240e+00 2.8781768423e+00 4.9851485240e+00 
288700 6.5435492004e+00 -7.0294006653e-05 2.8781780730e+00 -4.9851506557e+00 2.8781780730e+00 4.9851506557e+00 
288800 6.5435492001e+00 -7.0578749629e-05 2.8781780730e+00 -4.9851506557e+00 2.8781780730e+00 4.9851506557e+00 
288900 6.5435491999e+00 -7.0866232586e-05 2.8781780730e+00 -4.9851506557e+00 2.8781780730e+00 4.9851506557e+00 
289000 6.5435491996e+00 -7.0309834479e-05 2.8781793041e+00 -4.9851527881e+00 2.8781793041e+00 4.9851527881e+00 
289100 6.5435491993e+00 -7.0592567766e-05 2.8781793041e+00 -4.9851527881e+00 2.8781793041e+00 4.9851527881e+00 
289200 6.5435491991e+00 -7.0878030580e-05 2.8781793041e+00 -4.9851527881e+00 2.8781793041e+00 4.9851527881e+00 
289300 6.5435491988e+00 -7.0319461627e-05 2.8781805354e+00 -4.9851549207e+00 2.8781805354e+00 4.9851549207e+00 
289400 6.5435491986e+00 -7.0600154120e-05 2.8781805354e+00 -4.9851549207e+00 2.8781805354e+00 4.9851549207e+00 
289500 6.5435491983e+00 -7.0883567261e-05 2.8781805354e+00 -4.9851549207e+00 2.8781805354e+00 4.9851549207e+00 
289600 6.5435491980e+00 -7.0322873803e-05 2.8781817668e+00 -4.9851570536e+00 2.8781817668e+00 4.9851570536e+00 
289700 6.5435491978e+00 -7.0601498637e-05 2.8781817668e+00 -4.9851570536e+00 2.8781817668e+00 4.9851570536e+00 
289800 6.5435491976e+00 -7.0882835664e-05 2.8781817668e+00 -4.9851570536e+00 2.8781817668e+00 4.9851570536e+00 
289900 6.5435491973e+00 -7.0320066397e-05 2.8781829982e+00 -4.9851591864e+00 2.8781829982e+00 4.9851591864e+00 
290000 6.5435491970e+00 -7.0596598365e-05 2.8781829982e+00 -4.9851591864e+00 2.8781829982e+00 4.9851591864e+00 
290100 6.5435491968e+00 -7.0875834072e-05 2.8781829982e+00 -4.9851591864e+00 2.8781829982e+00 4.9851591864e+00 
290200 6.5435491965e+00 -7.0311038640e-05 2.8781842295e+00 -4.9851613190e+00 2.8781842295e+00 4.9851613190e+00 
290300 6.5435491963e+00 -7.0585453278e-05 2.8781842295e+00 -4.9851613190e+00 2.8781842295e+00 4.9851613190e+00 
290400 6.5435491961e+00 -7.0862563085e-05 2.8781842295e+00 -4.9851613190e+00 2.8781842295e+00 4.9851613190e+00 
290500 6.5435491958e+00 -7.0295791689e-05 2.8781854605e+00 -4.9851634512e+00 2.8781854605e+00 4.9851634512e+00 
290600 6.5435491955e+00 -7.0568065070e-05 2.8781854605e+00 -4.9851634512e+00 2.8781854605e+00 4.9851634512e+00 
290700 6.5435491953e+00 -7.0843024938e-05 2.8781854605e+00 -4.9851634512e+00 2.8781854605e+00 4.9851634512e+00 
290800 6.5435491950e+00 -7.0274328326e-05 2.8781866912e+00 -4.9851655828e+00 2.8781866912e+00 4.9851655828e+00 
290900 6.5435491948e+00 -7.0544437156e-05 2.8781866912e+00 -4.9851655828e+00 2.8781866912e+00 4.9851655828e+00 
291000 6.5435491946e+00 -7.0817223746e-05 2.8781866912e+00 -4.9851655828e+00 2.8781866912e+00 4.9851655828e+00 
291100 6.5435491943e+00 -7.0246653399e-05 2.8781879214e+00 -4.9851677136e+00 2.8781879214e+00 4.9851677136e+00 
291200 6.5435491941e+00 -7.0514575244e-05 2.8781879214e+00 -4.9851677136e+00 2.8781879214e+00 4.9851677136e+00 
291300 6.5435491939e+00 -7.0785166171e-05 2.8781879214e+00 -4.9851677136e+00 2.8781879214e+00 4.9851677136e+00 
291400 6.5435491936e+00 -7.0212774539e-05 2.8781891511e+00 -4.9851698435e+00 2.8781891511e+00 4.9851698435e+00 
291500 6.5435491934e+00 -7.0478488108e-05 2.8781891511e+00 -4.9851698435e+00 2.8781891511e+00 4.9851698435e+00 
291600 6.5435491932e+00 -7.0746862227e-05 2.8781891511e+00 -4.9851698435e+00 2.8781891511e+00 4.9851698435e+00 
291700 6.5435491929e+00 -7.0172702962e-05 2.8781903801e+00 -4.9851719722e+00 2.8781903801e+00 4.9851719722e+00 
291800 6.5435491927e+00 -7.0436188382e-05 2.8781903801e+00 -4.9851719722e+00 2.8781903801e+00 4.9851719722e+00 
291900 6.5435491925e+00 -7.0702326048e-05 2.8781903801e+00 -4.9851719722e+00 2.8781903801e+00 4.9851719722e+00 
292000 6.5435491923e+00 -7.0970661056e-05 2.8781903801e+00 -4.9851719722e+00 2.8781903801e+00 4.9851719722e+00 
292100 6.5435491920e+00 -7.0393459020e-05 2.8781916130e+00 -4.9851741077e+00 2.8781916130e+00 4.9851741077e+00 
292200 6.5435491918e+00 -7.0656307617e-05 2.8781916130e+00 -4.9851741077e+00 2.8781916130e+00 4.9851741077e+00 
292300 6.5435491916e+00 -7.0921638692e-05 2.8781916130e+00 -4.9851741077e+00 2.8781916130e+00 4.9851741077e+00 
292400 6.5435491913e+00 -7.0342216710e-05 2.8781928451e+00 -4.9851762417e+00 2.8781928451e+00 4.9851762417e+00 
292500 6.5435491911e+00 -7.0602404171e-05 2.8781928451e+00 -4.9851762417e+00 2.8781928451e+00 4.9851762417e+00 
292600 6.5435491909e+00 -7.0865168933e-05 2.8781928451e+00 -4.9851762417e+00 2.8781928451e+00 4.9851762417e+00 
292700 6.5435491906e+00 -7.0283920151e-05 2.8781940762e+00 -4.9851783739e+00 2.8781940762e+00 4.9851783739e+00 
292800 6.5435491904e+00 -7.0541657874e-05 2.8781940762e+00 -4.9851783739e+00 2.8781940762e+00 4.9851783739e+00 
292900 6.5435491902e+00 -7.0802001539e-05 2.8781940762e+00 -4.9851783739e+00 2.8781940762e+00 4.9851783739e+00 
293000 6.5435491900e+00 -7.0219104387e-05 2.8781953061e+00 -4.9851805043e+00 2.8781953061e+00 4.9851805043e+00 
293100 6.5435491898e+00 -7.0474458548e-05 2.8781953061e+00 -4.9851805043e+00 2.8781953061e+00 4.9851805043e+00 
293200 6.5435491896e+00 -7.0732423687e-05 2.8781953061e+00 -4.9851805043e+00 2.8781953061e+00 4.9851805043e+00 
293300 6.5435491893e+00 -7.0147980513e-05 2.8781965349e+00 -4.9851826326e+00 2.8781965349e+00 4.9851826326e+00 
293400 6.5435491891e+00 -7.0400965824e-05 2.8781965349e+00 -4.9851826326e+00 2.8781965349e+00 4.9851826326e+00 
293500 6.5435491889e+00 -7.0656558634e-05 2.8781965349e+00 -4.9851826326e+00 2.8781965349e+00 4.9851826326e+00 
293600 6.5435491887e+00 -7.0914304989e-05 2.8781965349e+00 -4.9851826326e+00 2.8781965349e+00 4.9851826326e+00 
293700 6.5435491885e+00 -7.0327144239e-05 2.8781977668e+00 -4.9851847664e+00 2.8781977668e+00 4.9851847664e+00 
293800 6.5435491883e+00 -7.0579325913e-05 2.8781977668e+00 -4.9851847664e+00 2.8781977668e+00 4.9851847664e+00 
293900 6.5435491881e+00 -7.0833947236e-05 2.8781977668e+00 -4.9851847664e+00 2.8781977668e+00 4.9851847664e+00 
294000 6.5435491878e+00 -7.0244820503e-05 2.8781989973e+00 -4.9851868977e+00 2.8781989973e+00 4.9851868977e+00 
294100 6.5435491876e+00 -7.0494225585e-05 2.8781989973e+00 -4.9851868977e+00 2.8781989973e+00 4.9851868977e+00 
294200 6.5435491874e+00 -7.0746165494e-05 2.8781989973e+00 -4.9851868977e+00 2.8781989973e+00 4.9851868977e+00 
294300 6.5435491872e+00 -7.0155471281e-05 2.8782002263e+00 -4.9851890264e+00 2.8782002263e+00 4.9851890264e+00 
294400 6.5435491870e+00 -7.0402316657e-05 2.8782002263e+00 -4.9851890264e+00 2.8782002263e+00 4.9851890264e+00 
294500 6.5435491868e+00 -7.0651725854e-05 2.8782002263e+00 -4.9851890264e+00 2.8782002263e+00 4.9851890264e+00 
294600 6.5435491866e+00 -7.0903250264e-05 2.8782002263e+00 -4.9851890264e+00 2.8782002263e+00 4.9851890264e+00 
294700 6.5435491864e+00 -7.0309965152e-05 2.8782014581e+00 -4.9851911598e+00 2.8782014581e+00 4.9851911598e+00 
294800 6.5435491862e+00 -7.0555860361e-05 2.8782014581e+00 -4.9851911598e+00 2.8782014581e+00 4.9851911598e+00 
294900 6.5435491860e+00 -7.0804165587e-05 2.8782014581e+00 -4.9851911598e+00 2.8782014581e+00 4.9851911598e+00 
295000 6.5435491858e+00 -7.0209050382e-05 2.8782026881e+00 -4.9851932902e+00 2.8782026881e+00 4.9851932902e+00 
295100 6.5435491856e+00 -7.0452088387e-05 2.8782026881e+00 -4.9851932902e+00 2.8782026881e+00 4.9851932902e+00 
295200 6.5435491854e+00 -7.0697634892e-05 2.8782026881e+00 -4.9851932902e+00 2.8782026881e+00 4.9851932902e+00 
295300 6.5435491852e+00 -7.0945252097e-05 2.8782026881e+00 -4.9851932902e+00 2.8782026881e+00 4.9851932902e+00 
295400 6.5435491850e+00 -7.0347521394e-05 2.8782039205e+00 -4.9851954249e+00 2.8782039205e+00 4.9851954249e+00 
295500 6.5435491848e+00 -7.0589435986e-05 2.8782039205e+00 -4.9851954249e+00 2.8782039205e+00 4.9851954249e+00 
295600 6.5435491847e+00 -7.0833733780e-05 2.8782039205e+00 -4.9851954249e+00 2.8782039205e+00 4.9851954249e+00 
295700 6.5435491844e+00 -7.0234233859e-05 2.8782051511e+00 -4.9851975562e+00 2.8782051511e+00 4.9851975562e+00 
295800 6.5435491842e+00 -7.0473214225e-05 2.8782051511e+00 -4.9851975562e+00 2.8782051511e+00 4.9851975562e+00 
295900 6.5435491841e+00 -7.0714682516e-05 2.8782051511e+00 -4.9851975562e+00 2.8782051511e+00 4.9851975562e+00 
296000 6.5435491838e+00 -7.0113847407e-05 2.8782063795e+00 -4.9851996840e+00 2.8782063795e+00 4.9851996840e+00 
296100 6.5435491837e+00 -7.0350136011e-05 2.8782063795e+00 -4.9851996840e+00 2.8782063795e+00 4.9851996840e+00 
296200 6.5435491835e+00 -7.0588944866e-05 2.8782063795e+00 -4.9851996840e+00 2.8782063795e+00 4.9851996840e+00 
296300 6.5435491833e+00 -7.0829826188e-05 2.8782063795e+00 -4.9851996840e+00 2.8782063795e+00 4.9851996840e+00 
296400 6.5435491831e+00 -7.0226732709e-05 2.8782076100e+00 -4.9852018152e+00 2.8782076100e+00 4.9852018152e+00 
296500 6.5435491829e+00 -7.0461910592e-05 2.8782076100e+00 -4.9852018152e+00 2.8782076100e+00 4.9852018152e+00 
296600 6.5435491827e+00 -7.0699456308e-05 2.8782076100e+00 -4.9852018152e+00 2.8782076100e+00 4.9852018152e+00 
296700 6.5435491826e+00 -7.0938963039e-05 2.8782076100e+00 -4.9852018152e+00 2.8782076100e+00 4.9852018152e+00 
296800 6.5435491824e+00 -7.0333109200e-05 2.8782088423e+00 -4.9852039497e+00 2.8782088423e+00 4.9852039497e+00 
296900 6.5435491822e+00 -7.0566754261e-05 2.8782088423e+00 -4.9852039497e+00 2.8782088423e+00 4.9852039497e+00 
297000 6.5435491820e+00 -7.0802721341e-05 2.8782088423e+00 -4.9852039497e+00 2.8782088423e+00 4.9852039497e+00 
297100 6.5435491818e+00 -7.0195207858e-05 2.8782100723e+00 -4.9852060801e+00 2.8782100723e+00 4.9852060801e+00 
297200 6.5435491816e+00 -7.0425760937e-05 2.8782100723e+00 -4.9852060801e+00 2.8782100723e+00 4.9852060801e+00 
297300 6.5435491815e+00 -7.0658758272e-05 2.8782100723e+00 -4.9852060801e+00 2.8782100723e+00 4.9852060801e+00 
297400 6.5435491813e+00 -7.0893766096e-05 2.8782100723e+00 -4.9852060801e+00 2.8782100723e+00 4.9852060801e+00 
297500 6.5435491811e+00 -7.0283983605e-05 2.8782113038e+00 -4.9852082132e+00 2.8782113038e+00 4.9852082132e+00 
297600 6.5435491809e+00 -7.0513183210e-05 2.8782113038e+00 -4.9852082132e+00 2.8782113038e+00 4.9852082132e+00 
297700 6.5435491808e+00 -7.0744711888e-05 2.8782113038e+00 -4.9852082132e+00 2.8782113038e+00 4.9852082132e+00 
297800 6.5435491806e+00 -7.0133453290e-05 2.8782125328e+00 -4.9852103418e+00 2.8782125328e+00 4.9852103418e+00 
297900 6.5435491804e+00 -7.0359571851e-05 2.8782125328e+00 -4.9852103418e+00 2.8782125328e+00 4.9852103418e+00 
298000 6.5435491802e+00 -7.0588126500e-05 2.8782125328e+00 -4.9852103418e+00 2.8782125328e+00 4.9852103418e+00 
298100 6.5435491801e+00 -7.0818681396e-05 2.8782125328e+00 -4.9852103418e+00 2.8782125328e+00 4.9852103418e+00 
298200 6.5435491799e+00 -7.0205330938e-05 2.8782137631e+00 -4.9852124727e+00 2.8782137631e+00 4.9852124727e+00 
298300 6.5435491797e+00 -7.0430062821e-05 2.8782137631e+00 -4.9852124727e+00 2.8782137631e+00 4.9852124727e+00 
298400 6.5435491796e+00 -7.0657109375e-05 2.8782137631e+00 -4.9852124727e+00 2.8782137631e+00 4.9852124727e+00 
298500 6.5435491794e+00 -7.0886067099e-05 2.8782137631e+00 -4.9852124727e+00 2.8782137631e+00 4.9852124727e+00 
298600 6.5435491792e+00 -7.0270248532e-05 2.8782149945e+00 -4.9852146056e+00 2.8782149945e+00 4.9852146056e+00 
298700 6.5435491790e+00 -7.0493258460e-05 2.8782149945e+00 -4.9852146056e+00 2.8782149945e+00 4.9852146056e+00 
298800 6.5435491789e+00 -7.0718545469e-05 2.8782149945e+00 -4.9852146056e+00 2.8782149945e+00 4.9852146056e+00 
298900 6.5435491787e+00 -7.0101313492e-05 2.8782162230e+00 -4.9852167334e+00 2.8782162230e+00 4.9852167334e+00 
299000 6.5435491785e+00 -7.0321111041e-05 2.8782162230e+00 -4.9852167334e+00 2.8782162230e+00 4.9852167334e+00 
299100 6.5435491784e+00 -7.0543309849e-05 2.8782162230e+00 -4.9852167334e+00 2.8782162230e+00 4.9852167334e+00 
299200 6.5435491782e+00 -7.0767477176e-05 2.8782162230e+00 -4.9852167334e+00 2.8782162230e+00 4.9852167334e+00 
299300 6.5435491780e+00 -7.0148321197e-05 2.8782174524e+00 -4.9852188627e+00 2.8782174524e+00 4.9852188627e+00 
299400 6.5435491779e+00 -7.0366614978e-05 2.8782174524e+00 -4.9852188627e+00 2.8782174524e+00 4.9852188627e+00 
299500 6.5435491777e+00 -7.0587196331e-05 2.8782174524e+00 -4.9852188627e+00 2.8782174524e+00 4.9852188627e+00 
299600 6.5435491776e+00 -7.0809662985e-05 2.8782174524e+00 -4.9852188627e+00 2.8782174524e+00 4.9852188627e+00 
299700 6.5435491774e+00 -7.0188240846e-05 2.8782186825e+00 -4.9852209933e+00 2.8782186825e+00 4.9852209933e+00 
299800 6.5435491772e+00 -7.0404720451e-05 2.8782186825e+00 -4.9852209933e+00 2.8782186825e+00 4.9852209933e+00 
299900 6.5435491771e+00 -7.0623452568e-05 2.8782186825e+00 -4.9852209933e+00 2.8782186825e+00 4.9852209933e+00 
300000 6.5435491769e+00 -7.0844042460e-05 2.8782186825e+00 -4.9852209933e+00 2.8782186825e+00 4.9852209933e+00 
300100 6.5435491767e+00 -7.0220310853e-05 2.8782199132e+00 -4.9852231250e+00 2.8782199132e+00 4.9852231250e+00 
300200 6.5435491766e+00 -7.0434868908e-05 2.8782199132e+00 -4.9852231250e+00 2.8782199132e+00 4.9852231250e+00 
300300 6.5435491765e+00 -7.0651664408e-05 2.8782199132e+00 -4.9852231250e+00 2.8782199132e+00 4.9852231250e+00 
300400 6.5435491763e+00 -7.0870304435e-05 2.8782199132e+00 -4.9852231250e+00 2.8782199132e+00 4.9852231250e+00 
300500 6.5435491761e+00 -7.0244297404e-05 2.8782211443e+00 -4.9852252574e+00 2.8782211443e+00 4.9852252574e+00 
300600 6.5435491760e+00 -7.0456879313e-05 2.8782211443e+00 -4.9852252574e+00 2.8782211443e+00 4.9852252574e+00 
300700 6.5435491758e+00 -7.0671688648e-05 2.8782211443e+00 -4.9852252574e+00 2.8782211443e+00 4.9852252574e+00 
300800 6.5435491757e+00 -7.0888332820e-05 2.8782211443e+00 -4.9852252574e+00 2.8782211443e+00 4.9852252574e+00 
300900 6.5435491755e+00 -7.0260105176e-05 2.8782223758e+00 -4.9852273903e+00 2.8782223758e+00 4.9852273903e+00 
301000 6.5435491754e+00 -7.0470670165e-05 2.8782223758e+00 -4.9852273903e+00 2.8782223758e+00 4.9852273903e+00 
301100 6.5435491752e+00 -7.0683453570e-05 2.8782223758e+00 -4.9852273903e+00 2.8782223758e+00 4.9852273903e+00 
301200 6.5435491751e+00 -7.0898062753e-05 2.8782223758e+00 -4.9852273903e+00 2.8782223758e+00 4.9852273903e+00 
301300 6.5435491749e+00 -7.0267674822e-05 2.8782236074e+00 -4.9852295236e+00 2.8782236074e+00 4.9852295236e+00 
301400 6.5435491748e+00 -7.0476185331e-05 2.8782236074e+00 -4.9852295236e+00 2.8782236074e+00 4.9852295236e+00 
301500 6.5435491746e+00 -7.0686905161e-05 2.8782236074e+00 -4.9852295236e+00 2.8782236074e+00 4.9852295236e+00 
301600 6.5435491745e+00 -7.0899441573e-05 2.8782236074e+00 -4.9852295236e+00 2.8782236074e+00 4.9852295236e+00 
301700 6.5435491743e+00 -7.0266955140e-05 2.8782248391e+00 -4.9852316568e+00 2.8782248391e+00 4.9852316568e+00 
301800 6.5435491742e+00 -7.0473374117e-05 2.8782248391e+00 -4.9852316568e+00 2.8782248391e+00 4.9852316568e+00 
301900 6.5435491741e+00 -7.0681993038e-05 2.8782248391e+00 -4.9852316568e+00 2.8782248391e+00 4.9852316568e+00 
302000 6.5435491739e+00 -7.0892419118e-05 2.8782248391e+00 -4.9852316568e+00 2.8782248391e+00 4.9852316568e+00 
302100 6.5435491737e+00 -7.0257896771e-05 2.8782260706e+00 -4.9852337899e+00 2.8782260706e+00 4.9852337899e+00 
302200 6.5435491736e+00 -7.0462187415e-05 2.8782260706e+00 -4.9852337899e+00 2.8782260706e+00 4.9852337899e+00 
302300 6.5435491735e+00 -7.0668668441e-05 2.8782260706e+00 -4.9852337899e+00 2.8782260706e+00 4.9852337899e+00 
302400 6.5435491734e+00 -7.0876947105e-05 2.8782260706e+00 -4.9852337899e+00 2.8782260706e+00 4.9852337899e+00 
302500 6.5435491732e+00 -7.0240452637e-05 2.8782273018e+00 -4.9852359225e+00 2.8782273018e+00 4.9852359225e+00 
302600 6.5435491730e+00 -7.0442578967e-05 2.8782273018e+00 -4.9852359225e+00 2.8782273018e+00 4.9852359225e+00 
302700 6.5435491729e+00 -7.0646886107e-05 2.8782273018e+00 -4.9852359225e+00 2.8782273018e+00 4.9852359225e+00 
302800 6.5435491728e+00 -7.0852981456e-05 2.8782273018e+00 -4.9852359225e+00 2.8782273018e+00 4.9852359225e+00 
302900 6.5435491726e+00 -7.0214580573e-05 2.8782285327e+00 -4.9852380544e+00 2.8782285327e+00 4.9852380544e+00 
303000 6.5435491725e+00 -7.0414508189e-05 2.8782285327e+00 -4.9852380544e+00 2.8782285327e+00 4.9852380544e+00 
303100 6.5435491724e+00 -7.0616607241e-05 2.8782285327e+00 -4.9852380544e+00 2.8782285327e+00 4.9852380544e+00 
303200 6.5435491722e+00 -7.0820485361e-05 2.8782285327e+00 -4.9852380544e+00 2.8782285327e+00 4.9852380544e+00 
303300 6.5435491721e+00 -7.0180246386e-05 2.8782297630e+00 -4.9852401853e+00 2.8782297630e+00 4.9852401853e+00 
303400 6.5435491719e+00 -7.0377943265e-05 2.8782297630e+00 -4.9852401853e+00 2.8782297630e+00 4.9852401853e+00 
303500 6.5435491718e+00 -7.0577802582e-05 2.8782297630e+00 -4.9852401853e+00 2.8782297630e+00 4.9852401853e+00 
303600 6.5435491717e+00 -7.0779432291e-05 2.8782297630e+00 -4.9852401853e+00 2.8782297630e+00 4.9852401853e+00 
303700 6.5435491715e+00 -7.0137426759e-05 2.8782309925e+00 -4.9852423150e+00 2.8782309925e+00 4.9852423150e+00 
303800 6.5435491714e+00 -7.0332863938e-05 2.8782309925e+00 -4.9852423150e+00 2.8782309925e+00 4.9852423150e+00 
303900 6.5435491713e+00 -7.0530455087e-05 2.8782309925e+00 -4.9852423150e+00 2.8782309925e+00 4.9852423150e+00 
304000 6.5435491712e+00 -7.0729808559e-05 2.8782309925e+00 -4.9852423150e+00 2.8782309925e+00 4.9852423150e+00 
304100 6.5435491710e+00 -7.0086111671e-05 2.8782322212e+00 -4.9852444432e+00 2.8782322212e+00 4.9852444432e+00 
304200 6.5435491709e+00 -7.0279263816e-05 2.8782322212e+00 -4.9852444432e+00 2.8782322212e+00 4.9852444432e+00 
304300 6.5435491708e+00 -7.0474562112e-05 2.8782322212e+00 -4.9852444432e+00 2.8782322212e+00 4.9852444432e+00 
304400 6.5435491706e+00 -7.0671615389e-05 2.8782322212e+00 -4.9852444432e+00 2.8782322212e+00 4.9852444432e+00 
304500 6.5435491705e+00 -7.0870146299e-05 2.8782322212e+00 -4.9852444432e+00 2.8782322212e+00 4.9852444432e+00 
304600 6.5435491704e+00 -7.0223746532e-05 2.8782334524e+00 -4.9852465756e+00 2.8782334524e+00 4.9852465756e+00 
304700 6.5435491702e+00 -7.0415706011e-05 2.8782334524e+00 -4.9852465756e+00 2.8782334524e+00 4.9852465756e+00 
304800 6.5435491701e+00 -7.0609705596e-05 2.8782334524e+00 -4.9852465756e+00 2.8782334524e+00 4.9852465756e+00 
304900 6.5435491700e+00 -7.0805381741e-05 2.8782334524e+00 -4.9852465756e+00 2.8782334524e+00 4.9852465756e+00 
305000 6.5435491698e+00 -7.0157039270e-05 2.8782346824e+00 -4.9852487060e+00 2.8782346824e+00 4.9852487060e+00 
305100 6.5435491697e+00 -7.0346387266e-05 2.8782346824e+00 -4.9852487060e+00 2.8782346824e+00 4.9852487060e+00 
305200 6.5435491696e+00 -7.0537841138e-05 2.8782346824e+00 -4.9852487060e+00 2.8782346824e+00 4.9852487060e+00 
305300 6.5435491695e+00 -7.0731016682e-05 2.8782346824e+00 -4.9852487060e+00 2.8782346824e+00 4.9852487060e+00 
305400 6.5435491693e+00 -7.0081092179e-05 2.8782359111e+00 -4.9852508342e+00 2.8782359111e+00 4.9852508342e+00 
305500 6.5435491692e+00 -7.0267999723e-05 2.8782359111e+00 -4.9852508342e+00 2.8782359111e+00 4.9852508342e+00 
305600 6.5435491691e+00 -7.0457024942e-05 2.8782359111e+00 -4.9852508342e+00 2.8782359111e+00 4.9852508342e+00 
305700 6.5435491690e+00 -7.0647778735e-05 2.8782359111e+00 -4.9852508342e+00 2.8782359111e+00 4.9852508342e+00 
305800 6.5435491689e+00 -7.0839985265e-05 2.8782359111e+00 -4.9852508342e+00 2.8782359111e+00 4.9852508342e+00 
305900 6.5435491687e+00 -7.0187597505e-05 2.8782371417e+00 -4.9852529657e+00 2.8782371417e+00 4.9852529657e+00 
306000 6.5435491686e+00 -7.0373189759e-05 2.8782371417e+00 -4.9852529657e+00 2.8782371417e+00 4.9852529657e+00 
306100 6.5435491685e+00 -7.0560799316e-05 2.8782371417e+00 -4.9852529657e+00 2.8782371417e+00 4.9852529657e+00 
306200 6.5435491684e+00 -7.0750063200e-05 2.8782371417e+00 -4.9852529657e+00 2.8782371417e+00 4.9852529657e+00 
306300 6.5435491683e+00 -7.0095947249e-05 2.8782383708e+00 -4.9852550945e+00 2.8782383708e+00 4.9852550945e+00 
306400 6.5435491682e+00 -7.0278846770e-05 2.8782383708e+00 -4.9852550945e+00 2.8782383708e+00 4.9852550945e+00 
306500 6.5435491680e+00 -7.0463830140e-05 2.8782383708e+00 -4.9852550945e+00 2.8782383708e+00 4.9852550945e+00 
306600 6.5435491679e+00 -7.0650513579e-05 2.8782383708e+00 -4.9852550945e+00 2.8782383708e+00 4.9852550945e+00 
306700 6.5435491678e+00 -7.0838625066e-05 2.8782383708e+00 -4.9852550945e+00 2.8782383708e+00 4.9852550945e+00 
306800 6.5435491677e+00 -7.0182136545e-05 2.8782396014e+00 -4.9852572259e+00 2.8782396014e+00 4.9852572259e+00 
306900 6.5435491676e+00 -7.0363592023e-05 2.8782396014e+00 -4.9852572259e+00 2.8782396014e+00 4.9852572259e+00 
307000 6.5435491675e+00 -7.0547046188e-05 2.8782396014e+00 -4.9852572259e+00 2.8782396014e+00 4.9852572259e+00 
307100 6.5435491674e+00 -7.0732137074e-05 2.8782396014e+00 -4.9852572259e+00 2.8782396014e+00 4.9852572259e+00 
307200 6.5435491672e+00 -7.0074045318e-05 2.8782408301e+00 -4.9852593542e+00 2.8782408301e+00 4.9852593542e+00 
307300 6.5435491671e+00 -7.0252740942e-05 2.8782408301e+00 -4.9852593542e+00 2.8782408301e+00 4.9852593542e+00 
307400 6.5435491670e+00 -7.0433504188e-05 2.8782408301e+00 -4.9852593542e+00 2.8782408301e+00 4.9852593542e+00 
307500 6.5435491669e+00 -7.0615951620e-05 2.8782408301e+00 -4.9852593542e+00 2.8782408301e+00 4.9852593542e+00 
307600 6.5435491668e+00 -7.0799811470e-05 2.8782408301e+00 -4.9852593542e+00 2.8782408301e+00 4.9852593542e+00 
307700 6.5435491667e+00 -7.0139519378e-05 2.8782420600e+00 -4.9852614844e+00 2.8782420600e+00 4.9852614844e+00 
307800 6.5435491666e+00 -7.0316697477e-05 2.8782420600e+00 -4.9852614844e+00 2.8782420600e+00 4.9852614844e+00 
307900 6.5435491665e+00 -7.0495858552e-05 2.8782420600e+00 -4.9852614844e+00 2.8782420600e+00 4.9852614844e+00 
308000 6.5435491664e+00 -7.0676640905e-05 2.8782420600e+00 -4.9852614844e+00 2.8782420600e+00 4.9852614844e+00 
308100 6.5435491663e+00 -7.0858788133e-05 2.8782420600e+00 -4.9852614844e+00 2.8782420600e+00 4.9852614844e+00 
308200 6.5435491661e+00 -7.0196042484e-05 2.8782432910e+00 -4.9852636165e+00 2.8782432910e+00 4.9852636165e+00 
308300 6.5435491660e+00 -7.0371434949e-05 2.8782432910e+00 -4.9852636165e+00 2.8782432910e+00 4.9852636165e+00 
308400 6.5435491659e+00 -7.0548787801e-05 2.8782432910e+00 -4.9852636165e+00 2.8782432910e+00 4.9852636165e+00 
308500 6.5435491658e+00 -7.0727743000e-05 2.8782432910e+00 -4.9852636165e+00 2.8782432910e+00 4.9852636165e+00 
308600 6.5435491657e+00 -7.0063536466e-05 2.8782445196e+00 -4.9852657446e+00 2.8782445196e+00 4.9852657446e+00 
308700 6.5435491656e+00 -7.0236035929e-05 2.8782445196e+00 -4.9852657446e+00 2.8782445196e+00 4.9852657446e+00 
308800 6.5435491655e+00 -7.0410574839e-05 2.8782445196e+00 -4.9852657446e+00 2.8782445196e+00 4.9852657446e+00 
308900 6.5435491654e+00 -7.0586770817e-05 2.8782445196e+00 -4.9852657446e+00 2.8782445196e+00 4.9852657446e+00 
309000 6.5435491653e+00 -7.0764352850e-05 2.8782445196e+00 -4.9852657446e+00 2.8782445196e+00 4.9852657446e+00 
309100 6.5435491652e+00 -7.0098180573e-05 2.8782457489e+00 -4.9852678738e+00 2.8782457489e+00 4.9852678738e+00 
309200 6.5435491651e+00 -7.0269034231e-05 2.8782457489e+00 -4.9852678738e+00 2.8782457489e+00 4.9852678738e+00 
309300 6.5435491650e+00 -7.0441845278e-05 2.8782457489e+00 -4.9852678738e+00 2.8782457489e+00 4.9852678738e+00 
309400 6.5435491649e+00 -7.0616252397e-05 2.8782457489e+00 -4.9852678738e+00 2.8782457489e+00 4.9852678738e+00 
309500 6.5435491648e+00 -7.0791999490e-05 2.8782457489e+00 -4.9852678738e+00 2.8782457489e+00 4.9852678738e+00 
309600 6.5435491646e+00 -7.0123626635e-05 2.8782469787e+00 -4.9852700038e+00 2.8782469787e+00 4.9852700038e+00 
309700 6.5435491646e+00 -7.0292578451e-05 2.8782469787e+00 -4.9852700038e+00 2.8782469787e+00 4.9852700038e+00 
309800 6.5435491645e+00 -7.0463465501e-05 2.8782469787e+00 -4.9852700038e+00 2.8782469787e+00 4.9852700038e+00 
309900 6.5435491644e+00 -7.0635930214e-05 2.8782469787e+00 -4.9852700038e+00 2.8782469787e+00 4.9852700038e+00 
310000 6.5435491643e+00 -7.0809719190e-05 2.8782469787e+00 -4.9852700038e+00 2.8782469787e+00 4.9852700038e+00 
310100 6.5435491641e+00 -7.0139162839e-05 2.8782482088e+00 -4.9852721344e+00 2.8782482088e+00 4.9852721344e+00 
310200 6.5435491641e+00 -7.0306128166e-05 2.8782482088e+00 -4.9852721344e+00 2.8782482088e+00 4.9852721344e+00 
310300 6.5435491640e+00 -7.0475017594e-05 2.8782482088e+00 -4.9852721344e+00 2.8782482088e+00 4.9852721344e+00 
310400 6.5435491639e+00 -7.0645474198e-05 2.8782482088e+00 -4.9852721344e+00 2.8782482088e+00 4.9852721344e+00 
310500 6.5435491638e+00 -7.0817245028e-05 2.8782482088e+00 -4.9852721344e+00 2.8782482088e+00 4.9852721344e+00 
310600 6.5435491637e+00 -7.0144570949e-05 2.8782494390e+00 -4.9852742652e+00 2.8782494390e+00 4.9852742652e+00 
310700 6.5435491636e+00 -7.0309497997e-05 2.8782494390e+00 -4.9852742652e+00 2.8782494390e+00 4.9852742652e+00 
310800 6.5435491635e+00 -7.0476339909e-05 2.8782494390e+00 -4.9852742652e+00 2.8782494390e+00 4.9852742652e+00 
310900 6.5435491634e+00 -7.0644739828e-05 2.8782494390e+00 -4.9852742652e+00 2.8782494390e+00 4.9852742652e+00 
311000 6.5435491633e+00 -7.0814444848e-05 2.8782494390e+00 -4.9852742652e+00 2.8782494390e+00 4.9852742652e+00 
311100 6.5435491632e+00 -7.0139729297e-05 2.8782506692e+00 -4.9852763959e+00 2.8782506692e+00 4.9852763959e+00 
311200 6.5435491631e+00 -7.0302572725e-05 2.8782506692e+00 -4.9852763959e+00 2.8782506692e+00 4.9852763959e+00 
311300 6.5435491630e+00 -7.0467321894e-05 2.8782506692e+00 -4.9852763959e+00 2.8782506692e+00 4.9852763959e+00 
311400 6.5435491629e+00 -7.0633619962e-05 2.8782506692e+00 -4.9852763959e+00 2.8782506692e+00 4.9852763959e+00 
311500 6.5435491628e+00 -7.0801214038e-05 2.8782506692e+00 -4.9852763959e+00 2.8782506692e+00 4.9852763959e+00 
311600 6.5435491627e+00 -7.0124536475e-05 2.8782518991e+00 -4.9852785262e+00 2.8782518991e+00 4.9852785262e+00 
311700 6.5435491626e+00 -7.0285252541e-05 2.8782518991e+00 -4.9852785262e+00 2.8782518991e+00 4.9852785262e+00 
311800 6.5435491625e+00 -7.0447865138e-05 2.8782518991e+00 -4.9852785262e+00 2.8782518991e+00 4.9852785262e+00 
311900 6.5435491625e+00 -7.0612017516e-05 2.8782518991e+00 -4.9852785262e+00 2.8782518991e+00 4.9852785262e+00 
312000 6.5435491624e+00 -7.0777456865e-05 2.8782518991e+00 -4.9852785262e+00 2.8782518991e+00 4.9852785262e+00 
312100 6.5435491622e+00 -7.0098899330e-05 2.8782531286e+00 -4.9852806558e+00 2.8782531286e+00 4.9852806558e+00 
312200 6.5435491622e+00 -7.0257445890e-05 2.8782531286e+00 -4.9852806558e+00 2.8782531286e+00 4.9852806558e+00 
312300 6.5435491621e+00 -7.0417879873e-05 2.8782531286e+00 -4.9852806558e+00 2.8782531286e+00 4.9852806558e+00 
312400 6.5435491620e+00 -7.0579844717e-05 2.8782531286e+00 -4.9852806558e+00 2.8782531286e+00 4.9852806558e+00 
312500 6.5435491619e+00 -7.0743087789e-05 2.8782531286e+00 -4.9852806558e+00 2.8782531286e+00 4.9852806558e+00 
312600 6.5435491618e+00 -7.0062735822e-05 2.8782543575e+00 -4.9852827844e+00 2.8782543575e+00 4.9852827844e+00 
312700 6.5435491617e+00 -7.0219073486e-05 2.8782543575e+00 -4.9852827844e+00 2.8782543575e+00 4.9852827844e+00 
312800 6.5435491616e+00 -7.0377289816e-05 2.8782543575e+00 -4.9852827844e+00 2.8782543575e+00 4.9852827844e+00 
312900 6.5435491616e+00 -7.0537028549e-05 2.8782543575e+00 -4.9852827844e+00 2.8782543575e+00 4.9852827844e+00 
313000 6.5435491615e+00 -7.0698037312e-05 2.8782543575e+00 -4.9852827844e+00 2.8782543575e+00 4.9852827844e+00 
313100 6.5435491614e+00 -7.0860136577e-05 2.8782543575e+00 -4.9852827844e+00 2.8782543575e+00 4.9852827844e+00 
313200 6.5435491613e+00 -7.0177106736e-05 2.8782555885e+00 -4.9852849164e+00 2.8782555885e+00 4.9852849164e+00 
313300 6.5435491612e+00 -7.0332049456e-05 2.8782555885e+00 -4.9852849164e+00 2.8782555885e+00 4.9852849164e+00 
313400 6.5435491611e+00 -7.0488798106e-05 2.8782555885e+00 -4.9852849164e+00 2.8782555885e+00 4.9852849164e+00 
313500 6.5435491611e+00 -7.0647014098e-05 2.8782555885e+00 -4.9852849164e+00 2.8782555885e+00 4.9852849164e+00 
313600 6.5435491610e+00 -7.0806457604e-05 2.8782555885e+00 -4.9852849164e+00 2.8782555885e+00 4.9852849164e+00 
313700 6.5435491608e+00 -7.0121507759e-05 2.8782568185e+00 -4.9852870469e+00 2.8782568185e+00 4.9852870469e+00 
313800 6.5435491608e+00 -7.0273961277e-05 2.8782568185e+00 -4.9852870469e+00 2.8782568185e+00 4.9852870469e+00 
313900 6.5435491607e+00 -7.0428264009e-05 2.8782568185e+00 -4.9852870469e+00 2.8782568185e+00 4.9852870469e+00 
314000 6.5435491606e+00 -7.0584062774e-05 2.8782568185e+00 -4.9852870469e+00 2.8782568185e+00 4.9852870469e+00 
314100 6.5435491606e+00 -7.0741107404e-05 2.8782568185e+00 -4.9852870469e+00 2.8782568185e+00 4.9852870469e+00 
314200 6.5435491604e+00 -7.0054550106e-05 2.8782580474e+00 -4.9852891754e+00 2.8782580474e+00 4.9852891754e+00 
314300 6.5435491604e+00 -7.0204629889e-05 2.8782580474e+00 -4.9852891754e+00 2.8782580474e+00 4.9852891754e+00 
314400 6.5435491603e+00 -7.0356560068e-05 2.8782580474e+00 -4.9852891754e+00 2.8782580474e+00 4.9852891754e+00 
314500 6.5435491602e+00 -7.0509985122e-05 2.8782580474e+00 -4.9852891754e+00 2.8782580474e+00 4.9852891754e+00 
314600 6.5435491601e+00 -7.0664653238e-05 2.8782580474e+00 -4.9852891754e+00 2.8782580474e+00 4.9852891754e+00 
314700 6.5435491601e+00 -7.0820385333e-05 2.8782580474e+00 -4.9852891754e+00 2.8782580474e+00 4.9852891754e+00 
314800 6.5435491599e+00 -7.0131436857e-05 2.8782592777e+00 -4.9852913063e+00 2.8782592777e+00 4.9852913063e+00 
314900 6.5435491599e+00 -7.0279965482e-05 2.8782592777e+00 -4.9852913063e+00 2.8782592777e+00 4.9852913063e+00 
315000 6.5435491598e+00 -7.0430273853e-05 2.8782592777e+00 -4.9852913063e+00 2.8782592777e+00 4.9852913063e+00 
315100 6.5435491597e+00 -7.0582023777e-05 2.8782592777e+00 -4.9852913063e+00 2.8782592777e+00 4.9852913063e+00 
315200 6.5435491597e+00 -7.0734975766e-05 2.8782592777e+00 -4.9852913063e+00 2.8782592777e+00 4.9852913063e+00 
315300 6.5435491595e+00 -7.0044362902e-05 2.8782605065e+00 -4.9852934346e+00 2.8782605065e+00 4.9852934346e+00 
315400 6.5435491595e+00 -7.0190284084e-05 2.8782605065e+00 -4.9852934346e+00 2.8782605065e+00 4.9852934346e+00 
315500 6.5435491594e+00 -7.0338028922e-05 2.8782605065e+00 -4.9852934346e+00 2.8782605065e+00 4.9852934346e+00 
315600 6.5435491593e+00 -7.0487244823e-05 2.8782605065e+00 -4.9852934346e+00 2.8782605065e+00 4.9852934346e+00 
315700 6.5435491593e+00 -7.0637682139e-05 2.8782605065e+00 -4.9852934346e+00 2.8782605065e+00 4.9852934346e+00 
315800 6.5435491592e+00 -7.0789163381e-05 2.8782605065e+00 -4.9852934346e+00 2.8782605065e+00 4.9852934346e+00 
315900 6.5435491591e+00 -7.0096318061e-05 2.8782617362e+00 -4.9852955645e+00 2.8782617362e+00 4.9852955645e+00 
316000 6.5435491590e+00 -7.0240563083e-05 2.8782617362e+00 -4.9852955645e+00 2.8782617362e+00 4.9852955645e+00 
316100 6.5435491589e+00 -7.0386570190e-05 2.8782617362e+00 -4.9852955645e+00 2.8782617362e+00 4.9852955645e+00 
316200 6.5435491589e+00 -7.0534001877e-05 2.8782617362e+00 -4.9852955645e+00 2.8782617362e+00 4.9852955645e+00 
316300 6.5435491588e+00 -7.0682619204e-05 2.8782617362e+00 -4.9852955645e+00 2.8782617362e+00 4.9852955645e+00 
316400 6.5435491588e+00 -7.0832252303e-05 2.8782617362e+00 -4.9852955645e+00 2.8782617362e+00 4.9852955645e+00 
316500 6.5435491586e+00 -7.0137021557e-05 2.8782629666e+00 -4.9852976958e+00 2.8782629666e+00 4.9852976958e+00 
316600 6.5435491586e+00 -7.0279371429e-05 2.8782629666e+00 -4.9852976958e+00 2.8782629666e+00 4.9852976958e+00 
316700 6.5435491585e+00 -7.0423467909e-05 2.8782629666e+00 -4.9852976958e+00 2.8782629666e+00 4.9852976958e+00 
316800 6.5435491584e+00 -7.0568975283e-05 2.8782629666e+00 -4.9852976958e+00 2.8782629666e+00 4.9852976958e+00 
316900 6.5435491584e+00 -7.0715655870e-05 2.8782629666e+00 -4.9852976958e+00 2.8782629666e+00 4.9852976958e+00 
317000 6.5435491583e+00 -7.0018974810e-05 2.8782641951e+00 -4.9852998235e+00 2.8782641951e+00 4.9852998235e+00 
317100 6.5435491582e+00 -7.0158573079e-05 2.8782641951e+00 -4.9852998235e+00 2.8782641951e+00 4.9852998235e+00 
317200 6.5435491581e+00 -7.0299968937e-05 2.8782641951e+00 -4.9852998235e+00 2.8782641951e+00 4.9852998235e+00 
317300 6.5435491581e+00 -7.0442810429e-05 2.8782641951e+00 -4.9852998235e+00 2.8782641951e+00 4.9852998235e+00 
317400 6.5435491580e+00 -7.0586848388e-05 2.8782641951e+00 -4.9852998235e+00 2.8782641951e+00 4.9852998235e+00 
317500 6.5435491579e+00 -7.0731905716e-05 2.8782641951e+00 -4.9852998235e+00 2.8782641951e+00 4.9852998235e+00 
317600 6.5435491578e+00 -7.0033296008e-05 2.8782654238e+00 -4.9853019517e+00 2.8782654238e+00 4.9853019517e+00 
317700 6.5435491578e+00 -7.0171076258e-05 2.8782654238e+00 -4.9853019517e+00 2.8782654238e+00 4.9853019517e+00 
317800 6.5435491577e+00 -7.0310594065e-05 2.8782654238e+00 -4.9853019517e+00 2.8782654238e+00 4.9853019517e+00 
317900 6.5435491576e+00 -7.0451512387e-05 2.8782654238e+00 -4.9853019517e+00 2.8782654238e+00 4.9853019517e+00 
318000 6.5435491576e+00 -7.0593592672e-05 2.8782654238e+00 -4.9853019517e+00 2.8782654238e+00 4.9853019517e+00 
318100 6.5435491575e+00 -7.0736665411e-05 2.8782654238e+00 -4.9853019517e+00 2.8782654238e+00 4.9853019517e+00 
318200 6.5435491574e+00 -7.0035992799e-05 2.8782666526e+00 -4.9853040801e+00 2.8782666526e+00 4.9853040801e+00 
318300 6.5435491574e+00 -7.0171748867e-05 2.8782666526e+00 -4.9853040801e+00 2.8782666526e+00 4.9853040801e+00 
318400 6.5435491573e+00 -7.0309227850e-05 2.8782666526e+00 -4.9853040801e+00 2.8782666526e+00 4.9853040801e+00 
318500 6.5435491572e+00 -7.0448094749e-05 2.8782666526e+00 -4.9853040801e+00 2.8782666526e+00 4.9853040801e+00 
318600 6.5435491572e+00 -7.0588112506e-05 2.8782666526e+00 -4.9853040801e+00 2.8782666526e+00 4.9853040801e+00 
318700 6.5435491571e+00 -7.0729112697e-05 2.8782666526e+00 -4.9853040801e+00 2.8782666526e+00 4.9853040801e+00 
318800 6.5435491570e+00 -7.0026448511e-05 2.8782678813e+00 -4.9853062082e+00 2.8782678813e+00 4.9853062082e+00 
318900 6.5435491569e+00 -7.0160115169e-05 2.8782678813e+00 -4.9853062082e+00 2.8782678813e+00 4.9853062082e+00 
319000 6.5435491569e+00 -7.0295496442e-05 2.8782678813e+00 -4.9853062082e+00 2.8782678813e+00 4.9853062082e+00 
319100 6.5435491568e+00 -7.0432257675e-05 2.8782678813e+00 -4.9853062082e+00 2.8782678813e+00 4.9853062082e+00 
319200 6.5435491568e+00 -7.0570162072e-05 2.8782678813e+00 -4.9853062082e+00 2.8782678813e+00 4.9853062082e+00 
319300 6.5435491567e+00 -7.0709041398e-05 2.8782678813e+00 -4.9853062082e+00 2.8782678813e+00 4.9853062082e+00 
319400 6.5435491567e+00 -7.0848775584e-05 2.8782678813e+00 -4.9853062082e+00 2.8782678813e+00 4.9853062082e+00 
319500 6.5435491565e+00 -7.0143322859e-05 2.8782691121e+00 -4.9853083399e+00 2.8782691121e+00 4.9853083399e+00 
319600 6.5435491565e+00 -7.0275545288e-05 2.8782691121e+00 -4.9853083399e+00 2.8782691121e+00 4.9853083399e+00 
319700 6.5435491564e+00 -7.0409431431e-05 2.8782691121e+00 -4.9853083399e+00 2.8782691121e+00 4.9853083399e+00 
319800 6.5435491564e+00 -7.0544658122e-05 2.8782691121e+00 -4.9853083399e+00 2.8782691121e+00 4.9853083399e+00 
319900 6.5435491563e+00 -7.0680996670e-05 2.8782691121e+00 -4.9853083399e+00 2.8782691121e+00 4.9853083399e+00 
320000 6.5435491563e+00 -7.0818284561e-05 2.8782691121e+00 -4.9853083399e+00 2.8782691121e+00 4.9853083399e+00 
320100 6.5435491562e+00 -7.0110814271e-05 2.8782703423e+00 -4.9853104707e+00 2.8782703423e+00 4.9853104707e+00 
320200 6.5435491561e+00 -7.0240702379e-05 2.8782703423e+00 -4.9853104707e+00 2.8782703423e+00 4.9853104707e+00 
320300 6.5435491561e+00 -7.0372282287e-05 2.8782703423e+00 -4.9853104707e+00 2.8782703423e+00 4.9853104707e+00 
320400 6.5435491560e+00 -7.0505220302e-05 2.8782703423e+00 -4.9853104707e+00 2.8782703423e+00 4.9853104707e+00 
320500 6.5435491560e+00 -7.0639280225e-05 2.8782703423e+00 -4.9853104707e+00 2.8782703423e+00 4.9853104707e+00 
320600 6.5435491559e+00 -7.0774294166e-05 2.8782703423e+00 -4.9853104707e+00 2.8782703423e+00 4.9853104707e+00 
320700 6.5435491558e+00 -7.0065076081e-05 2.8782715717e+00 -4.9853126002e+00 2.8782715717e+00 4.9853126002e+00 
320800 6.5435491557e+00 -7.0192694741e-05 2.8782715717e+00 -4.9853126002e+00 2.8782715717e+00 4.9853126002e+00 
320900 6.5435491557e+00 -7.0322000676e-05 2.8782715717e+00 -4.9853126002e+00 2.8782715717e+00 4.9853126002e+00 
321000 6.5435491556e+00 -7.0452658980e-05 2.8782715717e+00 -4.9853126002e+00 2.8782715717e+00 4.9853126002e+00 
321100 6.5435491556e+00 -7.0584432603e-05 2.8782715717e+00 -4.9853126002e+00 2.8782715717e+00 4.9853126002e+00 
321200 6.5435491555e+00 -7.0717153086e-05 2.8782715717e+00 -4.9853126002e+00 2.8782715717e+00 4.9853126002e+00 
321300 6.5435491554e+00 -7.0006316390e-05 2.8782728002e+00 -4.9853147280e+00 2.8782728002e+00 4.9853147280e+00 
321400 6.5435491554e+00 -7.0131633612e-05 2.8782728002e+00 -4.9853147280e+00 2.8782728002e+00 4.9853147280e+00 
321500 6.5435491553e+00 -7.0258629481e-05 2.8782728002e+00 -4.9853147280e+00 2.8782728002e+00 4.9853147280e+00 
321600 6.5435491553e+00 -7.0386969336e-05 2.8782728002e+00 -4.9853147280e+00 2.8782728002e+00 4.9853147280e+00 
321700 6.5435491552e+00 -7.0516416374e-05 2.8782728002e+00 -4.9853147280e+00 2.8782728002e+00 4.9853147280e+00 
321800 6.5435491552e+00 -7.0646802383e-05 2.8782728002e+00 -4.9853147280e+00 2.8782728002e+00 4.9853147280e+00 
321900 6.5435491551e+00 -7.0778007353e-05 2.8782728002e+00 -4.9853147280e+00 2.8782728002e+00 4.9853147280e+00 
322000 6.5435491550e+00 -7.0064834723e-05 2.8782740297e+00 -4.9853168576e+00 2.8782740297e+00 4.9853168576e+00 
322100 6.5435491550e+00 -7.0188465538e-05 2.8782740297e+00 -4.9853168576e+00 2.8782740297e+00 4.9853168576e+00 
322200 6.5435491549e+00 -7.0313723563e-05 2.8782740297e+00 -4.9853168576e+00 2.8782740297e+00 4.9853168576e+00 
322300 6.5435491549e+00 -7.0440286131e-05 2.8782740297e+00 -4.9853168576e+00 2.8782740297e+00 4.9853168576e+00 
322400 6.5435491548e+00 -7.0567925016e-05 2.8782740297e+00 -4.9853168576e+00 2.8782740297e+00 4.9853168576e+00 
322500 6.5435491548e+00 -7.0696478153e-05 2.8782740297e+00 -4.9853168576e+00 2.8782740297e+00 4.9853168576e+00 
322600 6.5435491547e+00 -7.0825829931e-05 2.8782740297e+00 -4.9853168576e+00 2.8782740297e+00 4.9853168576e+00 
322700 6.5435491546e+00 -7.0110215868e-05 2.8782752601e+00 -4.9853189886e+00 2.8782752601e+00 4.9853189886e+00 
322800 6.5435491546e+00 -7.0231955399e-05 2.8782752601e+00 -4.9853189886e+00 2.8782752601e+00 4.9853189886e+00 
322900 6.5435491545e+00 -7.0355309519e-05 2.8782752601e+00 -4.9853189886e+00 2.8782752601e+00 4.9853189886e+00 
323000 6.5435491545e+00 -7.0479956499e-05 2.8782752601e+00 -4.9853189886e+00 2.8782752601e+00 4.9853189886e+00 
323100 6.5435491544e+00 -7.0605668757e-05 2.8782752601e+00 -4.9853189886e+00 2.8782752601e+00 4.9853189886e+00 
323200 6.5435491544e+00 -7.0732284669e-05 2.8782752601e+00 -4.9853189886e+00 2.8782752601e+00 4.9853189886e+00 
323300 6.5435491543e+00 -7.0015124457e-05 2.8782764888e+00 -4.9853211168e+00 2.8782764888e+00 4.9853211168e+00 
323400 6.5435491542e+00 -7.0134262361e-05 2.8782764888e+00 -4.9853211168e+00 2.8782764888e+00 4.9853211168e+00 
323500 6.5435491542e+00 -7.0255047100e-05 2.8782764888e+00 -4.9853211168e+00 2.8782764888e+00 4.9853211168e+00 
323600 6.5435491541e+00 -7.0377145863e-05 2.8782764888e+00 -4.9853211168e+00 2.8782764888e+00 4.9853211168e+00 
323700 6.5435491541e+00 -7.0500323224e-05 2.8782764888e+00 -4.9853211168e+00 2.8782764888e+00 4.9853211168e+00 
323800 6.5435491540e+00 -7.0624411993e-05 2.8782764888e+00 -4.9853211168e+00 2.8782764888e+00 4.9853211168e+00 
323900 6.5435491540e+00 -7.0749292921e-05 2.8782764888e+00 -4.9853211168e+00 2.8782764888e+00 4.9853211168e+00 
324000 6.5435491539e+00 -7.0030112947e-05 2.8782777178e+00 -4.9853232456e+00 2.8782777178e+00 4.9853232456e+00 
324100 6.5435491539e+00 -7.0147371469e-05 2.8782777178e+00 -4.9853232456e+00 2.8782777178e+00 4.9853232456e+00 
324200 6.5435491538e+00 -7.0266231388e-05 2.8782777178e+00 -4.9853232456e+00 2.8782777178e+00 4.9853232456e+00 
324300 6.5435491538e+00 -7.0386370447e-05 2.8782777178e+00 -4.9853232456e+00 2.8782777178e+00 4.9853232456e+00 
324400 6.5435491537e+00 -7.0507560757e-05 2.8782777178e+00 -4.9853232456e+00 2.8782777178e+00 4.9853232456e+00 
324500 6.5435491537e+00 -7.0629640550e-05 2.8782777178e+00 -4.9853232456e+00 2.8782777178e+00 4.9853232456e+00 
324600 6.5435491536e+00 -7.0752494477e-05 2.8782777178e+00 -4.9853232456e+00 2.8782777178e+00 4.9853232456e+00 
324700 6.5435491535e+00 -7.0031234079e-05 2.8782789469e+00 -4.9853253744e+00 2.8782789469e+00 4.9853253744e+00 
324800 6.5435491535e+00 -7.0146436897e-05 2.8782789469e+00 -4.9853253744e+00 2.8782789469e+00 4.9853253744e+00 
324900 6.5435491535e+00 -7.0263229529e-05 2.8782789469e+00 -4.9853253744e+00 2.8782789469e+00 4.9853253744e+00 
325000 6.5435491534e+00 -7.0381290808e-05 2.8782789469e+00 -4.9853253744e+00 2.8782789469e+00 4.9853253744e+00 
325100 6.5435491534e+00 -7.0500393648e-05 2.8782789469e+00 -4.9853253744e+00 2.8782789469e+00 4.9853253744e+00 
325200 6.5435491533e+00 -7.0620376877e-05 2.8782789469e+00 -4.9853253744e+00 2.8782789469e+00 4.9853253744e+00 
325300 6.5435491533e+00 -7.0741125590e-05 2.8782789469e+00 -4.9853253744e+00 2.8782789469e+00 4.9853253744e+00 
325400 6.5435491532e+00 -7.0017887424e-05 2.8782801758e+00 -4.9853275029e+00 2.8782801758e+00 4.9853275029e+00 
325500 6.5435491531e+00 -7.0130970115e-05 2.8782801758e+00 -4.9853275029e+00 2.8782801758e+00 4.9853275029e+00 
325600 6.5435491531e+00 -7.0245634581e-05 2.8782801758e+00 -4.9853275029e+00 2.8782801758e+00 4.9853275029e+00 
325700 6.5435491531e+00 -7.0361559850e-05 2.8782801758e+00 -4.9853275029e+00 2.8782801758e+00 4.9853275029e+00 
325800 6.5435491530e+00 -7.0478518987e-05 2.8782801758e+00 -4.9853275029e+00 2.8782801758e+00 4.9853275029e+00 
325900 6.5435491530e+00 -7.0596350938e-05 2.8782801758e+00 -4.9853275029e+00 2.8782801758e+00 4.9853275029e+00 
326000 6.5435491529e+00 -7.0714940899e-05 2.8782801758e+00 -4.9853275029e+00 2.8782801758e+00 4.9853275029e+00 
326100 6.5435491528e+00 -6.9989849287e-05 2.8782814042e+00 -4.9853296306e+00 2.8782814042e+00 4.9853296306e+00 
326200 6.5435491528e+00 -7.0100761878e-05 2.8782814042e+00 -4.9853296306e+00 2.8782814042e+00 4.9853296306e+00 
326300 6.5435491528e+00 -7.0213248642e-05 2.8782814042e+00 -4.9853296306e+00 2.8782814042e+00 4.9853296306e+00 
326400 6.5435491527e+00 -7.0326988786e-05 2.8782814042e+00 -4.9853296306e+00 2.8782814042e+00 4.9853296306e+00 
326500 6.5435491527e+00 -7.0441755528e-05 2.8782814042e+00 -4.9853296306e+00 2.8782814042e+00 4.9853296306e+00 
326600 6.5435491526e+00 -7.0557387947e-05 2.8782814042e+00 -4.9853296306e+00 2.8782814042e+00 4.9853296306e+00 
326700 6.5435491526e+00 -7.0673771364e-05 2.8782814042e+00 -4.9853296306e+00 2.8782814042e+00 4.9853296306e+00 
326800 6.5435491526e+00 -7.0790823639e-05 2.8782814042e+00 -4.9853296306e+00 2.8782814042e+00 4.9853296306e+00 
326900 6.5435491525e+00 -7.0063222066e-05 2.8782826339e+00 -4.9853317605e+00 2.8782826339e+00 4.9853317605e+00 
327000 6.5435491524e+00 -7.0172471506e-05 2.8782826339e+00 -4.9853317605e+00 2.8782826339e+00 4.9853317605e+00 
327100 6.5435491524e+00 -7.0283257981e-05 2.8782826339e+00 -4.9853317605e+00 2.8782826339e+00 4.9853317605e+00 
327200 6.5435491523e+00 -7.0395268594e-05 2.8782826339e+00 -4.9853317605e+00 2.8782826339e+00 4.9853317605e+00 
327300 6.5435491523e+00 -7.0508282168e-05 2.8782826339e+00 -4.9853317605e+00 2.8782826339e+00 4.9853317605e+00 
327400 6.5435491523e+00 -7.0622141758e-05 2.8782826339e+00 -4.9853317605e+00 2.8782826339e+00 4.9853317605e+00 
327500 6.5435491522e+00 -7.0736735490e-05 2.8782826339e+00 -4.9853317605e+00 2.8782826339e+00 4.9853317605e+00 
327600 6.5435491521e+00 -7.0007365599e-05 2.8782838627e+00 -4.9853338889e+00 2.8782838627e+00 4.9853338889e+00 
327700 6.5435491521e+00 -7.0114237156e-05 2.8782838627e+00 -4.9853338889e+00 2.8782838627e+00 4.9853338889e+00 
327800 6.5435491521e+00 -7.0222663920e-05 2.8782838627e+00 -4.9853338889e+00 2.8782838627e+00 4.9853338889e+00 
327900 6.5435491520e+00 -7.0332325721e-05 2.8782838627e+00 -4.9853338889e+00 2.8782838627e+00 4.9853338889e+00 
328000 6.5435491520e+00 -7.0442996206e-05 2.8782838627e+00 -4.9853338889e+00 2.8782838627e+00 4.9853338889e+00 
328100 6.5435491520e+00 -7.0554514739e-05 2.8782838627e+00 -4.9853338889e+00 2.8782838627e+00 4.9853338889e+00 
328200 6.5435491519e+00 -7.0666766826e-05 2.8782838627e+00 -4.9853338889e+00 2.8782838627e+00 4.9853338889e+00 
328300 6.5435491519e+00 -7.0779670439e-05 2.8782838627e+00 -4.9853338889e+00 2.8782838627e+00 4.9853338889e+00 
328400 6.5435491518e+00 -7.0048036136e-05 2.8782850923e+00 -4.9853360185e+00 2.8782850923e+00 4.9853360185e+00 
328500 6.5435491517e+00 -7.0153103894e-05 2.8782850923e+00 -4.9853360185e+00 2.8782850923e+00 4.9853360185e+00 
328600 6.5435491517e+00 -7.0259691318e-05 2.8782850923e+00 -4.9853360185e+00 2.8782850923e+00 4.9853360185e+00 
328700 6.5435491517e+00 -7.0367485570e-05 2.8782850923e+00 -4.9853360185e+00 2.8782850923e+00 4.9853360185e+00 
328800 6.5435491516e+00 -7.0476265515e-05 2.8782850923e+00 -4.9853360185e+00 2.8782850923e+00 4.9853360185e+00 
328900 6.5435491516e+00 -7.0585874253e-05 2.8782850923e+00 -4.9853360185e+00 2.8782850923e+00 4.9853360185e+00 
329000 6.5435491516e+00 -7.0696199959e-05 2.8782850923e+00 -4.9853360185e+00 2.8782850923e+00 4.9853360185e+00 
329100 6.5435491515e+00 -7.0807162514e-05 2.8782850923e+00 -4.9853360185e+00 2.8782850923e+00 4.9853360185e+00 
329200 6.5435491514e+00 -7.0073245546e-05 2.8782863223e+00 -4.9853381490e+00 2.8782863223e+00 4.9853381490e+00 
329300 6.5435491514e+00 -7.0176343136e-05 2.8782863223e+00 -4.9853381490e+00 2.8782863223e+00 4.9853381490e+00 
329400 6.5435491514e+00 -7.0234759163e-05 2.8782863223e+00 -4.9853381490e+00 2.8782863223e+00 4.9853381490e+00 
329400 6.5435491514e+00 -7.0234759163e-05 2.8782863223e+00 -4.9853381490e+00 2.8782863223e+00 4.9853381490e+00 
