# step Hamiltonian StressXX CellTensor1 CellTensor2 CellTensor3 CellTensor4 
0 5.1984961137e+00 -1.9053329294e-02 1.5877160715e+00 -2.7500049039e+00 1.5877160715e+00 2.7500049039e+00 
100 5.1947915083e+00 -1.9451632498e-02 1.5877160715e+00 -2.7500049039e+00 1.5877160715e+00 2.7500049039e+00 
200 5.1912021839e+00 -1.9190766857e-02 1.5883286774e+00 -2.7510659683e+00 1.5883286774e+00 2.7510659683e+00 
300 5.1877399941e+00 -1.8866696864e-02 1.5889328339e+00 -2.7521123981e+00 1.5889328339e+00 2.7521123981e+00 
400 5.1844020177e+00 -1.8481002266e-02 1.5895265617e+00 -2.7531407648e+00 1.5895265617e+00 2.7531407648e+00 
500 5.1811855701e+00 -1.8035469344e-02 1.5901079338e+00 -2.7541477309e+00 1.5901079338e+00 2.7541477309e+00 
600 5.1780881424e+00 -1.7532070686e-02 1.5906750821e+00 -2.7551300606e+00 1.5906750821e+00 2.7551300606e+00 
700 5.1751073470e+00 -1.6972946905e-02 1.5912262029e+00 -2.7560846298e+00 1.5912262029e+00 2.7560846298e+00 
800 5.1722408710e+00 -1.6360389958e-02 1.5917595619e+00 -2.7570084346e+00 1.5917595619e+00 2.7570084346e+00 
900 5.1694864360e+00 -1.5696827712e-02 1.5922734985e+00 -2.7578985989e+00 1.5922734985e+00 2.7578985989e+00 
1000 5.1668417644e+00 -1.4984809508e-02 1.5927664300e+00 -2.7587523814e+00 1.5927664300e+00 2.7587523814e+00 
1100 5.1643045520e+00 -1.4226992485e-02 1.5932368552e+00 -2.7595671816e+00 1.5932368552e+00 2.7595671816e+00 
1200 5.1618724465e+00 -1.3426128466e-02 1.5936833568e+00 -2.7603405451e+00 1.5936833568e+00 2.7603405451e+00 
1300 5.1595430310e+00 -1.2585051277e-02 1.5941046048e+00 -2.7610701681e+00 1.5941046048e+00 2.7610701681e+00 
1400 5.1573138131e+00 -1.1706664366e-02 1.5944993584e+00 -2.7617539014e+00 1.5944993584e+00 2.7617539014e+00 
1500 5.1551822176e+00 -1.0793928629e-02 1.5948664678e+00 -2.7623897535e+00 1.5948664678e+00 2.7623897535e+00 
1600 5.1531455844e+00 -9.8498504029e-03 1.5952048758e+00 -2.7629758933e+00 1.5952048758e+00 2.7629758933e+00 
1700 5.1512011687e+00 -8.8774695737e-03 1.5955136188e+00 -2.7635106519e+00 1.5955136188e+00 2.7635106519e+00 
1800 5.1493461449e+00 -7.8798477838e-03 1.5957918279e+00 -2.7639925242e+00 1.5957918279e+00 2.7639925242e+00 
1900 5.1475776136e+00 -6.8600567497e-03 1.5960387289e+00 -2.7644201692e+00 1.5960387289e+00 2.7644201692e+00 
2000 5.1458926096e+00 -5.8211667020e-03 1.5962536425e+00 -2.7647924106e+00 1.5962536425e+00 2.7647924106e+00 
2100 5.1442881127e+00 -4.7662349803e-03 1.5964359844e+00 -2.7651082360e+00 1.5964359844e+00 2.7651082360e+00 
2200 5.1427610592e+00 -3.6982948240e-03 1.5965852641e+00 -2.7653667960e+00 1.5965852641e+00 2.7653667960e+00 
2300 5.1413083547e+00 -2.6203444098e-03 1.5967010844e+00 -2.7655674026e+00 1.5967010844e+00 2.7655674026e+00 
2400 5.1399268874e+00 -1.5353361899e-03 1.5967831400e+00 -2.7657095272e+00 1.5967831400e+00 2.7657095272e+00 
2500 5.1386135419e+00 -4.4616659144e-04 1.5968312162e+00 -2.7657927975e+00 1.5968312162e+00 2.7657927975e+00 
2600 5.1373652123e+00 6.4433386210e-04 1.5968451866e+00 -2.7658169950e+00 1.5968451866e+00 2.7658169950e+00 
2700 5.1361788162e+00 1.7334099464e-03 1.5968250114e+00 -2.7657820505e+00 1.5968250114e+00 2.7657820505e+00 
2800 5.1350513070e+00 2.8183905885e-03 1.5967707349e+00 -2.7656880410e+00 1.5967707349e+00 2.7656880410e+00 
2900 5.1339796866e+00 3.8966971203e-03 1.5966824829e+00 -2.7655351840e+00 1.5966824829e+00 2.7655351840e+00 
3000 5.1329610165e+00 4.9658508801e-03 1.5965604597e+00 -2.7653238335e+00 1.5965604597e+00 2.7653238335e+00 
3100 5.1319924287e+00 6.0234801173e-03 1.5964049451e+00 -2.7650544743e+00 1.5964049451e+00 2.7650544743e+00 
3200 5.1310711347e+00 7.0673261599e-03 1.5962162911e+00 -2.7647277161e+00 1.5962162911e+00 2.7647277161e+00 
3300 5.1301944339e+00 8.0952488134e-03 1.5959949188e+00 -2.7643442880e+00 1.5959949188e+00 2.7643442880e+00 
3400 5.1293597212e+00 9.1052309671e-03 1.5957413141e+00 -2.7639050318e+00 1.5957413141e+00 2.7639050318e+00 
3500 5.1285644926e+00 1.0095382392e-02 1.5954560248e+00 -2.7634108962e+00 1.5954560248e+00 2.7634108962e+00 
3600 5.1278063501e+00 1.1063942725e-02 1.5951396561e+00 -2.7628629294e+00 1.5951396561e+00 2.7628629294e+00 
3700 5.1270830056e+00 1.2009283638e-02 1.5947928669e+00 -2.7622622731e+00 1.5947928669e+00 2.7622622731e+00 
3800 5.1263922835e+00 1.2929910209e-02 1.5944163663e+00 -2.7616101548e+00 1.5944163663e+00 2.7616101548e+00 
3900 5.1257321219e+00 1.3824461504e-02 1.5940109088e+00 -2.7609078818e+00 1.5940109088e+00 2.7609078818e+00 
4000 5.1251005736e+00 1.4691710408e-02 1.5935772908e+00 -2.7601568335e+00 1.5935772908e+00 2.7601568335e+00 
4100 5.1244958053e+00 1.5530562725e-02 1.5931163467e+00 -2.7593584548e+00 1.5931163467e+00 2.7593584548e+00 
4200 5.1239160968e+00 1.6340055597e-02 1.5926289444e+00 -2.7585142493e+00 1.5926289444e+00 2.7585142493e+00 
4300 5.1233598385e+00 1.7119355283e-02 1.5921159819e+00 -2.7576257722e+00 1.5921159819e+00 2.7576257722e+00 
4400 5.1228255292e+00 1.7867754347e-02 1.5915783832e+00 -2.7566946239e+00 1.5915783832e+00 2.7566946239e+00 
4500 5.1223117728e+00 1.8584668303e-02 1.5910170943e+00 -2.7557224431e+00 1.5910170943e+00 2.7557224431e+00 
4600 5.1218172742e+00 1.9269631783e-02 1.5904330802e+00 -2.7547109009e+00 1.5904330802e+00 2.7547109009e+00 
4700 5.1213408357e+00 1.9922294275e-02 1.5898273204e+00 -2.7536616941e+00 1.5898273204e+00 2.7536616941e+00 
4800 5.1208813520e+00 2.0542415493e-02 1.5892008063e+00 -2.7525765399e+00 1.5892008063e+00 2.7525765399e+00 
4900 5.1204378058e+00 2.1129860436e-02 1.5885545373e+00 -2.7514571692e+00 1.5885545373e+00 2.7514571692e+00 
5000 5.1200092628e+00 2.1684594193e-02 1.5878895181e+00 -2.7503053222e+00 1.5878895181e+00 2.7503053222e+00 
5100 5.1195948668e+00 2.2206676542e-02 1.5872067553e+00 -2.7491227422e+00 1.5872067553e+00 2.7491227422e+00 
5200 5.1191938343e+00 2.2696256412e-02 1.5865072546e+00 -2.7479111715e+00 1.5865072546e+00 2.7479111715e+00 
5300 5.1188054498e+00 2.3153566237e-02 1.5857920183e+00 -2.7466723459e+00 1.5857920183e+00 2.7466723459e+00 
5400 5.1184290609e+00 2.3578916269e-02 1.5850620427e+00 -2.7454079912e+00 1.5850620427e+00 2.7454079912e+00 
5500 5.1180640730e+00 2.3972688875e-02 1.5843183156e+00 -2.7441198181e+00 1.5843183156e+00 2.7441198181e+00 
5600 5.1177099449e+00 2.4335332871e-02 1.5835618143e+00 -2.7428095192e+00 1.5835618143e+00 2.7428095192e+00 
5700 5.1173661839e+00 2.4667357926e-02 1.5827935031e+00 -2.7414787653e+00 1.5827935031e+00 2.7414787653e+00 
5800 5.1170323417e+00 2.4969329060e-02 1.5820143322e+00 -2.7401292017e+00 1.5820143322e+00 2.7401292017e+00 
5900 5.1167080103e+00 2.5241861275e-02 1.5812252353e+00 -2.7387624458e+00 1.5812252353e+00 2.7387624458e+00 
6000 5.1163928178e+00 2.5485614334e-02 1.5804271284e+00 -2.7373800840e+00 1.5804271284e+00 2.7373800840e+00 
6100 5.1160864246e+00 2.5701287720e-02 1.5796209081e+00 -2.7359836696e+00 1.5796209081e+00 2.7359836696e+00 
6200 5.1157885203e+00 2.5889615772e-02 1.5788074509e+00 -2.7345747204e+00 1.5788074509e+00 2.7345747204e+00 
6300 5.1154988204e+00 2.6051363034e-02 1.5779876114e+00 -2.7331547167e+00 1.5779876114e+00 2.7331547167e+00 
6400 5.1152170632e+00 2.6187319815e-02 1.5771622219e+00 -2.7317251001e+00 1.5771622219e+00 2.7317251001e+00 
6500 5.1149430069e+00 2.6298297968e-02 1.5763320910e+00 -2.7302872712e+00 1.5763320910e+00 2.7302872712e+00 
6600 5.1146764277e+00 2.6385126895e-02 1.5754980035e+00 -2.7288425893e+00 1.5754980035e+00 2.7288425893e+00 
6700 5.1144171170e+00 2.6448649783e-02 1.5746607194e+00 -2.7273923707e+00 1.5746607194e+00 2.7273923707e+00 
6800 5.1141648796e+00 2.6489720067e-02 1.5738209735e+00 -2.7259378882e+00 1.5738209735e+00 2.7259378882e+00 
6900 5.1139195318e+00 2.6509198122e-02 1.5729794751e+00 -2.7244803701e+00 1.5729794751e+00 2.7244803701e+00 
7000 5.1136808998e+00 2.6507948178e-02 1.5721369075e+00 -2.7230210002e+00 1.5721369075e+00 2.7230210002e+00 
7100 5.1134488184e+00 2.6486835461e-02 1.5712939282e+00 -2.7215609172e+00 1.5712939282e+00 2.7215609172e+00 
7200 5.1132231294e+00 2.6446723543e-02 1.5704511684e+00 -2.7201012145e+00 1.5704511684e+00 2.7201012145e+00 
7300 5.1130036808e+00 2.6388471908e-02 1.5696092333e+00 -2.7186429401e+00 1.5696092333e+00 2.7186429401e+00 
7400 5.1127903258e+00 2.6312933714e-02 1.5687687020e+00 -2.7171870971e+00 1.5687687020e+00 2.7171870971e+00 
7500 5.1125829219e+00 2.6220953758e-02 1.5679301275e+00 -2.7157346435e+00 1.5679301275e+00 2.7157346435e+00 
7600 5.1123813301e+00 2.6113366615e-02 1.5670940372e+00 -2.7142864927e+00 1.5670940372e+00 2.7142864927e+00 
7700 5.1121854146e+00 2.5990994972e-02 1.5662609331e+00 -2.7128435140e+00 1.5662609331e+00 2.7128435140e+00 
7800 5.1119950422e+00 2.5854648118e-02 1.5654312917e+00 -2.7114065329e+00 1.5654312917e+00 2.7114065329e+00 
7900 5.1118100817e+00 2.5705120602e-02 1.5646055648e+00 -2.7099763320e+00 1.5646055648e+00 2.7099763320e+00 
8000 5.1116304040e+00 2.5543191041e-02 1.5637841798e+00 -2.7085536515e+00 1.5637841798e+00 2.7085536515e+00 
8100 5.1114558815e+00 2.5369621076e-02 1.5629675400e+00 -2.7071391899e+00 1.5629675400e+00 2.7071391899e+00 
8200 5.1112863880e+00 2.5185154456e-02 1.5621560253e+00 -2.7057336052e+00 1.5621560253e+00 2.7057336052e+00 
8300 5.1111217989e+00 2.4990516258e-02 1.5613499923e+00 -2.7043375150e+00 1.5613499923e+00 2.7043375150e+00 
8400 5.1109619905e+00 2.4786412219e-02 1.5605497751e+00 -2.7029514983e+00 1.5605497751e+00 2.7029514983e+00 
8500 5.1108068408e+00 2.4573528184e-02 1.5597556861e+00 -2.7015760957e+00 1.5597556861e+00 2.7015760957e+00 
8600 5.1106562285e+00 2.4352529653e-02 1.5589680160e+00 -2.7002118111e+00 1.5589680160e+00 2.7002118111e+00 
8700 5.1105100340e+00 2.4124061425e-02 1.5581870348e+00 -2.6988591119e+00 1.5581870348e+00 2.6988591119e+00 
8800 5.1103681387e+00 2.3888747340e-02 1.5574129922e+00 -2.6975184308e+00 1.5574129922e+00 2.6975184308e+00 
8900 5.1102304255e+00 2.3647190085e-02 1.5566461183e+00 -2.6961901663e+00 1.5566461183e+00 2.6961901663e+00 
9000 5.1100967786e+00 2.3399971097e-02 1.5558866244e+00 -2.6948746842e+00 1.5558866244e+00 2.6948746842e+00 
9100 5.1099670840e+00 2.3147650519e-02 1.5551347031e+00 -2.6935723184e+00 1.5551347031e+00 2.6935723184e+00 
9200 5.1098412289e+00 2.2890767231e-02 1.5543905295e+00 -2.6922833719e+00 1.5543905295e+00 2.6922833719e+00 
9300 5.1097191025e+00 2.2629838931e-02 1.5536542615e+00 -2.6910081184e+00 1.5536542615e+00 2.6910081184e+00 
9400 5.1096005956e+00 2.2365362276e-02 1.5529260406e+00 -2.6897468028e+00 1.5529260406e+00 2.6897468028e+00 
9500 5.1094856009e+00 2.2097813071e-02 1.5522059924e+00 -2.6884996427e+00 1.5522059924e+00 2.6884996427e+00 
9600 5.1093740131e+00 2.1827646494e-02 1.5514942272e+00 -2.6872668292e+00 1.5514942272e+00 2.6872668292e+00 
9700 5.1092657290e+00 2.1555297371e-02 1.5507908409e+00 -2.6860485284e+00 1.5507908409e+00 2.6860485284e+00 
9800 5.1091606473e+00 2.1281180479e-02 1.5500959153e+00 -2.6848448818e+00 1.5500959153e+00 2.6848448818e+00 
9900 5.1090586691e+00 2.1005690883e-02 1.5494095187e+00 -2.6836560082e+00 1.5494095187e+00 2.6836560082e+00 
10000 5.1089596976e+00 2.0729204301e-02 1.5487317070e+00 -2.6824820038e+00 1.5487317070e+00 2.6824820038e+00 
10100 5.1088636383e+00 2.0452077494e-02 1.5480625236e+00 -2.6813229442e+00 1.5480625236e+00 2.6813229442e+00 
10200 5.1087703992e+00 2.0174648674e-02 1.5474020005e+00 -2.6801788846e+00 1.5474020005e+00 2.6801788846e+00 
10300 5.1086798904e+00 1.9897237933e-02 1.5467501585e+00 -2.6790498611e+00 1.5467501585e+00 2.6790498611e+00 
10400 5.1085920246e+00 1.9620147692e-02 1.5461070081e+00 -2.6779358920e+00 1.5461070081e+00 2.6779358920e+00 
10500 5.1085067169e+00 1.9343663154e-02 1.5454725500e+00 -2.6768369782e+00 1.5454725500e+00 2.6768369782e+00 
10600 5.1084238847e+00 1.9068052774e-02 1.5448467751e+00 -2.6757531044e+00 1.5448467751e+00 2.6757531044e+00 
10700 5.1083434481e+00 1.8793568739e-02 1.5442296659e+00 -2.6746842399e+00 1.5442296659e+00 2.6746842399e+00 
10800 5.1082653293e+00 1.8520447447e-02 1.5436211964e+00 -2.6736303398e+00 1.5436211964e+00 2.6736303398e+00 
10900 5.1081894531e+00 1.8248910001e-02 1.5430213327e+00 -2.6725913453e+00 1.5430213327e+00 2.6725913453e+00 
11000 5.1081157468e+00 1.7979162698e-02 1.5424300335e+00 -2.6715671852e+00 1.5424300335e+00 2.6715671852e+00 
11100 5.1080441399e+00 1.7711397523e-02 1.5418472508e+00 -2.6705577760e+00 1.5418472508e+00 2.6705577760e+00 
11200 5.1079745642e+00 1.7445792643e-02 1.5412729301e+00 -2.6695630232e+00 1.5412729301e+00 2.6695630232e+00 
11300 5.1079069540e+00 1.7182512900e-02 1.5407070107e+00 -2.6685828221e+00 1.5407070107e+00 2.6685828221e+00 
11400 5.1078412458e+00 1.6921710300e-02 1.5401494265e+00 -2.6676170580e+00 1.5401494265e+00 2.6676170580e+00 
11500 5.1077773782e+00 1.6663524500e-02 1.5396001063e+00 -2.6666656075e+00 1.5396001063e+00 2.6666656075e+00 
11600 5.1077152922e+00 1.6408083291e-02 1.5390589740e+00 -2.6657283388e+00 1.5390589740e+00 2.6657283388e+00 
11700 5.1076549308e+00 1.6155503072e-02 1.5385259491e+00 -2.6648051126e+00 1.5385259491e+00 2.6648051126e+00 
11800 5.1075962389e+00 1.5905889325e-02 1.5380009471e+00 -2.6638957825e+00 1.5380009471e+00 2.6638957825e+00 
11900 5.1075391638e+00 1.5659337073e-02 1.5374838799e+00 -2.6630001957e+00 1.5374838799e+00 2.6630001957e+00 
12000 5.1074836543e+00 1.5415931340e-02 1.5369746559e+00 -2.6621181940e+00 1.5369746559e+00 2.6621181940e+00 
12100 5.1074296616e+00 1.5175747599e-02 1.5364731807e+00 -2.6612496135e+00 1.5364731807e+00 2.6612496135e+00 
12200 5.1073771382e+00 1.4938852209e-02 1.5359793571e+00 -2.6603942859e+00 1.5359793571e+00 2.6603942859e+00 
12300 5.1073260389e+00 1.4705302847e-02 1.5354930855e+00 -2.6595520388e+00 1.5354930855e+00 2.6595520388e+00 
12400 5.1072763197e+00 1.4475148928e-02 1.5350142641e+00 -2.6587226958e+00 1.5350142641e+00 2.6587226958e+00 
12500 5.1072279386e+00 1.4248432014e-02 1.5345427894e+00 -2.6579060777e+00 1.5345427894e+00 2.6579060777e+00 
12600 5.1071808550e+00 1.4025186220e-02 1.5340785563e+00 -2.6571020022e+00 1.5340785563e+00 2.6571020022e+00 
12700 5.1071350300e+00 1.3805438599e-02 1.5336214581e+00 -2.6563102850e+00 1.5336214581e+00 2.6563102850e+00 
12800 5.1070904260e+00 1.3589209527e-02 1.5331713874e+00 -2.6555307396e+00 1.5331713874e+00 2.6555307396e+00 
12900 5.1070470068e+00 1.3376513067e-02 1.5327282355e+00 -2.6547631781e+00 1.5327282355e+00 2.6547631781e+00 
13000 5.1070047376e+00 1.3167357334e-02 1.5322918934e+00 -2.6540074114e+00 1.5322918934e+00 2.6540074114e+00 
13100 5.1069635849e+00 1.2961744836e-02 1.5318622513e+00 -2.6532632494e+00 1.5318622513e+00 2.6532632494e+00 
13200 5.1069235164e+00 1.2759672819e-02 1.5314391993e+00 -2.6525305019e+00 1.5314391993e+00 2.6525305019e+00 
13300 5.1068845011e+00 1.2561133586e-02 1.5310226273e+00 -2.6518089780e+00 1.5310226273e+00 2.6518089780e+00 
13400 5.1068465088e+00 1.2366114816e-02 1.5306124252e+00 -2.6510984872e+00 1.5306124252e+00 2.6510984872e+00 
13500 5.1068095107e+00 1.2174599869e-02 1.5302084833e+00 -2.6503988392e+00 1.5302084833e+00 2.6503988392e+00 
13600 5.1067734788e+00 1.1986568077e-02 1.5298106920e+00 -2.6497098445e+00 1.5298106920e+00 2.6497098445e+00 
13700 5.1067383863e+00 1.1801995031e-02 1.5294189423e+00 -2.6490313142e+00 1.5294189423e+00 2.6490313142e+00 
13800 5.1067042071e+00 1.1620852851e-02 1.5290331259e+00 -2.6483630605e+00 1.5290331259e+00 2.6483630605e+00 
13900 5.1066709161e+00 1.1443110446e-02 1.5286531351e+00 -2.6477048971e+00 1.5286531351e+00 2.6477048971e+00 
14000 5.1066384891e+00 1.1268733773e-02 1.5282788630e+00 -2.6470566389e+00 1.5282788630e+00 2.6470566389e+00 
14100 5.1066069025e+00 1.1097686072e-02 1.5279102038e+00 -2.6464181025e+00 1.5279102038e+00 2.6464181025e+00 
14200 5.1065761338e+00 1.0929928099e-02 1.5275470527e+00 -2.6457891063e+00 1.5275470527e+00 2.6457891063e+00 
14300 5.1065461608e+00 1.0765418351e-02 1.5271893059e+00 -2.6451694706e+00 1.5271893059e+00 2.6451694706e+00 
14400 5.1065169624e+00 1.0604113274e-02 1.5268368609e+00 -2.6445590180e+00 1.5268368609e+00 2.6445590180e+00 
14500 5.1064885179e+00 1.0445967470e-02 1.5264896165e+00 -2.6439575730e+00 1.5264896165e+00 2.6439575730e+00 
14600 5.1064608074e+00 1.0290933886e-02 1.5261474728e+00 -2.6433649627e+00 1.5261474728e+00 2.6433649627e+00 
14700 5.1064338116e+00 1.0138964004e-02 1.5258103312e+00 -2.6427810164e+00 1.5258103312e+00 2.6427810164e+00 
14800 5.1064075115e+00 9.9900080113e-03 1.5254780948e+00 -2.6422055660e+00 1.5254780948e+00 2.6422055660e+00 
14900 5.1063818891e+00 9.8440149697e-03 1.5251506679e+00 -2.6416384460e+00 1.5251506679e+00 2.6416384460e+00 
15000 5.1063569266e+00 9.7009329749e-03 1.5248279566e+00 -2.6410794936e+00 1.5248279566e+00 2.6410794936e+00 
15100 5.1063326068e+00 9.5607093062e-03 1.5245098684e+00 -2.6405285487e+00 1.5245098684e+00 2.6405285487e+00 
15200 5.1063089130e+00 9.4232905687e-03 1.5241963125e+00 -2.6399854539e+00 1.5241963125e+00 2.6399854539e+00 
15300 5.1062858290e+00 9.2886228283e-03 1.5238871997e+00 -2.6394500548e+00 1.5238871997e+00 2.6394500548e+00 
15400 5.1062633390e+00 9.1566517392e-03 1.5235824424e+00 -2.6389221998e+00 1.5235824424e+00 2.6389221998e+00 
15500 5.1062414276e+00 9.0273226635e-03 1.5232819549e+00 -2.6384017401e+00 1.5232819549e+00 2.6384017401e+00 
15600 5.1062200799e+00 8.9005807839e-03 1.5229856529e+00 -2.6378885300e+00 1.5229856529e+00 2.6378885300e+00 
15700 5.1061992813e+00 8.7763712106e-03 1.5226934539e+00 -2.6373824266e+00 1.5226934539e+00 2.6373824266e+00 
15800 5.1061790177e+00 8.6546390800e-03 1.5224052773e+00 -2.6368832900e+00 1.5224052773e+00 2.6368832900e+00 
15900 5.1061592753e+00 8.5353296484e-03 1.5221210438e+00 -2.6363909832e+00 1.5221210438e+00 2.6363909832e+00 
16000 5.1061400405e+00 8.4183883784e-03 1.5218406763e+00 -2.6359053723e+00 1.5218406763e+00 2.6359053723e+00 
16100 5.1061213005e+00 8.3037610207e-03 1.5215640989e+00 -2.6354263263e+00 1.5215640989e+00 2.6354263263e+00 
16200 5.1061030423e+00 8.1913936888e-03 1.5212912378e+00 -2.6349537170e+00 1.5212912378e+00 2.6349537170e+00 
16300 5.1060852535e+00 8.0812329294e-03 1.5210220207e+00 -2.6344874194e+00 1.5210220207e+00 2.6344874194e+00 
16400 5.1060679221e+00 7.9732257868e-03 1.5207563771e+00 -2.6340273110e+00 1.5207563771e+00 2.6340273110e+00 
16500 5.1060510362e+00 7.8673198623e-03 1.5204942379e+00 -2.6335732726e+00 1.5204942379e+00 2.6335732726e+00 
16600 5.1060345843e+00 7.7634633692e-03 1.5202355359e+00 -2.6331251877e+00 1.5202355359e+00 2.6331251877e+00 
16700 5.1060185552e+00 7.6616051826e-03 1.5199802056e+00 -2.6326829425e+00 1.5199802056e+00 2.6326829425e+00 
16800 5.1060029378e+00 7.5616948855e-03 1.5197281828e+00 -2.6322464262e+00 1.5197281828e+00 2.6322464262e+00 
16900 5.1059877217e+00 7.4636828093e-03 1.5194794051e+00 -2.6318155307e+00 1.5194794051e+00 2.6318155307e+00 
17000 5.1059728962e+00 7.3675200720e-03 1.5192338117e+00 -2.6313901504e+00 1.5192338117e+00 2.6313901504e+00 
17100 5.1059584514e+00 7.2731586109e-03 1.5189913433e+00 -2.6309701828e+00 1.5189913433e+00 2.6309701828e+00 
17200 5.1059443772e+00 7.1805512129e-03 1.5187519421e+00 -2.6305555278e+00 1.5187519421e+00 2.6305555278e+00 
17300 5.1059306641e+00 7.0896515403e-03 1.5185155518e+00 -2.6301460877e+00 1.5185155518e+00 2.6301460877e+00 
17400 5.1059173026e+00 7.0004141540e-03 1.5182821175e+00 -2.6297417678e+00 1.5182821175e+00 2.6297417678e+00 
17500 5.1059042836e+00 6.9127945327e-03 1.5180515861e+00 -2.6293424756e+00 1.5180515861e+00 2.6293424756e+00 
17600 5.1058915980e+00 6.8267490904e-03 1.5178239053e+00 -2.6289481210e+00 1.5178239053e+00 2.6289481210e+00 
17700 5.1058792373e+00 6.7422351896e-03 1.5175990248e+00 -2.6285586165e+00 1.5175990248e+00 2.6285586165e+00 
17800 5.1058671928e+00 6.6592111525e-03 1.5173768953e+00 -2.6281738769e+00 1.5173768953e+00 2.6281738769e+00 
17900 5.1058554563e+00 6.5776362702e-03 1.5171574689e+00 -2.6277938192e+00 1.5171574689e+00 2.6277938192e+00 
18000 5.1058440198e+00 6.4974708083e-03 1.5169406991e+00 -2.6274183629e+00 1.5169406991e+00 2.6274183629e+00 
18100 5.1058328753e+00 6.4186760114e-03 1.5167265405e+00 -2.6270474293e+00 1.5167265405e+00 2.6270474293e+00 
18200 5.1058220152e+00 6.3412141046e-03 1.5165149490e+00 -2.6266809422e+00 1.5165149490e+00 2.6266809422e+00 
18300 5.1058114320e+00 6.2650482935e-03 1.5163058819e+00 -2.6263188273e+00 1.5163058819e+00 2.6263188273e+00 
18400 5.1058011184e+00 6.1901427626e-03 1.5160992974e+00 -2.6259610124e+00 1.5160992974e+00 2.6259610124e+00 
18500 5.1057910674e+00 6.1164626710e-03 1.5158951550e+00 -2.6256074274e+00 1.5158951550e+00 2.6256074274e+00 
18600 5.1057812721e+00 6.0439741479e-03 1.5156934152e+00 -2.6252580038e+00 1.5156934152e+00 2.6252580038e+00 
18700 5.1057717256e+00 5.9726442849e-03 1.5154940397e+00 -2.6249126754e+00 1.5154940397e+00 2.6249126754e+00 
18800 5.1057624215e+00 5.9024411286e-03 1.5152969913e+00 -2.6245713775e+00 1.5152969913e+00 2.6245713775e+00 
18900 5.1057533533e+00 5.8333336709e-03 1.5151022336e+00 -2.6242340473e+00 1.5151022336e+00 2.6242340473e+00 
19000 5.1057445149e+00 5.7652918382e-03 1.5149097314e+00 -2.6239006237e+00 1.5149097314e+00 2.6239006237e+00 
19100 5.1057359003e+00 5.6982864798e-03 1.5147194504e+00 -2.6235710473e+00 1.5147194504e+00 2.6235710473e+00 
19200 5.1057275034e+00 5.6322893554e-03 1.5145313572e+00 -2.6232452603e+00 1.5145313572e+00 2.6232452603e+00 
19300 5.1057193186e+00 5.5672731212e-03 1.5143454194e+00 -2.6229232065e+00 1.5143454194e+00 2.6229232065e+00 
19400 5.1057113404e+00 5.5032113155e-03 1.5141616053e+00 -2.6226048312e+00 1.5141616053e+00 2.6226048312e+00 
19500 5.1057035632e+00 5.4400783437e-03 1.5139798842e+00 -2.6222900811e+00 1.5139798842e+00 2.6222900811e+00 
19600 5.1056959818e+00 5.3778494626e-03 1.5138002262e+00 -2.6219789044e+00 1.5138002262e+00 2.6219789044e+00 
19700 5.1056885911e+00 5.3165007636e-03 1.5136226023e+00 -2.6216712506e+00 1.5136226023e+00 2.6216712506e+00 
19800 5.1056813860e+00 5.2560091559e-03 1.5134469839e+00 -2.6213670707e+00 1.5134469839e+00 2.6213670707e+00 
19900 5.1056743617e+00 5.1963523495e-03 1.5132733436e+00 -2.6210663168e+00 1.5132733436e+00 2.6210663168e+00 
20000 5.1056675135e+00 5.1375088371e-03 1.5131016544e+00 -2.6207689424e+00 1.5131016544e+00 2.6207689424e+00 
20100 5.1056608366e+00 5.0794578760e-03 1.5129318901e+00 -2.6204749020e+00 1.5129318901e+00 2.6204749020e+00 
20200 5.1056543268e+00 5.0221794699e-03 1.5127640252e+00 -2.6201841514e+00 1.5127640252e+00 2.6201841514e+00 
20300 5.1056479795e+00 4.9656543503e-03 1.5125980347e+00 -2.6198966476e+00 1.5125980347e+00 2.6198966476e+00 
20400 5.1056417906e+00 4.9098639576e-03 1.5124338945e+00 -2.6196123483e+00 1.5124338945e+00 2.6196123483e+00 
20500 5.1056357559e+00 4.8547904227e-03 1.5122715807e+00 -2.6193312126e+00 1.5122715807e+00 2.6193312126e+00 
20600 5.1056298714e+00 4.8004165475e-03 1.5121110704e+00 -2.6190532006e+00 1.5121110704e+00 2.6190532006e+00 
20700 5.1056241332e+00 4.7467257862e-03 1.5119523409e+00 -2.6187782730e+00 1.5119523409e+00 2.6187782730e+00 
20800 5.1056185376e+00 4.6937022267e-03 1.5117953702e+00 -2.6185063918e+00 1.5117953702e+00 2.6185063918e+00 
20900 5.1056130807e+00 4.6413305709e-03 1.5116401368e+00 -2.6182375197e+00 1.5116401368e+00 2.6182375197e+00 
21000 5.1056077591e+00 4.5895961166e-03 1.5114866197e+00 -2.6179716203e+00 1.5114866197e+00 2.6179716203e+00 
21100 5.1056025692e+00 4.5384847384e-03 1.5113347984e+00 -2.6177086580e+00 1.5113347984e+00 2.6177086580e+00 
21200 5.1055975077e+00 4.4879828693e-03 1.5111846526e+00 -2.6174485980e+00 1.5111846526e+00 2.6174485980e+00 
21300 5.1055925711e+00 4.4380774820e-03 1.5110361629e+00 -2.6171914061e+00 1.5110361629e+00 2.6171914061e+00 
21400 5.1055877564e+00 4.3887560710e-03 1.5108893098e+00 -2.6169370492e+00 1.5108893098e+00 2.6169370492e+00 
21500 5.1055830604e+00 4.3400066346e-03 1.5107440746e+00 -2.6166854945e+00 1.5107440746e+00 2.6166854945e+00 
21600 5.1055784800e+00 4.2918176566e-03 1.5106004388e+00 -2.6164367100e+00 1.5106004388e+00 2.6164367100e+00 
21700 5.1055740123e+00 4.2441780896e-03 1.5104583844e+00 -2.6161906645e+00 1.5104583844e+00 2.6161906645e+00 
21800 5.1055696545e+00 4.1970773369e-03 1.5103178935e+00 -2.6159473272e+00 1.5103178935e+00 2.6159473272e+00 
21900 5.1055654036e+00 4.1505052361e-03 1.5101789488e+00 -2.6157066679e+00 1.5101789488e+00 2.6157066679e+00 
22000 5.1055612570e+00 4.1044520425e-03 1.5100415333e+00 -2.6154686571e+00 1.5100415333e+00 2.6154686571e+00 
22100 5.1055572121e+00 4.0589084124e-03 1.5099056300e+00 -2.6152332658e+00 1.5099056300e+00 2.6152332658e+00 
22200 5.1055532662e+00 4.0138653870e-03 1.5097712227e+00 -2.6150004655e+00 1.5097712227e+00 2.6150004655e+00 
22300 5.1055494168e+00 3.9693143775e-03 1.5096382950e+00 -2.6147702281e+00 1.5096382950e+00 2.6147702281e+00 
22400 5.1055456616e+00 3.9252471488e-03 1.5095068312e+00 -2.6145425260e+00 1.5095068312e+00 2.6145425260e+00 
22500 5.1055419981e+00 3.8816558052e-03 1.5093768155e+00 -2.6143173323e+00 1.5093768155e+00 2.6143173323e+00 
22600 5.1055384241e+00 3.8385327756e-03 1.5092482326e+00 -2.6140946202e+00 1.5092482326e+00 2.6140946202e+00 
22700 5.1055349372e+00 3.7958707991e-03 1.5091210674e+00 -2.6138743635e+00 1.5091210674e+00 2.6138743635e+00 
22800 5.1055315352e+00 3.7536629113e-03 1.5089953048e+00 -2.6136565364e+00 1.5089953048e+00 2.6136565364e+00 
22900 5.1055282162e+00 3.7119024308e-03 1.5088709303e+00 -2.6134411134e+00 1.5088709303e+00 2.6134411134e+00 
23000 5.1055249779e+00 3.6705829461e-03 1.5087479293e+00 -2.6132280694e+00 1.5087479293e+00 2.6132280694e+00 
23100 5.1055218184e+00 3.6296983028e-03 1.5086262876e+00 -2.6130173798e+00 1.5086262876e+00 2.6130173798e+00 
23200 5.1055187356e+00 3.5892425909e-03 1.5085059911e+00 -2.6128090201e+00 1.5085059911e+00 2.6128090201e+00 
23300 5.1055157278e+00 3.5492101337e-03 1.5083870259e+00 -2.6126029663e+00 1.5083870259e+00 2.6126029663e+00 
23400 5.1055127929e+00 3.5095954751e-03 1.5082693782e+00 -2.6123991946e+00 1.5082693782e+00 2.6123991946e+00 
23500 5.1055099293e+00 3.4703933693e-03 1.5081530346e+00 -2.6121976815e+00 1.5081530346e+00 2.6121976815e+00 
23600 5.1055071351e+00 3.4315987692e-03 1.5080379816e+00 -2.6119984039e+00 1.5080379816e+00 2.6119984039e+00 
23700 5.1055044086e+00 3.3932068165e-03 1.5079242061e+00 -2.6118013390e+00 1.5079242061e+00 2.6118013390e+00 
23800 5.1055017481e+00 3.3552128311e-03 1.5078116950e+00 -2.6116064640e+00 1.5078116950e+00 2.6116064640e+00 
23900 5.1054991520e+00 3.3176123018e-03 1.5077004354e+00 -2.6114137567e+00 1.5077004354e+00 2.6114137567e+00 
24000 5.1054966188e+00 3.2804008763e-03 1.5075904145e+00 -2.6112231948e+00 1.5075904145e+00 2.6112231948e+00 
24100 5.1054941468e+00 3.2435743527e-03 1.5074816196e+00 -2.6110347566e+00 1.5074816196e+00 2.6110347566e+00 
24200 5.1054917346e+00 3.2071286707e-03 1.5073740383e+00 -2.6108484204e+00 1.5073740383e+00 2.6108484204e+00 
24300 5.1054893806e+00 3.1710599028e-03 1.5072676583e+00 -2.6106641647e+00 1.5072676583e+00 2.6106641647e+00 
24400 5.1054870836e+00 3.1353642469e-03 1.5071624672e+00 -2.6104819684e+00 1.5071624672e+00 2.6104819684e+00 
24500 5.1054848419e+00 3.1000380181e-03 1.5070584529e+00 -2.6103018104e+00 1.5070584529e+00 2.6103018104e+00 
24600 5.1054826544e+00 3.0650776418e-03 1.5069556034e+00 -2.6101236699e+00 1.5069556034e+00 2.6101236699e+00 
24700 5.1054805196e+00 3.0304796463e-03 1.5068539069e+00 -2.6099475264e+00 1.5068539069e+00 2.6099475264e+00 
24800 5.1054784363e+00 2.9962406560e-03 1.5067533515e+00 -2.6097733593e+00 1.5067533515e+00 2.6097733593e+00 
24900 5.1054764033e+00 2.9623573854e-03 1.5066539256e+00 -2.6096011485e+00 1.5066539256e+00 2.6096011485e+00 
25000 5.1054744192e+00 2.9288266326e-03 1.5065556175e+00 -2.6094308739e+00 1.5065556175e+00 2.6094308739e+00 
25100 5.1054724829e+00 2.8956452737e-03 1.5064584158e+00 -2.6092625156e+00 1.5064584158e+00 2.6092625156e+00 
25200 5.1054705933e+00 2.8628102569e-03 1.5063623091e+00 -2.6090960540e+00 1.5063623091e+00 2.6090960540e+00 
25300 5.1054687491e+00 2.8303185978e-03 1.5062672861e+00 -2.6089314694e+00 1.5062672861e+00 2.6089314694e+00 
25400 5.1054669494e+00 2.7981673736e-03 1.5061733357e+00 -2.6087687425e+00 1.5061733357e+00 2.6087687425e+00 
25500 5.1054651929e+00 2.7663537192e-03 1.5060804467e+00 -2.6086078540e+00 1.5060804467e+00 2.6086078540e+00 
25600 5.1054634787e+00 2.7348748221e-03 1.5059886081e+00 -2.6084487849e+00 1.5059886081e+00 2.6084487849e+00 
25700 5.1054618058e+00 2.7037279182e-03 1.5058978091e+00 -2.6082915163e+00 1.5058978091e+00 2.6082915163e+00 
25800 5.1054601730e+00 2.6729102883e-03 1.5058080387e+00 -2.6081360294e+00 1.5058080387e+00 2.6081360294e+00 
25900 5.1054585795e+00 2.6424192537e-03 1.5057192862e+00 -2.6079823056e+00 1.5057192862e+00 2.6079823056e+00 
26000 5.1054570243e+00 2.6122521729e-03 1.5056315410e+00 -2.6078303264e+00 1.5056315410e+00 2.6078303264e+00 
26100 5.1054555065e+00 2.5824064383e-03 1.5055447924e+00 -2.6076800735e+00 1.5055447924e+00 2.6076800735e+00 
26200 5.1054540251e+00 2.5528794732e-03 1.5054590300e+00 -2.6075315287e+00 1.5054590300e+00 2.6075315287e+00 
26300 5.1054525793e+00 2.5236687283e-03 1.5053742434e+00 -2.6073846740e+00 1.5053742434e+00 2.6073846740e+00 
26400 5.1054511682e+00 2.4947716798e-03 1.5052904222e+00 -2.6072394914e+00 1.5052904222e+00 2.6072394914e+00 
26500 5.1054497911e+00 2.4661858261e-03 1.5052075562e+00 -2.6070959633e+00 1.5052075562e+00 2.6070959633e+00 
26600 5.1054484469e+00 2.4379086859e-03 1.5051256352e+00 -2.6069540719e+00 1.5051256352e+00 2.6069540719e+00 
26700 5.1054471351e+00 2.4099377957e-03 1.5050446490e+00 -2.6068137997e+00 1.5050446490e+00 2.6068137997e+00 
26800 5.1054458547e+00 2.3822707081e-03 1.5049645877e+00 -2.6066751295e+00 1.5049645877e+00 2.6066751295e+00 
26900 5.1054446050e+00 2.3549049896e-03 1.5048854413e+00 -2.6065380439e+00 1.5048854413e+00 2.6065380439e+00 
27000 5.1054433853e+00 2.3278382189e-03 1.5048072000e+00 -2.6064025260e+00 1.5048072000e+00 2.6064025260e+00 
27100 5.1054421949e+00 2.3010679857e-03 1.5047298539e+00 -2.6062685587e+00 1.5047298539e+00 2.6062685587e+00 
27200 5.1054410330e+00 2.2745918889e-03 1.5046533934e+00 -2.6061361252e+00 1.5046533934e+00 2.6061361252e+00 
27300 5.1054398990e+00 2.2484075354e-03 1.5045778088e+00 -2.6060052088e+00 1.5045778088e+00 2.6060052088e+00 
27400 5.1054387922e+00 2.2225125388e-03 1.5045030905e+00 -2.6058757930e+00 1.5045030905e+00 2.6058757930e+00 
27500 5.1054377119e+00 2.1969045186e-03 1.5044292291e+00 -2.6057478612e+00 1.5044292291e+00 2.6057478612e+00 
27600 5.1054366575e+00 2.1715810991e-03 1.5043562152e+00 -2.6056213974e+00 1.5043562152e+00 2.6056213974e+00 
27700 5.1054356284e+00 2.1465399086e-03 1.5042840393e+00 -2.6054963851e+00 1.5042840393e+00 2.6054963851e+00 
27800 5.1054346239e+00 2.1217785786e-03 1.5042126923e+00 -2.6053728085e+00 1.5042126923e+00 2.6053728085e+00 
27900 5.1054336436e+00 2.0972947434e-03 1.5041421650e+00 -2.6052506516e+00 1.5041421650e+00 2.6052506516e+00 
28000 5.1054326867e+00 2.0730860391e-03 1.5040724482e+00 -2.6051298986e+00 1.5040724482e+00 2.6051298986e+00 
28100 5.1054317527e+00 2.0491501037e-03 1.5040035330e+00 -2.6050105339e+00 1.5040035330e+00 2.6050105339e+00 
28200 5.1054308411e+00 2.0254845763e-03 1.5039354103e+00 -2.6048925420e+00 1.5039354103e+00 2.6048925420e+00 
28300 5.1054299514e+00 2.0020870973e-03 1.5038680714e+00 -2.6047759075e+00 1.5038680714e+00 2.6047759075e+00 
28400 5.1054290830e+00 1.9789553075e-03 1.5038015073e+00 -2.6046606151e+00 1.5038015073e+00 2.6046606151e+00 
28500 5.1054282354e+00 1.9560868484e-03 1.5037357093e+00 -2.6045466497e+00 1.5037357093e+00 2.6045466497e+00 
28600 5.1054274081e+00 1.9334793623e-03 1.5036706689e+00 -2.6044339963e+00 1.5036706689e+00 2.6044339963e+00 
28700 5.1054266006e+00 1.9111304917e-03 1.5036063773e+00 -2.6043226402e+00 1.5036063773e+00 2.6043226402e+00 
28800 5.1054258124e+00 1.8890378797e-03 1.5035428262e+00 -2.6042125664e+00 1.5035428262e+00 2.6042125664e+00 
28900 5.1054250432e+00 1.8671991703e-03 1.5034800071e+00 -2.6041037605e+00 1.5034800071e+00 2.6041037605e+00 
29000 5.1054242923e+00 1.8456120079e-03 1.5034179116e+00 -2.6039962080e+00 1.5034179116e+00 2.6039962080e+00 
29100 5.1054235594e+00 1.8242740380e-03 1.5033565315e+00 -2.6038898945e+00 1.5033565315e+00 2.6038898945e+00 
29200 5.1054228441e+00 1.8031829072e-03 1.5032958586e+00 -2.6037848058e+00 1.5032958586e+00 2.6037848058e+00 
29300 5.1054221460e+00 1.7823362637e-03 1.5032358846e+00 -2.6036809280e+00 1.5032358846e+00 2.6036809280e+00 
29400 5.1054214645e+00 1.7617317570e-03 1.5031766017e+00 -2.6035782469e+00 1.5031766017e+00 2.6035782469e+00 
29500 5.1054207994e+00 1.7413670390e-03 1.5031180018e+00 -2.6034767489e+00 1.5031180018e+00 2.6034767489e+00 
29600 5.1054201502e+00 1.7212397637e-03 1.5030600770e+00 -2.6033764202e+00 1.5030600770e+00 2.6033764202e+00 
29700 5.1054195165e+00 1.7013475880e-03 1.5030028195e+00 -2.6032772473e+00 1.5030028195e+00 2.6032772473e+00 
29800 5.1054188980e+00 1.6816881718e-03 1.5029462216e+00 -2.6031792168e+00 1.5029462216e+00 2.6031792168e+00 
29900 5.1054182944e+00 1.6622591785e-03 1.5028902756e+00 -2.6030823155e+00 1.5028902756e+00 2.6030823155e+00 
30000 5.1054177052e+00 1.6430582756e-03 1.5028349738e+00 -2.6029865300e+00 1.5028349738e+00 2.6029865300e+00 
30100 5.1054171301e+00 1.6240831349e-03 1.5027803089e+00 -2.6028918475e+00 1.5027803089e+00 2.6028918475e+00 
30200 5.1054165688e+00 1.6053314332e-03 1.5027262732e+00 -2.6027982551e+00 1.5027262732e+00 2.6027982551e+00 
30300 5.1054160209e+00 1.5868008524e-03 1.5026728596e+00 -2.6027057399e+00 1.5026728596e+00 2.6027057399e+00 
30400 5.1054154862e+00 1.5684890805e-03 1.5026200606e+00 -2.6026142895e+00 1.5026200606e+00 2.6026142895e+00 
30500 5.1054149643e+00 1.5503938115e-03 1.5025678691e+00 -2.6025238911e+00 1.5025678691e+00 2.6025238911e+00 
30600 5.1054144549e+00 1.5325127465e-03 1.5025162779e+00 -2.6024345326e+00 1.5025162779e+00 2.6024345326e+00 
30700 5.1054139577e+00 1.5148435937e-03 1.5024652800e+00 -2.6023462016e+00 1.5024652800e+00 2.6023462016e+00 
30800 5.1054134724e+00 1.4973840690e-03 1.5024148684e+00 -2.6022588860e+00 1.5024148684e+00 2.6022588860e+00 
30900 5.1054129987e+00 1.4801318967e-03 1.5023650361e+00 -2.6021725740e+00 1.5023650361e+00 2.6021725740e+00 
31000 5.1054125364e+00 1.4630848099e-03 1.5023157763e+00 -2.6020872535e+00 1.5023157763e+00 2.6020872535e+00 
31100 5.1054120852e+00 1.4462405507e-03 1.5022670822e+00 -2.6020029129e+00 1.5022670822e+00 2.6020029129e+00 
31200 5.1054116448e+00 1.4295968711e-03 1.5022189472e+00 -2.6019195406e+00 1.5022189472e+00 2.6019195406e+00 
31300 5.1054112150e+00 1.4131515333e-03 1.5021713646e+00 -2.6018371252e+00 1.5021713646e+00 2.6018371252e+00 
31400 5.1054107954e+00 1.3969023103e-03 1.5021243279e+00 -2.6017556552e+00 1.5021243279e+00 2.6017556552e+00 
31500 5.1054103860e+00 1.3808469860e-03 1.5020778306e+00 -2.6016751195e+00 1.5020778306e+00 2.6016751195e+00 
31600 5.1054099863e+00 1.3649833559e-03 1.5020318662e+00 -2.6015955069e+00 1.5020318662e+00 2.6015955069e+00 
31700 5.1054095963e+00 1.3493092279e-03 1.5019864286e+00 -2.6015168066e+00 1.5019864286e+00 2.6015168066e+00 
31800 5.1054092156e+00 1.3338224219e-03 1.5019415113e+00 -2.6014390076e+00 1.5019415113e+00 2.6014390076e+00 
31900 5.1054088440e+00 1.3185207711e-03 1.5018971083e+00 -2.6013620992e+00 1.5018971083e+00 2.6013620992e+00 
32000 5.1054084814e+00 1.3034021219e-03 1.5018532133e+00 -2.6012860709e+00 1.5018532133e+00 2.6012860709e+00 
32100 5.1054081275e+00 1.2884643343e-03 1.5018098204e+00 -2.6012109122e+00 1.5018098204e+00 2.6012109122e+00 
32200 5.1054077821e+00 1.2737052827e-03 1.5017669235e+00 -2.6011366127e+00 1.5017669235e+00 2.6011366127e+00 
32300 5.1054074449e+00 1.2591228558e-03 1.5017245168e+00 -2.6010631621e+00 1.5017245168e+00 2.6010631621e+00 
32400 5.1054071159e+00 1.2447149572e-03 1.5016825945e+00 -2.6009905505e+00 1.5016825945e+00 2.6009905505e+00 
32500 5.1054067948e+00 1.2304795058e-03 1.5016411507e+00 -2.6009187677e+00 1.5016411507e+00 2.6009187677e+00 
32600 5.1054064814e+00 1.2164144360e-03 1.5016001797e+00 -2.6008478039e+00 1.5016001797e+00 2.6008478039e+00 
32700 5.1054061755e+00 1.2025176980e-03 1.5015596759e+00 -2.6007776493e+00 1.5015596759e+00 2.6007776493e+00 
32800 5.1054058770e+00 1.1887872584e-03 1.5015196338e+00 -2.6007082943e+00 1.5015196338e+00 2.6007082943e+00 
32900 5.1054055857e+00 1.1752211001e-03 1.5014800479e+00 -2.6006397294e+00 1.5014800479e+00 2.6006397294e+00 
33000 5.1054053013e+00 1.1618172230e-03 1.5014409126e+00 -2.6005719452e+00 1.5014409126e+00 2.6005719452e+00 
33100 5.1054050239e+00 1.1485736438e-03 1.5014022227e+00 -2.6005049323e+00 1.5014022227e+00 2.6005049323e+00 
33200 5.1054047531e+00 1.1354883965e-03 1.5013639728e+00 -2.6004386816e+00 1.5013639728e+00 2.6004386816e+00 
33300 5.1054044888e+00 1.1225595328e-03 1.5013261578e+00 -2.6003731840e+00 1.5013261578e+00 2.6003731840e+00 
33400 5.1054042309e+00 1.1097851220e-03 1.5012887723e+00 -2.6003084305e+00 1.5012887723e+00 2.6003084305e+00 
33500 5.1054039792e+00 1.0971632514e-03 1.5012518114e+00 -2.6002444123e+00 1.5012518114e+00 2.6002444123e+00 
33600 5.1054037336e+00 1.0846920265e-03 1.5012152699e+00 -2.6001811206e+00 1.5012152699e+00 2.6001811206e+00 
33700 5.1054034938e+00 1.0723695710e-03 1.5011791429e+00 -2.6001185468e+00 1.5011791429e+00 2.6001185468e+00 
33800 5.1054032599e+00 1.0601940271e-03 1.5011434255e+00 -2.6000566824e+00 1.5011434255e+00 2.6000566824e+00 
33900 5.1054030316e+00 1.0481635557e-03 1.5011081128e+00 -2.5999955189e+00 1.5011081128e+00 2.5999955189e+00 
34000 5.1054028088e+00 1.0362763365e-03 1.5010731999e+00 -2.5999350481e+00 1.5010731999e+00 2.5999350481e+00 
34100 5.1054025914e+00 1.0245305679e-03 1.5010386822e+00 -2.5998752617e+00 1.5010386822e+00 2.5998752617e+00 
34200 5.1054023793e+00 1.0129244674e-03 1.5010045549e+00 -2.5998161515e+00 1.5010045549e+00 2.5998161515e+00 
34300 5.1054021723e+00 1.0014562717e-03 1.5009708135e+00 -2.5997577097e+00 1.5009708135e+00 2.5997577097e+00 
34400 5.1054019703e+00 9.9012423648e-04 1.5009374533e+00 -2.5996999282e+00 1.5009374533e+00 2.5996999282e+00 
34500 5.1054017731e+00 9.7892663669e-04 1.5009044699e+00 -2.5996427992e+00 1.5009044699e+00 2.5996427992e+00 
34600 5.1054015807e+00 9.6786176660e-04 1.5008718588e+00 -2.5995863151e+00 1.5008718588e+00 2.5995863151e+00 
34700 5.1054013930e+00 9.5692793977e-04 1.5008396156e+00 -2.5995304683e+00 1.5008396156e+00 2.5995304683e+00 
34800 5.1054012099e+00 9.4612348913e-04 1.5008077360e+00 -2.5994752511e+00 1.5008077360e+00 2.5994752511e+00 
34900 5.1054010311e+00 9.3544676695e-04 1.5007762156e+00 -2.5994206562e+00 1.5007762156e+00 2.5994206562e+00 
35000 5.1054008567e+00 9.2489614491e-04 1.5007450503e+00 -2.5993666763e+00 1.5007450503e+00 2.5993666763e+00 
35100 5.1054006865e+00 9.1447001401e-04 1.5007142358e+00 -2.5993133041e+00 1.5007142358e+00 2.5993133041e+00 
35200 5.1054005205e+00 9.0416678463e-04 1.5006837681e+00 -2.5992605325e+00 1.5006837681e+00 2.5992605325e+00 
35300 5.1054003584e+00 8.9398488644e-04 1.5006536430e+00 -2.5992083543e+00 1.5006536430e+00 2.5992083543e+00 
35400 5.1054002004e+00 8.8392276843e-04 1.5006238566e+00 -2.5991567627e+00 1.5006238566e+00 2.5991567627e+00 
35500 5.1054000461e+00 8.7397889878e-04 1.5005944049e+00 -2.5991057508e+00 1.5005944049e+00 2.5991057508e+00 
35600 5.1053998956e+00 8.6415176488e-04 1.5005652839e+00 -2.5990553118e+00 1.5005652839e+00 2.5990553118e+00 
35700 5.1053997487e+00 8.5443987320e-04 1.5005364898e+00 -2.5990054389e+00 1.5005364898e+00 2.5990054389e+00 
35800 5.1053996054e+00 8.4484174926e-04 1.5005080187e+00 -2.5989561256e+00 1.5005080187e+00 2.5989561256e+00 
35900 5.1053994656e+00 8.3535593752e-04 1.5004798669e+00 -2.5989073653e+00 1.5004798669e+00 2.5989073653e+00 
36000 5.1053993292e+00 8.2598100130e-04 1.5004520307e+00 -2.5988591516e+00 1.5004520307e+00 2.5988591516e+00 
36100 5.1053991962e+00 8.1671552266e-04 1.5004245064e+00 -2.5988114780e+00 1.5004245064e+00 2.5988114780e+00 
36200 5.1053990663e+00 8.0755810231e-04 1.5003972903e+00 -2.5987643384e+00 1.5003972903e+00 2.5987643384e+00 
36300 5.1053989397e+00 7.9850735950e-04 1.5003703790e+00 -2.5987177265e+00 1.5003703790e+00 2.5987177265e+00 
36400 5.1053988161e+00 7.8956193188e-04 1.5003437687e+00 -2.5986716362e+00 1.5003437687e+00 2.5986716362e+00 
36500 5.1053986955e+00 7.8072047536e-04 1.5003174561e+00 -2.5986260614e+00 1.5003174561e+00 2.5986260614e+00 
36600 5.1053985779e+00 7.7198166403e-04 1.5002914376e+00 -2.5985809961e+00 1.5002914376e+00 2.5985809961e+00 
36700 5.1053984631e+00 7.6334418994e-04 1.5002657100e+00 -2.5985364345e+00 1.5002657100e+00 2.5985364345e+00 
36800 5.1053983512e+00 7.5480676301e-04 1.5002402698e+00 -2.5984923708e+00 1.5002402698e+00 2.5984923708e+00 
36900 5.1053982420e+00 7.4636811088e-04 1.5002151136e+00 -2.5984487991e+00 1.5002151136e+00 2.5984487991e+00 
37000 5.1053981354e+00 7.3802697872e-04 1.5001902383e+00 -2.5984057138e+00 1.5001902383e+00 2.5984057138e+00 
37100 5.1053980315e+00 7.2978212906e-04 1.5001656406e+00 -2.5983631093e+00 1.5001656406e+00 2.5983631093e+00 
37200 5.1053979301e+00 7.2163234169e-04 1.5001413173e+00 -2.5983209801e+00 1.5001413173e+00 2.5983209801e+00 
37300 5.1053978312e+00 7.1357641341e-04 1.5001172652e+00 -2.5982793207e+00 1.5001172652e+00 2.5982793207e+00 
37400 5.1053977348e+00 7.0561315793e-04 1.5000934813e+00 -2.5982381256e+00 1.5000934813e+00 2.5982381256e+00 
37500 5.1053976407e+00 6.9774140563e-04 1.5000699623e+00 -2.5981973897e+00 1.5000699623e+00 2.5981973897e+00 
37600 5.1053975489e+00 6.8996000341e-04 1.5000467054e+00 -2.5981571076e+00 1.5000467054e+00 2.5981571076e+00 
37700 5.1053974593e+00 6.8226781450e-04 1.5000237076e+00 -2.5981172740e+00 1.5000237076e+00 2.5981172740e+00 
37800 5.1053973720e+00 6.7466371830e-04 1.5000009657e+00 -2.5980778840e+00 1.5000009657e+00 2.5980778840e+00 
37900 5.1053972868e+00 6.6714661013e-04 1.4999784770e+00 -2.5980389324e+00 1.4999784770e+00 2.5980389324e+00 
38000 5.1053972037e+00 6.5971540110e-04 1.4999562385e+00 -2.5980004142e+00 1.4999562385e+00 2.5980004142e+00 
38100 5.1053971227e+00 6.5236901791e-04 1.4999342474e+00 -2.5979623245e+00 1.4999342474e+00 2.5979623245e+00 
38200 5.1053970436e+00 6.4510640262e-04 1.4999125009e+00 -2.5979246584e+00 1.4999125009e+00 2.5979246584e+00 
38300 5.1053969666e+00 6.3792651246e-04 1.4998909961e+00 -2.5978874111e+00 1.4998909961e+00 2.5978874111e+00 
38400 5.1053968914e+00 6.3082831969e-04 1.4998697304e+00 -2.5978505778e+00 1.4998697304e+00 2.5978505778e+00 
38500 5.1053968180e+00 6.2381081134e-04 1.4998487010e+00 -2.5978141538e+00 1.4998487010e+00 2.5978141538e+00 
38600 5.1053967465e+00 6.1687298903e-04 1.4998279053e+00 -2.5977781345e+00 1.4998279053e+00 2.5977781345e+00 
38700 5.1053966768e+00 6.1001386877e-04 1.4998073405e+00 -2.5977425154e+00 1.4998073405e+00 2.5977425154e+00 
38800 5.1053966088e+00 6.0323248077e-04 1.4997870042e+00 -2.5977072918e+00 1.4997870042e+00 2.5977072918e+00 
38900 5.1053965424e+00 5.9652786925e-04 1.4997668936e+00 -2.5976724592e+00 1.4997668936e+00 2.5976724592e+00 
39000 5.1053964777e+00 5.8989909220e-04 1.4997470063e+00 -2.5976380134e+00 1.4997470063e+00 2.5976380134e+00 
39100 5.1053964147e+00 5.8334522121e-04 1.4997273397e+00 -2.5976039499e+00 1.4997273397e+00 2.5976039499e+00 
39200 5.1053963532e+00 5.7686534129e-04 1.4997078914e+00 -2.5975702644e+00 1.4997078914e+00 2.5975702644e+00 
39300 5.1053962932e+00 5.7045855061e-04 1.4996886588e+00 -2.5975369526e+00 1.4996886588e+00 2.5975369526e+00 
39400 5.1053962347e+00 5.6412396036e-04 1.4996696396e+00 -2.5975040104e+00 1.4996696396e+00 2.5975040104e+00 
39500 5.1053961777e+00 5.5786069454e-04 1.4996508314e+00 -2.5974714336e+00 1.4996508314e+00 2.5974714336e+00 
39600 5.1053961220e+00 5.5166788973e-04 1.4996322318e+00 -2.5974392181e+00 1.4996322318e+00 2.5974392181e+00 
39700 5.1053960678e+00 5.4554469493e-04 1.4996138384e+00 -2.5974073598e+00 1.4996138384e+00 2.5974073598e+00 
39800 5.1053960150e+00 5.3949027137e-04 1.4995956489e+00 -2.5973758547e+00 1.4995956489e+00 2.5973758547e+00 
39900 5.1053959634e+00 5.3350379227e-04 1.4995776611e+00 -2.5973446989e+00 1.4995776611e+00 2.5973446989e+00 
40000 5.1053959132e+00 5.2758444271e-04 1.4995598726e+00 -2.5973138884e+00 1.4995598726e+00 2.5973138884e+00 
40100 5.1053958642e+00 5.2173141939e-04 1.4995422814e+00 -2.5972834194e+00 1.4995422814e+00 2.5972834194e+00 
40200 5.1053958164e+00 5.1594393047e-04 1.4995248850e+00 -2.5972532881e+00 1.4995248850e+00 2.5972532881e+00 
40300 5.1053957698e+00 5.1022119537e-04 1.4995076815e+00 -2.5972234907e+00 1.4995076815e+00 2.5972234907e+00 
40400 5.1053957244e+00 5.0456244459e-04 1.4994906686e+00 -2.5971940234e+00 1.4994906686e+00 2.5971940234e+00 
40500 5.1053956802e+00 4.9896691952e-04 1.4994738441e+00 -2.5971648827e+00 1.4994738441e+00 2.5971648827e+00 
40600 5.1053956370e+00 4.9343387226e-04 1.4994572061e+00 -2.5971360647e+00 1.4994572061e+00 2.5971360647e+00 
40700 5.1053955950e+00 4.8796256546e-04 1.4994407524e+00 -2.5971075661e+00 1.4994407524e+00 2.5971075661e+00 
40800 5.1053955540e+00 4.8255227211e-04 1.4994244809e+00 -2.5970793831e+00 1.4994244809e+00 2.5970793831e+00 
40900 5.1053955140e+00 4.7720227538e-04 1.4994083897e+00 -2.5970515123e+00 1.4994083897e+00 2.5970515123e+00 
41000 5.1053954751e+00 4.7191186846e-04 1.4993924767e+00 -2.5970239502e+00 1.4993924767e+00 2.5970239502e+00 
41100 5.1053954371e+00 4.6668035436e-04 1.4993767400e+00 -2.5969966933e+00 1.4993767400e+00 2.5969966933e+00 
41200 5.1053954001e+00 4.6150704577e-04 1.4993611775e+00 -2.5969697384e+00 1.4993611775e+00 2.5969697384e+00 
41300 5.1053953640e+00 4.5639126487e-04 1.4993457874e+00 -2.5969430819e+00 1.4993457874e+00 2.5969430819e+00 
41400 5.1053953289e+00 4.5133234319e-04 1.4993305678e+00 -2.5969167207e+00 1.4993305678e+00 2.5969167207e+00 
41500 5.1053952946e+00 4.4632962141e-04 1.4993155167e+00 -2.5968906514e+00 1.4993155167e+00 2.5968906514e+00 
41600 5.1053952612e+00 4.4138244926e-04 1.4993006322e+00 -2.5968648709e+00 1.4993006322e+00 2.5968648709e+00 
41700 5.1053952287e+00 4.3649018529e-04 1.4992859127e+00 -2.5968393758e+00 1.4992859127e+00 2.5968393758e+00 
41800 5.1053951970e+00 4.3165219679e-04 1.4992713561e+00 -2.5968141631e+00 1.4992713561e+00 2.5968141631e+00 
41900 5.1053951661e+00 4.2686785956e-04 1.4992569607e+00 -2.5967892295e+00 1.4992569607e+00 2.5967892295e+00 
42000 5.1053951360e+00 4.2213655784e-04 1.4992427247e+00 -2.5967645721e+00 1.4992427247e+00 2.5967645721e+00 
42100 5.1053951067e+00 4.1745768410e-04 1.4992286464e+00 -2.5967401878e+00 1.4992286464e+00 2.5967401878e+00 
42200 5.1053950781e+00 4.1283063894e-04 1.4992147240e+00 -2.5967160735e+00 1.4992147240e+00 2.5967160735e+00 
42300 5.1053950502e+00 4.0825483090e-04 1.4992009558e+00 -2.5966922263e+00 1.4992009558e+00 2.5966922263e+00 
42400 5.1053950231e+00 4.0372967637e-04 1.4991873401e+00 -2.5966686431e+00 1.4991873401e+00 2.5966686431e+00 
42500 5.1053949967e+00 3.9925459942e-04 1.4991738752e+00 -2.5966453212e+00 1.4991738752e+00 2.5966453212e+00 
42600 5.1053949709e+00 3.9482903168e-04 1.4991605594e+00 -2.5966222576e+00 1.4991605594e+00 2.5966222576e+00 
42700 5.1053949458e+00 3.9045241220e-04 1.4991473911e+00 -2.5965994494e+00 1.4991473911e+00 2.5965994494e+00 
42800 5.1053949214e+00 3.8612418734e-04 1.4991343686e+00 -2.5965768938e+00 1.4991343686e+00 2.5965768938e+00 
42900 5.1053948976e+00 3.8184381059e-04 1.4991214904e+00 -2.5965545881e+00 1.4991214904e+00 2.5965545881e+00 
43000 5.1053948744e+00 3.7761074251e-04 1.4991087548e+00 -2.5965325294e+00 1.4991087548e+00 2.5965325294e+00 
43100 5.1053948518e+00 3.7342445058e-04 1.4990961603e+00 -2.5965107151e+00 1.4990961603e+00 2.5965107151e+00 
43200 5.1053948298e+00 3.6928440907e-04 1.4990837054e+00 -2.5964891425e+00 1.4990837054e+00 2.5964891425e+00 
43300 5.1053948084e+00 3.6519009892e-04 1.4990713884e+00 -2.5964678088e+00 1.4990713884e+00 2.5964678088e+00 
43400 5.1053947875e+00 3.6114100767e-04 1.4990592078e+00 -2.5964467115e+00 1.4990592078e+00 2.5964467115e+00 
43500 5.1053947672e+00 3.5713662927e-04 1.4990471623e+00 -2.5964258480e+00 1.4990471623e+00 2.5964258480e+00 
43600 5.1053947474e+00 3.5317646405e-04 1.4990352502e+00 -2.5964052156e+00 1.4990352502e+00 2.5964052156e+00 
43700 5.1053947281e+00 3.4926001854e-04 1.4990234701e+00 -2.5963848119e+00 1.4990234701e+00 2.5963848119e+00 
43800 5.1053947094e+00 3.4538680544e-04 1.4990118205e+00 -2.5963646342e+00 1.4990118205e+00 2.5963646342e+00 
43900 5.1053946911e+00 3.4155634344e-04 1.4990003000e+00 -2.5963446802e+00 1.4990003000e+00 2.5963446802e+00 
44000 5.1053946733e+00 3.3776815717e-04 1.4989889072e+00 -2.5963249473e+00 1.4989889072e+00 2.5963249473e+00 
44100 5.1053946560e+00 3.3402177706e-04 1.4989776407e+00 -2.5963054331e+00 1.4989776407e+00 2.5963054331e+00 
44200 5.1053946391e+00 3.3031673931e-04 1.4989664991e+00 -2.5962861352e+00 1.4989664991e+00 2.5962861352e+00 
44300 5.1053946227e+00 3.2665258570e-04 1.4989554809e+00 -2.5962670513e+00 1.4989554809e+00 2.5962670513e+00 
44400 5.1053946067e+00 3.2302886360e-04 1.4989445849e+00 -2.5962481788e+00 1.4989445849e+00 2.5962481788e+00 
44500 5.1053945911e+00 3.1944512578e-04 1.4989338097e+00 -2.5962295157e+00 1.4989338097e+00 2.5962295157e+00 
44600 5.1053945760e+00 3.1590093039e-04 1.4989231540e+00 -2.5962110594e+00 1.4989231540e+00 2.5962110594e+00 
44700 5.1053945612e+00 3.1239584087e-04 1.4989126164e+00 -2.5961928078e+00 1.4989126164e+00 2.5961928078e+00 
44800 5.1053945469e+00 3.0892942581e-04 1.4989021957e+00 -2.5961747585e+00 1.4989021957e+00 2.5961747585e+00 
44900 5.1053945329e+00 3.0550125894e-04 1.4988918905e+00 -2.5961569094e+00 1.4988918905e+00 2.5961569094e+00 
45000 5.1053945193e+00 3.0211091897e-04 1.4988816996e+00 -2.5961392583e+00 1.4988816996e+00 2.5961392583e+00 
45100 5.1053945061e+00 2.9875798958e-04 1.4988716218e+00 -2.5961218029e+00 1.4988716218e+00 2.5961218029e+00 
45200 5.1053944932e+00 2.9544205933e-04 1.4988616557e+00 -2.5961045411e+00 1.4988616557e+00 2.5961045411e+00 
45300 5.1053944807e+00 2.9216272154e-04 1.4988518001e+00 -2.5960874708e+00 1.4988518001e+00 2.5960874708e+00 
45400 5.1053944685e+00 2.8891957425e-04 1.4988420539e+00 -2.5960705899e+00 1.4988420539e+00 2.5960705899e+00 
45500 5.1053944566e+00 2.8571222017e-04 1.4988324158e+00 -2.5960538963e+00 1.4988324158e+00 2.5960538963e+00 
45600 5.1053944451e+00 2.8254026654e-04 1.4988228847e+00 -2.5960373878e+00 1.4988228847e+00 2.5960373878e+00 
45700 5.1053944339e+00 2.7940332514e-04 1.4988134593e+00 -2.5960210626e+00 1.4988134593e+00 2.5960210626e+00 
45800 5.1053944230e+00 2.7630101218e-04 1.4988041385e+00 -2.5960049185e+00 1.4988041385e+00 2.5960049185e+00 
45900 5.1053944123e+00 2.7323294822e-04 1.4987949211e+00 -2.5959889535e+00 1.4987949211e+00 2.5959889535e+00 
46000 5.1053944020e+00 2.7019875814e-04 1.4987858060e+00 -2.5959731657e+00 1.4987858060e+00 2.5959731657e+00 
46100 5.1053943920e+00 2.6719807107e-04 1.4987767921e+00 -2.5959575532e+00 1.4987767921e+00 2.5959575532e+00 
46200 5.1053943822e+00 2.6423052031e-04 1.4987678783e+00 -2.5959421139e+00 1.4987678783e+00 2.5959421139e+00 
46300 5.1053943727e+00 2.6129574328e-04 1.4987590633e+00 -2.5959268460e+00 1.4987590633e+00 2.5959268460e+00 
46400 5.1053943635e+00 2.5839338148e-04 1.4987503463e+00 -2.5959117476e+00 1.4987503463e+00 2.5959117476e+00 
46500 5.1053943545e+00 2.5552308040e-04 1.4987417260e+00 -2.5958968168e+00 1.4987417260e+00 2.5958968168e+00 
46600 5.1053943457e+00 2.5268448949e-04 1.4987332014e+00 -2.5958820518e+00 1.4987332014e+00 2.5958820518e+00 
46700 5.1053943372e+00 2.4987726208e-04 1.4987247715e+00 -2.5958674508e+00 1.4987247715e+00 2.5958674508e+00 
46800 5.1053943290e+00 2.4710105535e-04 1.4987164352e+00 -2.5958530118e+00 1.4987164352e+00 2.5958530118e+00 
46900 5.1053943210e+00 2.4435553027e-04 1.4987081914e+00 -2.5958387333e+00 1.4987081914e+00 2.5958387333e+00 
47000 5.1053943132e+00 2.4164035156e-04 1.4987000392e+00 -2.5958246132e+00 1.4987000392e+00 2.5958246132e+00 
47100 5.1053943056e+00 2.3895518760e-04 1.4986919776e+00 -2.5958106500e+00 1.4986919776e+00 2.5958106500e+00 
47200 5.1053942982e+00 2.3629971044e-04 1.4986840054e+00 -2.5957968419e+00 1.4986840054e+00 2.5957968419e+00 
47300 5.1053942911e+00 2.3367359569e-04 1.4986761219e+00 -2.5957831872e+00 1.4986761219e+00 2.5957831872e+00 
47400 5.1053942841e+00 2.3107652254e-04 1.4986683259e+00 -2.5957696841e+00 1.4986683259e+00 2.5957696841e+00 
47500 5.1053942774e+00 2.2850817365e-04 1.4986606165e+00 -2.5957563311e+00 1.4986606165e+00 2.5957563311e+00 
47600 5.1053942708e+00 2.2596823514e-04 1.4986529928e+00 -2.5957431264e+00 1.4986529928e+00 2.5957431264e+00 
47700 5.1053942644e+00 2.2345639656e-04 1.4986454537e+00 -2.5957300684e+00 1.4986454537e+00 2.5957300684e+00 
47800 5.1053942582e+00 2.2097235081e-04 1.4986379984e+00 -2.5957171555e+00 1.4986379984e+00 2.5957171555e+00 
47900 5.1053942522e+00 2.1851579411e-04 1.4986306260e+00 -2.5957043860e+00 1.4986306260e+00 2.5957043860e+00 
48000 5.1053942464e+00 2.1608642598e-04 1.4986233355e+00 -2.5956917585e+00 1.4986233355e+00 2.5956917585e+00 
48100 5.1053942407e+00 2.1368394918e-04 1.4986161260e+00 -2.5956792713e+00 1.4986161260e+00 2.5956792713e+00 
48200 5.1053942352e+00 2.1130806967e-04 1.4986089966e+00 -2.5956669229e+00 1.4986089966e+00 2.5956669229e+00 
48300 5.1053942299e+00 2.0895849659e-04 1.4986019465e+00 -2.5956547117e+00 1.4986019465e+00 2.5956547117e+00 
48400 5.1053942247e+00 2.0663494219e-04 1.4985949747e+00 -2.5956426362e+00 1.4985949747e+00 2.5956426362e+00 
48500 5.1053942196e+00 2.0433712183e-04 1.4985880804e+00 -2.5956306950e+00 1.4985880804e+00 2.5956306950e+00 
48600 5.1053942147e+00 2.0206475391e-04 1.4985812628e+00 -2.5956188864e+00 1.4985812628e+00 2.5956188864e+00 
48700 5.1053942100e+00 1.9981755987e-04 1.4985745209e+00 -2.5956072092e+00 1.4985745209e+00 2.5956072092e+00 
48800 5.1053942054e+00 1.9759526412e-04 1.4985678540e+00 -2.5955956617e+00 1.4985678540e+00 2.5955956617e+00 
48900 5.1053942009e+00 1.9539759401e-04 1.4985612612e+00 -2.5955842427e+00 1.4985612612e+00 2.5955842427e+00 
49000 5.1053941966e+00 1.9322427983e-04 1.4985547417e+00 -2.5955729506e+00 1.4985547417e+00 2.5955729506e+00 
49100 5.1053941924e+00 1.9107505476e-04 1.4985482947e+00 -2.5955617840e+00 1.4985482947e+00 2.5955617840e+00 
49200 5.1053941883e+00 1.8894965479e-04 1.4985419194e+00 -2.5955507416e+00 1.4985419194e+00 2.5955507416e+00 
49300 5.1053941844e+00 1.8684781878e-04 1.4985356149e+00 -2.5955398220e+00 1.4985356149e+00 2.5955398220e+00 
49400 5.1053941805e+00 1.8476928835e-04 1.4985293806e+00 -2.5955290238e+00 1.4985293806e+00 2.5955290238e+00 
49500 5.1053941768e+00 1.8271380788e-04 1.4985232156e+00 -2.5955183457e+00 1.4985232156e+00 2.5955183457e+00 
49600 5.1053941732e+00 1.8068112449e-04 1.4985171191e+00 -2.5955077863e+00 1.4985171191e+00 2.5955077863e+00 
49700 5.1053941697e+00 1.7867098799e-04 1.4985110904e+00 -2.5954973444e+00 1.4985110904e+00 2.5954973444e+00 
49800 5.1053941663e+00 1.7668315085e-04 1.4985051288e+00 -2.5954870185e+00 1.4985051288e+00 2.5954870185e+00 
49900 5.1053941630e+00 1.7471736820e-04 1.4984992335e+00 -2.5954768076e+00 1.4984992335e+00 2.5954768076e+00 
50000 5.1053941599e+00 1.7277339778e-04 1.4984934038e+00 -2.5954667102e+00 1.4984934038e+00 2.5954667102e+00 
50100 5.1053941568e+00 1.7085099990e-04 1.4984876389e+00 -2.5954567251e+00 1.4984876389e+00 2.5954567251e+00 
50200 5.1053941538e+00 1.6894993743e-04 1.4984819381e+00 -2.5954468510e+00 1.4984819381e+00 2.5954468510e+00 
50300 5.1053941509e+00 1.6706997577e-04 1.4984763007e+00 -2.5954370868e+00 1.4984763007e+00 2.5954370868e+00 
50400 5.1053941481e+00 1.6521088285e-04 1.4984707261e+00 -2.5954274312e+00 1.4984707261e+00 2.5954274312e+00 
50500 5.1053941454e+00 1.6337242903e-04 1.4984652134e+00 -2.5954178830e+00 1.4984652134e+00 2.5954178830e+00 
50600 5.1053941428e+00 1.6155438717e-04 1.4984597621e+00 -2.5954084411e+00 1.4984597621e+00 2.5954084411e+00 
50700 5.1053941403e+00 1.5975653251e-04 1.4984543714e+00 -2.5953991041e+00 1.4984543714e+00 2.5953991041e+00 
50800 5.1053941378e+00 1.5797864273e-04 1.4984490407e+00 -2.5953898711e+00 1.4984490407e+00 2.5953898711e+00 
50900 5.1053941355e+00 1.5622049787e-04 1.4984437693e+00 -2.5953807408e+00 1.4984437693e+00 2.5953807408e+00 
51000 5.1053941332e+00 1.5448188032e-04 1.4984385566e+00 -2.5953717120e+00 1.4984385566e+00 2.5953717120e+00 
51100 5.1053941309e+00 1.5276257480e-04 1.4984334018e+00 -2.5953627837e+00 1.4984334018e+00 2.5953627837e+00 
51200 5.1053941288e+00 1.5106236832e-04 1.4984283044e+00 -2.5953539547e+00 1.4984283044e+00 2.5953539547e+00 
51300 5.1053941267e+00 1.4938105021e-04 1.4984232637e+00 -2.5953452240e+00 1.4984232637e+00 2.5953452240e+00 
51400 5.1053941247e+00 1.4771841202e-04 1.4984182791e+00 -2.5953365904e+00 1.4984182791e+00 2.5953365904e+00 
51500 5.1053941228e+00 1.4607424755e-04 1.4984133500e+00 -2.5953280529e+00 1.4984133500e+00 2.5953280529e+00 
51600 5.1053941209e+00 1.4444835281e-04 1.4984084757e+00 -2.5953196104e+00 1.4984084757e+00 2.5953196104e+00 
51700 5.1053941191e+00 1.4284052599e-04 1.4984036556e+00 -2.5953112618e+00 1.4984036556e+00 2.5953112618e+00 
51800 5.1053941174e+00 1.4125056747e-04 1.4983988892e+00 -2.5953030061e+00 1.4983988892e+00 2.5953030061e+00 
51900 5.1053941157e+00 1.3967827976e-04 1.4983941758e+00 -2.5952948423e+00 1.4983941758e+00 2.5952948423e+00 
52000 5.1053941141e+00 1.3812346749e-04 1.4983895149e+00 -2.5952867693e+00 1.4983895149e+00 2.5952867693e+00 
52100 5.1053941125e+00 1.3658593740e-04 1.4983849058e+00 -2.5952787862e+00 1.4983849058e+00 2.5952787862e+00 
52200 5.1053941110e+00 1.3506549832e-04 1.4983803480e+00 -2.5952708919e+00 1.4983803480e+00 2.5952708919e+00 
52300 5.1053941095e+00 1.3356196112e-04 1.4983758410e+00 -2.5952630854e+00 1.4983758410e+00 2.5952630854e+00 
52400 5.1053941081e+00 1.3207513873e-04 1.4983713841e+00 -2.5952553659e+00 1.4983713841e+00 2.5952553659e+00 
52500 5.1053941068e+00 1.3060484609e-04 1.4983669768e+00 -2.5952477322e+00 1.4983669768e+00 2.5952477322e+00 
52600 5.1053941055e+00 1.2915090014e-04 1.4983626186e+00 -2.5952401836e+00 1.4983626186e+00 2.5952401836e+00 
52700 5.1053941042e+00 1.2771311980e-04 1.4983583089e+00 -2.5952327189e+00 1.4983583089e+00 2.5952327189e+00 
52800 5.1053941030e+00 1.2629132595e-04 1.4983540471e+00 -2.5952253373e+00 1.4983540471e+00 2.5952253373e+00 
52900 5.1053941019e+00 1.2488534142e-04 1.4983498328e+00 -2.5952180378e+00 1.4983498328e+00 2.5952180378e+00 
53000 5.1053941008e+00 1.2349499094e-04 1.4983456653e+00 -2.5952108196e+00 1.4983456653e+00 2.5952108196e+00 
53100 5.1053940997e+00 1.2212010115e-04 1.4983415443e+00 -2.5952036818e+00 1.4983415443e+00 2.5952036818e+00 
53200 5.1053940987e+00 1.2076050058e-04 1.4983374691e+00 -2.5951966234e+00 1.4983374691e+00 2.5951966234e+00 
53300 5.1053940977e+00 1.1941601961e-04 1.4983334393e+00 -2.5951896435e+00 1.4983334393e+00 2.5951896435e+00 
53400 5.1053940967e+00 1.1808649047e-04 1.4983294543e+00 -2.5951827414e+00 1.4983294543e+00 2.5951827414e+00 
53500 5.1053940958e+00 1.1677174723e-04 1.4983255137e+00 -2.5951759161e+00 1.4983255137e+00 2.5951759161e+00 
53600 5.1053940949e+00 1.1547162574e-04 1.4983216170e+00 -2.5951691667e+00 1.4983216170e+00 2.5951691667e+00 
53700 5.1053940941e+00 1.1418596366e-04 1.4983177636e+00 -2.5951624925e+00 1.4983177636e+00 2.5951624925e+00 
53800 5.1053940933e+00 1.1291460042e-04 1.4983139532e+00 -2.5951558926e+00 1.4983139532e+00 2.5951558926e+00 
53900 5.1053940925e+00 1.1165737718e-04 1.4983101851e+00 -2.5951493661e+00 1.4983101851e+00 2.5951493661e+00 
54000 5.1053940918e+00 1.1041413687e-04 1.4983064590e+00 -2.5951429123e+00 1.4983064590e+00 2.5951429123e+00 
54100 5.1053940911e+00 1.0918472411e-04 1.4983027744e+00 -2.5951365303e+00 1.4983027744e+00 2.5951365303e+00 
54200 5.1053940904e+00 1.0796898524e-04 1.4982991308e+00 -2.5951302194e+00 1.4982991308e+00 2.5951302194e+00 
54300 5.1053940898e+00 1.0676676827e-04 1.4982955277e+00 -2.5951239787e+00 1.4982955277e+00 2.5951239787e+00 
54400 5.1053940892e+00 1.0557792287e-04 1.4982919648e+00 -2.5951178075e+00 1.4982919648e+00 2.5951178075e+00 
54500 5.1053940886e+00 1.0440230039e-04 1.4982884415e+00 -2.5951117051e+00 1.4982884415e+00 2.5951117051e+00 
54600 5.1053940880e+00 1.0323975376e-04 1.4982849574e+00 -2.5951056705e+00 1.4982849574e+00 2.5951056705e+00 
54700 5.1053940875e+00 1.0209013759e-04 1.4982815122e+00 -2.5950997031e+00 1.4982815122e+00 2.5950997031e+00 
54800 5.1053940870e+00 1.0095330802e-04 1.4982781053e+00 -2.5950938022e+00 1.4982781053e+00 2.5950938022e+00 
54900 5.1053940865e+00 9.9829122834e-05 1.4982747363e+00 -2.5950879670e+00 1.4982747363e+00 2.5950879670e+00 
55000 5.1053940861e+00 9.8717441341e-05 1.4982714048e+00 -2.5950821967e+00 1.4982714048e+00 2.5950821967e+00 
55100 5.1053940856e+00 9.7618124415e-05 1.4982681104e+00 -2.5950764907e+00 1.4982681104e+00 2.5950764907e+00 
55200 5.1053940852e+00 9.6531034462e-05 1.4982648528e+00 -2.5950708482e+00 1.4982648528e+00 2.5950708482e+00 
55300 5.1053940848e+00 9.5456035405e-05 1.4982616313e+00 -2.5950652685e+00 1.4982616313e+00 2.5950652685e+00 
55400 5.1053940845e+00 9.4392992671e-05 1.4982584458e+00 -2.5950597509e+00 1.4982584458e+00 2.5950597509e+00 
55500 5.1053940841e+00 9.3341773169e-05 1.4982552957e+00 -2.5950542948e+00 1.4982552957e+00 2.5950542948e+00 
55600 5.1053940838e+00 9.2302245283e-05 1.4982521807e+00 -2.5950488995e+00 1.4982521807e+00 2.5950488995e+00 
55700 5.1053940835e+00 9.1274278850e-05 1.4982491003e+00 -2.5950435642e+00 1.4982491003e+00 2.5950435642e+00 
55800 5.1053940832e+00 9.0257745150e-05 1.4982460543e+00 -2.5950382883e+00 1.4982460543e+00 2.5950382883e+00 
55900 5.1053940830e+00 8.9252516884e-05 1.4982430422e+00 -2.5950330712e+00 1.4982430422e+00 2.5950330712e+00 
56000 5.1053940827e+00 8.8258468169e-05 1.4982400636e+00 -2.5950279121e+00 1.4982400636e+00 2.5950279121e+00 
56100 5.1053940825e+00 8.7275474509e-05 1.4982371182e+00 -2.5950228105e+00 1.4982371182e+00 2.5950228105e+00 
56200 5.1053940823e+00 8.6303412797e-05 1.4982342056e+00 -2.5950177658e+00 1.4982342056e+00 2.5950177658e+00 
56300 5.1053940821e+00 8.5342161288e-05 1.4982313254e+00 -2.5950127772e+00 1.4982313254e+00 2.5950127772e+00 
56400 5.1053940819e+00 8.4391599587e-05 1.4982284773e+00 -2.5950078441e+00 1.4982284773e+00 2.5950078441e+00 
56500 5.1053940817e+00 8.3451608639e-05 1.4982256610e+00 -2.5950029660e+00 1.4982256610e+00 2.5950029660e+00 
56600 5.1053940816e+00 8.2522070710e-05 1.4982228760e+00 -2.5949981422e+00 1.4982228760e+00 2.5949981422e+00 
56700 5.1053940814e+00 8.1602869377e-05 1.4982201220e+00 -2.5949933721e+00 1.4982201220e+00 2.5949933721e+00 
56800 5.1053940813e+00 8.0693889510e-05 1.4982173986e+00 -2.5949886552e+00 1.4982173986e+00 2.5949886552e+00 
56900 5.1053940812e+00 7.9795017258e-05 1.4982147056e+00 -2.5949839908e+00 1.4982147056e+00 2.5949839908e+00 
57000 5.1053940811e+00 7.8906140041e-05 1.4982120426e+00 -2.5949793783e+00 1.4982120426e+00 2.5949793783e+00 
57100 5.1053940810e+00 7.8027146533e-05 1.4982094093e+00 -2.5949748173e+00 1.4982094093e+00 2.5949748173e+00 
57200 5.1053940809e+00 7.7157926643e-05 1.4982068053e+00 -2.5949703070e+00 1.4982068053e+00 2.5949703070e+00 
57300 5.1053940809e+00 7.6298371512e-05 1.4982042303e+00 -2.5949658469e+00 1.4982042303e+00 2.5949658469e+00 
57400 5.1053940808e+00 7.5448373491e-05 1.4982016839e+00 -2.5949614366e+00 1.4982016839e+00 2.5949614366e+00 
57500 5.1053940808e+00 7.4607826133e-05 1.4981991660e+00 -2.5949570753e+00 1.4981991660e+00 2.5949570753e+00 
57600 5.1053940807e+00 7.3776624180e-05 1.4981966761e+00 -2.5949527627e+00 1.4981966761e+00 2.5949527627e+00 
57700 5.1053940807e+00 7.2954663543e-05 1.4981942139e+00 -2.5949484980e+00 1.4981942139e+00 2.5949484980e+00 
57800 5.1053940807e+00 7.2141841300e-05 1.4981917791e+00 -2.5949442809e+00 1.4981917791e+00 2.5949442809e+00 
57900 5.1053940807e+00 7.1338055677e-05 1.4981893715e+00 -2.5949401108e+00 1.4981893715e+00 2.5949401108e+00 
58000 5.1053940807e+00 7.0543206034e-05 1.4981869907e+00 -2.5949359871e+00 1.4981869907e+00 2.5949359871e+00 
58100 5.1053940809e+00 7.1288453872e-05 1.4981869907e+00 -2.5949359871e+00 1.4981869907e+00 2.5949359871e+00 
58200 5.1053940810e+00 7.0486775549e-05 1.4981846115e+00 -2.5949318663e+00 1.4981846115e+00 2.5949318663e+00 
58300 5.1053940812e+00 7.1223869231e-05 1.4981846115e+00 -2.5949318663e+00 1.4981846115e+00 2.5949318663e+00 
58400 5.1053940812e+00 7.0415227499e-05 1.4981822345e+00 -2.5949277492e+00 1.4981822345e+00 2.5949277492e+00 
58500 5.1053940815e+00 7.1143720699e-05 1.4981822345e+00 -2.5949277492e+00 1.4981822345e+00 2.5949277492e+00 
58600 5.1053940815e+00 7.0328017633e-05 1.4981798602e+00 -2.5949236367e+00 1.4981798602e+00 2.5949236367e+00 
58700 5.1053940818e+00 7.1047488625e-05 1.4981798602e+00 -2.5949236367e+00 1.4981798602e+00 2.5949236367e+00 
58800 5.1053940819e+00 7.0224662508e-05 1.4981774891e+00 -2.5949195298e+00 1.4981774891e+00 2.5949195298e+00 
58900 5.1053940821e+00 7.0934714862e-05 1.4981774891e+00 -2.5949195298e+00 1.4981774891e+00 2.5949195298e+00 
59000 5.1053940822e+00 7.0104739511e-05 1.4981751217e+00 -2.5949154294e+00 1.4981751217e+00 2.5949154294e+00 
59100 5.1053940825e+00 7.0805002696e-05 1.4981751217e+00 -2.5949154294e+00 1.4981751217e+00 2.5949154294e+00 
59200 5.1053940825e+00 6.9967886679e-05 1.4981727587e+00 -2.5949113365e+00 1.4981727587e+00 2.5949113365e+00 
59300 5.1053940828e+00 7.0658016562e-05 1.4981727587e+00 -2.5949113365e+00 1.4981727587e+00 2.5949113365e+00 
59400 5.1053940831e+00 7.1347440160e-05 1.4981727587e+00 -2.5949113365e+00 1.4981727587e+00 2.5949113365e+00 
59500 5.1053940832e+00 7.0487372956e-05 1.4981703775e+00 -2.5949072122e+00 1.4981703775e+00 2.5949072122e+00 
59600 5.1053940835e+00 7.1165876630e-05 1.4981703775e+00 -2.5949072122e+00 1.4981703775e+00 2.5949072122e+00 
59700 5.1053940836e+00 7.0298695691e-05 1.4981680024e+00 -2.5949030985e+00 1.4981680024e+00 2.5949030985e+00 
59800 5.1053940839e+00 7.0966009601e-05 1.4981680024e+00 -2.5949030985e+00 1.4981680024e+00 2.5949030985e+00 
59900 5.1053940839e+00 7.0091854503e-05 1.4981656340e+00 -2.5948989962e+00 1.4981656340e+00 2.5948989962e+00 
60000 5.1053940842e+00 7.0747736604e-05 1.4981656340e+00 -2.5948989962e+00 1.4981656340e+00 2.5948989962e+00 
60100 5.1053940843e+00 6.9866776912e-05 1.4981632728e+00 -2.5948949066e+00 1.4981632728e+00 2.5948949066e+00 
60200 5.1053940846e+00 7.0511012853e-05 1.4981632728e+00 -2.5948949066e+00 1.4981632728e+00 2.5948949066e+00 
60300 5.1053940849e+00 7.1153827326e-05 1.4981632728e+00 -2.5948949066e+00 1.4981632728e+00 2.5948949066e+00 
60400 5.1053940850e+00 7.0250734059e-05 1.4981608981e+00 -2.5948907935e+00 1.4981608981e+00 2.5948907935e+00 
60500 5.1053940853e+00 7.0881312069e-05 1.4981608981e+00 -2.5948907935e+00 1.4981608981e+00 2.5948907935e+00 
60600 5.1053940854e+00 6.9971819505e-05 1.4981585325e+00 -2.5948866961e+00 1.4981585325e+00 2.5948866961e+00 
60700 5.1053940857e+00 7.0590021582e-05 1.4981585325e+00 -2.5948866961e+00 1.4981585325e+00 2.5948866961e+00 
60800 5.1053940860e+00 7.1206471234e-05 1.4981585325e+00 -2.5948866961e+00 1.4981585325e+00 2.5948866961e+00 
60900 5.1053940861e+00 7.0275589705e-05 1.4981561561e+00 -2.5948825800e+00 1.4981561561e+00 2.5948825800e+00 
61000 5.1053940864e+00 7.0879184011e-05 1.4981561561e+00 -2.5948825800e+00 1.4981561561e+00 2.5948825800e+00 
61100 5.1053940865e+00 6.9942504963e-05 1.4981537905e+00 -2.5948784827e+00 1.4981537905e+00 2.5948784827e+00 
61200 5.1053940868e+00 7.0533177583e-05 1.4981537905e+00 -2.5948784827e+00 1.4981537905e+00 2.5948784827e+00 
61300 5.1053940872e+00 7.1121849314e-05 1.4981537905e+00 -2.5948784827e+00 1.4981537905e+00 2.5948784827e+00 
61400 5.1053940872e+00 7.0164824680e-05 1.4981514169e+00 -2.5948743715e+00 1.4981514169e+00 2.5948743715e+00 
61500 5.1053940876e+00 7.0740202825e-05 1.4981514169e+00 -2.5948743715e+00 1.4981514169e+00 2.5948743715e+00 
61600 5.1053940876e+00 6.9778152514e-05 1.4981490560e+00 -2.5948702822e+00 1.4981490560e+00 2.5948702822e+00 
61700 5.1053940880e+00 7.0340240329e-05 1.4981490560e+00 -2.5948702822e+00 1.4981490560e+00 2.5948702822e+00 
61800 5.1053940883e+00 7.0900157171e-05 1.4981490560e+00 -2.5948702822e+00 1.4981490560e+00 2.5948702822e+00 
61900 5.1053940884e+00 6.9919062063e-05 1.4981466897e+00 -2.5948661838e+00 1.4981466897e+00 2.5948661838e+00 
62000 5.1053940887e+00 7.0465418361e-05 1.4981466897e+00 -2.5948661838e+00 1.4981466897e+00 2.5948661838e+00 
62100 5.1053940890e+00 7.1009492439e-05 1.4981466897e+00 -2.5948661838e+00 1.4981466897e+00 2.5948661838e+00 
62200 5.1053940890e+00 7.0010095766e-05 1.4981443198e+00 -2.5948620789e+00 1.4981443198e+00 2.5948620789e+00 
62300 5.1053940894e+00 7.0540399044e-05 1.4981443198e+00 -2.5948620789e+00 1.4981443198e+00 2.5948620789e+00 
62400 5.1053940897e+00 7.1068334974e-05 1.4981443198e+00 -2.5948620789e+00 1.4981443198e+00 2.5948620789e+00 
62500 5.1053940897e+00 7.0051462086e-05 1.4981419479e+00 -2.5948579707e+00 1.4981419479e+00 2.5948579707e+00 
62600 5.1053940900e+00 7.0565474402e-05 1.4981419479e+00 -2.5948579707e+00 1.4981419479e+00 2.5948579707e+00 
62700 5.1053940903e+00 7.1077059045e-05 1.4981419479e+00 -2.5948579707e+00 1.4981419479e+00 2.5948579707e+00 
62800 5.1053940904e+00 7.0043608059e-05 1.4981395757e+00 -2.5948538620e+00 1.4981395757e+00 2.5948538620e+00 
62900 5.1053940907e+00 7.0541170906e-05 1.4981395757e+00 -2.5948538620e+00 1.4981395757e+00 2.5948538620e+00 
63000 5.1053940910e+00 7.1036269117e-05 1.4981395757e+00 -2.5948538620e+00 1.4981395757e+00 2.5948538620e+00 
63100 5.1053940911e+00 6.9987201564e-05 1.4981372049e+00 -2.5948497556e+00 1.4981372049e+00 2.5948497556e+00 
63200 5.1053940914e+00 7.0468231369e-05 1.4981372049e+00 -2.5948497556e+00 1.4981372049e+00 2.5948497556e+00 
63300 5.1053940917e+00 7.0946781403e-05 1.4981372049e+00 -2.5948497556e+00 1.4981372049e+00 2.5948497556e+00 
63400 5.1053940917e+00 6.9883112946e-05 1.4981348371e+00 -2.5948456544e+00 1.4981348371e+00 2.5948456544e+00 
63500 5.1053940920e+00 7.0347596276e-05 1.4981348371e+00 -2.5948456544e+00 1.4981348371e+00 2.5948456544e+00 
63600 5.1053940923e+00 7.0809604911e-05 1.4981348371e+00 -2.5948456544e+00 1.4981348371e+00 2.5948456544e+00 
63700 5.1053940924e+00 6.9732396229e-05 1.4981324738e+00 -2.5948415611e+00 1.4981324738e+00 2.5948415611e+00 
63800 5.1053940926e+00 7.0180384765e-05 1.4981324738e+00 -2.5948415611e+00 1.4981324738e+00 2.5948415611e+00 
63900 5.1053940929e+00 7.0625922234e-05 1.4981324738e+00 -2.5948415611e+00 1.4981324738e+00 2.5948415611e+00 
64000 5.1053940932e+00 7.1068945415e-05 1.4981324738e+00 -2.5948415611e+00 1.4981324738e+00 2.5948415611e+00 
64100 5.1053940933e+00 6.9967109259e-05 1.4981301019e+00 -2.5948374529e+00 1.4981301019e+00 2.5948374529e+00 
64200 5.1053940935e+00 7.0396024319e-05 1.4981301019e+00 -2.5948374529e+00 1.4981301019e+00 2.5948374529e+00 
64300 5.1053940938e+00 7.0822472907e-05 1.4981301019e+00 -2.5948374529e+00 1.4981301019e+00 2.5948374529e+00 
64400 5.1053940939e+00 6.9709475253e-05 1.4981277382e+00 -2.5948333588e+00 1.4981277382e+00 2.5948333588e+00 
64500 5.1053940941e+00 7.0121958371e-05 1.4981277382e+00 -2.5948333588e+00 1.4981277382e+00 2.5948333588e+00 
64600 5.1053940944e+00 7.0532037897e-05 1.4981277382e+00 -2.5948333588e+00 1.4981277382e+00 2.5948333588e+00 
64700 5.1053940947e+00 7.0939662976e-05 1.4981277382e+00 -2.5948333588e+00 1.4981277382e+00 2.5948333588e+00 
64800 5.1053940947e+00 6.9805332924e-05 1.4981253706e+00 -2.5948292580e+00 1.4981253706e+00 2.5948292580e+00 
64900 5.1053940950e+00 7.0199021350e-05 1.4981253706e+00 -2.5948292580e+00 1.4981253706e+00 2.5948292580e+00 
65000 5.1053940952e+00 7.0590337736e-05 1.4981253706e+00 -2.5948292580e+00 1.4981253706e+00 2.5948292580e+00 
65100 5.1053940955e+00 7.0979237255e-05 1.4981253706e+00 -2.5948292580e+00 1.4981253706e+00 2.5948292580e+00 
65200 5.1053940955e+00 6.9825380899e-05 1.4981230017e+00 -2.5948251549e+00 1.4981230017e+00 2.5948251549e+00 
65300 5.1053940958e+00 7.0200431306e-05 1.4981230017e+00 -2.5948251549e+00 1.4981230017e+00 2.5948251549e+00 
65400 5.1053940960e+00 7.0573164426e-05 1.4981230017e+00 -2.5948251549e+00 1.4981230017e+00 2.5948251549e+00 
65500 5.1053940962e+00 7.0943540767e-05 1.4981230017e+00 -2.5948251549e+00 1.4981230017e+00 2.5948251549e+00 
65600 5.1053940963e+00 6.9772014739e-05 1.4981206339e+00 -2.5948210538e+00 1.4981206339e+00 2.5948210538e+00 
65700 5.1053940965e+00 7.0128681892e-05 1.4981206339e+00 -2.5948210538e+00 1.4981206339e+00 2.5948210538e+00 
65800 5.1053940968e+00 7.0483106721e-05 1.4981206339e+00 -2.5948210538e+00 1.4981206339e+00 2.5948210538e+00 
65900 5.1053940970e+00 7.0835254392e-05 1.4981206339e+00 -2.5948210538e+00 1.4981206339e+00 2.5948210538e+00 
66000 5.1053940970e+00 6.9647946340e-05 1.4981182698e+00 -2.5948169590e+00 1.4981182698e+00 2.5948169590e+00 
66100 5.1053940972e+00 6.9986570900e-05 1.4981182698e+00 -2.5948169590e+00 1.4981182698e+00 2.5948169590e+00 
66200 5.1053940975e+00 7.0323045401e-05 1.4981182698e+00 -2.5948169590e+00 1.4981182698e+00 2.5948169590e+00 
66300 5.1053940977e+00 7.0657339015e-05 1.4981182698e+00 -2.5948169590e+00 1.4981182698e+00 2.5948169590e+00 
66400 5.1053940979e+00 7.0989421867e-05 1.4981182698e+00 -2.5948169590e+00 1.4981182698e+00 2.5948169590e+00 
66500 5.1053940979e+00 6.9778790722e-05 1.4981159005e+00 -2.5948128553e+00 1.4981159005e+00 2.5948128553e+00 
66600 5.1053940982e+00 7.0097478147e-05 1.4981159005e+00 -2.5948128553e+00 1.4981159005e+00 2.5948128553e+00 
66700 5.1053940984e+00 7.0414096352e-05 1.4981159005e+00 -2.5948128553e+00 1.4981159005e+00 2.5948128553e+00 
66800 5.1053940986e+00 7.0728618850e-05 1.4981159005e+00 -2.5948128553e+00 1.4981159005e+00 2.5948128553e+00 
66900 5.1053940986e+00 6.9506215804e-05 1.4981135399e+00 -2.5948087667e+00 1.4981135399e+00 2.5948087667e+00 
67000 5.1053940988e+00 6.9807615181e-05 1.4981135399e+00 -2.5948087667e+00 1.4981135399e+00 2.5948087667e+00 
67100 5.1053940990e+00 7.0107068834e-05 1.4981135399e+00 -2.5948087667e+00 1.4981135399e+00 2.5948087667e+00 
67200 5.1053940992e+00 7.0404553072e-05 1.4981135399e+00 -2.5948087667e+00 1.4981135399e+00 2.5948087667e+00 
67300 5.1053940994e+00 7.0700044869e-05 1.4981135399e+00 -2.5948087667e+00 1.4981135399e+00 2.5948087667e+00 
67400 5.1053940997e+00 7.0993521871e-05 1.4981135399e+00 -2.5948087667e+00 1.4981135399e+00 2.5948087667e+00 
67500 5.1053940996e+00 6.9744427310e-05 1.4981111705e+00 -2.5948046627e+00 1.4981111705e+00 2.5948046627e+00 
67600 5.1053940998e+00 7.0024921652e-05 1.4981111705e+00 -2.5948046627e+00 1.4981111705e+00 2.5948046627e+00 
67700 5.1053941000e+00 7.0303563650e-05 1.4981111705e+00 -2.5948046627e+00 1.4981111705e+00 2.5948046627e+00 
67800 5.1053941002e+00 7.0580333235e-05 1.4981111705e+00 -2.5948046627e+00 1.4981111705e+00 2.5948046627e+00 
67900 5.1053941004e+00 7.0855210886e-05 1.4981111705e+00 -2.5948046627e+00 1.4981111705e+00 2.5948046627e+00 
68000 5.1053941004e+00 6.9590656153e-05 1.4981088057e+00 -2.5948005667e+00 1.4981088057e+00 2.5948005667e+00 
68100 5.1053941006e+00 6.9852822160e-05 1.4981088057e+00 -2.5948005667e+00 1.4981088057e+00 2.5948005667e+00 
68200 5.1053941008e+00 7.0113266010e-05 1.4981088057e+00 -2.5948005667e+00 1.4981088057e+00 2.5948005667e+00 
68300 5.1053941010e+00 7.0371969980e-05 1.4981088057e+00 -2.5948005667e+00 1.4981088057e+00 2.5948005667e+00 
68400 5.1053941012e+00 7.0628916776e-05 1.4981088057e+00 -2.5948005667e+00 1.4981088057e+00 2.5948005667e+00 
68500 5.1053941013e+00 7.0884089538e-05 1.4981088057e+00 -2.5948005667e+00 1.4981088057e+00 2.5948005667e+00 
68600 5.1053941013e+00 6.9599338207e-05 1.4981064399e+00 -2.5947964690e+00 1.4981064399e+00 2.5947964690e+00 
68700 5.1053941015e+00 6.9842039043e-05 1.4981064399e+00 -2.5947964690e+00 1.4981064399e+00 2.5947964690e+00 
68800 5.1053941017e+00 7.0083143088e-05 1.4981064399e+00 -2.5947964690e+00 1.4981064399e+00 2.5947964690e+00 
68900 5.1053941018e+00 7.0322634872e-05 1.4981064399e+00 -2.5947964690e+00 1.4981064399e+00 2.5947964690e+00 
69000 5.1053941020e+00 7.0560499256e-05 1.4981064399e+00 -2.5947964690e+00 1.4981064399e+00 2.5947964690e+00 
69100 5.1053941022e+00 7.0796721440e-05 1.4981064399e+00 -2.5947964690e+00 1.4981064399e+00 2.5947964690e+00 
69200 5.1053941021e+00 6.9495062194e-05 1.4981040770e+00 -2.5947923764e+00 1.4981040770e+00 2.5947923764e+00 
69300 5.1053941023e+00 6.9719092827e-05 1.4981040770e+00 -2.5947923764e+00 1.4981040770e+00 2.5947923764e+00 
69400 5.1053941025e+00 6.9941663847e-05 1.4981040770e+00 -2.5947923764e+00 1.4981040770e+00 2.5947923764e+00 
69500 5.1053941026e+00 7.0162761476e-05 1.4981040770e+00 -2.5947923764e+00 1.4981040770e+00 2.5947923764e+00 
69600 5.1053941028e+00 7.0382372175e-05 1.4981040770e+00 -2.5947923764e+00 1.4981040770e+00 2.5947923764e+00 
69700 5.1053941030e+00 7.0600482661e-05 1.4981040770e+00 -2.5947923764e+00 1.4981040770e+00 2.5947923764e+00 
69800 5.1053941031e+00 7.0817079919e-05 1.4981040770e+00 -2.5947923764e+00 1.4981040770e+00 2.5947923764e+00 
69900 5.1053941031e+00 6.9495499138e-05 1.4981017135e+00 -2.5947882826e+00 1.4981017135e+00 2.5947882826e+00 
70000 5.1053941032e+00 6.9700165258e-05 1.4981017135e+00 -2.5947882826e+00 1.4981017135e+00 2.5947882826e+00 
70100 5.1053941034e+00 6.9903505732e-05 1.4981017135e+00 -2.5947882826e+00 1.4981017135e+00 2.5947882826e+00 
70200 5.1053941035e+00 7.0105508285e-05 1.4981017135e+00 -2.5947882826e+00 1.4981017135e+00 2.5947882826e+00 
70300 5.1053941037e+00 7.0306160817e-05 1.4981017135e+00 -2.5947882826e+00 1.4981017135e+00 2.5947882826e+00 
70400 5.1053941038e+00 7.0505451420e-05 1.4981017135e+00 -2.5947882826e+00 1.4981017135e+00 2.5947882826e+00 
70500 5.1053941040e+00 7.0703368387e-05 1.4981017135e+00 -2.5947882826e+00 1.4981017135e+00 2.5947882826e+00 
70600 5.1053941041e+00 7.0899900231e-05 1.4981017135e+00 -2.5947882826e+00 1.4981017135e+00 2.5947882826e+00 
70700 5.1053941040e+00 6.9556601810e-05 1.4980993471e+00 -2.5947841840e+00 1.4980993471e+00 2.5947841840e+00 
70800 5.1053941042e+00 6.9741452701e-05 1.4980993471e+00 -2.5947841840e+00 1.4980993471e+00 2.5947841840e+00 
70900 5.1053941043e+00 6.9925110618e-05 1.4980993471e+00 -2.5947841840e+00 1.4980993471e+00 2.5947841840e+00 
71000 5.1053941045e+00 7.0107564625e-05 1.4980993471e+00 -2.5947841840e+00 1.4980993471e+00 2.5947841840e+00 
71100 5.1053941046e+00 7.0288803915e-05 1.4980993471e+00 -2.5947841840e+00 1.4980993471e+00 2.5947841840e+00 
71200 5.1053941047e+00 7.0468817828e-05 1.4980993471e+00 -2.5947841840e+00 1.4980993471e+00 2.5947841840e+00 
71300 5.1053941049e+00 7.0647595859e-05 1.4980993471e+00 -2.5947841840e+00 1.4980993471e+00 2.5947841840e+00 
71400 5.1053941050e+00 7.0825127679e-05 1.4980993471e+00 -2.5947841840e+00 1.4980993471e+00 2.5947841840e+00 
71500 5.1053941049e+00 6.9464605032e-05 1.4980969833e+00 -2.5947800897e+00 1.4980969833e+00 2.5947800897e+00 
71600 5.1053941050e+00 6.9630746345e-05 1.4980969833e+00 -2.5947800897e+00 1.4980969833e+00 2.5947800897e+00 
71700 5.1053941052e+00 6.9795836565e-05 1.4980969833e+00 -2.5947800897e+00 1.4980969833e+00 2.5947800897e+00 
71800 5.1053941053e+00 6.9959865732e-05 1.4980969833e+00 -2.5947800897e+00 1.4980969833e+00 2.5947800897e+00 
71900 5.1053941054e+00 7.0122823973e-05 1.4980969833e+00 -2.5947800897e+00 1.4980969833e+00 2.5947800897e+00 
72000 5.1053941055e+00 7.0284701511e-05 1.4980969833e+00 -2.5947800897e+00 1.4980969833e+00 2.5947800897e+00 
72100 5.1053941056e+00 7.0445488685e-05 1.4980969833e+00 -2.5947800897e+00 1.4980969833e+00 2.5947800897e+00 
72200 5.1053941058e+00 7.0605175959e-05 1.4980969833e+00 -2.5947800897e+00 1.4980969833e+00 2.5947800897e+00 
72300 5.1053941059e+00 7.0763753942e-05 1.4980969833e+00 -2.5947800897e+00 1.4980969833e+00 2.5947800897e+00 
72400 5.1053941058e+00 6.9385760537e-05 1.4980946215e+00 -2.5947759990e+00 1.4980946215e+00 2.5947759990e+00 
72500 5.1053941059e+00 6.9533232191e-05 1.4980946215e+00 -2.5947759990e+00 1.4980946215e+00 2.5947759990e+00 
72600 5.1053941060e+00 6.9679792107e-05 1.4980946215e+00 -2.5947759990e+00 1.4980946215e+00 2.5947759990e+00 
72700 5.1053941061e+00 6.9825431141e-05 1.4980946215e+00 -2.5947759990e+00 1.4980946215e+00 2.5947759990e+00 
72800 5.1053941062e+00 6.9970140199e-05 1.4980946215e+00 -2.5947759990e+00 1.4980946215e+00 2.5947759990e+00 
72900 5.1053941063e+00 7.0113910256e-05 1.4980946215e+00 -2.5947759990e+00 1.4980946215e+00 2.5947759990e+00 
73000 5.1053941065e+00 7.0256732362e-05 1.4980946215e+00 -2.5947759990e+00 1.4980946215e+00 2.5947759990e+00 
73100 5.1053941066e+00 7.0398597670e-05 1.4980946215e+00 -2.5947759990e+00 1.4980946215e+00 2.5947759990e+00 
73200 5.1053941067e+00 7.0539497435e-05 1.4980946215e+00 -2.5947759990e+00 1.4980946215e+00 2.5947759990e+00 
73300 5.1053941068e+00 7.0679423039e-05 1.4980946215e+00 -2.5947759990e+00 1.4980946215e+00 2.5947759990e+00 
73400 5.1053941069e+00 7.0818366002e-05 1.4980946215e+00 -2.5947759990e+00 1.4980946215e+00 2.5947759990e+00 
73500 5.1053941068e+00 6.9419695188e-05 1.4980922579e+00 -2.5947719051e+00 1.4980922579e+00 2.5947719051e+00 
73600 5.1053941069e+00 6.9547780949e-05 1.4980922579e+00 -2.5947719051e+00 1.4980922579e+00 2.5947719051e+00 
73700 5.1053941070e+00 6.9675084500e-05 1.4980922579e+00 -2.5947719051e+00 1.4980922579e+00 2.5947719051e+00 
73800 5.1053941070e+00 6.9801597578e-05 1.4980922579e+00 -2.5947719051e+00 1.4980922579e+00 2.5947719051e+00 
73900 5.1053941071e+00 6.9927311963e-05 1.4980922579e+00 -2.5947719051e+00 1.4980922579e+00 2.5947719051e+00 
74000 5.1053941072e+00 7.0052219492e-05 1.4980922579e+00 -2.5947719051e+00 1.4980922579e+00 2.5947719051e+00 
74100 5.1053941073e+00 7.0176312068e-05 1.4980922579e+00 -2.5947719051e+00 1.4980922579e+00 2.5947719051e+00 
74200 5.1053941074e+00 7.0299581678e-05 1.4980922579e+00 -2.5947719051e+00 1.4980922579e+00 2.5947719051e+00 
74300 5.1053941075e+00 7.0422020401e-05 1.4980922579e+00 -2.5947719051e+00 1.4980922579e+00 2.5947719051e+00 
74400 5.1053941076e+00 7.0543620424e-05 1.4980922579e+00 -2.5947719051e+00 1.4980922579e+00 2.5947719051e+00 
74500 5.1053941077e+00 7.0664374055e-05 1.4980922579e+00 -2.5947719051e+00 1.4980922579e+00 2.5947719051e+00 
74600 5.1053941078e+00 7.0784273731e-05 1.4980922579e+00 -2.5947719051e+00 1.4980922579e+00 2.5947719051e+00 
74700 5.1053941077e+00 6.9367442845e-05 1.4980898954e+00 -2.5947678132e+00 1.4980898954e+00 2.5947678132e+00 
74800 5.1053941077e+00 6.9476749663e-05 1.4980898954e+00 -2.5947678132e+00 1.4980898954e+00 2.5947678132e+00 
74900 5.1053941078e+00 6.9585405572e-05 1.4980898954e+00 -2.5947678132e+00 1.4980898954e+00 2.5947678132e+00 
75000 5.1053941079e+00 6.9693403191e-05 1.4980898954e+00 -2.5947678132e+00 1.4980898954e+00 2.5947678132e+00 
75100 5.1053941080e+00 6.9800735169e-05 1.4980898954e+00 -2.5947678132e+00 1.4980898954e+00 2.5947678132e+00 
75200 5.1053941081e+00 6.9907394199e-05 1.4980898954e+00 -2.5947678132e+00 1.4980898954e+00 2.5947678132e+00 
75300 5.1053941082e+00 7.0013373021e-05 1.4980898954e+00 -2.5947678132e+00 1.4980898954e+00 2.5947678132e+00 
75400 5.1053941082e+00 7.0118664442e-05 1.4980898954e+00 -2.5947678132e+00 1.4980898954e+00 2.5947678132e+00 
75500 5.1053941083e+00 7.0223261341e-05 1.4980898954e+00 -2.5947678132e+00 1.4980898954e+00 2.5947678132e+00 
75600 5.1053941084e+00 7.0327156680e-05 1.4980898954e+00 -2.5947678132e+00 1.4980898954e+00 2.5947678132e+00 
75700 5.1053941085e+00 7.0430343521e-05 1.4980898954e+00 -2.5947678132e+00 1.4980898954e+00 2.5947678132e+00 
75800 5.1053941085e+00 7.0532815035e-05 1.4980898954e+00 -2.5947678132e+00 1.4980898954e+00 2.5947678132e+00 
75900 5.1053941086e+00 7.0634564508e-05 1.4980898954e+00 -2.5947678132e+00 1.4980898954e+00 2.5947678132e+00 
76000 5.1053941087e+00 7.0735585360e-05 1.4980898954e+00 -2.5947678132e+00 1.4980898954e+00 2.5947678132e+00 
76100 5.1053941085e+00 6.9301072064e-05 1.4980875346e+00 -2.5947637240e+00 1.4980875346e+00 2.5947637240e+00 
76200 5.1053941086e+00 6.9391759699e-05 1.4980875346e+00 -2.5947637240e+00 1.4980875346e+00 2.5947637240e+00 
76300 5.1053941087e+00 6.9481924508e-05 1.4980875346e+00 -2.5947637240e+00 1.4980875346e+00 2.5947637240e+00 
76400 5.1053941088e+00 6.9571560058e-05 1.4980875346e+00 -2.5947637240e+00 1.4980875346e+00 2.5947637240e+00 
76500 5.1053941088e+00 6.9660659936e-05 1.4980875346e+00 -2.5947637240e+00 1.4980875346e+00 2.5947637240e+00 
76600 5.1053941089e+00 6.9749217755e-05 1.4980875346e+00 -2.5947637240e+00 1.4980875346e+00 2.5947637240e+00 
76700 5.1053941090e+00 6.9837227164e-05 1.4980875346e+00 -2.5947637240e+00 1.4980875346e+00 2.5947637240e+00 
76800 5.1053941090e+00 6.9924681857e-05 1.4980875346e+00 -2.5947637240e+00 1.4980875346e+00 2.5947637240e+00 
76900 5.1053941091e+00 7.0011575581e-05 1.4980875346e+00 -2.5947637240e+00 1.4980875346e+00 2.5947637240e+00 
77000 5.1053941092e+00 7.0097902148e-05 1.4980875346e+00 -2.5947637240e+00 1.4980875346e+00 2.5947637240e+00 
77100 5.1053941092e+00 7.0183655443e-05 1.4980875346e+00 -2.5947637240e+00 1.4980875346e+00 2.5947637240e+00 
77200 5.1053941093e+00 7.0268829434e-05 1.4980875346e+00 -2.5947637240e+00 1.4980875346e+00 2.5947637240e+00 
77300 5.1053941094e+00 7.0353418185e-05 1.4980875346e+00 -2.5947637240e+00 1.4980875346e+00 2.5947637240e+00 
77400 5.1053941094e+00 7.0437415857e-05 1.4980875346e+00 -2.5947637240e+00 1.4980875346e+00 2.5947637240e+00 
77500 5.1053941095e+00 7.0520816729e-05 1.4980875346e+00 -2.5947637240e+00 1.4980875346e+00 2.5947637240e+00 
77600 5.1053941095e+00 7.0603615194e-05 1.4980875346e+00 -2.5947637240e+00 1.4980875346e+00 2.5947637240e+00 
77700 5.1053941096e+00 7.0685805782e-05 1.4980875346e+00 -2.5947637240e+00 1.4980875346e+00 2.5947637240e+00 
77800 5.1053941097e+00 7.0767383155e-05 1.4980875346e+00 -2.5947637240e+00 1.4980875346e+00 2.5947637240e+00 
77900 5.1053941095e+00 6.9312867719e-05 1.4980851726e+00 -2.5947596331e+00 1.4980851726e+00 2.5947596331e+00 
78000 5.1053941095e+00 6.9384342423e-05 1.4980851726e+00 -2.5947596331e+00 1.4980851726e+00 2.5947596331e+00 
78100 5.1053941096e+00 6.9455413571e-05 1.4980851726e+00 -2.5947596331e+00 1.4980851726e+00 2.5947596331e+00 
78200 5.1053941097e+00 6.9526075981e-05 1.4980851726e+00 -2.5947596331e+00 1.4980851726e+00 2.5947596331e+00 
78300 5.1053941097e+00 6.9596324485e-05 1.4980851726e+00 -2.5947596331e+00 1.4980851726e+00 2.5947596331e+00 
78400 5.1053941098e+00 6.9666153934e-05 1.4980851726e+00 -2.5947596331e+00 1.4980851726e+00 2.5947596331e+00 
78500 5.1053941098e+00 6.9735559202e-05 1.4980851726e+00 -2.5947596331e+00 1.4980851726e+00 2.5947596331e+00 
78600 5.1053941099e+00 6.9804535198e-05 1.4980851726e+00 -2.5947596331e+00 1.4980851726e+00 2.5947596331e+00 
78700 5.1053941099e+00 6.9873076867e-05 1.4980851726e+00 -2.5947596331e+00 1.4980851726e+00 2.5947596331e+00 
78800 5.1053941100e+00 6.9941179202e-05 1.4980851726e+00 -2.5947596331e+00 1.4980851726e+00 2.5947596331e+00 
78900 5.1053941100e+00 7.0008837249e-05 1.4980851726e+00 -2.5947596331e+00 1.4980851726e+00 2.5947596331e+00 
79000 5.1053941101e+00 7.0076046115e-05 1.4980851726e+00 -2.5947596331e+00 1.4980851726e+00 2.5947596331e+00 
79100 5.1053941101e+00 7.0142800974e-05 1.4980851726e+00 -2.5947596331e+00 1.4980851726e+00 2.5947596331e+00 
79200 5.1053941102e+00 7.0209097078e-05 1.4980851726e+00 -2.5947596331e+00 1.4980851726e+00 2.5947596331e+00 
79300 5.1053941102e+00 7.0274929762e-05 1.4980851726e+00 -2.5947596331e+00 1.4980851726e+00 2.5947596331e+00 
79400 5.1053941103e+00 7.0340294450e-05 1.4980851726e+00 -2.5947596331e+00 1.4980851726e+00 2.5947596331e+00 
79500 5.1053941103e+00 7.0405186665e-05 1.4980851726e+00 -2.5947596331e+00 1.4980851726e+00 2.5947596331e+00 
79600 5.1053941104e+00 7.0469602031e-05 1.4980851726e+00 -2.5947596331e+00 1.4980851726e+00 2.5947596331e+00 
79700 5.1053941104e+00 7.0533536287e-05 1.4980851726e+00 -2.5947596331e+00 1.4980851726e+00 2.5947596331e+00 
79800 5.1053941104e+00 7.0596985287e-05 1.4980851726e+00 -2.5947596331e+00 1.4980851726e+00 2.5947596331e+00 
79900 5.1053941105e+00 7.0659945008e-05 1.4980851726e+00 -2.5947596331e+00 1.4980851726e+00 2.5947596331e+00 
80000 5.1053941105e+00 7.0722411556e-05 1.4980851726e+00 -2.5947596331e+00 1.4980851726e+00 2.5947596331e+00 
80100 5.1053941103e+00 6.9200187665e-05 1.4980828122e+00 -2.5947555447e+00 1.4980828122e+00 2.5947555447e+00 
80100 5.1053941103e+00 6.9200187665e-05 1.4980828122e+00 -2.5947555447e+00 1.4980828122e+00 2.5947555447e+00 
