# step Hamiltonian StressXX CellTensor1 CellTensor2 CellTensor3 CellTensor4 
0 5.8682304836e+00 6.8659056276e-02 1.7865676565e+00 -3.0944259522e+00 1.7865676565e+00 3.0944259522e+00 
100 5.8666932131e+00 7.3134837339e-02 1.7865676565e+00 -3.0944259522e+00 1.7865676565e+00 3.0944259522e+00 
200 5.8649614350e+00 7.6106835357e-02 1.7845212505e+00 -3.0908814730e+00 1.7845212505e+00 3.0908814730e+00 
300 5.8631946470e+00 7.8729377232e-02 1.7823892596e+00 -3.0871887565e+00 1.7823892596e+00 3.0871887565e+00 
400 5.8614008213e+00 8.1022202325e-02 1.7801811814e+00 -3.0833642528e+00 1.7801811814e+00 3.0833642528e+00 
500 5.8595873766e+00 8.3003739571e-02 1.7779059939e+00 -3.0794235125e+00 1.7779059939e+00 3.0794235125e+00 
600 5.8577612125e+00 8.4691257776e-02 1.7755721936e+00 -3.0753812518e+00 1.7755721936e+00 3.0753812518e+00 
700 5.8559287393e+00 8.6100993121e-02 1.7731878277e+00 -3.0712514090e+00 1.7731878277e+00 3.0712514090e+00 
800 5.8540959035e+00 8.7248257754e-02 1.7707605238e+00 -3.0670471952e+00 1.7707605238e+00 3.0670471952e+00 
900 5.8522682108e+00 8.8147532687e-02 1.7682975143e+00 -3.0627811376e+00 1.7682975143e+00 3.0627811376e+00 
1000 5.8504507473e+00 8.8812547613e-02 1.7658056600e+00 -3.0584651194e+00 1.7658056600e+00 3.0584651194e+00 
1100 5.8486481982e+00 8.9256349815e-02 1.7632914694e+00 -3.0541104136e+00 1.7632914694e+00 3.0541104136e+00 
1200 5.8468648653e+00 8.9491363906e-02 1.7607611173e+00 -3.0497277152e+00 1.7607611173e+00 3.0497277152e+00 
1300 5.8451046840e+00 8.9529443851e-02 1.7582204602e+00 -3.0453271679e+00 1.7582204602e+00 3.0453271679e+00 
1400 5.8433712384e+00 8.9381918419e-02 1.7556750511e+00 -3.0409183902e+00 1.7556750511e+00 3.0409183902e+00 
1500 5.8416677763e+00 8.9059631035e-02 1.7531301529e+00 -3.0365104970e+00 1.7531301529e+00 3.0365104970e+00 
1600 5.8399972232e+00 8.8572974804e-02 1.7505907494e+00 -3.0321121213e+00 1.7505907494e+00 3.0321121213e+00 
1700 5.8383621957e+00 8.7931923354e-02 1.7480615572e+00 -3.0277314318e+00 1.7480615572e+00 3.0277314318e+00 
1800 5.8367650146e+00 8.7146058022e-02 1.7455470346e+00 -3.0233761509e+00 1.7455470346e+00 3.0233761509e+00 
1900 5.8352077172e+00 8.6224591851e-02 1.7430513912e+00 -3.0190535698e+00 1.7430513912e+00 3.0190535698e+00 
2000 5.8336920693e+00 8.5176390750e-02 1.7405785963e+00 -3.0147705634e+00 1.7405785963e+00 3.0147705634e+00 
2100 5.8322195770e+00 8.4009992167e-02 1.7381323866e+00 -3.0105336038e+00 1.7381323866e+00 3.0105336038e+00 
2200 5.8307914982e+00 8.2733621544e-02 1.7357162732e+00 -3.0063487727e+00 1.7357162732e+00 3.0063487727e+00 
2300 5.8294088534e+00 8.1355206819e-02 1.7333335491e+00 -3.0022217734e+00 1.7333335491e+00 3.0022217734e+00 
2400 5.8280724369e+00 7.9882391177e-02 1.7309872948e+00 -2.9981579419e+00 1.7309872948e+00 2.9981579419e+00 
2500 5.8267828276e+00 7.8322544284e-02 1.7286803853e+00 -2.9941622574e+00 1.7286803853e+00 2.9941622574e+00 
2600 5.8255403996e+00 7.6682772166e-02 1.7264154954e+00 -2.9902393530e+00 1.7264154954e+00 2.9902393530e+00 
2700 5.8243453326e+00 7.4969925911e-02 1.7241951055e+00 -2.9863935249e+00 1.7241951055e+00 2.9863935249e+00 
2800 5.8231976229e+00 7.3190609361e-02 1.7220215072e+00 -2.9826287422e+00 1.7220215072e+00 2.9826287422e+00 
2900 5.8220970934e+00 7.1351185921e-02 1.7198968085e+00 -2.9789486562e+00 1.7198968085e+00 2.9789486562e+00 
3000 5.8210434045e+00 6.9457784637e-02 1.7178229392e+00 -2.9753566090e+00 1.7178229392e+00 2.9753566090e+00 
3100 5.8200360646e+00 6.7516305655e-02 1.7158016556e+00 -2.9718556433e+00 1.7158016556e+00 2.9718556433e+00 
3200 5.8190744404e+00 6.5532425177e-02 1.7138345463e+00 -2.9684485100e+00 1.7138345463e+00 2.9684485100e+00 
3300 5.8181577677e+00 6.3511600010e-02 1.7119230366e+00 -2.9651376781e+00 1.7119230366e+00 2.9651376781e+00 
3400 5.8172851619e+00 6.1459071814e-02 1.7100683937e+00 -2.9619253424e+00 1.7100683937e+00 2.9619253424e+00 
3500 5.8164556283e+00 5.9379871108e-02 1.7082717318e+00 -2.9588134326e+00 1.7082717318e+00 2.9588134326e+00 
3600 5.8156680731e+00 5.7278821125e-02 1.7065340167e+00 -2.9558036217e+00 1.7065340167e+00 2.9558036217e+00 
3700 5.8149213135e+00 5.5160541559e-02 1.7048560711e+00 -2.9528973347e+00 1.7048560711e+00 2.9528973347e+00 
3800 5.8142140881e+00 5.3029452275e-02 1.7032385794e+00 -2.9500957570e+00 1.7032385794e+00 2.9500957570e+00 
3900 5.8135450671e+00 5.0889777003e-02 1.7016820927e+00 -2.9473998428e+00 1.7016820927e+00 2.9473998428e+00 
4000 5.8129128629e+00 4.8745547063e-02 1.7001870332e+00 -2.9448103239e+00 1.7001870332e+00 2.9448103239e+00 
4100 5.8123160393e+00 4.6600605149e-02 1.6987537000e+00 -2.9423277179e+00 1.6987537000e+00 2.9423277179e+00 
4200 5.8117531217e+00 4.4458609177e-02 1.6973822731e+00 -2.9399523369e+00 1.6973822731e+00 2.9399523369e+00 
4300 5.8112226061e+00 4.2323036223e-02 1.6960728189e+00 -2.9376842957e+00 1.6960728189e+00 2.9376842957e+00 
4400 5.8107229687e+00 4.0197186548e-02 1.6948252945e+00 -2.9355235201e+00 1.6948252945e+00 2.9355235201e+00 
4500 5.8102526743e+00 3.8084187713e-02 1.6936395530e+00 -2.9334697555e+00 1.6936395530e+00 2.9334697555e+00 
4600 5.8098101849e+00 3.5986998781e-02 1.6925153477e+00 -2.9315225748e+00 1.6925153477e+00 2.9315225748e+00 
4700 5.8093939677e+00 3.3908414603e-02 1.6914523373e+00 -2.9296813867e+00 1.6914523373e+00 2.9296813867e+00 
4800 5.8090025023e+00 3.1851070166e-02 1.6904500902e+00 -2.9279454438e+00 1.6904500902e+00 2.9279454438e+00 
4900 5.8086342883e+00 2.9817445003e-02 1.6895080893e+00 -2.9263138504e+00 1.6895080893e+00 2.9263138504e+00 
5000 5.8082878516e+00 2.7809867637e-02 1.6886257364e+00 -2.9247855703e+00 1.6886257364e+00 2.9247855703e+00 
5100 5.8079617507e+00 2.5830520060e-02 1.6878023566e+00 -2.9233594347e+00 1.6878023566e+00 2.9233594347e+00 
5200 5.8076545819e+00 2.3881442214e-02 1.6870372028e+00 -2.9220341495e+00 1.6870372028e+00 2.9220341495e+00 
5300 5.8073649847e+00 2.1964536468e-02 1.6863294599e+00 -2.9208083028e+00 1.6863294599e+00 2.9208083028e+00 
5400 5.8070916463e+00 2.0081572067e-02 1.6856782490e+00 -2.9196803725e+00 1.6856782490e+00 2.9196803725e+00 
5500 5.8068333052e+00 1.8234189548e-02 1.6850826315e+00 -2.9186487327e+00 1.6850826315e+00 2.9186487327e+00 
5600 5.8065887551e+00 1.6423905090e-02 1.6845416131e+00 -2.9177116614e+00 1.6845416131e+00 2.9177116614e+00 
5700 5.8063568471e+00 1.4652114808e-02 1.6840541478e+00 -2.9168673467e+00 1.6840541478e+00 2.9168673467e+00 
5800 5.8061364928e+00 1.2920098951e-02 1.6836191415e+00 -2.9161138936e+00 1.6836191415e+00 2.9161138936e+00 
5900 5.8059266655e+00 1.1229026022e-02 1.6832354559e+00 -2.9154493307e+00 1.6832354559e+00 2.9154493307e+00 
6000 5.8057264018e+00 9.5799567772e-03 1.6829019121e+00 -2.9148716159e+00 1.6829019121e+00 2.9148716159e+00 
6100 5.8055348025e+00 7.9738481304e-03 1.6826172940e+00 -2.9143786429e+00 1.6826172940e+00 2.9143786429e+00 
6200 5.8053510325e+00 6.4115569283e-03 1.6823803518e+00 -2.9139682469e+00 1.6823803518e+00 2.9139682469e+00 
6300 5.8051743211e+00 4.8938436071e-03 1.6821898052e+00 -2.9136382106e+00 1.6821898052e+00 2.9136382106e+00 
6400 5.8050039614e+00 3.4213757212e-03 1.6820443468e+00 -2.9133862693e+00 1.6820443468e+00 2.9133862693e+00 
6500 5.8048393093e+00 1.9947313439e-03 1.6819426449e+00 -2.9132101164e+00 1.6819426449e+00 2.9132101164e+00 
6600 5.8046797822e+00 6.1440233759e-04 1.6818833469e+00 -2.9131074091e+00 1.6818833469e+00 2.9131074091e+00 
6700 5.8045248576e+00 -7.1920250374e-04 1.6818650816e+00 -2.9130757728e+00 1.6818650816e+00 2.9130757728e+00 
6800 5.8043740709e+00 -2.0057544393e-03 1.6818864627e+00 -2.9131128060e+00 1.6818864627e+00 2.9131128060e+00 
6900 5.8042270134e+00 -3.2450018898e-03 1.6819460912e+00 -2.9132160855e+00 1.6819460912e+00 2.9132160855e+00 
7000 5.8040833296e+00 -4.4367676654e-03 1.6820425578e+00 -2.9133831706e+00 1.6820425578e+00 2.9133831706e+00 
7100 5.8039427150e+00 -5.5809463089e-03 1.6821744458e+00 -2.9136116074e+00 1.6821744458e+00 2.9136116074e+00 
7200 5.8038049130e+00 -6.6775015472e-03 1.6823403334e+00 -2.9138989332e+00 1.6823403334e+00 2.9138989332e+00 
7300 5.8036697117e+00 -7.7264638463e-03 1.6825387961e+00 -2.9142426805e+00 1.6825387961e+00 2.9142426805e+00 
7400 5.8035369414e+00 -8.7279280624e-03 1.6827684086e+00 -2.9146403810e+00 1.6827684086e+00 2.9146403810e+00 
7500 5.8034064709e+00 -9.6820511812e-03 1.6830277477e+00 -2.9150895695e+00 1.6830277477e+00 2.9150895695e+00 
7600 5.8032782047e+00 -1.0589050140e-02 1.6833153937e+00 -2.9155877871e+00 1.6833153937e+00 2.9155877871e+00 
7700 5.8031520793e+00 -1.1449199721e-02 1.6836299331e+00 -2.9161325853e+00 1.6836299331e+00 2.9161325853e+00 
7800 5.8030280603e+00 -1.2262830514e-02 1.6839699599e+00 -2.9167215290e+00 1.6839699599e+00 2.9167215290e+00 
7900 5.8029061390e+00 -1.3030326938e-02 1.6843340778e+00 -2.9173521997e+00 1.6843340778e+00 2.9173521997e+00 
8000 5.8027863293e+00 -1.3752125304e-02 1.6847209021e+00 -2.9180221989e+00 1.6847209021e+00 2.9180221989e+00 
8100 5.8026686645e+00 -1.4428711940e-02 1.6851290611e+00 -2.9187291511e+00 1.6851290611e+00 2.9187291511e+00 
8200 5.8025531943e+00 -1.5060621329e-02 1.6855571981e+00 -2.9194707062e+00 1.6855571981e+00 2.9194707062e+00 
8300 5.8024399818e+00 -1.5648434297e-02 1.6860039728e+00 -2.9202445427e+00 1.6860039728e+00 2.9202445427e+00 
8400 5.8023291008e+00 -1.6192776212e-02 1.6864680628e+00 -2.9210483701e+00 1.6864680628e+00 2.9210483701e+00 
8500 5.8022206331e+00 -1.6694315201e-02 1.6869481651e+00 -2.9218799317e+00 1.6869481651e+00 2.9218799317e+00 
8600 5.8021146657e+00 -1.7153760382e-02 1.6874429975e+00 -2.9227370065e+00 1.6874429975e+00 2.9227370065e+00 
8700 5.8020112890e+00 -1.7571860097e-02 1.6879512997e+00 -2.9236174118e+00 1.6879512997e+00 2.9236174118e+00 
8800 5.8019105939e+00 -1.7949400151e-02 1.6884718350e+00 -2.9245190053e+00 1.6884718350e+00 2.9245190053e+00 
8900 5.8018126704e+00 -1.8287202043e-02 1.6890033908e+00 -2.9254396871e+00 1.6890033908e+00 2.9254396871e+00 
9000 5.8017176051e+00 -1.8586121195e-02 1.6895447805e+00 -2.9263774014e+00 1.6895447805e+00 2.9263774014e+00 
9100 5.8016254802e+00 -1.8847045167e-02 1.6900948437e+00 -2.9273301389e+00 1.6900948437e+00 2.9273301389e+00 
9200 5.8015363715e+00 -1.9070891860e-02 1.6906524479e+00 -2.9282959378e+00 1.6906524479e+00 2.9282959378e+00 
9300 5.8014503472e+00 -1.9258607714e-02 1.6912164891e+00 -2.9292728858e+00 1.6912164891e+00 2.9292728858e+00 
9400 5.8013674669e+00 -1.9411165872e-02 1.6917858925e+00 -2.9302591213e+00 1.6917858925e+00 2.9302591213e+00 
9500 5.8012877807e+00 -1.9529564350e-02 1.6923596135e+00 -2.9312528353e+00 1.6923596135e+00 2.9312528353e+00 
9600 5.8012113280e+00 -1.9614824172e-02 1.6929366385e+00 -2.9322522718e+00 1.6929366385e+00 2.9322522718e+00 
9700 5.8011381374e+00 -1.9667987498e-02 1.6935159851e+00 -2.9332557296e+00 1.6935159851e+00 2.9332557296e+00 
9800 5.8010682260e+00 -1.9690115737e-02 1.6940967033e+00 -2.9342615630e+00 1.6940967033e+00 2.9342615630e+00 
9900 5.8010015992e+00 -1.9682287640e-02 1.6946778756e+00 -2.9352681829e+00 1.6946778756e+00 2.9352681829e+00 
10000 5.8009382504e+00 -1.9645597385e-02 1.6952586175e+00 -2.9362740575e+00 1.6952586175e+00 2.9362740575e+00 
10100 5.8008781614e+00 -1.9581152656e-02 1.6958380783e+00 -2.9372777130e+00 1.6958380783e+00 2.9372777130e+00 
10200 5.8008213019e+00 -1.9490072700e-02 1.6964154407e+00 -2.9382777340e+00 1.6964154407e+00 2.9382777340e+00 
10300 5.8007676306e+00 -1.9373486397e-02 1.6969899218e+00 -2.9392727645e+00 1.6969899218e+00 2.9392727645e+00 
10400 5.8007170947e+00 -1.9232530316e-02 1.6975607729e+00 -2.9402615076e+00 1.6975607729e+00 2.9402615076e+00 
10500 5.8006696309e+00 -1.9068346781e-02 1.6981272799e+00 -2.9412427264e+00 1.6981272799e+00 2.9412427264e+00 
10600 5.8006251661e+00 -1.8882081935e-02 1.6986887630e+00 -2.9422152438e+00 1.6986887630e+00 2.9422152438e+00 
10700 5.8005836173e+00 -1.8674883824e-02 1.6992445774e+00 -2.9431779425e+00 1.6992445774e+00 2.9431779425e+00 
10800 5.8005448932e+00 -1.8447900488e-02 1.6997941124e+00 -2.9441297651e+00 1.6997941124e+00 2.9441297651e+00 
10900 5.8005088943e+00 -1.8202278077e-02 1.7003367923e+00 -2.9450697143e+00 1.7003367923e+00 2.9450697143e+00 
11000 5.8004755141e+00 -1.7939158981e-02 1.7008720755e+00 -2.9459968519e+00 1.7008720755e+00 2.9459968519e+00 
11100 5.8004446398e+00 -1.7659680004e-02 1.7013994545e+00 -2.9469102992e+00 1.7013994545e+00 2.9469102992e+00 
11200 5.8004161530e+00 -1.7364970550e-02 1.7019184560e+00 -2.9478092362e+00 1.7019184560e+00 2.9478092362e+00 
11300 5.8003899311e+00 -1.7056150869e-02 1.7024286402e+00 -2.9486929011e+00 1.7024286402e+00 2.9486929011e+00 
11400 5.8003658476e+00 -1.6734330324e-02 1.7029296006e+00 -2.9495605900e+00 1.7029296006e+00 2.9495605900e+00 
11500 5.8003437732e+00 -1.6400605718e-02 1.7034209637e+00 -2.9504116558e+00 1.7034209637e+00 2.9504116558e+00 
11600 5.8003235771e+00 -1.6056059667e-02 1.7039023884e+00 -2.9512455078e+00 1.7039023884e+00 2.9512455078e+00 
11700 5.8003051270e+00 -1.5701759028e-02 1.7043735656e+00 -2.9520616107e+00 1.7043735656e+00 2.9520616107e+00 
11800 5.8002882908e+00 -1.5338753380e-02 1.7048342177e+00 -2.9528594836e+00 1.7048342177e+00 2.9528594836e+00 
11900 5.8002729370e+00 -1.4968073578e-02 1.7052840981e+00 -2.9536386992e+00 1.7052840981e+00 2.9536386992e+00 
12000 5.8002589353e+00 -1.4590730361e-02 1.7057229902e+00 -2.9543988827e+00 1.7057229902e+00 2.9543988827e+00 
12100 5.8002461578e+00 -1.4207713039e-02 1.7061507074e+00 -2.9551397105e+00 1.7061507074e+00 2.9551397105e+00 
12200 5.8002344792e+00 -1.3819988237e-02 1.7065670918e+00 -2.9558609094e+00 1.7065670918e+00 2.9558609094e+00 
12300 5.8002237778e+00 -1.3428498728e-02 1.7069720139e+00 -2.9565622551e+00 1.7069720139e+00 2.9565622551e+00 
12400 5.8002139359e+00 -1.3034162332e-02 1.7073653716e+00 -2.9572435708e+00 1.7073653716e+00 2.9572435708e+00 
12500 5.8002048403e+00 -1.2637870894e-02 1.7077470898e+00 -2.9579047260e+00 1.7077470898e+00 2.9579047260e+00 
12600 5.8001963827e+00 -1.2240489338e-02 1.7081171190e+00 -2.9585456355e+00 1.7081171190e+00 2.9585456355e+00 
12700 5.8001884604e+00 -1.1842854808e-02 1.7084754351e+00 -2.9591662572e+00 1.7084754351e+00 2.9591662572e+00 
12800 5.8001809764e+00 -1.1445775883e-02 1.7088220382e+00 -2.9597665912e+00 1.7088220382e+00 2.9597665912e+00 
12900 5.8001738398e+00 -1.1050031873e-02 1.7091569516e+00 -2.9603466783e+00 1.7091569516e+00 2.9603466783e+00 
13000 5.8001669657e+00 -1.0656372196e-02 1.7094802215e+00 -2.9609065982e+00 1.7094802215e+00 2.9609065982e+00 
13100 5.8001602759e+00 -1.0265515835e-02 1.7097919156e+00 -2.9614464681e+00 1.7097919156e+00 2.9614464681e+00 
13200 5.8001536987e+00 -9.8781508775e-03 1.7100921222e+00 -2.9619664412e+00 1.7100921222e+00 2.9619664412e+00 
13300 5.8001471691e+00 -9.4949341263e-03 1.7103809496e+00 -2.9624667049e+00 1.7103809496e+00 2.9624667049e+00 
13400 5.8001406285e+00 -9.1164907946e-03 1.7106585249e+00 -2.9629474795e+00 1.7106585249e+00 2.9629474795e+00 
13500 5.8001340250e+00 -8.7434142728e-03 1.7109249932e+00 -2.9634090162e+00 1.7109249932e+00 2.9634090162e+00 
13600 5.8001273134e+00 -8.3762659695e-03 1.7111805168e+00 -2.9638515960e+00 1.7111805168e+00 2.9638515960e+00 
13700 5.8001204545e+00 -8.0155752263e-03 1.7114252737e+00 -2.9642755274e+00 1.7114252737e+00 2.9642755274e+00 
13800 5.8001134157e+00 -7.6618393007e-03 1.7116594574e+00 -2.9646811455e+00 1.7116594574e+00 2.9646811455e+00 
13900 5.8001061702e+00 -7.3155234174e-03 1.7118832755e+00 -2.9650688097e+00 1.7118832755e+00 2.9650688097e+00 
14000 5.8000986969e+00 -6.9770608852e-03 1.7120969488e+00 -2.9654389028e+00 1.7120969488e+00 2.9654389028e+00 
14100 5.8000909805e+00 -6.6468532762e-03 1.7123007106e+00 -2.9657918286e+00 1.7123007106e+00 2.9657918286e+00 
14200 5.8000830107e+00 -6.3252706651e-03 1.7124948055e+00 -2.9661280109e+00 1.7124948055e+00 2.9661280109e+00 
14300 5.8000747821e+00 -6.0126519263e-03 1.7126794889e+00 -2.9664478918e+00 1.7126794889e+00 2.9664478918e+00 
14400 5.8000662940e+00 -5.7093050858e-03 1.7128550253e+00 -2.9667519299e+00 1.7128550253e+00 2.9667519299e+00 
14500 5.8000575501e+00 -5.4155077250e-03 1.7130216885e+00 -2.9670405990e+00 1.7130216885e+00 2.9670405990e+00 
14600 5.8000485576e+00 -5.1315074337e-03 1.7131797598e+00 -2.9673143865e+00 1.7131797598e+00 2.9673143865e+00 
14700 5.8000393276e+00 -4.8575223096e-03 1.7133295276e+00 -2.9675737919e+00 1.7133295276e+00 2.9675737919e+00 
14800 5.8000298742e+00 -4.5937415016e-03 1.7134712863e+00 -2.9678193253e+00 1.7134712863e+00 2.9678193253e+00 
14900 5.8000202144e+00 -4.3403257943e-03 1.7136053359e+00 -2.9680515059e+00 1.7136053359e+00 2.9680515059e+00 
15000 5.8000103677e+00 -4.0974082299e-03 1.7137319806e+00 -2.9682708609e+00 1.7137319806e+00 2.9682708609e+00 
15100 5.8000003554e+00 -3.8650947669e-03 1.7138515283e+00 -2.9684779237e+00 1.7138515283e+00 2.9684779237e+00 
15200 5.7999902009e+00 -3.6434649707e-03 1.7139642900e+00 -2.9686732327e+00 1.7139642900e+00 2.9686732327e+00 
15300 5.7999799288e+00 -3.4325727348e-03 1.7140705788e+00 -2.9688573302e+00 1.7140705788e+00 2.9688573302e+00 
15400 5.7999695649e+00 -3.2324470303e-03 1.7141707090e+00 -2.9690307609e+00 1.7141707090e+00 2.9690307609e+00 
15500 5.7999591356e+00 -3.0430926800e-03 1.7142649959e+00 -2.9691940706e+00 1.7142649959e+00 2.9691940706e+00 
15600 5.7999486678e+00 -2.8644911562e-03 1.7143537546e+00 -2.9693478052e+00 1.7143537546e+00 2.9693478052e+00 
15700 5.7999381886e+00 -2.6966013980e-03 1.7144372997e+00 -2.9694925094e+00 1.7144372997e+00 2.9694925094e+00 
15800 5.7999277249e+00 -2.5393606483e-03 1.7145159442e+00 -2.9696287257e+00 1.7145159442e+00 2.9696287257e+00 
15900 5.7999173035e+00 -2.3926853054e-03 1.7145899995e+00 -2.9697569932e+00 1.7145899995e+00 2.9697569932e+00 
16000 5.7999069503e+00 -2.2564717894e-03 1.7146597742e+00 -2.9698778466e+00 1.7146597742e+00 2.9698778466e+00 
16100 5.7998966904e+00 -2.1305974201e-03 1.7147255740e+00 -2.9699918152e+00 1.7147255740e+00 2.9699918152e+00 
16200 5.7998865482e+00 -2.0149213047e-03 1.7147877009e+00 -2.9700994221e+00 1.7147877009e+00 2.9700994221e+00 
16300 5.7998765467e+00 -1.9092852328e-03 1.7148464525e+00 -2.9702011830e+00 1.7148464525e+00 2.9702011830e+00 
16400 5.7998667076e+00 -1.8135145774e-03 1.7149021221e+00 -2.9702976055e+00 1.7149021221e+00 2.9702976055e+00 
16500 5.7998570513e+00 -1.7274192005e-03 1.7149549976e+00 -2.9703891885e+00 1.7149549976e+00 2.9703891885e+00 
16600 5.7998475963e+00 -1.6507943595e-03 1.7150053612e+00 -2.9704764209e+00 1.7150053612e+00 2.9704764209e+00 
16700 5.7998383599e+00 -1.5834216146e-03 1.7150534894e+00 -2.9705597813e+00 1.7150534894e+00 2.9705597813e+00 
16800 5.7998293574e+00 -1.5250697351e-03 1.7150996521e+00 -2.9706397374e+00 1.7150996521e+00 2.9706397374e+00 
16900 5.7998206024e+00 -1.4754956019e-03 1.7151441123e+00 -2.9707167449e+00 1.7151441123e+00 2.9707167449e+00 
17000 5.7998121068e+00 -1.4344451058e-03 1.7151871263e+00 -2.9707912472e+00 1.7151871263e+00 2.9707912472e+00 
17100 5.7998038804e+00 -1.4016540392e-03 1.7152289424e+00 -2.9708636749e+00 1.7152289424e+00 2.9708636749e+00 
17200 5.7997959315e+00 -1.3768489807e-03 1.7152698017e+00 -2.9709344452e+00 1.7152698017e+00 2.9709344452e+00 
17300 5.7997882665e+00 -1.3597481697e-03 1.7153099369e+00 -2.9710039614e+00 1.7153099369e+00 2.9710039614e+00 
17400 5.7997808899e+00 -1.3500623709e-03 1.7153495727e+00 -2.9710726127e+00 1.7153495727e+00 2.9710726127e+00 
17500 5.7997738047e+00 -1.3474957268e-03 1.7153889252e+00 -2.9711407733e+00 1.7153889252e+00 2.9711407733e+00 
17600 5.7997670120e+00 -1.3517465972e-03 1.7154282021e+00 -2.9712088027e+00 1.7154282021e+00 2.9712088027e+00 
17700 5.7997605114e+00 -1.3625083836e-03 1.7154676019e+00 -2.9712770453e+00 1.7154676019e+00 2.9712770453e+00 
17800 5.7997543011e+00 -1.3794703389e-03 1.7155073145e+00 -2.9713458295e+00 1.7155073145e+00 2.9713458295e+00 
17900 5.7997483777e+00 -1.4023183597e-03 1.7155475206e+00 -2.9714154684e+00 1.7155475206e+00 2.9714154684e+00 
18000 5.7997427364e+00 -1.4307357612e-03 1.7155883916e+00 -2.9714862591e+00 1.7155883916e+00 2.9714862591e+00 
18100 5.7997373712e+00 -1.4644040332e-03 1.7156300899e+00 -2.9715584827e+00 1.7156300899e+00 2.9715584827e+00 
18200 5.7997322751e+00 -1.5030035765e-03 1.7156727684e+00 -2.9716324040e+00 1.7156727684e+00 2.9716324040e+00 
18300 5.7997274398e+00 -1.5462144185e-03 1.7157165707e+00 -2.9717082719e+00 1.7157165707e+00 2.9717082719e+00 
18400 5.7997228563e+00 -1.5937169082e-03 1.7157616312e+00 -2.9717863190e+00 1.7157616312e+00 2.9717863190e+00 
18500 5.7997185146e+00 -1.6451923880e-03 1.7158080749e+00 -2.9718667617e+00 1.7158080749e+00 2.9718667617e+00 
18600 5.7997144041e+00 -1.7003238435e-03 1.7158560173e+00 -2.9719498004e+00 1.7158560173e+00 2.9719498004e+00 
18700 5.7997105134e+00 -1.7587965295e-03 1.7159055649e+00 -2.9720356194e+00 1.7159055649e+00 2.9720356194e+00 
18800 5.7997068310e+00 -1.8202985725e-03 1.7159568150e+00 -2.9721243871e+00 1.7159568150e+00 2.9721243871e+00 
18900 5.7997033446e+00 -1.8845215479e-03 1.7160098556e+00 -2.9722162562e+00 1.7160098556e+00 2.9722162562e+00 
19000 5.7997000419e+00 -1.9511610333e-03 1.7160647659e+00 -2.9723113636e+00 1.7160647659e+00 2.9723113636e+00 
19100 5.7996969103e+00 -2.0199171356e-03 1.7161216161e+00 -2.9724098310e+00 1.7161216161e+00 2.9724098310e+00 
19200 5.7996939372e+00 -2.0904949933e-03 1.7161804676e+00 -2.9725117649e+00 1.7161804676e+00 2.9725117649e+00 
19300 5.7996911100e+00 -2.1626052522e-03 1.7162413734e+00 -2.9726172568e+00 1.7162413734e+00 2.9726172568e+00 
19400 5.7996884161e+00 -2.2359645155e-03 1.7163043779e+00 -2.9727263838e+00 1.7163043779e+00 2.9727263838e+00 
19500 5.7996858433e+00 -2.3102957677e-03 1.7163695173e+00 -2.9728392085e+00 1.7163695173e+00 2.9728392085e+00 
19600 5.7996833795e+00 -2.3853287723e-03 1.7164368195e+00 -2.9729557794e+00 1.7164368195e+00 2.9729557794e+00 
19700 5.7996810129e+00 -2.4608004428e-03 1.7165063049e+00 -2.9730761316e+00 1.7165063049e+00 2.9730761316e+00 
19800 5.7996787324e+00 -2.5364551878e-03 1.7165779859e+00 -2.9732002867e+00 1.7165779859e+00 2.9732002867e+00 
19900 5.7996765270e+00 -2.6120452297e-03 1.7166518676e+00 -2.9733282535e+00 1.7166518676e+00 2.9733282535e+00 
20000 5.7996743865e+00 -2.6873308977e-03 1.7167279478e+00 -2.9734600283e+00 1.7167279478e+00 2.9734600283e+00 
20100 5.7996723010e+00 -2.7620808946e-03 1.7168062173e+00 -2.9735955952e+00 1.7168062173e+00 2.9735955952e+00 
20200 5.7996702614e+00 -2.8360725377e-03 1.7168866604e+00 -2.9737349266e+00 1.7168866604e+00 2.9737349266e+00 
20300 5.7996682592e+00 -2.9090919751e-03 1.7169692545e+00 -2.9738779839e+00 1.7169692545e+00 2.9738779839e+00 
20400 5.7996662864e+00 -2.9809343761e-03 1.7170539711e+00 -2.9740247173e+00 1.7170539711e+00 2.9740247173e+00 
20500 5.7996643358e+00 -3.0514040974e-03 1.7171407756e+00 -2.9741750671e+00 1.7171407756e+00 2.9741750671e+00 
20600 5.7996624008e+00 -3.1203148248e-03 1.7172296277e+00 -2.9743289634e+00 1.7172296277e+00 2.9743289634e+00 
20700 5.7996604756e+00 -3.1874896910e-03 1.7173204816e+00 -2.9744863271e+00 1.7173204816e+00 2.9744863271e+00 
20800 5.7996585551e+00 -3.2527613700e-03 1.7174132866e+00 -2.9746470700e+00 1.7174132866e+00 2.9746470700e+00 
20900 5.7996566346e+00 -3.3159721487e-03 1.7175079869e+00 -2.9748110958e+00 1.7175079869e+00 2.9748110958e+00 
21000 5.7996547104e+00 -3.3769739758e-03 1.7176045222e+00 -2.9749782998e+00 1.7176045222e+00 2.9749782998e+00 
21100 5.7996527792e+00 -3.4356284893e-03 1.7177028279e+00 -2.9751485703e+00 1.7177028279e+00 2.9751485703e+00 
21200 5.7996508385e+00 -3.4918070220e-03 1.7178028354e+00 -2.9753217883e+00 1.7178028354e+00 2.9753217883e+00 
21300 5.7996488864e+00 -3.5453905875e-03 1.7179044722e+00 -2.9754978285e+00 1.7179044722e+00 2.9754978285e+00 
21400 5.7996469215e+00 -3.5962698454e-03 1.7180076627e+00 -2.9756765596e+00 1.7180076627e+00 2.9756765596e+00 
21500 5.7996449430e+00 -3.6443450470e-03 1.7181123277e+00 -2.9758578447e+00 1.7181123277e+00 2.9758578447e+00 
21600 5.7996429506e+00 -3.6895259632e-03 1.7182183855e+00 -2.9760415421e+00 1.7182183855e+00 2.9760415421e+00 
21700 5.7996409445e+00 -3.7317317935e-03 1.7183257514e+00 -2.9762275055e+00 1.7183257514e+00 2.9762275055e+00 
21800 5.7996389254e+00 -3.7708910587e-03 1.7184343389e+00 -2.9764155844e+00 1.7184343389e+00 2.9764155844e+00 
21900 5.7996368944e+00 -3.8069414759e-03 1.7185440588e+00 -2.9766056249e+00 1.7185440588e+00 2.9766056249e+00 
22000 5.7996348528e+00 -3.8398298191e-03 1.7186548207e+00 -2.9767974701e+00 1.7186548207e+00 2.9767974701e+00 
22100 5.7996328025e+00 -3.8695117635e-03 1.7187665322e+00 -2.9769909601e+00 1.7187665322e+00 2.9769909601e+00 
22200 5.7996307455e+00 -3.8959517165e-03 1.7188791000e+00 -2.9771859332e+00 1.7188791000e+00 2.9771859332e+00 
22300 5.7996286842e+00 -3.9191226344e-03 1.7189924295e+00 -2.9773822257e+00 1.7189924295e+00 2.9773822257e+00 
22400 5.7996266211e+00 -3.9390058271e-03 1.7191064255e+00 -2.9775796726e+00 1.7191064255e+00 2.9775796726e+00 
22500 5.7996245589e+00 -3.9555907505e-03 1.7192209923e+00 -2.9777781081e+00 1.7192209923e+00 2.9777781081e+00 
22600 5.7996225005e+00 -3.9688747874e-03 1.7193360338e+00 -2.9779773658e+00 1.7193360338e+00 2.9779773658e+00 
22700 5.7996204488e+00 -3.9788630185e-03 1.7194514539e+00 -2.9781772793e+00 1.7194514539e+00 2.9781772793e+00 
22800 5.7996184069e+00 -3.9855679838e-03 1.7195671567e+00 -2.9783776824e+00 1.7195671567e+00 2.9783776824e+00 
22900 5.7996163778e+00 -3.9890094348e-03 1.7196830467e+00 -2.9785784098e+00 1.7196830467e+00 2.9785784098e+00 
23000 5.7996143646e+00 -3.9892140787e-03 1.7197990290e+00 -2.9787792970e+00 1.7197990290e+00 2.9787792970e+00 
23100 5.7996123703e+00 -3.9862153157e-03 1.7199150093e+00 -2.9789801809e+00 1.7199150093e+00 2.9789801809e+00 
23200 5.7996103978e+00 -3.9800529693e-03 1.7200308947e+00 -2.9791809002e+00 1.7200308947e+00 2.9791809002e+00 
23300 5.7996084502e+00 -3.9707730108e-03 1.7201465932e+00 -2.9793812958e+00 1.7201465932e+00 2.9793812958e+00 
23400 5.7996065301e+00 -3.9584272795e-03 1.7202620141e+00 -2.9795812107e+00 1.7202620141e+00 2.9795812107e+00 
23500 5.7996046402e+00 -3.9430731976e-03 1.7203770684e+00 -2.9797804906e+00 1.7203770684e+00 2.9797804906e+00 
23600 5.7996027830e+00 -3.9247734823e-03 1.7204916687e+00 -2.9799789843e+00 1.7204916687e+00 2.9799789843e+00 
23700 5.7996009609e+00 -3.9035958547e-03 1.7206057296e+00 -2.9801765435e+00 1.7206057296e+00 2.9801765435e+00 
23800 5.7995991761e+00 -3.8796127464e-03 1.7207191676e+00 -2.9803730238e+00 1.7207191676e+00 2.9803730238e+00 
23900 5.7995974304e+00 -3.8529010049e-03 1.7208319011e+00 -2.9805682840e+00 1.7208319011e+00 2.9805682840e+00 
24000 5.7995957258e+00 -3.8235415986e-03 1.7209438511e+00 -2.9807621871e+00 1.7209438511e+00 2.9807621871e+00 
24100 5.7995940637e+00 -3.7916193203e-03 1.7210549408e+00 -2.9809546001e+00 1.7210549408e+00 2.9809546001e+00 
24200 5.7995924455e+00 -3.7572224927e-03 1.7211650959e+00 -2.9811453943e+00 1.7211650959e+00 2.9811453943e+00 
24300 5.7995908724e+00 -3.7204426744e-03 1.7212742447e+00 -2.9813344456e+00 1.7212742447e+00 2.9813344456e+00 
24400 5.7995893454e+00 -3.6813743670e-03 1.7213823182e+00 -2.9815216344e+00 1.7213823182e+00 2.9815216344e+00 
24500 5.7995878651e+00 -3.6401147253e-03 1.7214892501e+00 -2.9817068458e+00 1.7214892501e+00 2.9817068458e+00 
24600 5.7995864320e+00 -3.5967632703e-03 1.7215949769e+00 -2.9818899700e+00 1.7215949769e+00 2.9818899700e+00 
24700 5.7995850464e+00 -3.5514216048e-03 1.7216994381e+00 -2.9820709022e+00 1.7216994381e+00 2.9820709022e+00 
24800 5.7995837085e+00 -3.5041931337e-03 1.7218025763e+00 -2.9822495427e+00 1.7218025763e+00 2.9822495427e+00 
24900 5.7995824182e+00 -3.4551827882e-03 1.7219043367e+00 -2.9824257969e+00 1.7219043367e+00 2.9824257969e+00 
25000 5.7995811751e+00 -3.4044967549e-03 1.7220046680e+00 -2.9825995758e+00 1.7220046680e+00 2.9825995758e+00 
25100 5.7995799789e+00 -3.3522422100e-03 1.7221035216e+00 -2.9827707953e+00 1.7221035216e+00 2.9827707953e+00 
25200 5.7995788288e+00 -3.2985270600e-03 1.7222008524e+00 -2.9829393772e+00 1.7222008524e+00 2.9829393772e+00 
25300 5.7995777241e+00 -3.2434596871e-03 1.7222966182e+00 -2.9831052484e+00 1.7222966182e+00 2.9831052484e+00 
25400 5.7995766639e+00 -3.1871487021e-03 1.7223907799e+00 -2.9832683413e+00 1.7223907799e+00 2.9832683413e+00 
25500 5.7995756471e+00 -3.1297027039e-03 1.7224833018e+00 -2.9834285939e+00 1.7224833018e+00 2.9834285939e+00 
25600 5.7995746725e+00 -3.0712300456e-03 1.7225741512e+00 -2.9835859496e+00 1.7225741512e+00 2.9835859496e+00 
25700 5.7995737389e+00 -3.0118386088e-03 1.7226632985e+00 -2.9837403573e+00 1.7226632985e+00 2.9837403573e+00 
25800 5.7995728449e+00 -2.9516355844e-03 1.7227507173e+00 -2.9838917711e+00 1.7227507173e+00 2.9838917711e+00 
25900 5.7995719890e+00 -2.8907272630e-03 1.7228363844e+00 -2.9840401509e+00 1.7228363844e+00 2.9840401509e+00 
26000 5.7995711697e+00 -2.8292188317e-03 1.7229202795e+00 -2.9841854614e+00 1.7229202795e+00 2.9841854614e+00 
26100 5.7995703855e+00 -2.7672141799e-03 1.7230023855e+00 -2.9843276732e+00 1.7230023855e+00 2.9843276732e+00 
26200 5.7995696347e+00 -2.7048157145e-03 1.7230826882e+00 -2.9844667616e+00 1.7230826882e+00 2.9844667616e+00 
26300 5.7995689157e+00 -2.6421241819e-03 1.7231611765e+00 -2.9846027073e+00 1.7231611765e+00 2.9846027073e+00 
26400 5.7995682268e+00 -2.5792385002e-03 1.7232378421e+00 -2.9847354960e+00 1.7232378421e+00 2.9847354960e+00 
26500 5.7995675664e+00 -2.5162556002e-03 1.7233126796e+00 -2.9848651184e+00 1.7233126796e+00 2.9848651184e+00 
26600 5.7995669327e+00 -2.4532702742e-03 1.7233856865e+00 -2.9849915700e+00 1.7233856865e+00 2.9849915700e+00 
26700 5.7995663243e+00 -2.3903750352e-03 1.7234568628e+00 -2.9851148511e+00 1.7234568628e+00 2.9851148511e+00 
26800 5.7995657393e+00 -2.3276599840e-03 1.7235262116e+00 -2.9852349666e+00 1.7235262116e+00 2.9852349666e+00 
26900 5.7995651763e+00 -2.2652126863e-03 1.7235937381e+00 -2.9853519260e+00 1.7235937381e+00 2.9853519260e+00 
27000 5.7995646337e+00 -2.2031180580e-03 1.7236594504e+00 -2.9854657431e+00 1.7236594504e+00 2.9854657431e+00 
27100 5.7995641100e+00 -2.1414582604e-03 1.7237233590e+00 -2.9855764360e+00 1.7237233590e+00 2.9855764360e+00 
27200 5.7995636038e+00 -2.0803126031e-03 1.7237854766e+00 -2.9856840268e+00 1.7237854766e+00 2.9856840268e+00 
27300 5.7995631137e+00 -2.0197574573e-03 1.7238458184e+00 -2.9857885418e+00 1.7238458184e+00 2.9857885418e+00 
27400 5.7995626384e+00 -1.9598661767e-03 1.7239044016e+00 -2.9858900109e+00 1.7239044016e+00 2.9858900109e+00 
27500 5.7995621766e+00 -1.9007090278e-03 1.7239612457e+00 -2.9859884678e+00 1.7239612457e+00 2.9859884678e+00 
27600 5.7995617271e+00 -1.8423531288e-03 1.7240163722e+00 -2.9860839498e+00 1.7240163722e+00 2.9860839498e+00 
27700 5.7995612889e+00 -1.7848623963e-03 1.7240698045e+00 -2.9861764972e+00 1.7240698045e+00 2.9861764972e+00 
27800 5.7995608610e+00 -1.7282975015e-03 1.7241215678e+00 -2.9862661539e+00 1.7241215678e+00 2.9862661539e+00 
27900 5.7995604424e+00 -1.6727158334e-03 1.7241716892e+00 -2.9863529666e+00 1.7241716892e+00 2.9863529666e+00 
28000 5.7995600323e+00 -1.6181714707e-03 1.7242201972e+00 -2.9864369850e+00 1.7242201972e+00 2.9864369850e+00 
28100 5.7995596298e+00 -1.5647151613e-03 1.7242671221e+00 -2.9865182614e+00 1.7242671221e+00 2.9865182614e+00 
28200 5.7995592343e+00 -1.5123943097e-03 1.7243124957e+00 -2.9865968506e+00 1.7243124957e+00 2.9865968506e+00 
28300 5.7995588452e+00 -1.4612529715e-03 1.7243563509e+00 -2.9866728100e+00 1.7243563509e+00 2.9866728100e+00 
28400 5.7995584619e+00 -1.4113318550e-03 1.7243987220e+00 -2.9867461990e+00 1.7243987220e+00 2.9867461990e+00 
28500 5.7995580839e+00 -1.3626683304e-03 1.7244396446e+00 -2.9868170790e+00 1.7244396446e+00 2.9868170790e+00 
28600 5.7995577108e+00 -1.3152964453e-03 1.7244791552e+00 -2.9868855134e+00 1.7244791552e+00 2.9868855134e+00 
28700 5.7995573424e+00 -1.2692469465e-03 1.7245172914e+00 -2.9869515672e+00 1.7245172914e+00 2.9869515672e+00 
28800 5.7995569783e+00 -1.2245473091e-03 1.7245540916e+00 -2.9870153071e+00 1.7245540916e+00 2.9870153071e+00 
28900 5.7995566183e+00 -1.1812217700e-03 1.7245895950e+00 -2.9870768008e+00 1.7245895950e+00 2.9870768008e+00 
29000 5.7995562623e+00 -1.1392913689e-03 1.7246238416e+00 -2.9871361176e+00 1.7246238416e+00 2.9871361176e+00 
29100 5.7995559101e+00 -1.0987739937e-03 1.7246568718e+00 -2.9871933277e+00 1.7246568718e+00 2.9871933277e+00 
29200 5.7995555618e+00 -1.0596844316e-03 1.7246887268e+00 -2.9872485021e+00 1.7246887268e+00 2.9872485021e+00 
29300 5.7995552173e+00 -1.0220344248e-03 1.7247194479e+00 -2.9873017126e+00 1.7247194479e+00 2.9873017126e+00 
29400 5.7995548766e+00 -9.8583273141e-04 1.7247490770e+00 -2.9873530317e+00 1.7247490770e+00 2.9873530317e+00 
29500 5.7995545399e+00 -9.5108519072e-04 1.7247776561e+00 -2.9874025322e+00 1.7247776561e+00 2.9874025322e+00 
29600 5.7995542071e+00 -9.1779479226e-04 1.7248052274e+00 -2.9874502871e+00 1.7248052274e+00 2.9874502871e+00 
29700 5.7995538785e+00 -8.8596174915e-04 1.7248318332e+00 -2.9874963697e+00 1.7248318332e+00 2.9874963697e+00 
29800 5.7995535543e+00 -8.5558357499e-04 1.7248575159e+00 -2.9875408533e+00 1.7248575159e+00 2.9875408533e+00 
29900 5.7995532344e+00 -8.2665516403e-04 1.7248823175e+00 -2.9875838110e+00 1.7248823175e+00 2.9875838110e+00 
30000 5.7995529193e+00 -7.9916887460e-04 1.7249062802e+00 -2.9876253156e+00 1.7249062802e+00 2.9876253156e+00 
30100 5.7995526089e+00 -7.7311461522e-04 1.7249294458e+00 -2.9876654397e+00 1.7249294458e+00 2.9876654397e+00 
30200 5.7995523036e+00 -7.4847993337e-04 1.7249518559e+00 -2.9877042551e+00 1.7249518559e+00 2.9877042551e+00 
30300 5.7995520036e+00 -7.2525010652e-04 1.7249735516e+00 -2.9877418332e+00 1.7249735516e+00 2.9877418332e+00 
30400 5.7995517090e+00 -7.0340823526e-04 1.7249945737e+00 -2.9877782445e+00 1.7249945737e+00 2.9877782445e+00 
30500 5.7995514201e+00 -6.8293533817e-04 1.7250149625e+00 -2.9878135589e+00 1.7250149625e+00 2.9878135589e+00 
30600 5.7995511370e+00 -6.6381044828e-04 1.7250347576e+00 -2.9878478450e+00 1.7250347576e+00 2.9878478450e+00 
30700 5.7995508600e+00 -6.4601071077e-04 1.7250539981e+00 -2.9878811705e+00 1.7250539981e+00 2.9878811705e+00 
30800 5.7995505892e+00 -6.2951148181e-04 1.7250727225e+00 -2.9879136021e+00 1.7250727225e+00 2.9879136021e+00 
30900 5.7995503247e+00 -6.1428642814e-04 1.7250909685e+00 -2.9879452051e+00 1.7250909685e+00 2.9879452051e+00 
31000 5.7995500668e+00 -6.0030762727e-04 1.7251087730e+00 -2.9879760434e+00 1.7251087730e+00 2.9879760434e+00 
31100 5.7995498156e+00 -5.8754566808e-04 1.7251261721e+00 -2.9880061796e+00 1.7251261721e+00 2.9880061796e+00 
31200 5.7995495711e+00 -5.7596975152e-04 1.7251432012e+00 -2.9880356749e+00 1.7251432012e+00 2.9880356749e+00 
31300 5.7995493335e+00 -5.6554779124e-04 1.7251598946e+00 -2.9880645887e+00 1.7251598946e+00 2.9880645887e+00 
31400 5.7995491029e+00 -5.5624651399e-04 1.7251762858e+00 -2.9880929791e+00 1.7251762858e+00 2.9880929791e+00 
31500 5.7995488793e+00 -5.4803155953e-04 1.7251924073e+00 -2.9881209023e+00 1.7251924073e+00 2.9881209023e+00 
31600 5.7995486628e+00 -5.4086757985e-04 1.7252082905e+00 -2.9881484128e+00 1.7252082905e+00 2.9881484128e+00 
31700 5.7995484533e+00 -5.3471833760e-04 1.7252239660e+00 -2.9881755635e+00 1.7252239660e+00 2.9881755635e+00 
31800 5.7995482509e+00 -5.2954680345e-04 1.7252394631e+00 -2.9882024053e+00 1.7252394631e+00 2.9882024053e+00 
31900 5.7995480556e+00 -5.2531525224e-04 1.7252548102e+00 -2.9882289872e+00 1.7252548102e+00 2.9882289872e+00 
32000 5.7995478672e+00 -5.2198535784e-04 1.7252700345e+00 -2.9882553565e+00 1.7252700345e+00 2.9882553565e+00 
32100 5.7995476859e+00 -5.1951828645e-04 1.7252851621e+00 -2.9882815583e+00 1.7252851621e+00 2.9882815583e+00 
32200 5.7995475114e+00 -5.1787478822e-04 1.7253002182e+00 -2.9883076362e+00 1.7253002182e+00 2.9883076362e+00 
32300 5.7995473437e+00 -5.1701528711e-04 1.7253152264e+00 -2.9883336312e+00 1.7253152264e+00 2.9883336312e+00 
32400 5.7995471826e+00 -5.1689996882e-04 1.7253302097e+00 -2.9883595830e+00 1.7253302097e+00 2.9883595830e+00 
32500 5.7995470281e+00 -5.1748886664e-04 1.7253451894e+00 -2.9883855287e+00 1.7253451894e+00 2.9883855287e+00 
32600 5.7995468800e+00 -5.1874194513e-04 1.7253601861e+00 -2.9884115037e+00 1.7253601861e+00 2.9884115037e+00 
32700 5.7995467381e+00 -5.2061918152e-04 1.7253752190e+00 -2.9884375414e+00 1.7253752190e+00 2.9884375414e+00 
32800 5.7995466024e+00 -5.2308064481e-04 1.7253903062e+00 -2.9884636731e+00 1.7253903062e+00 2.9884636731e+00 
32900 5.7995464725e+00 -5.2608657224e-04 1.7254054645e+00 -2.9884899282e+00 1.7254054645e+00 2.9884899282e+00 
33000 5.7995463483e+00 -5.2959744334e-04 1.7254207098e+00 -2.9885163339e+00 1.7254207098e+00 2.9885163339e+00 
33100 5.7995462296e+00 -5.3357405129e-04 1.7254360568e+00 -2.9885429155e+00 1.7254360568e+00 2.9885429155e+00 
33200 5.7995461163e+00 -5.3797757161e-04 1.7254515188e+00 -2.9885696965e+00 1.7254515188e+00 2.9885696965e+00 
33300 5.7995460080e+00 -5.4276962803e-04 1.7254671083e+00 -2.9885966983e+00 1.7254671083e+00 2.9885966983e+00 
33400 5.7995459047e+00 -5.4791235559e-04 1.7254828365e+00 -2.9886239404e+00 1.7254828365e+00 2.9886239404e+00 
33500 5.7995458060e+00 -5.5336846086e-04 1.7254987136e+00 -2.9886514403e+00 1.7254987136e+00 2.9886514403e+00 
33600 5.7995457118e+00 -5.5910127927e-04 1.7255147487e+00 -2.9886792139e+00 1.7255147487e+00 2.9886792139e+00 
33700 5.7995456219e+00 -5.6507482946e-04 1.7255309497e+00 -2.9887072749e+00 1.7255309497e+00 2.9887072749e+00 
33800 5.7995455360e+00 -5.7125386471e-04 1.7255473236e+00 -2.9887356354e+00 1.7255473236e+00 2.9887356354e+00 
33900 5.7995454540e+00 -5.7760392139e-04 1.7255638765e+00 -2.9887643058e+00 1.7255638765e+00 2.9887643058e+00 
34000 5.7995453756e+00 -5.8409136436e-04 1.7255806132e+00 -2.9887932946e+00 1.7255806132e+00 2.9887932946e+00 
34100 5.7995453006e+00 -5.9068342943e-04 1.7255975377e+00 -2.9888226087e+00 1.7255975377e+00 2.9888226087e+00 
34200 5.7995452288e+00 -5.9734826283e-04 1.7256146531e+00 -2.9888522534e+00 1.7256146531e+00 2.9888522534e+00 
34300 5.7995451601e+00 -6.0405495758e-04 1.7256319614e+00 -2.9888822323e+00 1.7256319614e+00 2.9888822323e+00 
34400 5.7995450942e+00 -6.1077358705e-04 1.7256494638e+00 -2.9889125474e+00 1.7256494638e+00 2.9889125474e+00 
34500 5.7995450309e+00 -6.1747523537e-04 1.7256671608e+00 -2.9889431994e+00 1.7256671608e+00 2.9889431994e+00 
34600 5.7995449702e+00 -6.2413202509e-04 1.7256850517e+00 -2.9889741875e+00 1.7256850517e+00 2.9889741875e+00 
34700 5.7995449118e+00 -6.3071714177e-04 1.7257031354e+00 -2.9890055092e+00 1.7257031354e+00 2.9890055092e+00 
34800 5.7995448556e+00 -6.3720485578e-04 1.7257214096e+00 -2.9890371611e+00 1.7257214096e+00 2.9890371611e+00 
34900 5.7995448014e+00 -6.4357054128e-04 1.7257398716e+00 -2.9890691383e+00 1.7257398716e+00 2.9890691383e+00 
35000 5.7995447491e+00 -6.4979069234e-04 1.7257585179e+00 -2.9891014346e+00 1.7257585179e+00 2.9891014346e+00 
35100 5.7995446986e+00 -6.5584293636e-04 1.7257773441e+00 -2.9891340426e+00 1.7257773441e+00 2.9891340426e+00 
35200 5.7995446497e+00 -6.6170604480e-04 1.7257963456e+00 -2.9891669540e+00 1.7257963456e+00 2.9891669540e+00 
35300 5.7995446024e+00 -6.6735994127e-04 1.7258155166e+00 -2.9892001593e+00 1.7258155166e+00 2.9892001593e+00 
35400 5.7995445565e+00 -6.7278570704e-04 1.7258348513e+00 -2.9892336479e+00 1.7258348513e+00 2.9892336479e+00 
35500 5.7995445120e+00 -6.7796558405e-04 1.7258543429e+00 -2.9892674084e+00 1.7258543429e+00 2.9892674084e+00 
35600 5.7995444687e+00 -6.8288297544e-04 1.7258739844e+00 -2.9893014285e+00 1.7258739844e+00 2.9893014285e+00 
35700 5.7995444266e+00 -6.8752244376e-04 1.7258937681e+00 -2.9893356949e+00 1.7258937681e+00 2.9893356949e+00 
35800 5.7995443857e+00 -6.9186970687e-04 1.7259136860e+00 -2.9893701937e+00 1.7259136860e+00 2.9893701937e+00 
35900 5.7995443459e+00 -6.9591163157e-04 1.7259337297e+00 -2.9894049103e+00 1.7259337297e+00 2.9894049103e+00 
36000 5.7995443070e+00 -6.9963622512e-04 1.7259538901e+00 -2.9894398292e+00 1.7259538901e+00 2.9894398292e+00 
36100 5.7995442692e+00 -7.0303262469e-04 1.7259741583e+00 -2.9894749347e+00 1.7259741583e+00 2.9894749347e+00 
36200 5.7995442323e+00 -7.0609108481e-04 1.7259945246e+00 -2.9895102102e+00 1.7259945246e+00 2.9895102102e+00 
36300 5.7995441963e+00 -7.0880296296e-04 1.7260149792e+00 -2.9895456387e+00 1.7260149792e+00 2.9895456387e+00 
36400 5.7995441613e+00 -7.1116070325e-04 1.7260355122e+00 -2.9895812028e+00 1.7260355122e+00 2.9895812028e+00 
36500 5.7995441271e+00 -7.1315781849e-04 1.7260561132e+00 -2.9896168848e+00 1.7260561132e+00 2.9896168848e+00 
36600 5.7995440938e+00 -7.1478887055e-04 1.7260767719e+00 -2.9896526666e+00 1.7260767719e+00 2.9896526666e+00 
36700 5.7995440613e+00 -7.1604944911e-04 1.7260974775e+00 -2.9896885298e+00 1.7260974775e+00 2.9896885298e+00 
36800 5.7995440298e+00 -7.1693614911e-04 1.7261182194e+00 -2.9897244559e+00 1.7261182194e+00 2.9897244559e+00 
36900 5.7995439990e+00 -7.1744654663e-04 1.7261389867e+00 -2.9897604260e+00 1.7261389867e+00 2.9897604260e+00 
37000 5.7995439692e+00 -7.1757917364e-04 1.7261597686e+00 -2.9897964212e+00 1.7261597686e+00 2.9897964212e+00 
37100 5.7995439402e+00 -7.1733349142e-04 1.7261805541e+00 -2.9898324227e+00 1.7261805541e+00 2.9898324227e+00 
37200 5.7995439121e+00 -7.1670986302e-04 1.7262013322e+00 -2.9898684114e+00 1.7262013322e+00 2.9898684114e+00 
37300 5.7995438849e+00 -7.1570952456e-04 1.7262220920e+00 -2.9899043684e+00 1.7262220920e+00 2.9899043684e+00 
37400 5.7995438586e+00 -7.1433455569e-04 1.7262428225e+00 -2.9899402748e+00 1.7262428225e+00 2.9899402748e+00 
37500 5.7995438332e+00 -7.1258784914e-04 1.7262635130e+00 -2.9899761118e+00 1.7262635130e+00 2.9899761118e+00 
37600 5.7995438088e+00 -7.1047307962e-04 1.7262841526e+00 -2.9900118607e+00 1.7262841526e+00 2.9900118607e+00 
37700 5.7995437853e+00 -7.0799467192e-04 1.7263047308e+00 -2.9900475031e+00 1.7263047308e+00 2.9900475031e+00 
37800 5.7995437627e+00 -7.0515776854e-04 1.7263252369e+00 -2.9900830207e+00 1.7263252369e+00 2.9900830207e+00 
37900 5.7995437411e+00 -7.0196819672e-04 1.7263456606e+00 -2.9901183956e+00 1.7263456606e+00 2.9901183956e+00 
38000 5.7995437204e+00 -6.9843243516e-04 1.7263659917e+00 -2.9901536101e+00 1.7263659917e+00 2.9901536101e+00 
38100 5.7995437008e+00 -6.9455758030e-04 1.7263862201e+00 -2.9901886468e+00 1.7263862201e+00 2.9901886468e+00 
38200 5.7995436821e+00 -6.9035131242e-04 1.7264063361e+00 -2.9902234886e+00 1.7264063361e+00 2.9902234886e+00 
38300 5.7995436644e+00 -6.8582186149e-04 1.7264263300e+00 -2.9902581191e+00 1.7264263300e+00 2.9902581191e+00 
38400 5.7995436477e+00 -6.8097797300e-04 1.7264461925e+00 -2.9902925220e+00 1.7264461925e+00 2.9902925220e+00 
38500 5.7995436320e+00 -6.7582887367e-04 1.7264659145e+00 -2.9903266815e+00 1.7264659145e+00 2.9903266815e+00 
38600 5.7995436173e+00 -6.7038423728e-04 1.7264854872e+00 -2.9903605823e+00 1.7264854872e+00 2.9903605823e+00 
38700 5.7995436036e+00 -6.6465415051e-04 1.7265049019e+00 -2.9903942096e+00 1.7265049019e+00 2.9903942096e+00 
38800 5.7995435909e+00 -6.5864907907e-04 1.7265241505e+00 -2.9904275492e+00 1.7265241505e+00 2.9904275492e+00 
38900 5.7995435792e+00 -6.5237983399e-04 1.7265432250e+00 -2.9904605871e+00 1.7265432250e+00 2.9904605871e+00 
39000 5.7995435685e+00 -6.4585753823e-04 1.7265621177e+00 -2.9904933102e+00 1.7265621177e+00 2.9904933102e+00 
39100 5.7995435588e+00 -6.3909359369e-04 1.7265808213e+00 -2.9905257058e+00 1.7265808213e+00 2.9905257058e+00 
39200 5.7995435500e+00 -6.3209964856e-04 1.7265993288e+00 -2.9905577618e+00 1.7265993288e+00 2.9905577618e+00 
39300 5.7995435421e+00 -6.2488756525e-04 1.7266176336e+00 -2.9905894666e+00 1.7266176336e+00 2.9905894666e+00 
39400 5.7995435352e+00 -6.1746938870e-04 1.7266357293e+00 -2.9906208093e+00 1.7266357293e+00 2.9906208093e+00 
39500 5.7995435292e+00 -6.0985731547e-04 1.7266536101e+00 -2.9906517797e+00 1.7266536101e+00 2.9906517797e+00 
39600 5.7995435241e+00 -6.0206366323e-04 1.7266712702e+00 -2.9906823679e+00 1.7266712702e+00 2.9906823679e+00 
39700 5.7995435199e+00 -5.9410084108e-04 1.7266887044e+00 -2.9907125650e+00 1.7266887044e+00 2.9907125650e+00 
39800 5.7995435165e+00 -5.8598132049e-04 1.7267059079e+00 -2.9907423623e+00 1.7267059079e+00 2.9907423623e+00 
39900 5.7995435139e+00 -5.7771760704e-04 1.7267228762e+00 -2.9907717521e+00 1.7267228762e+00 2.9907717521e+00 
40000 5.7995435121e+00 -5.6932221288e-04 1.7267396049e+00 -2.9908007272e+00 1.7267396049e+00 2.9908007272e+00 
40100 5.7995435112e+00 -5.6080763008e-04 1.7267560904e+00 -2.9908292809e+00 1.7267560904e+00 2.9908292809e+00 
40200 5.7995435109e+00 -5.5218630478e-04 1.7267723292e+00 -2.9908574073e+00 1.7267723292e+00 2.9908574073e+00 
40300 5.7995435114e+00 -5.4347061218e-04 1.7267883182e+00 -2.9908851010e+00 1.7267883182e+00 2.9908851010e+00 
40400 5.7995435125e+00 -5.3467283253e-04 1.7268040547e+00 -2.9909123574e+00 1.7268040547e+00 2.9909123574e+00 
40500 5.7995435144e+00 -5.2580512797e-04 1.7268195363e+00 -2.9909391723e+00 1.7268195363e+00 2.9909391723e+00 
40600 5.7995435168e+00 -5.1687952030e-04 1.7268347610e+00 -2.9909655423e+00 1.7268347610e+00 2.9909655423e+00 
40700 5.7995435199e+00 -5.0790786977e-04 1.7268497271e+00 -2.9909914643e+00 1.7268497271e+00 2.9909914643e+00 
40800 5.7995435235e+00 -4.9890185476e-04 1.7268644333e+00 -2.9910169363e+00 1.7268644333e+00 2.9910169363e+00 
40900 5.7995435276e+00 -4.8987295258e-04 1.7268788786e+00 -2.9910419563e+00 1.7268788786e+00 2.9910419563e+00 
41000 5.7995435323e+00 -4.8083242110e-04 1.7268930624e+00 -2.9910665233e+00 1.7268930624e+00 2.9910665233e+00 
41100 5.7995435374e+00 -4.7179128155e-04 1.7269069843e+00 -2.9910906368e+00 1.7269069843e+00 2.9910906368e+00 
41200 5.7995435430e+00 -4.6276030219e-04 1.7269206444e+00 -2.9911142967e+00 1.7269206444e+00 2.9911142967e+00 
41300 5.7995435490e+00 -4.5374998309e-04 1.7269340428e+00 -2.9911375034e+00 1.7269340428e+00 2.9911375034e+00 
41400 5.7995435554e+00 -4.4477054190e-04 1.7269471803e+00 -2.9911602582e+00 1.7269471803e+00 2.9911602582e+00 
41500 5.7995435621e+00 -4.3583190060e-04 1.7269600576e+00 -2.9911825625e+00 1.7269600576e+00 2.9911825625e+00 
41600 5.7995435692e+00 -4.2694367332e-04 1.7269726761e+00 -2.9912044183e+00 1.7269726761e+00 2.9912044183e+00 
41700 5.7995435766e+00 -4.1811515511e-04 1.7269850372e+00 -2.9912258283e+00 1.7269850372e+00 2.9912258283e+00 
41800 5.7995435843e+00 -4.0935531174e-04 1.7269971425e+00 -2.9912467954e+00 1.7269971425e+00 2.9912467954e+00 
41900 5.7995435923e+00 -4.0067277048e-04 1.7270089942e+00 -2.9912673231e+00 1.7270089942e+00 2.9912673231e+00 
42000 5.7995436005e+00 -3.9207581189e-04 1.7270205944e+00 -2.9912874152e+00 1.7270205944e+00 2.9912874152e+00 
42100 5.7995436089e+00 -3.8357236251e-04 1.7270319456e+00 -2.9913070762e+00 1.7270319456e+00 2.9913070762e+00 
42200 5.7995436175e+00 -3.7516998856e-04 1.7270430506e+00 -2.9913263105e+00 1.7270430506e+00 2.9913263105e+00 
42300 5.7995436263e+00 -3.6687589055e-04 1.7270539123e+00 -2.9913451234e+00 1.7270539123e+00 2.9913451234e+00 
42400 5.7995436353e+00 -3.5869689885e-04 1.7270645337e+00 -2.9913635203e+00 1.7270645337e+00 2.9913635203e+00 
42500 5.7995436443e+00 -3.5063947009e-04 1.7270749183e+00 -2.9913815070e+00 1.7270749183e+00 2.9913815070e+00 
42600 5.7995436536e+00 -3.4270968451e-04 1.7270850696e+00 -2.9913990895e+00 1.7270850696e+00 2.9913990895e+00 
42700 5.7995436629e+00 -3.3491324412e-04 1.7270949912e+00 -2.9914162742e+00 1.7270949912e+00 2.9914162742e+00 
42800 5.7995436724e+00 -3.2725547174e-04 1.7271046871e+00 -2.9914330680e+00 1.7271046871e+00 2.9914330680e+00 
42900 5.7995436819e+00 -3.1974131085e-04 1.7271141612e+00 -2.9914494776e+00 1.7271141612e+00 2.9914494776e+00 
43000 5.7995436915e+00 -3.1237532617e-04 1.7271234177e+00 -2.9914655104e+00 1.7271234177e+00 2.9914655104e+00 
43100 5.7995437012e+00 -3.0516170511e-04 1.7271324609e+00 -2.9914811737e+00 1.7271324609e+00 2.9914811737e+00 
43200 5.7995437109e+00 -2.9810425988e-04 1.7271412953e+00 -2.9914964753e+00 1.7271412953e+00 2.9914964753e+00 
43300 5.7995437207e+00 -2.9120643033e-04 1.7271499253e+00 -2.9915114229e+00 1.7271499253e+00 2.9915114229e+00 
43400 5.7995437305e+00 -2.8447128749e-04 1.7271583555e+00 -2.9915260245e+00 1.7271583555e+00 2.9915260245e+00 
43500 5.7995437403e+00 -2.7790153778e-04 1.7271665908e+00 -2.9915402884e+00 1.7271665908e+00 2.9915402884e+00 
43600 5.7995437502e+00 -2.7149952781e-04 1.7271746358e+00 -2.9915542228e+00 1.7271746358e+00 2.9915542228e+00 
43700 5.7995437601e+00 -2.6526724983e-04 1.7271824955e+00 -2.9915678361e+00 1.7271824955e+00 2.9915678361e+00 
43800 5.7995437701e+00 -2.5920634768e-04 1.7271901747e+00 -2.9915811368e+00 1.7271901747e+00 2.9915811368e+00 
43900 5.7995437800e+00 -2.5331812339e-04 1.7271976784e+00 -2.9915941336e+00 1.7271976784e+00 2.9915941336e+00 
44000 5.7995437900e+00 -2.4760354417e-04 1.7272050116e+00 -2.9916068351e+00 1.7272050116e+00 2.9916068351e+00 
44100 5.7995437999e+00 -2.4206324998e-04 1.7272121793e+00 -2.9916192501e+00 1.7272121793e+00 2.9916192501e+00 
44200 5.7995438099e+00 -2.3669756149e-04 1.7272191867e+00 -2.9916313871e+00 1.7272191867e+00 2.9916313871e+00 
44300 5.7995438199e+00 -2.3150648852e-04 1.7272260387e+00 -2.9916432551e+00 1.7272260387e+00 2.9916432551e+00 
44400 5.7995438299e+00 -2.2648973881e-04 1.7272327404e+00 -2.9916548628e+00 1.7272327404e+00 2.9916548628e+00 
44500 5.7995438399e+00 -2.2164672716e-04 1.7272392968e+00 -2.9916662189e+00 1.7272392968e+00 2.9916662189e+00 
44600 5.7995438499e+00 -2.1697658499e-04 1.7272457130e+00 -2.9916773321e+00 1.7272457130e+00 2.9916773321e+00 
44700 5.7995438600e+00 -2.1247817008e-04 1.7272519940e+00 -2.9916882111e+00 1.7272519940e+00 2.9916882111e+00 
44800 5.7995438700e+00 -2.0815007665e-04 1.7272581448e+00 -2.9916988645e+00 1.7272581448e+00 2.9916988645e+00 
44900 5.7995438800e+00 -2.0399064568e-04 1.7272641702e+00 -2.9917093009e+00 1.7272641702e+00 2.9917093009e+00 
45000 5.7995438901e+00 -1.9999797546e-04 1.7272700753e+00 -2.9917195287e+00 1.7272700753e+00 2.9917195287e+00 
45100 5.7995439001e+00 -1.9616993225e-04 1.7272758647e+00 -2.9917295563e+00 1.7272758647e+00 2.9917295563e+00 
45200 5.7995439102e+00 -1.9250416124e-04 1.7272815433e+00 -2.9917393919e+00 1.7272815433e+00 2.9917393919e+00 
45300 5.7995439202e+00 -1.8899809749e-04 1.7272871157e+00 -2.9917490437e+00 1.7272871157e+00 2.9917490437e+00 
45400 5.7995439303e+00 -1.8564897705e-04 1.7272925867e+00 -2.9917585197e+00 1.7272925867e+00 2.9917585197e+00 
45500 5.7995439404e+00 -1.8245384823e-04 1.7272979607e+00 -2.9917678277e+00 1.7272979607e+00 2.9917678277e+00 
45600 5.7995439504e+00 -1.7940958275e-04 1.7273032422e+00 -2.9917769755e+00 1.7273032422e+00 2.9917769755e+00 
45700 5.7995439605e+00 -1.7651288709e-04 1.7273084355e+00 -2.9917859707e+00 1.7273084355e+00 2.9917859707e+00 
45800 5.7995439706e+00 -1.7376031376e-04 1.7273135450e+00 -2.9917948205e+00 1.7273135450e+00 2.9917948205e+00 
45900 5.7995439807e+00 -1.7114827255e-04 1.7273185748e+00 -2.9918035324e+00 1.7273185748e+00 2.9918035324e+00 
46000 5.7995439908e+00 -1.6867304177e-04 1.7273235290e+00 -2.9918121133e+00 1.7273235290e+00 2.9918121133e+00 
46100 5.7995440009e+00 -1.6633077940e-04 1.7273284114e+00 -2.9918205700e+00 1.7273284114e+00 2.9918205700e+00 
46200 5.7995440110e+00 -1.6411753423e-04 1.7273332261e+00 -2.9918289093e+00 1.7273332261e+00 2.9918289093e+00 
46300 5.7995440211e+00 -1.6202925672e-04 1.7273379767e+00 -2.9918371376e+00 1.7273379767e+00 2.9918371376e+00 
46400 5.7995440313e+00 -1.6006180999e-04 1.7273426669e+00 -2.9918452611e+00 1.7273426669e+00 2.9918452611e+00 
46500 5.7995440414e+00 -1.5821098042e-04 1.7273473001e+00 -2.9918532860e+00 1.7273473001e+00 2.9918532860e+00 
46600 5.7995440515e+00 -1.5647248827e-04 1.7273518797e+00 -2.9918612181e+00 1.7273518797e+00 2.9918612181e+00 
46700 5.7995440616e+00 -1.5484199801e-04 1.7273564089e+00 -2.9918690630e+00 1.7273564089e+00 2.9918690630e+00 
46800 5.7995440717e+00 -1.5331512853e-04 1.7273608910e+00 -2.9918768262e+00 1.7273608910e+00 2.9918768262e+00 
46900 5.7995440817e+00 -1.5188746311e-04 1.7273653288e+00 -2.9918845128e+00 1.7273653288e+00 2.9918845128e+00 
47000 5.7995440918e+00 -1.5055455914e-04 1.7273697253e+00 -2.9918921277e+00 1.7273697253e+00 2.9918921277e+00 
47100 5.7995441019e+00 -1.4931195768e-04 1.7273740832e+00 -2.9918996759e+00 1.7273740832e+00 2.9918996759e+00 
47200 5.7995441119e+00 -1.4815519269e-04 1.7273784052e+00 -2.9919071617e+00 1.7273784052e+00 2.9919071617e+00 
47300 5.7995441219e+00 -1.4707980004e-04 1.7273826936e+00 -2.9919145895e+00 1.7273826936e+00 2.9919145895e+00 
47400 5.7995441319e+00 -1.4608132627e-04 1.7273869509e+00 -2.9919219633e+00 1.7273869509e+00 2.9919219633e+00 
47500 5.7995441419e+00 -1.4515533700e-04 1.7273911793e+00 -2.9919292871e+00 1.7273911793e+00 2.9919292871e+00 
47600 5.7995441518e+00 -1.4429742514e-04 1.7273953809e+00 -2.9919365645e+00 1.7273953809e+00 2.9919365645e+00 
47700 5.7995441618e+00 -1.4350321874e-04 1.7273995576e+00 -2.9919437988e+00 1.7273995576e+00 2.9919437988e+00 
47800 5.7995441716e+00 -1.4276838853e-04 1.7274037114e+00 -2.9919509933e+00 1.7274037114e+00 2.9919509933e+00 
47900 5.7995441815e+00 -1.4208865518e-04 1.7274078438e+00 -2.9919581509e+00 1.7274078438e+00 2.9919581509e+00 
48000 5.7995441913e+00 -1.4145979626e-04 1.7274119566e+00 -2.9919652744e+00 1.7274119566e+00 2.9919652744e+00 
48100 5.7995442010e+00 -1.4087765280e-04 1.7274160512e+00 -2.9919723664e+00 1.7274160512e+00 2.9919723664e+00 
48200 5.7995442108e+00 -1.4033813562e-04 1.7274201289e+00 -2.9919794292e+00 1.7274201289e+00 2.9919794292e+00 
48300 5.7995442204e+00 -1.3983723126e-04 1.7274241909e+00 -2.9919864649e+00 1.7274241909e+00 2.9919864649e+00 
48400 5.7995442300e+00 -1.3937100760e-04 1.7274282385e+00 -2.9919934755e+00 1.7274282385e+00 2.9919934755e+00 
48500 5.7995442396e+00 -1.3893561916e-04 1.7274322726e+00 -2.9920004627e+00 1.7274322726e+00 2.9920004627e+00 
48600 5.7995442491e+00 -1.3852731207e-04 1.7274362940e+00 -2.9920074281e+00 1.7274362940e+00 2.9920074281e+00 
48700 5.7995442585e+00 -1.3814242865e-04 1.7274403036e+00 -2.9920143730e+00 1.7274403036e+00 2.9920143730e+00 
48800 5.7995442679e+00 -1.3777741172e-04 1.7274443021e+00 -2.9920212985e+00 1.7274443021e+00 2.9920212985e+00 
48900 5.7995442772e+00 -1.3742880859e-04 1.7274482900e+00 -2.9920282058e+00 1.7274482900e+00 2.9920282058e+00 
49000 5.7995442865e+00 -1.3709327461e-04 1.7274522678e+00 -2.9920350955e+00 1.7274522678e+00 2.9920350955e+00 
49100 5.7995442957e+00 -1.3676757651e-04 1.7274562359e+00 -2.9920419684e+00 1.7274562359e+00 2.9920419684e+00 
49200 5.7995443048e+00 -1.3644859538e-04 1.7274601945e+00 -2.9920488250e+00 1.7274601945e+00 2.9920488250e+00 
49300 5.7995443138e+00 -1.3613332929e-04 1.7274641439e+00 -2.9920556656e+00 1.7274641439e+00 2.9920556656e+00 
49400 5.7995443228e+00 -1.3581889562e-04 1.7274680842e+00 -2.9920624903e+00 1.7274680842e+00 2.9920624903e+00 
49500 5.7995443317e+00 -1.3550253311e-04 1.7274720154e+00 -2.9920692993e+00 1.7274720154e+00 2.9920692993e+00 
49600 5.7995443405e+00 -1.3518160353e-04 1.7274759374e+00 -2.9920760923e+00 1.7274759374e+00 2.9920760923e+00 
49700 5.7995443492e+00 -1.3485359310e-04 1.7274798500e+00 -2.9920828693e+00 1.7274798500e+00 2.9920828693e+00 
49800 5.7995443579e+00 -1.3451611361e-04 1.7274837532e+00 -2.9920896298e+00 1.7274837532e+00 2.9920896298e+00 
49900 5.7995443664e+00 -1.3416690323e-04 1.7274876466e+00 -2.9920963734e+00 1.7274876466e+00 2.9920963734e+00 
50000 5.7995443749e+00 -1.3380382708e-04 1.7274915299e+00 -2.9921030995e+00 1.7274915299e+00 2.9921030995e+00 
50100 5.7995443833e+00 -1.3342487742e-04 1.7274954027e+00 -2.9921098074e+00 1.7274954027e+00 2.9921098074e+00 
50200 5.7995443917e+00 -1.3302817375e-04 1.7274992645e+00 -2.9921164962e+00 1.7274992645e+00 2.9921164962e+00 
50300 5.7995443999e+00 -1.3261196244e-04 1.7275031148e+00 -2.9921231651e+00 1.7275031148e+00 2.9921231651e+00 
50400 5.7995444081e+00 -1.3217461630e-04 1.7275069531e+00 -2.9921298132e+00 1.7275069531e+00 2.9921298132e+00 
50500 5.7995444161e+00 -1.3171463379e-04 1.7275107787e+00 -2.9921364393e+00 1.7275107787e+00 2.9921364393e+00 
50600 5.7995444241e+00 -1.3123063801e-04 1.7275145910e+00 -2.9921430423e+00 1.7275145910e+00 2.9921430423e+00 
50700 5.7995444320e+00 -1.3072137553e-04 1.7275183892e+00 -2.9921496211e+00 1.7275183892e+00 2.9921496211e+00 
50800 5.7995444399e+00 -1.3018571491e-04 1.7275221727e+00 -2.9921561743e+00 1.7275221727e+00 2.9921561743e+00 
50900 5.7995444476e+00 -1.2962264513e-04 1.7275259407e+00 -2.9921627007e+00 1.7275259407e+00 2.9921627007e+00 
51000 5.7995444552e+00 -1.2903127367e-04 1.7275296924e+00 -2.9921691988e+00 1.7275296924e+00 2.9921691988e+00 
51100 5.7995444628e+00 -1.2841082455e-04 1.7275334269e+00 -2.9921756672e+00 1.7275334269e+00 2.9921756672e+00 
51200 5.7995444703e+00 -1.2776063613e-04 1.7275371435e+00 -2.9921821046e+00 1.7275371435e+00 2.9921821046e+00 
51300 5.7995444777e+00 -1.2708015872e-04 1.7275408413e+00 -2.9921885093e+00 1.7275408413e+00 2.9921885093e+00 
51400 5.7995444850e+00 -1.2636895207e-04 1.7275445194e+00 -2.9921948799e+00 1.7275445194e+00 2.9921948799e+00 
51500 5.7995444923e+00 -1.2562668270e-04 1.7275481769e+00 -2.9922012148e+00 1.7275481769e+00 2.9922012148e+00 
51600 5.7995444994e+00 -1.2485312111e-04 1.7275518128e+00 -2.9922075125e+00 1.7275518128e+00 2.9922075125e+00 
51700 5.7995445065e+00 -1.2404813879e-04 1.7275554264e+00 -2.9922137715e+00 1.7275554264e+00 2.9922137715e+00 
51800 5.7995445135e+00 -1.2321170524e-04 1.7275590167e+00 -2.9922199900e+00 1.7275590167e+00 2.9922199900e+00 
51900 5.7995445204e+00 -1.2234388476e-04 1.7275625828e+00 -2.9922261666e+00 1.7275625828e+00 2.9922261666e+00 
52000 5.7995445273e+00 -1.2144483319e-04 1.7275661237e+00 -2.9922322997e+00 1.7275661237e+00 2.9922322997e+00 
52100 5.7995445340e+00 -1.2051479459e-04 1.7275696386e+00 -2.9922383877e+00 1.7275696386e+00 2.9922383877e+00 
52200 5.7995445407e+00 -1.1955409778e-04 1.7275731266e+00 -2.9922444291e+00 1.7275731266e+00 2.9922444291e+00 
52300 5.7995445473e+00 -1.1856315289e-04 1.7275765868e+00 -2.9922504223e+00 1.7275765868e+00 2.9922504223e+00 
52400 5.7995445539e+00 -1.1754244772e-04 1.7275800183e+00 -2.9922563658e+00 1.7275800183e+00 2.9922563658e+00 
52500 5.7995445603e+00 -1.1649254423e-04 1.7275834202e+00 -2.9922622581e+00 1.7275834202e+00 2.9922622581e+00 
52600 5.7995445667e+00 -1.1541407481e-04 1.7275867918e+00 -2.9922680978e+00 1.7275867918e+00 2.9922680978e+00 
52700 5.7995445730e+00 -1.1430773863e-04 1.7275901321e+00 -2.9922738834e+00 1.7275901321e+00 2.9922738834e+00 
52800 5.7995445793e+00 -1.1317429793e-04 1.7275934404e+00 -2.9922796136e+00 1.7275934404e+00 2.9922796136e+00 
52900 5.7995445855e+00 -1.1201457430e-04 1.7275967159e+00 -2.9922852869e+00 1.7275967159e+00 2.9922852869e+00 
53000 5.7995445916e+00 -1.1082944489e-04 1.7275999578e+00 -2.9922909021e+00 1.7275999578e+00 2.9922909021e+00 
53100 5.7995445976e+00 -1.0961983877e-04 1.7276031654e+00 -2.9922964578e+00 1.7276031654e+00 2.9922964578e+00 
53200 5.7995446036e+00 -1.0838673310e-04 1.7276063380e+00 -2.9923019529e+00 1.7276063380e+00 2.9923019529e+00 
53300 5.7995446095e+00 -1.0713114950e-04 1.7276094749e+00 -2.9923073862e+00 1.7276094749e+00 2.9923073862e+00 
53400 5.7995446153e+00 -1.0585415029e-04 1.7276125755e+00 -2.9923127565e+00 1.7276125755e+00 2.9923127565e+00 
53500 5.7995446211e+00 -1.0455683490e-04 1.7276156391e+00 -2.9923180628e+00 1.7276156391e+00 2.9923180628e+00 
53600 5.7995446267e+00 -1.0324033615e-04 1.7276186651e+00 -2.9923233041e+00 1.7276186651e+00 2.9923233041e+00 
53700 5.7995446324e+00 -1.0190581677e-04 1.7276216531e+00 -2.9923284794e+00 1.7276216531e+00 2.9923284794e+00 
53800 5.7995446379e+00 -1.0055446577e-04 1.7276246024e+00 -2.9923335877e+00 1.7276246024e+00 2.9923335877e+00 
53900 5.7995446434e+00 -9.9187495003e-05 1.7276275126e+00 -2.9923386283e+00 1.7276275126e+00 2.9923386283e+00 
54000 5.7995446489e+00 -9.7806135743e-05 1.7276303832e+00 -2.9923436004e+00 1.7276303832e+00 2.9923436004e+00 
54100 5.7995446542e+00 -9.6411635305e-05 1.7276332138e+00 -2.9923485032e+00 1.7276332138e+00 2.9923485032e+00 
54200 5.7995446596e+00 -9.5005253769e-05 1.7276360041e+00 -2.9923533361e+00 1.7276360041e+00 2.9923533361e+00 
54300 5.7995446648e+00 -9.3588260759e-05 1.7276387537e+00 -2.9923580985e+00 1.7276387537e+00 2.9923580985e+00 
54400 5.7995446700e+00 -9.2161932301e-05 1.7276414623e+00 -2.9923627899e+00 1.7276414623e+00 2.9923627899e+00 
54500 5.7995446751e+00 -9.0727547788e-05 1.7276441295e+00 -2.9923674098e+00 1.7276441295e+00 2.9923674098e+00 
54600 5.7995446802e+00 -8.9286386993e-05 1.7276467553e+00 -2.9923719577e+00 1.7276467553e+00 2.9923719577e+00 
54700 5.7995446852e+00 -8.7839727201e-05 1.7276493393e+00 -2.9923764334e+00 1.7276493393e+00 2.9923764334e+00 
54800 5.7995446901e+00 -8.6388840426e-05 1.7276518815e+00 -2.9923808366e+00 1.7276518815e+00 2.9923808366e+00 
54900 5.7995446950e+00 -8.4934990716e-05 1.7276543817e+00 -2.9923851670e+00 1.7276543817e+00 2.9923851670e+00 
55000 5.7995446998e+00 -8.3479431579e-05 1.7276568398e+00 -2.9923894246e+00 1.7276568398e+00 2.9923894246e+00 
55100 5.7995447045e+00 -8.2023403477e-05 1.7276592558e+00 -2.9923936092e+00 1.7276592558e+00 2.9923936092e+00 
55200 5.7995447092e+00 -8.0568131460e-05 1.7276616296e+00 -2.9923977208e+00 1.7276616296e+00 2.9923977208e+00 
55300 5.7995447139e+00 -7.9114822881e-05 1.7276639613e+00 -2.9924017594e+00 1.7276639613e+00 2.9924017594e+00 
55400 5.7995447185e+00 -7.7664665217e-05 1.7276662510e+00 -2.9924057252e+00 1.7276662510e+00 2.9924057252e+00 
55500 5.7995447230e+00 -7.6218824018e-05 1.7276684986e+00 -2.9924096183e+00 1.7276684986e+00 2.9924096183e+00 
55600 5.7995447274e+00 -7.4778440947e-05 1.7276707045e+00 -2.9924134389e+00 1.7276707045e+00 2.9924134389e+00 
55700 5.7995447319e+00 -7.3344631933e-05 1.7276728686e+00 -2.9924171873e+00 1.7276728686e+00 2.9924171873e+00 
55800 5.7995447362e+00 -7.1918485438e-05 1.7276749913e+00 -2.9924208638e+00 1.7276749913e+00 2.9924208638e+00 
55900 5.7995447405e+00 -7.0501060835e-05 1.7276770726e+00 -2.9924244688e+00 1.7276770726e+00 2.9924244688e+00 
56000 5.7995447449e+00 -7.0998430471e-05 1.7276770726e+00 -2.9924244688e+00 1.7276770726e+00 2.9924244688e+00 
56100 5.7995447491e+00 -6.9554066869e-05 1.7276791274e+00 -2.9924280278e+00 1.7276791274e+00 2.9924280278e+00 
56200 5.7995447534e+00 -7.0003429602e-05 1.7276791274e+00 -2.9924280278e+00 1.7276791274e+00 2.9924280278e+00 
56300 5.7995447576e+00 -7.0433166217e-05 1.7276791274e+00 -2.9924280278e+00 1.7276791274e+00 2.9924280278e+00 
56400 5.7995447617e+00 -7.0845700239e-05 1.7276791274e+00 -2.9924280278e+00 1.7276791274e+00 2.9924280278e+00 
56500 5.7995447657e+00 -6.9328992181e-05 1.7276811777e+00 -2.9924315790e+00 1.7276811777e+00 2.9924315790e+00 
56600 5.7995447697e+00 -6.9709894498e-05 1.7276811777e+00 -2.9924315790e+00 1.7276811777e+00 2.9924315790e+00 
56700 5.7995447737e+00 -7.0078820978e-05 1.7276811777e+00 -2.9924315790e+00 1.7276811777e+00 2.9924315790e+00 
56800 5.7995447776e+00 -7.0437838936e-05 1.7276811777e+00 -2.9924315790e+00 1.7276811777e+00 2.9924315790e+00 
56900 5.7995447815e+00 -7.0788909886e-05 1.7276811777e+00 -2.9924315790e+00 1.7276811777e+00 2.9924315790e+00 
57000 5.7995447851e+00 -6.9221071170e-05 1.7276832263e+00 -2.9924351274e+00 1.7276832263e+00 2.9924351274e+00 
57100 5.7995447889e+00 -6.9557650020e-05 1.7276832263e+00 -2.9924351274e+00 1.7276832263e+00 2.9924351274e+00 
57200 5.7995447926e+00 -6.9890142349e-05 1.7276832263e+00 -2.9924351274e+00 1.7276832263e+00 2.9924351274e+00 
57300 5.7995447962e+00 -7.0220168368e-05 1.7276832263e+00 -2.9924351274e+00 1.7276832263e+00 2.9924351274e+00 
57400 5.7995447998e+00 -7.0549248034e-05 1.7276832263e+00 -2.9924351274e+00 1.7276832263e+00 2.9924351274e+00 
57500 5.7995448034e+00 -7.0878802522e-05 1.7276832263e+00 -2.9924351274e+00 1.7276832263e+00 2.9924351274e+00 
57600 5.7995448067e+00 -6.9294909686e-05 1.7276852776e+00 -2.9924386803e+00 1.7276852776e+00 2.9924386803e+00 
57700 5.7995448101e+00 -6.9625221599e-05 1.7276852776e+00 -2.9924386803e+00 1.7276852776e+00 2.9924386803e+00 
57800 5.7995448135e+00 -6.9958295775e-05 1.7276852776e+00 -2.9924386803e+00 1.7276852776e+00 2.9924386803e+00 
57900 5.7995448169e+00 -7.0295247624e-05 1.7276852776e+00 -2.9924386803e+00 1.7276852776e+00 2.9924386803e+00 
58000 5.7995448201e+00 -7.0637102772e-05 1.7276852776e+00 -2.9924386803e+00 1.7276852776e+00 2.9924386803e+00 
58100 5.7995448234e+00 -7.0984799087e-05 1.7276852776e+00 -2.9924386803e+00 1.7276852776e+00 2.9924386803e+00 
58200 5.7995448264e+00 -6.9421082414e-05 1.7276873319e+00 -2.9924422385e+00 1.7276873319e+00 2.9924422385e+00 
58300 5.7995448296e+00 -6.9778859373e-05 1.7276873319e+00 -2.9924422385e+00 1.7276873319e+00 2.9924422385e+00 
58400 5.7995448326e+00 -7.0143383889e-05 1.7276873319e+00 -2.9924422385e+00 1.7276873319e+00 2.9924422385e+00 
58500 5.7995448357e+00 -7.0515336883e-05 1.7276873319e+00 -2.9924422385e+00 1.7276873319e+00 2.9924422385e+00 
58600 5.7995448387e+00 -7.0895322621e-05 1.7276873319e+00 -2.9924422385e+00 1.7276873319e+00 2.9924422385e+00 
58700 5.7995448415e+00 -6.9368188432e-05 1.7276893837e+00 -2.9924457922e+00 1.7276893837e+00 2.9924457922e+00 
58800 5.7995448444e+00 -6.9761687635e-05 1.7276893837e+00 -2.9924457922e+00 1.7276893837e+00 2.9924457922e+00 
58900 5.7995448473e+00 -7.0163195483e-05 1.7276893837e+00 -2.9924457922e+00 1.7276893837e+00 2.9924457922e+00 
59000 5.7995448501e+00 -7.0573105377e-05 1.7276893837e+00 -2.9924457922e+00 1.7276893837e+00 2.9924457922e+00 
59100 5.7995448529e+00 -7.0991745890e-05 1.7276893837e+00 -2.9924457922e+00 1.7276893837e+00 2.9924457922e+00 
59200 5.7995448555e+00 -6.9501102265e-05 1.7276914382e+00 -2.9924493508e+00 1.7276914382e+00 2.9924493508e+00 
59300 5.7995448582e+00 -6.9933866809e-05 1.7276914382e+00 -2.9924493508e+00 1.7276914382e+00 2.9924493508e+00 
59400 5.7995448609e+00 -7.0374580331e-05 1.7276914382e+00 -2.9924493508e+00 1.7276914382e+00 2.9924493508e+00 
59500 5.7995448635e+00 -7.0823408287e-05 1.7276914382e+00 -2.9924493508e+00 1.7276914382e+00 2.9924493508e+00 
59600 5.7995448659e+00 -6.9366739022e-05 1.7276934879e+00 -2.9924529009e+00 1.7276934879e+00 2.9924529009e+00 
59700 5.7995448685e+00 -6.9828016660e-05 1.7276934879e+00 -2.9924529009e+00 1.7276934879e+00 2.9924529009e+00 
59800 5.7995448710e+00 -7.0296197668e-05 1.7276934879e+00 -2.9924529009e+00 1.7276934879e+00 2.9924529009e+00 
59900 5.7995448735e+00 -7.0771321591e-05 1.7276934879e+00 -2.9924529009e+00 1.7276934879e+00 2.9924529009e+00 
60000 5.7995448757e+00 -6.9341075961e-05 1.7276955360e+00 -2.9924564484e+00 1.7276955360e+00 2.9924564484e+00 
60100 5.7995448781e+00 -6.9825967643e-05 1.7276955360e+00 -2.9924564484e+00 1.7276955360e+00 2.9924564484e+00 
60200 5.7995448805e+00 -7.0316268191e-05 1.7276955360e+00 -2.9924564484e+00 1.7276955360e+00 2.9924564484e+00 
60300 5.7995448828e+00 -7.0811926469e-05 1.7276955360e+00 -2.9924564484e+00 1.7276955360e+00 2.9924564484e+00 
60400 5.7995448850e+00 -6.9399459628e-05 1.7276975853e+00 -2.9924599979e+00 1.7276975853e+00 2.9924599979e+00 
60500 5.7995448872e+00 -6.9901474076e-05 1.7276975853e+00 -2.9924599979e+00 1.7276975853e+00 2.9924599979e+00 
60600 5.7995448894e+00 -7.0407088974e-05 1.7276975853e+00 -2.9924599979e+00 1.7276975853e+00 2.9924599979e+00 
60700 5.7995448916e+00 -7.0916194965e-05 1.7276975853e+00 -2.9924599979e+00 1.7276975853e+00 2.9924599979e+00 
60800 5.7995448936e+00 -6.9512450658e-05 1.7276996377e+00 -2.9924635526e+00 1.7276996377e+00 2.9924635526e+00 
60900 5.7995448957e+00 -7.0024028791e-05 1.7276996377e+00 -2.9924635526e+00 1.7276996377e+00 2.9924635526e+00 
61000 5.7995448978e+00 -7.0537208688e-05 1.7276996377e+00 -2.9924635526e+00 1.7276996377e+00 2.9924635526e+00 
61100 5.7995448999e+00 -7.1051851901e-05 1.7276996377e+00 -2.9924635526e+00 1.7276996377e+00 2.9924635526e+00 
61200 5.7995449017e+00 -6.9647938925e-05 1.7277016939e+00 -2.9924671142e+00 1.7277016939e+00 2.9924671142e+00 
61300 5.7995449037e+00 -7.0160929859e-05 1.7277016939e+00 -2.9924671142e+00 1.7277016939e+00 2.9924671142e+00 
61400 5.7995449057e+00 -7.0673443936e-05 1.7277016939e+00 -2.9924671142e+00 1.7277016939e+00 2.9924671142e+00 
61500 5.7995449076e+00 -7.1185339019e-05 1.7277016939e+00 -2.9924671142e+00 1.7277016939e+00 2.9924671142e+00 
61600 5.7995449093e+00 -6.9773000802e-05 1.7277037540e+00 -2.9924706824e+00 1.7277037540e+00 2.9924706824e+00 
61700 5.7995449112e+00 -7.0279082506e-05 1.7277037540e+00 -2.9924706824e+00 1.7277037540e+00 2.9924706824e+00 
61800 5.7995449130e+00 -7.0782624542e-05 1.7277037540e+00 -2.9924706824e+00 1.7277037540e+00 2.9924706824e+00 
61900 5.7995449147e+00 -6.9370936921e-05 1.7277058025e+00 -2.9924742304e+00 1.7277058025e+00 2.9924742304e+00 
62000 5.7995449165e+00 -6.9864950409e-05 1.7277058025e+00 -2.9924742304e+00 1.7277058025e+00 2.9924742304e+00 
62100 5.7995449182e+00 -7.0354621453e-05 1.7277058025e+00 -2.9924742304e+00 1.7277058025e+00 2.9924742304e+00 
62200 5.7995449199e+00 -7.0839868159e-05 1.7277058025e+00 -2.9924742304e+00 1.7277058025e+00 2.9924742304e+00 
62300 5.7995449214e+00 -6.9406498357e-05 1.7277078526e+00 -2.9924777813e+00 1.7277078526e+00 2.9924777813e+00 
62400 5.7995449231e+00 -6.9878550447e-05 1.7277078526e+00 -2.9924777813e+00 1.7277078526e+00 2.9924777813e+00 
62500 5.7995449247e+00 -7.0344488071e-05 1.7277078526e+00 -2.9924777813e+00 1.7277078526e+00 2.9924777813e+00 
62600 5.7995449264e+00 -7.0804273839e-05 1.7277078526e+00 -2.9924777813e+00 1.7277078526e+00 2.9924777813e+00 
62700 5.7995449278e+00 -6.9344734831e-05 1.7277099017e+00 -2.9924813305e+00 1.7277099017e+00 2.9924813305e+00 
62800 5.7995449293e+00 -6.9788017471e-05 1.7277099017e+00 -2.9924813305e+00 1.7277099017e+00 2.9924813305e+00 
62900 5.7995449309e+00 -7.0223608706e-05 1.7277099017e+00 -2.9924813305e+00 1.7277099017e+00 2.9924813305e+00 
63000 5.7995449324e+00 -7.0651525772e-05 1.7277099017e+00 -2.9924813305e+00 1.7277099017e+00 2.9924813305e+00 
63100 5.7995449338e+00 -7.1071782707e-05 1.7277099017e+00 -2.9924813305e+00 1.7277099017e+00 2.9924813305e+00 
63200 5.7995449351e+00 -6.9564042993e-05 1.7277119585e+00 -2.9924848930e+00 1.7277119585e+00 2.9924848930e+00 
63300 5.7995449366e+00 -6.9964928095e-05 1.7277119585e+00 -2.9924848930e+00 1.7277119585e+00 2.9924848930e+00 
63400 5.7995449380e+00 -7.0356775874e-05 1.7277119585e+00 -2.9924848930e+00 1.7277119585e+00 2.9924848930e+00 
63500 5.7995449394e+00 -7.0739663440e-05 1.7277119585e+00 -2.9924848930e+00 1.7277119585e+00 2.9924848930e+00 
63600 5.7995449406e+00 -6.9202302209e-05 1.7277140057e+00 -2.9924884388e+00 1.7277140057e+00 2.9924884388e+00 
63700 5.7995449419e+00 -6.9563430140e-05 1.7277140057e+00 -2.9924884388e+00 1.7277140057e+00 2.9924884388e+00 
63800 5.7995449432e+00 -6.9914422552e-05 1.7277140057e+00 -2.9924884388e+00 1.7277140057e+00 2.9924884388e+00 
63900 5.7995449445e+00 -7.0255422745e-05 1.7277140057e+00 -2.9924884388e+00 1.7277140057e+00 2.9924884388e+00 
64000 5.7995449458e+00 -7.0586572758e-05 1.7277140057e+00 -2.9924884388e+00 1.7277140057e+00 2.9924884388e+00 
64100 5.7995449470e+00 -7.0908013371e-05 1.7277140057e+00 -2.9924884388e+00 1.7277140057e+00 2.9924884388e+00 
64200 5.7995449481e+00 -6.9303982085e-05 1.7277160578e+00 -2.9924919931e+00 1.7277160578e+00 2.9924919931e+00 
64300 5.7995449493e+00 -6.9602347222e-05 1.7277160578e+00 -2.9924919931e+00 1.7277160578e+00 2.9924919931e+00 
64400 5.7995449505e+00 -6.9890017326e-05 1.7277160578e+00 -2.9924919931e+00 1.7277160578e+00 2.9924919931e+00 
64500 5.7995449516e+00 -7.0167200318e-05 1.7277160578e+00 -2.9924919931e+00 1.7277160578e+00 2.9924919931e+00 
64600 5.7995449528e+00 -7.0434102675e-05 1.7277160578e+00 -2.9924919931e+00 1.7277160578e+00 2.9924919931e+00 
64700 5.7995449539e+00 -7.0690929279e-05 1.7277160578e+00 -2.9924919931e+00 1.7277160578e+00 2.9924919931e+00 
64800 5.7995449550e+00 -7.0937883310e-05 1.7277160578e+00 -2.9924919931e+00 1.7277160578e+00 2.9924919931e+00 
64900 5.7995449559e+00 -6.9258467835e-05 1.7277181107e+00 -2.9924955489e+00 1.7277181107e+00 2.9924955489e+00 
65000 5.7995449570e+00 -6.9482202655e-05 1.7277181107e+00 -2.9924955489e+00 1.7277181107e+00 2.9924955489e+00 
65100 5.7995449581e+00 -6.9695261936e-05 1.7277181107e+00 -2.9924955489e+00 1.7277181107e+00 2.9924955489e+00 
65200 5.7995449591e+00 -6.9897913005e-05 1.7277181107e+00 -2.9924955489e+00 1.7277181107e+00 2.9924955489e+00 
65300 5.7995449601e+00 -7.0090420718e-05 1.7277181107e+00 -2.9924955489e+00 1.7277181107e+00 2.9924955489e+00 
65400 5.7995449611e+00 -7.0273047224e-05 1.7277181107e+00 -2.9924955489e+00 1.7277181107e+00 2.9924955489e+00 
65500 5.7995449621e+00 -7.0446051753e-05 1.7277181107e+00 -2.9924955489e+00 1.7277181107e+00 2.9924955489e+00 
65600 5.7995449631e+00 -7.0609690415e-05 1.7277181107e+00 -2.9924955489e+00 1.7277181107e+00 2.9924955489e+00 
65700 5.7995449640e+00 -7.0764216008e-05 1.7277181107e+00 -2.9924955489e+00 1.7277181107e+00 2.9924955489e+00 
65800 5.7995449648e+00 -6.8997882859e-05 1.7277201586e+00 -2.9924990960e+00 1.7277201586e+00 2.9924990960e+00 
65900 5.7995449657e+00 -6.9130859873e-05 1.7277201586e+00 -2.9924990960e+00 1.7277201586e+00 2.9924990960e+00 
66000 5.7995449666e+00 -6.9254062994e-05 1.7277201586e+00 -2.9924990960e+00 1.7277201586e+00 2.9924990960e+00 
66100 5.7995449675e+00 -6.9367802048e-05 1.7277201586e+00 -2.9924990960e+00 1.7277201586e+00 2.9924990960e+00 
66200 5.7995449683e+00 -6.9472382560e-05 1.7277201586e+00 -2.9924990960e+00 1.7277201586e+00 2.9924990960e+00 
66300 5.7995449692e+00 -6.9568105484e-05 1.7277201586e+00 -2.9924990960e+00 1.7277201586e+00 2.9924990960e+00 
66400 5.7995449700e+00 -6.9655266972e-05 1.7277201586e+00 -2.9924990960e+00 1.7277201586e+00 2.9924990960e+00 
66500 5.7995449709e+00 -6.9734158144e-05 1.7277201586e+00 -2.9924990960e+00 1.7277201586e+00 2.9924990960e+00 
66600 5.7995449717e+00 -6.9805064883e-05 1.7277201586e+00 -2.9924990960e+00 1.7277201586e+00 2.9924990960e+00 
66700 5.7995449725e+00 -6.9868267652e-05 1.7277201586e+00 -2.9924990960e+00 1.7277201586e+00 2.9924990960e+00 
66800 5.7995449732e+00 -6.9924041310e-05 1.7277201586e+00 -2.9924990960e+00 1.7277201586e+00 2.9924990960e+00 
66900 5.7995449740e+00 -6.9972654966e-05 1.7277201586e+00 -2.9924990960e+00 1.7277201586e+00 2.9924990960e+00 
67000 5.7995449748e+00 -7.0014371840e-05 1.7277201586e+00 -2.9924990960e+00 1.7277201586e+00 2.9924990960e+00 
67100 5.7995449755e+00 -7.0049449122e-05 1.7277201586e+00 -2.9924990960e+00 1.7277201586e+00 2.9924990960e+00 
67200 5.7995449762e+00 -7.0078137878e-05 1.7277201586e+00 -2.9924990960e+00 1.7277201586e+00 2.9924990960e+00 
67300 5.7995449769e+00 -7.0100682957e-05 1.7277201586e+00 -2.9924990960e+00 1.7277201586e+00 2.9924990960e+00 
67400 5.7995449776e+00 -7.0117322894e-05 1.7277201586e+00 -2.9924990960e+00 1.7277201586e+00 2.9924990960e+00 
67500 5.7995449783e+00 -7.0128289861e-05 1.7277201586e+00 -2.9924990960e+00 1.7277201586e+00 2.9924990960e+00 
67600 5.7995449790e+00 -7.0133809604e-05 1.7277201586e+00 -2.9924990960e+00 1.7277201586e+00 2.9924990960e+00 
67700 5.7995449797e+00 -7.0134101410e-05 1.7277201586e+00 -2.9924990960e+00 1.7277201586e+00 2.9924990960e+00 
67800 5.7995449803e+00 -7.0129378075e-05 1.7277201586e+00 -2.9924990960e+00 1.7277201586e+00 2.9924990960e+00 
67900 5.7995449810e+00 -7.0119845891e-05 1.7277201586e+00 -2.9924990960e+00 1.7277201586e+00 2.9924990960e+00 
68000 5.7995449816e+00 -7.0105704648e-05 1.7277201586e+00 -2.9924990960e+00 1.7277201586e+00 2.9924990960e+00 
68100 5.7995449822e+00 -7.0087147638e-05 1.7277201586e+00 -2.9924990960e+00 1.7277201586e+00 2.9924990960e+00 
68200 5.7995449828e+00 -7.0064361680e-05 1.7277201586e+00 -2.9924990960e+00 1.7277201586e+00 2.9924990960e+00 
68300 5.7995449834e+00 -7.0037527144e-05 1.7277201586e+00 -2.9924990960e+00 1.7277201586e+00 2.9924990960e+00 
68400 5.7995449840e+00 -7.0006817994e-05 1.7277201586e+00 -2.9924990960e+00 1.7277201586e+00 2.9924990960e+00 
68500 5.7995449846e+00 -6.9972401841e-05 1.7277201586e+00 -2.9924990960e+00 1.7277201586e+00 2.9924990960e+00 
68600 5.7995449852e+00 -6.9934440005e-05 1.7277201586e+00 -2.9924990960e+00 1.7277201586e+00 2.9924990960e+00 
68700 5.7995449857e+00 -6.9893087569e-05 1.7277201586e+00 -2.9924990960e+00 1.7277201586e+00 2.9924990960e+00 
68800 5.7995449863e+00 -6.9848493474e-05 1.7277201586e+00 -2.9924990960e+00 1.7277201586e+00 2.9924990960e+00 
68900 5.7995449868e+00 -6.9800800586e-05 1.7277201586e+00 -2.9924990960e+00 1.7277201586e+00 2.9924990960e+00 
69000 5.7995449873e+00 -6.9750145797e-05 1.7277201586e+00 -2.9924990960e+00 1.7277201586e+00 2.9924990960e+00 
69100 5.7995449878e+00 -6.9696660117e-05 1.7277201586e+00 -2.9924990960e+00 1.7277201586e+00 2.9924990960e+00 
69200 5.7995449883e+00 -6.9640468783e-05 1.7277201586e+00 -2.9924990960e+00 1.7277201586e+00 2.9924990960e+00 
69300 5.7995449888e+00 -6.9581691363e-05 1.7277201586e+00 -2.9924990960e+00 1.7277201586e+00 2.9924990960e+00 
69400 5.7995449893e+00 -6.9520441877e-05 1.7277201586e+00 -2.9924990960e+00 1.7277201586e+00 2.9924990960e+00 
69500 5.7995449898e+00 -6.9456828912e-05 1.7277201586e+00 -2.9924990960e+00 1.7277201586e+00 2.9924990960e+00 
69600 5.7995449903e+00 -6.9390955747e-05 1.7277201586e+00 -2.9924990960e+00 1.7277201586e+00 2.9924990960e+00 
69700 5.7995449907e+00 -6.9322920488e-05 1.7277201586e+00 -2.9924990960e+00 1.7277201586e+00 2.9924990960e+00 
69800 5.7995449912e+00 -6.9252816194e-05 1.7277201586e+00 -2.9924990960e+00 1.7277201586e+00 2.9924990960e+00 
69900 5.7995449916e+00 -6.9180731013e-05 1.7277201586e+00 -2.9924990960e+00 1.7277201586e+00 2.9924990960e+00 
70000 5.7995449921e+00 -6.9106748323e-05 1.7277201586e+00 -2.9924990960e+00 1.7277201586e+00 2.9924990960e+00 
70100 5.7995449925e+00 -6.9030946870e-05 1.7277201586e+00 -2.9924990960e+00 1.7277201586e+00 2.9924990960e+00 
70200 5.7995449929e+00 -6.8953400916e-05 1.7277201586e+00 -2.9924990960e+00 1.7277201586e+00 2.9924990960e+00 
70300 5.7995449933e+00 -6.8874180381e-05 1.7277201586e+00 -2.9924990960e+00 1.7277201586e+00 2.9924990960e+00 
70400 5.7995449938e+00 -6.8793350987e-05 1.7277201586e+00 -2.9924990960e+00 1.7277201586e+00 2.9924990960e+00 
70500 5.7995449942e+00 -6.8710974408e-05 1.7277201586e+00 -2.9924990960e+00 1.7277201586e+00 2.9924990960e+00 
70600 5.7995449945e+00 -6.8627108417e-05 1.7277201586e+00 -2.9924990960e+00 1.7277201586e+00 2.9924990960e+00 
70700 5.7995449949e+00 -6.8541807040e-05 1.7277201586e+00 -2.9924990960e+00 1.7277201586e+00 2.9924990960e+00 
70800 5.7995449953e+00 -6.8455120698e-05 1.7277201586e+00 -2.9924990960e+00 1.7277201586e+00 2.9924990960e+00 
70900 5.7995449957e+00 -6.8367096356e-05 1.7277201586e+00 -2.9924990960e+00 1.7277201586e+00 2.9924990960e+00 
71000 5.7995449960e+00 -6.8277777671e-05 1.7277201586e+00 -2.9924990960e+00 1.7277201586e+00 2.9924990960e+00 
71100 5.7995449964e+00 -6.8187205147e-05 1.7277201586e+00 -2.9924990960e+00 1.7277201586e+00 2.9924990960e+00 
71200 5.7995449968e+00 -6.8095416273e-05 1.7277201586e+00 -2.9924990960e+00 1.7277201586e+00 2.9924990960e+00 
71300 5.7995449971e+00 -6.8002445664e-05 1.7277201586e+00 -2.9924990960e+00 1.7277201586e+00 2.9924990960e+00 
71400 5.7995449974e+00 -6.7908325220e-05 1.7277201586e+00 -2.9924990960e+00 1.7277201586e+00 2.9924990960e+00 
71500 5.7995449978e+00 -6.7813084255e-05 1.7277201586e+00 -2.9924990960e+00 1.7277201586e+00 2.9924990960e+00 
71600 5.7995449981e+00 -6.7716749641e-05 1.7277201586e+00 -2.9924990960e+00 1.7277201586e+00 2.9924990960e+00 
71700 5.7995449984e+00 -6.7619345946e-05 1.7277201586e+00 -2.9924990960e+00 1.7277201586e+00 2.9924990960e+00 
71800 5.7995449987e+00 -6.7520895569e-05 1.7277201586e+00 -2.9924990960e+00 1.7277201586e+00 2.9924990960e+00 
71900 5.7995449990e+00 -6.7421418872e-05 1.7277201586e+00 -2.9924990960e+00 1.7277201586e+00 2.9924990960e+00 
72000 5.7995449993e+00 -6.7320934321e-05 1.7277201586e+00 -2.9924990960e+00 1.7277201586e+00 2.9924990960e+00 
72100 5.7995449996e+00 -6.7219458599e-05 1.7277201586e+00 -2.9924990960e+00 1.7277201586e+00 2.9924990960e+00 
72200 5.7995449999e+00 -6.7117006735e-05 1.7277201586e+00 -2.9924990960e+00 1.7277201586e+00 2.9924990960e+00 
72300 5.7995450002e+00 -6.7013592234e-05 1.7277201586e+00 -2.9924990960e+00 1.7277201586e+00 2.9924990960e+00 
72400 5.7995450005e+00 -6.6909227190e-05 1.7277201586e+00 -2.9924990960e+00 1.7277201586e+00 2.9924990960e+00 
72500 5.7995450008e+00 -6.6803922398e-05 1.7277201586e+00 -2.9924990960e+00 1.7277201586e+00 2.9924990960e+00 
72600 5.7995450010e+00 -6.6697687474e-05 1.7277201586e+00 -2.9924990960e+00 1.7277201586e+00 2.9924990960e+00 
72700 5.7995450013e+00 -6.6590530961e-05 1.7277201586e+00 -2.9924990960e+00 1.7277201586e+00 2.9924990960e+00 
72800 5.7995450016e+00 -6.6482460432e-05 1.7277201586e+00 -2.9924990960e+00 1.7277201586e+00 2.9924990960e+00 
72900 5.7995450018e+00 -6.6373482594e-05 1.7277201586e+00 -2.9924990960e+00 1.7277201586e+00 2.9924990960e+00 
73000 5.7995450021e+00 -6.6263603388e-05 1.7277201586e+00 -2.9924990960e+00 1.7277201586e+00 2.9924990960e+00 
73100 5.7995450023e+00 -6.6152828080e-05 1.7277201586e+00 -2.9924990960e+00 1.7277201586e+00 2.9924990960e+00 
73200 5.7995450026e+00 -6.6041161359e-05 1.7277201586e+00 -2.9924990960e+00 1.7277201586e+00 2.9924990960e+00 
73300 5.7995450028e+00 -6.5928607413e-05 1.7277201586e+00 -2.9924990960e+00 1.7277201586e+00 2.9924990960e+00 
73400 5.7995450030e+00 -6.5815170024e-05 1.7277201586e+00 -2.9924990960e+00 1.7277201586e+00 2.9924990960e+00 
73500 5.7995450033e+00 -6.5700852642e-05 1.7277201586e+00 -2.9924990960e+00 1.7277201586e+00 2.9924990960e+00 
73600 5.7995450035e+00 -6.5585658463e-05 1.7277201586e+00 -2.9924990960e+00 1.7277201586e+00 2.9924990960e+00 
73700 5.7995450037e+00 -6.5469590504e-05 1.7277201586e+00 -2.9924990960e+00 1.7277201586e+00 2.9924990960e+00 
73800 5.7995450039e+00 -6.5352651665e-05 1.7277201586e+00 -2.9924990960e+00 1.7277201586e+00 2.9924990960e+00 
73900 5.7995450041e+00 -6.5234844801e-05 1.7277201586e+00 -2.9924990960e+00 1.7277201586e+00 2.9924990960e+00 
74000 5.7995450044e+00 -6.5116172784e-05 1.7277201586e+00 -2.9924990960e+00 1.7277201586e+00 2.9924990960e+00 
74100 5.7995450046e+00 -6.4996638553e-05 1.7277201586e+00 -2.9924990960e+00 1.7277201586e+00 2.9924990960e+00 
74200 5.7995450048e+00 -6.4876245179e-05 1.7277201586e+00 -2.9924990960e+00 1.7277201586e+00 2.9924990960e+00 
74300 5.7995450050e+00 -6.4754995908e-05 1.7277201586e+00 -2.9924990960e+00 1.7277201586e+00 2.9924990960e+00 
74400 5.7995450052e+00 -6.4632894215e-05 1.7277201586e+00 -2.9924990960e+00 1.7277201586e+00 2.9924990960e+00 
74500 5.7995450053e+00 -6.4509943841e-05 1.7277201586e+00 -2.9924990960e+00 1.7277201586e+00 2.9924990960e+00 
74600 5.7995450055e+00 -6.4386148838e-05 1.7277201586e+00 -2.9924990960e+00 1.7277201586e+00 2.9924990960e+00 
74700 5.7995450057e+00 -6.4261513605e-05 1.7277201586e+00 -2.9924990960e+00 1.7277201586e+00 2.9924990960e+00 
74800 5.7995450059e+00 -6.4136042929e-05 1.7277201586e+00 -2.9924990960e+00 1.7277201586e+00 2.9924990960e+00 
74900 5.7995450061e+00 -6.4009742003e-05 1.7277201586e+00 -2.9924990960e+00 1.7277201586e+00 2.9924990960e+00 
75000 5.7995450062e+00 -6.3882616466e-05 1.7277201586e+00 -2.9924990960e+00 1.7277201586e+00 2.9924990960e+00 
75100 5.7995450064e+00 -6.3754672423e-05 1.7277201586e+00 -2.9924990960e+00 1.7277201586e+00 2.9924990960e+00 
75200 5.7995450066e+00 -6.3625916467e-05 1.7277201586e+00 -2.9924990960e+00 1.7277201586e+00 2.9924990960e+00 
75300 5.7995450068e+00 -6.3496355698e-05 1.7277201586e+00 -2.9924990960e+00 1.7277201586e+00 2.9924990960e+00 
75400 5.7995450069e+00 -6.3365997741e-05 1.7277201586e+00 -2.9924990960e+00 1.7277201586e+00 2.9924990960e+00 
75500 5.7995450071e+00 -6.3234850762e-05 1.7277201586e+00 -2.9924990960e+00 1.7277201586e+00 2.9924990960e+00 
75600 5.7995450072e+00 -6.3102923475e-05 1.7277201586e+00 -2.9924990960e+00 1.7277201586e+00 2.9924990960e+00 
75700 5.7995450074e+00 -6.2970225152e-05 1.7277201586e+00 -2.9924990960e+00 1.7277201586e+00 2.9924990960e+00 
75800 5.7995450075e+00 -6.2836765633e-05 1.7277201586e+00 -2.9924990960e+00 1.7277201586e+00 2.9924990960e+00 
75900 5.7995450077e+00 -6.2702555329e-05 1.7277201586e+00 -2.9924990960e+00 1.7277201586e+00 2.9924990960e+00 
76000 5.7995450078e+00 -6.2567605220e-05 1.7277201586e+00 -2.9924990960e+00 1.7277201586e+00 2.9924990960e+00 
76100 5.7995450080e+00 -6.2431926857e-05 1.7277201586e+00 -2.9924990960e+00 1.7277201586e+00 2.9924990960e+00 
76200 5.7995450081e+00 -6.2295532363e-05 1.7277201586e+00 -2.9924990960e+00 1.7277201586e+00 2.9924990960e+00 
76300 5.7995450082e+00 -6.2158434430e-05 1.7277201586e+00 -2.9924990960e+00 1.7277201586e+00 2.9924990960e+00 
76400 5.7995450084e+00 -6.2020646309e-05 1.7277201586e+00 -2.9924990960e+00 1.7277201586e+00 2.9924990960e+00 
76500 5.7995450085e+00 -6.1882181801e-05 1.7277201586e+00 -2.9924990960e+00 1.7277201586e+00 2.9924990960e+00 
76600 5.7995450086e+00 -6.1743055256e-05 1.7277201586e+00 -2.9924990960e+00 1.7277201586e+00 2.9924990960e+00 
76700 5.7995450088e+00 -6.1603281553e-05 1.7277201586e+00 -2.9924990960e+00 1.7277201586e+00 2.9924990960e+00 
76800 5.7995450089e+00 -6.1462876096e-05 1.7277201586e+00 -2.9924990960e+00 1.7277201586e+00 2.9924990960e+00 
76900 5.7995450090e+00 -6.1321854796e-05 1.7277201586e+00 -2.9924990960e+00 1.7277201586e+00 2.9924990960e+00 
77000 5.7995450091e+00 -6.1180234062e-05 1.7277201586e+00 -2.9924990960e+00 1.7277201586e+00 2.9924990960e+00 
77100 5.7995450093e+00 -6.1038030772e-05 1.7277201586e+00 -2.9924990960e+00 1.7277201586e+00 2.9924990960e+00 
77200 5.7995450094e+00 -6.0895262276e-05 1.7277201586e+00 -2.9924990960e+00 1.7277201586e+00 2.9924990960e+00 
77300 5.7995450095e+00 -6.0751946362e-05 1.7277201586e+00 -2.9924990960e+00 1.7277201586e+00 2.9924990960e+00 
77400 5.7995450096e+00 -6.0608101244e-05 1.7277201586e+00 -2.9924990960e+00 1.7277201586e+00 2.9924990960e+00 
77500 5.7995450097e+00 -6.0463745543e-05 1.7277201586e+00 -2.9924990960e+00 1.7277201586e+00 2.9924990960e+00 
77600 5.7995450098e+00 -6.0318898267e-05 1.7277201586e+00 -2.9924990960e+00 1.7277201586e+00 2.9924990960e+00 
77700 5.7995450099e+00 -6.0173578784e-05 1.7277201586e+00 -2.9924990960e+00 1.7277201586e+00 2.9924990960e+00 
77800 5.7995450100e+00 -6.0027806813e-05 1.7277201586e+00 -2.9924990960e+00 1.7277201586e+00 2.9924990960e+00 
77900 5.7995450101e+00 -5.9881602388e-05 1.7277201586e+00 -2.9924990960e+00 1.7277201586e+00 2.9924990960e+00 
78000 5.7995450102e+00 -5.9734985846e-05 1.7277201586e+00 -2.9924990960e+00 1.7277201586e+00 2.9924990960e+00 
78100 5.7995450103e+00 -5.9587977798e-05 1.7277201586e+00 -2.9924990960e+00 1.7277201586e+00 2.9924990960e+00 
78200 5.7995450104e+00 -5.9440599110e-05 1.7277201586e+00 -2.9924990960e+00 1.7277201586e+00 2.9924990960e+00 
78300 5.7995450105e+00 -5.9292870882e-05 1.7277201586e+00 -2.9924990960e+00 1.7277201586e+00 2.9924990960e+00 
78400 5.7995450106e+00 -5.9144814415e-05 1.7277201586e+00 -2.9924990960e+00 1.7277201586e+00 2.9924990960e+00 
78500 5.7995450107e+00 -5.8996451201e-05 1.7277201586e+00 -2.9924990960e+00 1.7277201586e+00 2.9924990960e+00 
78600 5.7995450108e+00 -5.8847802887e-05 1.7277201586e+00 -2.9924990960e+00 1.7277201586e+00 2.9924990960e+00 
78700 5.7995450109e+00 -5.8698891262e-05 1.7277201586e+00 -2.9924990960e+00 1.7277201586e+00 2.9924990960e+00 
78800 5.7995450110e+00 -5.8549738226e-05 1.7277201586e+00 -2.9924990960e+00 1.7277201586e+00 2.9924990960e+00 
78900 5.7995450111e+00 -5.8400365772e-05 1.7277201586e+00 -2.9924990960e+00 1.7277201586e+00 2.9924990960e+00 
79000 5.7995450112e+00 -5.8250795958e-05 1.7277201586e+00 -2.9924990960e+00 1.7277201586e+00 2.9924990960e+00 
79100 5.7995450112e+00 -5.8101050890e-05 1.7277201586e+00 -2.9924990960e+00 1.7277201586e+00 2.9924990960e+00 
79200 5.7995450113e+00 -5.7951152693e-05 1.7277201586e+00 -2.9924990960e+00 1.7277201586e+00 2.9924990960e+00 
79300 5.7995450114e+00 -5.7801123497e-05 1.7277201586e+00 -2.9924990960e+00 1.7277201586e+00 2.9924990960e+00 
79400 5.7995450115e+00 -5.7650985409e-05 1.7277201586e+00 -2.9924990960e+00 1.7277201586e+00 2.9924990960e+00 
79500 5.7995450116e+00 -5.7500760493e-05 1.7277201586e+00 -2.9924990960e+00 1.7277201586e+00 2.9924990960e+00 
79600 5.7995450116e+00 -5.7350470749e-05 1.7277201586e+00 -2.9924990960e+00 1.7277201586e+00 2.9924990960e+00 
79700 5.7995450117e+00 -5.7200138095e-05 1.7277201586e+00 -2.9924990960e+00 1.7277201586e+00 2.9924990960e+00 
79800 5.7995450118e+00 -5.7049784341e-05 1.7277201586e+00 -2.9924990960e+00 1.7277201586e+00 2.9924990960e+00 
79900 5.7995450119e+00 -5.6899431175e-05 1.7277201586e+00 -2.9924990960e+00 1.7277201586e+00 2.9924990960e+00 
80000 5.7995450119e+00 -5.6749100147e-05 1.7277201586e+00 -2.9924990960e+00 1.7277201586e+00 2.9924990960e+00 
80100 5.7995450120e+00 -5.6598812640e-05 1.7277201586e+00 -2.9924990960e+00 1.7277201586e+00 2.9924990960e+00 
80200 5.7995450121e+00 -5.6448589862e-05 1.7277201586e+00 -2.9924990960e+00 1.7277201586e+00 2.9924990960e+00 
80300 5.7995450121e+00 -5.6298452824e-05 1.7277201586e+00 -2.9924990960e+00 1.7277201586e+00 2.9924990960e+00 
80400 5.7995450122e+00 -5.6148422323e-05 1.7277201586e+00 -2.9924990960e+00 1.7277201586e+00 2.9924990960e+00 
80500 5.7995450123e+00 -5.5998518930e-05 1.7277201586e+00 -2.9924990960e+00 1.7277201586e+00 2.9924990960e+00 
80600 5.7995450123e+00 -5.5848762973e-05 1.7277201586e+00 -2.9924990960e+00 1.7277201586e+00 2.9924990960e+00 
80700 5.7995450124e+00 -5.5699174519e-05 1.7277201586e+00 -2.9924990960e+00 1.7277201586e+00 2.9924990960e+00 
80800 5.7995450125e+00 -5.5549773367e-05 1.7277201586e+00 -2.9924990960e+00 1.7277201586e+00 2.9924990960e+00 
80900 5.7995450125e+00 -5.5400579028e-05 1.7277201586e+00 -2.9924990960e+00 1.7277201586e+00 2.9924990960e+00 
81000 5.7995450126e+00 -5.5251610717e-05 1.7277201586e+00 -2.9924990960e+00 1.7277201586e+00 2.9924990960e+00 
81100 5.7995450126e+00 -5.5102887335e-05 1.7277201586e+00 -2.9924990960e+00 1.7277201586e+00 2.9924990960e+00 
81200 5.7995450127e+00 -5.4954427468e-05 1.7277201586e+00 -2.9924990960e+00 1.7277201586e+00 2.9924990960e+00 
81300 5.7995450127e+00 -5.4806249368e-05 1.7277201586e+00 -2.9924990960e+00 1.7277201586e+00 2.9924990960e+00 
81400 5.7995450128e+00 -5.4658370949e-05 1.7277201586e+00 -2.9924990960e+00 1.7277201586e+00 2.9924990960e+00 
81500 5.7995450129e+00 -5.4510809770e-05 1.7277201586e+00 -2.9924990960e+00 1.7277201586e+00 2.9924990960e+00 
81600 5.7995450129e+00 -5.4363583036e-05 1.7277201586e+00 -2.9924990960e+00 1.7277201586e+00 2.9924990960e+00 
81700 5.7995450130e+00 -5.4216707585e-05 1.7277201586e+00 -2.9924990960e+00 1.7277201586e+00 2.9924990960e+00 
81800 5.7995450130e+00 -5.4070199882e-05 1.7277201586e+00 -2.9924990960e+00 1.7277201586e+00 2.9924990960e+00 
81900 5.7995450131e+00 -5.3924076010e-05 1.7277201586e+00 -2.9924990960e+00 1.7277201586e+00 2.9924990960e+00 
82000 5.7995450131e+00 -5.3778351670e-05 1.7277201586e+00 -2.9924990960e+00 1.7277201586e+00 2.9924990960e+00 
82100 5.7995450132e+00 -5.3633042171e-05 1.7277201586e+00 -2.9924990960e+00 1.7277201586e+00 2.9924990960e+00 
82200 5.7995450132e+00 -5.3488162432e-05 1.7277201586e+00 -2.9924990960e+00 1.7277201586e+00 2.9924990960e+00 
82300 5.7995450133e+00 -5.3343726968e-05 1.7277201586e+00 -2.9924990960e+00 1.7277201586e+00 2.9924990960e+00 
82400 5.7995450133e+00 -5.3199749898e-05 1.7277201586e+00 -2.9924990960e+00 1.7277201586e+00 2.9924990960e+00 
82500 5.7995450134e+00 -5.3056244929e-05 1.7277201586e+00 -2.9924990960e+00 1.7277201586e+00 2.9924990960e+00 
82600 5.7995450134e+00 -5.2913225372e-05 1.7277201586e+00 -2.9924990960e+00 1.7277201586e+00 2.9924990960e+00 
82700 5.7995450135e+00 -5.2770704124e-05 1.7277201586e+00 -2.9924990960e+00 1.7277201586e+00 2.9924990960e+00 
82800 5.7995450135e+00 -5.2628693679e-05 1.7277201586e+00 -2.9924990960e+00 1.7277201586e+00 2.9924990960e+00 
82900 5.7995450135e+00 -5.2487206118e-05 1.7277201586e+00 -2.9924990960e+00 1.7277201586e+00 2.9924990960e+00 
83000 5.7995450136e+00 -5.2346253115e-05 1.7277201586e+00 -2.9924990960e+00 1.7277201586e+00 2.9924990960e+00 
83100 5.7995450136e+00 -5.2205845940e-05 1.7277201586e+00 -2.9924990960e+00 1.7277201586e+00 2.9924990960e+00 
83200 5.7995450136e+00 -5.2163831858e-05 1.7277201586e+00 -2.9924990960e+00 1.7277201586e+00 2.9924990960e+00 
83200 5.7995450136e+00 -5.2163831858e-05 1.7277201586e+00 -2.9924990960e+00 1.7277201586e+00 2.9924990960e+00 
