# step Hamiltonian StressXX CellTensor1 CellTensor2 CellTensor3 CellTensor4 
0 5.1430928311e+00 1.3506786665e-01 2.0436807272e+00 -3.5397588540e+00 2.0436807272e+00 3.5397588540e+00 
100 5.1500761958e+00 1.3757558823e-01 2.0436807272e+00 -3.5397588540e+00 2.0436807272e+00 3.5397588540e+00 
200 5.1555548429e+00 1.3851398577e-01 2.0403157749e+00 -3.5339305857e+00 2.0403157749e+00 3.5339305857e+00 
300 5.1599230974e+00 1.3845796783e-01 2.0369222925e+00 -3.5280529017e+00 2.0369222925e+00 3.5280529017e+00 
400 5.1632000036e+00 1.3745278496e-01 2.0335245340e+00 -3.5221678114e+00 2.0335245340e+00 3.5221678114e+00 
500 5.1654586528e+00 1.3559788017e-01 2.0301458030e+00 -3.5163156776e+00 2.0301458030e+00 3.5163156776e+00 
600 5.1668127334e+00 1.3303385475e-01 2.0268071108e+00 -3.5105328930e+00 2.0268071108e+00 3.5105328930e+00 
700 5.1674000971e+00 1.2992402829e-01 2.0235261401e+00 -3.5048500850e+00 2.0235261401e+00 3.5048500850e+00 
800 5.1673664023e+00 1.2643490836e-01 2.0203166530e+00 -3.4992910904e+00 2.0203166530e+00 3.4992910904e+00 
900 5.1668514959e+00 1.2271965260e-01 2.0171883756e+00 -3.4938727549e+00 2.0171883756e+00 3.4938727549e+00 
1000 5.1659800593e+00 1.1890705977e-01 2.0141472921e+00 -3.4886054439e+00 2.0141472921e+00 3.4886054439e+00 
1100 5.1648567522e+00 1.1509665620e-01 2.0111962176e+00 -3.4834940329e+00 2.0111962176e+00 3.4834940329e+00 
1200 5.1635651154e+00 1.1135888810e-01 2.0083354991e+00 -3.4785391231e+00 2.0083354991e+00 3.4785391231e+00 
1300 5.1621690436e+00 1.0773867845e-01 2.0055637204e+00 -3.4737382616e+00 2.0055637204e+00 3.4737382616e+00 
1400 5.1607156347e+00 1.0426058719e-01 2.0028783259e+00 -3.4690870218e+00 2.0028783259e+00 3.4690870218e+00 
1500 5.1592384896e+00 1.0093422019e-01 2.0002761214e+00 -3.4645798715e+00 2.0002761214e+00 3.4645798715e+00 
1600 5.1577608662e+00 9.7759060774e-02 1.9977536453e+00 -3.4602108147e+00 1.9977536453e+00 3.4602108147e+00 
1700 5.1562983867e+00 9.4728353907e-02 1.9953074207e+00 -3.4559738294e+00 1.9953074207e+00 3.4559738294e+00 
1800 5.1548612013e+00 9.1831984738e-02 1.9929341136e+00 -3.4518631408e+00 1.9929341136e+00 3.4518631408e+00 
1900 5.1534556322e+00 8.9058464220e-02 1.9906306187e+00 -3.4478733707e+00 1.9906306187e+00 3.4478733707e+00 
2000 5.1520853766e+00 8.6396202482e-02 1.9883940971e+00 -3.4439996017e+00 1.9883940971e+00 3.4439996017e+00 
2100 5.1507523615e+00 8.3834256319e-02 1.9862219811e+00 -3.4402373864e+00 1.9862219811e+00 3.4402373864e+00 
2200 5.1494573388e+00 8.1362712386e-02 1.9841119603e+00 -3.4365827232e+00 1.9841119603e+00 3.4365827232e+00 
2300 5.1482002920e+00 7.8972832797e-02 1.9820619579e+00 -3.4330320149e+00 1.9820619579e+00 3.4330320149e+00 
2400 5.1469807110e+00 7.6657055727e-02 1.9800701032e+00 -3.4295820213e+00 1.9800701032e+00 3.4295820213e+00 
2500 5.1457977758e+00 7.4408914996e-02 1.9781347032e+00 -3.4262298101e+00 1.9781347032e+00 3.4262298101e+00 
2600 5.1446504788e+00 7.2222920681e-02 1.9762542167e+00 -3.4229727120e+00 1.9762542167e+00 3.4229727120e+00 
2700 5.1435377058e+00 7.0094426931e-02 1.9744272306e+00 -3.4198082792e+00 1.9744272306e+00 3.4198082792e+00 
2800 5.1424582886e+00 6.8019502310e-02 1.9726524395e+00 -3.4167342509e+00 1.9726524395e+00 3.4167342509e+00 
2900 5.1414110408e+00 6.5994810803e-02 1.9709286289e+00 -3.4137485233e+00 1.9709286289e+00 3.4137485233e+00 
3000 5.1403947798e+00 6.4017507098e-02 1.9692546601e+00 -3.4108491243e+00 1.9692546601e+00 3.4108491243e+00 
3100 5.1394083422e+00 6.2085147061e-02 1.9676294591e+00 -3.4080341936e+00 1.9676294591e+00 3.4080341936e+00 
3200 5.1384505930e+00 6.0195612767e-02 1.9660520065e+00 -3.4053019656e+00 1.9660520065e+00 3.4053019656e+00 
3300 5.1375204315e+00 5.8347050699e-02 1.9645213299e+00 -3.4026507560e+00 1.9645213299e+00 3.4026507560e+00 
3400 5.1366167946e+00 5.6537821419e-02 1.9630364976e+00 -3.4000789510e+00 1.9630364976e+00 3.4000789510e+00 
3500 5.1357386592e+00 5.4766458954e-02 1.9615966135e+00 -3.3975849985e+00 1.9615966135e+00 3.3975849985e+00 
3600 5.1348850422e+00 5.3031638288e-02 1.9602008128e+00 -3.3951674007e+00 1.9602008128e+00 3.3951674007e+00 
3700 5.1340550010e+00 5.1332149476e-02 1.9588482591e+00 -3.3928247091e+00 1.9588482591e+00 3.3928247091e+00 
3800 5.1332476327e+00 4.9666877148e-02 1.9575381418e+00 -3.3905555193e+00 1.9575381418e+00 3.3905555193e+00 
3900 5.1324620735e+00 4.8034784325e-02 1.9562696733e+00 -3.3883584674e+00 1.9562696733e+00 3.3883584674e+00 
4000 5.1316974972e+00 4.6434899681e-02 1.9550420880e+00 -3.3862322273e+00 1.9550420880e+00 3.3862322273e+00 
4100 5.1309531140e+00 4.4866307530e-02 1.9538546405e+00 -3.3841755080e+00 1.9538546405e+00 3.3841755080e+00 
4200 5.1302281692e+00 4.3328139951e-02 1.9527066045e+00 -3.3821870512e+00 1.9527066045e+00 3.3821870512e+00 
4300 5.1295219420e+00 4.1819570600e-02 1.9515972715e+00 -3.3802656302e+00 1.9515972715e+00 3.3802656302e+00 
4400 5.1288337433e+00 4.0339809831e-02 1.9505259506e+00 -3.3784100479e+00 1.9505259506e+00 3.3784100479e+00 
4500 5.1281629152e+00 3.8888100828e-02 1.9494919668e+00 -3.3766191354e+00 1.9494919668e+00 3.3766191354e+00 
4600 5.1275088287e+00 3.7463716531e-02 1.9484946612e+00 -3.3748917515e+00 1.9484946612e+00 3.3748917515e+00 
4700 5.1268708828e+00 3.6065957163e-02 1.9475333901e+00 -3.3732267811e+00 1.9475333901e+00 3.3732267811e+00 
4800 5.1262485032e+00 3.4694148230e-02 1.9466075241e+00 -3.3716231342e+00 1.9466075241e+00 3.3716231342e+00 
4900 5.1256411403e+00 3.3347638876e-02 1.9457164482e+00 -3.3700797455e+00 1.9457164482e+00 3.3700797455e+00 
5000 5.1250482689e+00 3.2025800510e-02 1.9448595611e+00 -3.3685955733e+00 1.9448595611e+00 3.3685955733e+00 
5100 5.1244693862e+00 3.0728025648e-02 1.9440362744e+00 -3.3671695989e+00 1.9440362744e+00 3.3671695989e+00 
5200 5.1239040110e+00 2.9453726912e-02 1.9432460128e+00 -3.3658008258e+00 1.9432460128e+00 3.3658008258e+00 
5300 5.1233516824e+00 2.8202336154e-02 1.9424882134e+00 -3.3644882788e+00 1.9424882134e+00 3.3644882788e+00 
5400 5.1228119592e+00 2.6973303672e-02 1.9417623254e+00 -3.3632310038e+00 1.9417623254e+00 3.3632310038e+00 
5500 5.1222844181e+00 2.5766097502e-02 1.9410678095e+00 -3.3620280671e+00 1.9410678095e+00 3.3620280671e+00 
5600 5.1217686536e+00 2.4580202765e-02 1.9404041380e+00 -3.3608785543e+00 1.9404041380e+00 3.3608785543e+00 
5700 5.1212642764e+00 2.3415121059e-02 1.9397707940e+00 -3.3597815703e+00 1.9397707940e+00 3.3597815703e+00 
5800 5.1207709132e+00 2.2270369885e-02 1.9391672715e+00 -3.3587362387e+00 1.9391672715e+00 3.3587362387e+00 
5900 5.1202882053e+00 2.1145482108e-02 1.9385930748e+00 -3.3577417008e+00 1.9385930748e+00 3.3577417008e+00 
6000 5.1198158081e+00 2.0040005434e-02 1.9380477182e+00 -3.3567971154e+00 1.9380477182e+00 3.3567971154e+00 
6100 5.1193533906e+00 1.8953501912e-02 1.9375307259e+00 -3.3559016585e+00 1.9375307259e+00 3.3559016585e+00 
6200 5.1189006343e+00 1.7885547457e-02 1.9370416316e+00 -3.3550545224e+00 1.9370416316e+00 3.3550545224e+00 
6300 5.1184572330e+00 1.6835731382e-02 1.9365799782e+00 -3.3542549152e+00 1.9365799782e+00 3.3542549152e+00 
6400 5.1180228918e+00 1.5803655950e-02 1.9361453176e+00 -3.3535020610e+00 1.9361453176e+00 3.3535020610e+00 
6500 5.1175973268e+00 1.4788935938e-02 1.9357372103e+00 -3.3527951984e+00 1.9357372103e+00 3.3527951984e+00 
6600 5.1171802644e+00 1.3791198217e-02 1.9353552254e+00 -3.3521335810e+00 1.9353552254e+00 3.3521335810e+00 
6700 5.1167714411e+00 1.2810081339e-02 1.9349989400e+00 -3.3515164767e+00 1.9349989400e+00 3.3515164767e+00 
6800 5.1163706026e+00 1.1845235142e-02 1.9346679394e+00 -3.3509431668e+00 1.9346679394e+00 3.3509431668e+00 
6900 5.1159775037e+00 1.0896320363e-02 1.9343618165e+00 -3.3504129464e+00 1.9343618165e+00 3.3504129464e+00 
7000 5.1155919077e+00 9.9630082633e-03 1.9340801718e+00 -3.3499251235e+00 1.9340801718e+00 3.3499251235e+00 
7100 5.1152135860e+00 9.0449802700e-03 1.9338226130e+00 -3.3494790186e+00 1.9338226130e+00 3.3494790186e+00 
7200 5.1148423180e+00 8.1419276209e-03 1.9335887550e+00 -3.3490739646e+00 1.9335887550e+00 3.3490739646e+00 
7300 5.1144778904e+00 7.2535510264e-03 1.9333782195e+00 -3.3487093065e+00 1.9333782195e+00 3.3487093065e+00 
7400 5.1141200969e+00 6.3795603395e-03 1.9331906351e+00 -3.3483844007e+00 1.9331906351e+00 3.3483844007e+00 
7500 5.1137687382e+00 5.5196742379e-03 1.9330256366e+00 -3.3480986150e+00 1.9330256366e+00 3.3480986150e+00 
7600 5.1134236214e+00 4.6736199155e-03 1.9328828655e+00 -3.3478513281e+00 1.9328828655e+00 3.3478513281e+00 
7700 5.1130845598e+00 3.8411327845e-03 1.9327619691e+00 -3.3476419294e+00 1.9327619691e+00 3.3476419294e+00 
7800 5.1127513728e+00 3.0219561879e-03 1.9326626009e+00 -3.3474698187e+00 1.9326626009e+00 3.3474698187e+00 
7900 5.1124238854e+00 2.2158411205e-03 1.9325844203e+00 -3.3473344059e+00 1.9325844203e+00 3.3473344059e+00 
8000 5.1121019281e+00 1.4225459611e-03 1.9325270921e+00 -3.3472351106e+00 1.9325270921e+00 3.3472351106e+00 
8100 5.1117853368e+00 6.4183621268e-04 1.9324902869e+00 -3.3471713621e+00 1.9324902869e+00 3.3471713621e+00 
8200 5.1114739522e+00 -1.2651574822e-04 1.9324736805e+00 -3.3471425989e+00 1.9324736805e+00 3.3471425989e+00 
8300 5.1111676200e+00 -8.8273091279e-04 1.9324769539e+00 -3.3471482686e+00 1.9324769539e+00 3.3471482686e+00 
8400 5.1108661907e+00 -1.6270238733e-03 1.9324997933e+00 -3.3471878276e+00 1.9324997933e+00 3.3471878276e+00 
8500 5.1105695192e+00 -2.3596030481e-03 1.9325418898e+00 -3.3472607409e+00 1.9325418898e+00 3.3472607409e+00 
8600 5.1102774645e+00 -3.0806708984e-03 1.9326029394e+00 -3.3473664818e+00 1.9326029394e+00 3.3473664818e+00 
8700 5.1099898902e+00 -3.7904241376e-03 1.9326826425e+00 -3.3475045318e+00 1.9326826425e+00 3.3475045318e+00 
8800 5.1097066635e+00 -4.4890539331e-03 1.9327807046e+00 -3.3476743802e+00 1.9327807046e+00 3.3476743802e+00 
8900 5.1094276558e+00 -5.1767461005e-03 1.9328968352e+00 -3.3478755243e+00 1.9328968352e+00 3.3478755243e+00 
9000 5.1091527421e+00 -5.8536812913e-03 1.9330307483e+00 -3.3481074687e+00 1.9330307483e+00 3.3481074687e+00 
9100 5.1088818010e+00 -6.5200351736e-03 1.9331821623e+00 -3.3483697254e+00 1.9331821623e+00 3.3483697254e+00 
9200 5.1086147146e+00 -7.1759786061e-03 1.9333507995e+00 -3.3486618136e+00 1.9333507995e+00 3.3486618136e+00 
9300 5.1083513684e+00 -7.8216778061e-03 1.9335363865e+00 -3.3489832597e+00 1.9335363865e+00 3.3489832597e+00 
9400 5.1080916512e+00 -8.4572945112e-03 1.9337386535e+00 -3.3493335965e+00 1.9337386535e+00 3.3493335965e+00 
9500 5.1078354548e+00 -9.0829861350e-03 1.9339573349e+00 -3.3497123638e+00 1.9339573349e+00 3.3497123638e+00 
9600 5.1075826742e+00 -9.6989059177e-03 1.9341921687e+00 -3.3501191078e+00 1.9341921687e+00 3.3501191078e+00 
9700 5.1073332073e+00 -1.0305203071e-02 1.9344428965e+00 -3.3505533811e+00 1.9344428965e+00 3.3505533811e+00 
9800 5.1070869548e+00 -1.0902022915e-02 1.9347092636e+00 -3.3510147425e+00 1.9347092636e+00 3.3510147425e+00 
9900 5.1068438204e+00 -1.1489507018e-02 1.9349910188e+00 -3.3515027568e+00 1.9349910188e+00 3.3515027568e+00 
10000 5.1066037102e+00 -1.2067793320e-02 1.9352879143e+00 -3.3520169948e+00 1.9352879143e+00 3.3520169948e+00 
10100 5.1063665331e+00 -1.2637016262e-02 1.9355997055e+00 -3.3525570331e+00 1.9355997055e+00 3.3525570331e+00 
10200 5.1061322005e+00 -1.3197306902e-02 1.9359261514e+00 -3.3531224540e+00 1.9359261514e+00 3.3531224540e+00 
10300 5.1059006262e+00 -1.3748793035e-02 1.9362670140e+00 -3.3537128452e+00 1.9362670140e+00 3.3537128452e+00 
10400 5.1056717264e+00 -1.4291599302e-02 1.9366220583e+00 -3.3543278001e+00 1.9366220583e+00 3.3543278001e+00 
10500 5.1054454198e+00 -1.4825847299e-02 1.9369910527e+00 -3.3549669171e+00 1.9369910527e+00 3.3549669171e+00 
10600 5.1052216270e+00 -1.5351655677e-02 1.9373737683e+00 -3.3556298000e+00 1.9373737683e+00 3.3556298000e+00 
10700 5.1050002712e+00 -1.5869140247e-02 1.9377699794e+00 -3.3563160577e+00 1.9377699794e+00 3.3563160577e+00 
10800 5.1047812773e+00 -1.6378414073e-02 1.9381794630e+00 -3.3570253041e+00 1.9381794630e+00 3.3570253041e+00 
10900 5.1045645727e+00 -1.6879587565e-02 1.9386019989e+00 -3.3577571577e+00 1.9386019989e+00 3.3577571577e+00 
11000 5.1043500865e+00 -1.7372768570e-02 1.9390373698e+00 -3.3585112423e+00 1.9390373698e+00 3.3585112423e+00 
11100 5.1041377499e+00 -1.7858062454e-02 1.9394853611e+00 -3.3592871860e+00 1.9394853611e+00 3.3592871860e+00 
11200 5.1039274960e+00 -1.8335572191e-02 1.9399457608e+00 -3.3600846216e+00 1.9399457608e+00 3.3600846216e+00 
11300 5.1037192597e+00 -1.8805398436e-02 1.9404183595e+00 -3.3609031866e+00 1.9404183595e+00 3.3609031866e+00 
11400 5.1035129778e+00 -1.9267639609e-02 1.9409029504e+00 -3.3617425226e+00 1.9409029504e+00 3.3617425226e+00 
11500 5.1033085889e+00 -1.9722391962e-02 1.9413993292e+00 -3.3626022759e+00 1.9413993292e+00 3.3626022759e+00 
11600 5.1031060330e+00 -2.0169749657e-02 1.9419072940e+00 -3.3634820968e+00 1.9419072940e+00 3.3634820968e+00 
11700 5.1029052522e+00 -2.0609804831e-02 1.9424266455e+00 -3.3643816399e+00 1.9424266455e+00 3.3643816399e+00 
11800 5.1027061900e+00 -2.1042647665e-02 1.9429571866e+00 -3.3653005640e+00 1.9429571866e+00 3.3653005640e+00 
11900 5.1025087914e+00 -2.1468366444e-02 1.9434987225e+00 -3.3662385319e+00 1.9434987225e+00 3.3662385319e+00 
12000 5.1023130033e+00 -2.1887047625e-02 1.9440510610e+00 -3.3671952102e+00 1.9440510610e+00 3.3671952102e+00 
12100 5.1021187738e+00 -2.2298775890e-02 1.9446140119e+00 -3.3681702697e+00 1.9446140119e+00 3.3681702697e+00 
12200 5.1019260524e+00 -2.2703634208e-02 1.9451873871e+00 -3.3691633848e+00 1.9451873871e+00 3.3691633848e+00 
12300 5.1017347905e+00 -2.3101703888e-02 1.9457710011e+00 -3.3701742337e+00 1.9457710011e+00 3.3701742337e+00 
12400 5.1015449403e+00 -2.3493064633e-02 1.9463646701e+00 -3.3712024986e+00 1.9463646701e+00 3.3712024986e+00 
12500 5.1013564559e+00 -2.3877794592e-02 1.9469682126e+00 -3.3722478650e+00 1.9469682126e+00 3.3722478650e+00 
12600 5.1011692924e+00 -2.4255970408e-02 1.9475814493e+00 -3.3733100221e+00 1.9475814493e+00 3.3733100221e+00 
12700 5.1009834062e+00 -2.4627667269e-02 1.9482042028e+00 -3.3743886628e+00 1.9482042028e+00 3.3743886628e+00 
12800 5.1007987552e+00 -2.4992958951e-02 1.9488362977e+00 -3.3754834832e+00 1.9488362977e+00 3.3754834832e+00 
12900 5.1006152984e+00 -2.5351917861e-02 1.9494775606e+00 -3.3765941832e+00 1.9494775606e+00 3.3765941832e+00 
13000 5.1004329959e+00 -2.5704615087e-02 1.9501278201e+00 -3.3777204657e+00 1.9501278201e+00 3.3777204657e+00 
13100 5.1002518092e+00 -2.6051120431e-02 1.9507869067e+00 -3.3788620372e+00 1.9507869067e+00 3.3788620372e+00 
13200 5.1000717007e+00 -2.6391502454e-02 1.9514546528e+00 -3.3800186073e+00 1.9514546528e+00 3.3800186073e+00 
13300 5.0998926342e+00 -2.6725828515e-02 1.9521308926e+00 -3.3811898890e+00 1.9521308926e+00 3.3811898890e+00 
13400 5.0997145744e+00 -2.7054164803e-02 1.9528154622e+00 -3.3823755984e+00 1.9528154622e+00 3.3823755984e+00 
13500 5.0995374871e+00 -2.7376576379e-02 1.9535081996e+00 -3.3835754547e+00 1.9535081996e+00 3.3835754547e+00 
13600 5.0993613391e+00 -2.7693127208e-02 1.9542089443e+00 -3.3847891802e+00 1.9542089443e+00 3.3847891802e+00 
13700 5.0991860983e+00 -2.8003880190e-02 1.9549175379e+00 -3.3860165003e+00 1.9549175379e+00 3.3860165003e+00 
13800 5.0990117336e+00 -2.8308897196e-02 1.9556338236e+00 -3.3872571436e+00 1.9556338236e+00 3.3872571436e+00 
13900 5.0988382149e+00 -2.8608239098e-02 1.9563576463e+00 -3.3885108412e+00 1.9563576463e+00 3.3885108412e+00 
14000 5.0986655128e+00 -2.8901965798e-02 1.9570888526e+00 -3.3897773277e+00 1.9570888526e+00 3.3897773277e+00 
14100 5.0984935991e+00 -2.9190136257e-02 1.9578272908e+00 -3.3910563401e+00 1.9578272908e+00 3.3910563401e+00 
14200 5.0983224464e+00 -2.9472808525e-02 1.9585728108e+00 -3.3923476186e+00 1.9585728108e+00 3.3923476186e+00 
14300 5.0981520282e+00 -2.9750039767e-02 1.9593252642e+00 -3.3936509061e+00 1.9593252642e+00 3.3936509061e+00 
14400 5.0979823187e+00 -3.0021886287e-02 1.9600845041e+00 -3.3949659483e+00 1.9600845041e+00 3.3949659483e+00 
14500 5.0978132931e+00 -3.0288403555e-02 1.9608503854e+00 -3.3962924936e+00 1.9608503854e+00 3.3962924936e+00 
14600 5.0976449275e+00 -3.0549646234e-02 1.9616227644e+00 -3.3976302932e+00 1.9616227644e+00 3.3976302932e+00 
14700 5.0974771985e+00 -3.0805668199e-02 1.9624014989e+00 -3.3989791009e+00 1.9624014989e+00 3.3989791009e+00 
14800 5.0973100837e+00 -3.1056522561e-02 1.9631864484e+00 -3.4003386733e+00 1.9631864484e+00 3.4003386733e+00 
14900 5.0971435615e+00 -3.1302261691e-02 1.9639774738e+00 -3.4017087695e+00 1.9639774738e+00 3.4017087695e+00 
15000 5.0969776107e+00 -3.1542937239e-02 1.9647744375e+00 -3.4030891512e+00 1.9647744375e+00 3.4030891512e+00 
15100 5.0968122113e+00 -3.1778600156e-02 1.9655772036e+00 -3.4044795828e+00 1.9655772036e+00 3.4044795828e+00 
15200 5.0966473436e+00 -3.2009300713e-02 1.9663856373e+00 -3.4058798311e+00 1.9663856373e+00 3.4058798311e+00 
15300 5.0964829888e+00 -3.2235088519e-02 1.9671996055e+00 -3.4072896654e+00 1.9671996055e+00 3.4072896654e+00 
15400 5.0963191287e+00 -3.2456012543e-02 1.9680189765e+00 -3.4087088575e+00 1.9680189765e+00 3.4087088575e+00 
15500 5.0961557457e+00 -3.2672121129e-02 1.9688436199e+00 -3.4101371818e+00 1.9688436199e+00 3.4101371818e+00 
15600 5.0959928230e+00 -3.2883462014e-02 1.9696734068e+00 -3.4115744150e+00 1.9696734068e+00 3.4115744150e+00 
15700 5.0958303441e+00 -3.3090082346e-02 1.9705082098e+00 -3.4130203361e+00 1.9705082098e+00 3.4130203361e+00 
15800 5.0956682935e+00 -3.3292028697e-02 1.9713479026e+00 -3.4144747267e+00 1.9713479026e+00 3.4144747267e+00 
15900 5.0955066561e+00 -3.3489347082e-02 1.9721923605e+00 -3.4159373706e+00 1.9721923605e+00 3.4159373706e+00 
16000 5.0953454172e+00 -3.3682082975e-02 1.9730414599e+00 -3.4174080540e+00 1.9730414599e+00 3.4174080540e+00 
16100 5.0951845630e+00 -3.3870281319e-02 1.9738950788e+00 -3.4188865654e+00 1.9738950788e+00 3.4188865654e+00 
16200 5.0950240799e+00 -3.4053986544e-02 1.9747530964e+00 -3.4203726954e+00 1.9747530964e+00 3.4203726954e+00 
16300 5.0948639551e+00 -3.4233242580e-02 1.9756153932e+00 -3.4218662372e+00 1.9756153932e+00 3.4218662372e+00 
16400 5.0947041762e+00 -3.4408092871e-02 1.9764818509e+00 -3.4233669860e+00 1.9764818509e+00 3.4233669860e+00 
16500 5.0945447314e+00 -3.4578580386e-02 1.9773523526e+00 -3.4248747392e+00 1.9773523526e+00 3.4248747392e+00 
16600 5.0943856091e+00 -3.4744747632e-02 1.9782267827e+00 -3.4263892965e+00 1.9782267827e+00 3.4263892965e+00 
16700 5.0942267986e+00 -3.4906636668e-02 1.9791050267e+00 -3.4279104598e+00 1.9791050267e+00 3.4279104598e+00 
16800 5.0940682893e+00 -3.5064289116e-02 1.9799869715e+00 -3.4294380330e+00 1.9799869715e+00 3.4294380330e+00 
16900 5.0939100713e+00 -3.5217746170e-02 1.9808725052e+00 -3.4309718223e+00 1.9808725052e+00 3.4309718223e+00 
17000 5.0937521350e+00 -3.5367048609e-02 1.9817615169e+00 -3.4325116358e+00 1.9817615169e+00 3.4325116358e+00 
17100 5.0935944713e+00 -3.5512236811e-02 1.9826538973e+00 -3.4340572839e+00 1.9826538973e+00 3.4340572839e+00 
17200 5.0934370715e+00 -3.5653350755e-02 1.9835495380e+00 -3.4356085791e+00 1.9835495380e+00 3.4356085791e+00 
17300 5.0932799273e+00 -3.5790430039e-02 1.9844483318e+00 -3.4371653357e+00 1.9844483318e+00 3.4371653357e+00 
17400 5.0931230307e+00 -3.5923513886e-02 1.9853501728e+00 -3.4387273702e+00 1.9853501728e+00 3.4387273702e+00 
17500 5.0929663743e+00 -3.6052641154e-02 1.9862549563e+00 -3.4402945012e+00 1.9862549563e+00 3.4402945012e+00 
17600 5.0928099509e+00 -3.6177850345e-02 1.9871625786e+00 -3.4418665491e+00 1.9871625786e+00 3.4418665491e+00 
17700 5.0926537538e+00 -3.6299179616e-02 1.9880729372e+00 -3.4434433364e+00 1.9880729372e+00 3.4434433364e+00 
17800 5.0924977765e+00 -3.6416666783e-02 1.9889859308e+00 -3.4450246877e+00 1.9889859308e+00 3.4450246877e+00 
17900 5.0923420130e+00 -3.6530349335e-02 1.9899014591e+00 -3.4466104293e+00 1.9899014591e+00 3.4466104293e+00 
18000 5.0921864575e+00 -3.6640264436e-02 1.9908194231e+00 -3.4482003895e+00 1.9908194231e+00 3.4482003895e+00 
18100 5.0920311047e+00 -3.6746448939e-02 1.9917397247e+00 -3.4497943986e+00 1.9917397247e+00 3.4497943986e+00 
18200 5.0918759495e+00 -3.6848939389e-02 1.9926622670e+00 -3.4513922888e+00 1.9926622670e+00 3.4513922888e+00 
18300 5.0917209871e+00 -3.6947772033e-02 1.9935869543e+00 -3.4529938941e+00 1.9935869543e+00 3.4529938941e+00 
18400 5.0915662130e+00 -3.7042982826e-02 1.9945136917e+00 -3.4545990504e+00 1.9945136917e+00 3.4545990504e+00 
18500 5.0914116231e+00 -3.7134607438e-02 1.9954423856e+00 -3.4562075955e+00 1.9954423856e+00 3.4562075955e+00 
18600 5.0912572135e+00 -3.7222681261e-02 1.9963729435e+00 -3.4578193690e+00 1.9963729435e+00 3.4578193690e+00 
18700 5.0911029805e+00 -3.7307239416e-02 1.9973052737e+00 -3.4594342123e+00 1.9973052737e+00 3.4594342123e+00 
18800 5.0909489209e+00 -3.7388316759e-02 1.9982392858e+00 -3.4610519687e+00 1.9982392858e+00 3.4610519687e+00 
18900 5.0907950316e+00 -3.7465947887e-02 1.9991748903e+00 -3.4626724832e+00 1.9991748903e+00 3.4626724832e+00 
19000 5.0906413098e+00 -3.7540167142e-02 2.0001119988e+00 -3.4642956027e+00 2.0001119988e+00 3.4642956027e+00 
19100 5.0904877529e+00 -3.7611008623e-02 2.0010505237e+00 -3.4659211756e+00 2.0010505237e+00 3.4659211756e+00 
19200 5.0903343586e+00 -3.7678506185e-02 2.0019903788e+00 -3.4675490524e+00 2.0019903788e+00 3.4675490524e+00 
19300 5.0901811248e+00 -3.7742693446e-02 2.0029314787e+00 -3.4691790852e+00 2.0029314787e+00 3.4691790852e+00 
19400 5.0900280496e+00 -3.7803603796e-02 2.0038737389e+00 -3.4708111277e+00 2.0038737389e+00 3.4708111277e+00 
19500 5.0898751316e+00 -3.7861270397e-02 2.0048170759e+00 -3.4724450354e+00 2.0048170759e+00 3.4724450354e+00 
19600 5.0897223691e+00 -3.7915726192e-02 2.0057614075e+00 -3.4740806657e+00 2.0057614075e+00 3.4740806657e+00 
19700 5.0895697611e+00 -3.7967003909e-02 2.0067066521e+00 -3.4757178773e+00 2.0067066521e+00 3.4757178773e+00 
19800 5.0894173065e+00 -3.8015136062e-02 2.0076527292e+00 -3.4773565310e+00 2.0076527292e+00 3.4773565310e+00 
19900 5.0892650045e+00 -3.8060154961e-02 2.0085995594e+00 -3.4789964889e+00 2.0085995594e+00 3.4789964889e+00 
20000 5.0891128546e+00 -3.8102092714e-02 2.0095470640e+00 -3.4806376150e+00 2.0095470640e+00 3.4806376150e+00 
20100 5.0889608564e+00 -3.8140981230e-02 2.0104951654e+00 -3.4822797748e+00 2.0104951654e+00 3.4822797748e+00 
20200 5.0888090095e+00 -3.8176852225e-02 2.0114437869e+00 -3.4839228354e+00 2.0114437869e+00 3.4839228354e+00 
20300 5.0886573140e+00 -3.8209737226e-02 2.0123928527e+00 -3.4855666657e+00 2.0123928527e+00 3.4855666657e+00 
20400 5.0885057699e+00 -3.8239667572e-02 2.0133422881e+00 -3.4872111360e+00 2.0133422881e+00 3.4872111360e+00 
20500 5.0883543776e+00 -3.8266674423e-02 2.0142920191e+00 -3.4888561184e+00 2.0142920191e+00 3.4888561184e+00 
20600 5.0882031375e+00 -3.8290788760e-02 2.0152419728e+00 -3.4905014864e+00 2.0152419728e+00 3.4905014864e+00 
20700 5.0880520503e+00 -3.8312041386e-02 2.0161920769e+00 -3.4921471151e+00 2.0161920769e+00 3.4921471151e+00 
20800 5.0879011166e+00 -3.8330462938e-02 2.0171422604e+00 -3.4937928812e+00 2.0171422604e+00 3.4937928812e+00 
20900 5.0877503374e+00 -3.8346083879e-02 2.0180924530e+00 -3.4954386629e+00 2.0180924530e+00 3.4954386629e+00 
21000 5.0875997138e+00 -3.8358934513e-02 2.0190425851e+00 -3.4970843401e+00 2.0190425851e+00 3.4970843401e+00 
21100 5.0874492469e+00 -3.8369044977e-02 2.0199925884e+00 -3.4987297940e+00 2.0199925884e+00 3.4987297940e+00 
21200 5.0872989381e+00 -3.8376445251e-02 2.0209423951e+00 -3.5003749075e+00 2.0209423951e+00 3.5003749075e+00 
21300 5.0871487888e+00 -3.8381165162e-02 2.0218919385e+00 -3.5020195649e+00 2.0218919385e+00 3.5020195649e+00 
21400 5.0869988007e+00 -3.8383234378e-02 2.0228411526e+00 -3.5036636519e+00 2.0228411526e+00 3.5036636519e+00 
21500 5.0868489755e+00 -3.8382682420e-02 2.0237899723e+00 -3.5053070560e+00 2.0237899723e+00 3.5053070560e+00 
21600 5.0866993150e+00 -3.8379538661e-02 2.0247383336e+00 -3.5069496658e+00 2.0247383336e+00 3.5069496658e+00 
21700 5.0865498211e+00 -3.8373832328e-02 2.0256861729e+00 -3.5085913716e+00 2.0256861729e+00 3.5085913716e+00 
21800 5.0864004960e+00 -3.8365592502e-02 2.0266334277e+00 -3.5102320651e+00 2.0266334277e+00 3.5102320651e+00 
21900 5.0862513417e+00 -3.8354848128e-02 2.0275800365e+00 -3.5118716395e+00 2.0275800365e+00 3.5118716395e+00 
22000 5.0861023607e+00 -3.8341628007e-02 2.0285259382e+00 -3.5135099894e+00 2.0285259382e+00 3.5135099894e+00 
22100 5.0859535553e+00 -3.8325960808e-02 2.0294710728e+00 -3.5151470106e+00 2.0294710728e+00 3.5151470106e+00 
22200 5.0858049280e+00 -3.8307875062e-02 2.0304153812e+00 -3.5167826008e+00 2.0304153812e+00 3.5167826008e+00 
22300 5.0856564813e+00 -3.8287399168e-02 2.0313588049e+00 -3.5184166585e+00 2.0313588049e+00 3.5184166585e+00 
22400 5.0855082180e+00 -3.8264561394e-02 2.0323012863e+00 -3.5200490842e+00 2.0323012863e+00 3.5200490842e+00 
22500 5.0853601408e+00 -3.8239389880e-02 2.0332427687e+00 -3.5216797794e+00 2.0332427687e+00 3.5216797794e+00 
22600 5.0852122526e+00 -3.8211912637e-02 2.0341831959e+00 -3.5233086471e+00 2.0341831959e+00 3.5233086471e+00 
22700 5.0850645564e+00 -3.8182157550e-02 2.0351225127e+00 -3.5249355917e+00 2.0351225127e+00 3.5249355917e+00 
22800 5.0849170551e+00 -3.8150152380e-02 2.0360606648e+00 -3.5265605188e+00 2.0360606648e+00 3.5265605188e+00 
22900 5.0847697518e+00 -3.8115924765e-02 2.0369975985e+00 -3.5281833355e+00 2.0369975985e+00 3.5281833355e+00 
23000 5.0846226498e+00 -3.8079502220e-02 2.0379332609e+00 -3.5298039504e+00 2.0379332609e+00 3.5298039504e+00 
23100 5.0844757524e+00 -3.8040912142e-02 2.0388675999e+00 -3.5314222730e+00 2.0388675999e+00 3.5314222730e+00 
23200 5.0843290627e+00 -3.8000181806e-02 2.0398005642e+00 -3.5330382145e+00 2.0398005642e+00 3.5330382145e+00 
23300 5.0841825843e+00 -3.7957338370e-02 2.0407321031e+00 -3.5346516872e+00 2.0407321031e+00 3.5346516872e+00 
23400 5.0840363205e+00 -3.7912408874e-02 2.0416621669e+00 -3.5362626049e+00 2.0416621669e+00 3.5362626049e+00 
23500 5.0838902750e+00 -3.7865420244e-02 2.0425907064e+00 -3.5378708826e+00 2.0425907064e+00 3.5378708826e+00 
23600 5.0837444513e+00 -3.7816399289e-02 2.0435176734e+00 -3.5394764365e+00 2.0435176734e+00 3.5394764365e+00 
23700 5.0835988530e+00 -3.7765372703e-02 2.0444430202e+00 -3.5410791842e+00 2.0444430202e+00 3.5410791842e+00 
23800 5.0834534839e+00 -3.7712367068e-02 2.0453667000e+00 -3.5426790446e+00 2.0453667000e+00 3.5426790446e+00 
23900 5.0833083477e+00 -3.7657408852e-02 2.0462886667e+00 -3.5442759377e+00 2.0462886667e+00 3.5442759377e+00 
24000 5.0831634482e+00 -3.7600524410e-02 2.0472088749e+00 -3.5458697849e+00 2.0472088749e+00 3.5458697849e+00 
24100 5.0830187893e+00 -3.7541739986e-02 2.0481272798e+00 -3.5474605089e+00 2.0481272798e+00 3.5474605089e+00 
24200 5.0828743749e+00 -3.7481081713e-02 2.0490438375e+00 -3.5490480335e+00 2.0490438375e+00 3.5490480335e+00 
24300 5.0827302090e+00 -3.7418575613e-02 2.0499585048e+00 -3.5506322838e+00 2.0499585048e+00 3.5506322838e+00 
24400 5.0825862955e+00 -3.7354247597e-02 2.0508712392e+00 -3.5522131861e+00 2.0508712392e+00 3.5522131861e+00 
24500 5.0824426384e+00 -3.7288123466e-02 2.0517819987e+00 -3.5537906679e+00 2.0517819987e+00 3.5537906679e+00 
24600 5.0822992420e+00 -3.7220228911e-02 2.0526907423e+00 -3.5553646579e+00 2.0526907423e+00 3.5553646579e+00 
24700 5.0821561103e+00 -3.7150589515e-02 2.0535974295e+00 -3.5569350862e+00 2.0535974295e+00 3.5569350862e+00 
24800 5.0820132473e+00 -3.7079230749e-02 2.0545020205e+00 -3.5585018838e+00 2.0545020205e+00 3.5585018838e+00 
24900 5.0818706575e+00 -3.7006177975e-02 2.0554044763e+00 -3.5600649830e+00 2.0554044763e+00 3.5600649830e+00 
25000 5.0817283448e+00 -3.6931456448e-02 2.0563047584e+00 -3.5616243174e+00 2.0563047584e+00 3.5616243174e+00 
25100 5.0815863137e+00 -3.6855091311e-02 2.0572028292e+00 -3.5631798216e+00 2.0572028292e+00 3.5631798216e+00 
25200 5.0814445683e+00 -3.6777107597e-02 2.0580986515e+00 -3.5647314314e+00 2.0580986515e+00 3.5647314314e+00 
25300 5.0813031131e+00 -3.6697530233e-02 2.0589921890e+00 -3.5662790838e+00 2.0589921890e+00 3.5662790838e+00 
25400 5.0811619522e+00 -3.6616384034e-02 2.0598834060e+00 -3.5678227169e+00 2.0598834060e+00 3.5678227169e+00 
25500 5.0810210901e+00 -3.6533693703e-02 2.0607722674e+00 -3.5693622699e+00 2.0607722674e+00 3.5693622699e+00 
25600 5.0808805312e+00 -3.6449483837e-02 2.0616587387e+00 -3.5708976834e+00 2.0616587387e+00 3.5708976834e+00 
25700 5.0807402798e+00 -3.6363778920e-02 2.0625427863e+00 -3.5724288986e+00 2.0625427863e+00 3.5724288986e+00 
25800 5.0806003404e+00 -3.6276603325e-02 2.0634243769e+00 -3.5739558584e+00 2.0634243769e+00 3.5739558584e+00 
25900 5.0804607173e+00 -3.6187981315e-02 2.0643034782e+00 -3.5754785064e+00 2.0643034782e+00 3.5754785064e+00 
26000 5.0803214151e+00 -3.6097937041e-02 2.0651800581e+00 -3.5769967874e+00 2.0651800581e+00 3.5769967874e+00 
26100 5.0801824382e+00 -3.6006494541e-02 2.0660540856e+00 -3.5785106474e+00 2.0660540856e+00 3.5785106474e+00 
26200 5.0800437910e+00 -3.5913677741e-02 2.0669255300e+00 -3.5800200334e+00 2.0669255300e+00 3.5800200334e+00 
26300 5.0799054781e+00 -3.5819510454e-02 2.0677943613e+00 -3.5815248933e+00 2.0677943613e+00 3.5815248933e+00 
26400 5.0797675039e+00 -3.5724016379e-02 2.0686605502e+00 -3.5830251765e+00 2.0686605502e+00 3.5830251765e+00 
26500 5.0796298729e+00 -3.5627219100e-02 2.0695240679e+00 -3.5845208331e+00 2.0695240679e+00 3.5845208331e+00 
26600 5.0794925897e+00 -3.5529142088e-02 2.0703848863e+00 -3.5860118142e+00 2.0703848863e+00 3.5860118142e+00 
26700 5.0793556586e+00 -3.5429808696e-02 2.0712429778e+00 -3.5874980724e+00 2.0712429778e+00 3.5874980724e+00 
26800 5.0792190844e+00 -3.5329242161e-02 2.0720983156e+00 -3.5889795608e+00 2.0720983156e+00 3.5889795608e+00 
26900 5.0790828713e+00 -3.5227465604e-02 2.0729508732e+00 -3.5904562339e+00 2.0729508732e+00 3.5904562339e+00 
27000 5.0789470240e+00 -3.5124502026e-02 2.0738006249e+00 -3.5919280471e+00 2.0738006249e+00 3.5919280471e+00 
27100 5.0788115470e+00 -3.5020374312e-02 2.0746475455e+00 -3.5933949567e+00 2.0746475455e+00 3.5933949567e+00 
27200 5.0786764447e+00 -3.4915105225e-02 2.0754916105e+00 -3.5948569201e+00 2.0754916105e+00 3.5948569201e+00 
27300 5.0785417217e+00 -3.4808717407e-02 2.0763327959e+00 -3.5963138959e+00 2.0763327959e+00 3.5963138959e+00 
27400 5.0784073824e+00 -3.4701233382e-02 2.0771710781e+00 -3.5977658434e+00 2.0771710781e+00 3.5977658434e+00 
27500 5.0782734314e+00 -3.4592675548e-02 2.0780064344e+00 -3.5992127229e+00 2.0780064344e+00 3.5992127229e+00 
27600 5.0781398731e+00 -3.4483066183e-02 2.0788388424e+00 -3.6006544958e+00 2.0788388424e+00 3.6006544958e+00 
27700 5.0780067119e+00 -3.4372427437e-02 2.0796682804e+00 -3.6020911246e+00 2.0796682804e+00 3.6020911246e+00 
27800 5.0778739524e+00 -3.4260781339e-02 2.0804947272e+00 -3.6035225724e+00 2.0804947272e+00 3.6035225724e+00 
27900 5.0777415989e+00 -3.4148149788e-02 2.0813181621e+00 -3.6049488035e+00 2.0813181621e+00 3.6049488035e+00 
28000 5.0776096560e+00 -3.4034554560e-02 2.0821385651e+00 -3.6063697831e+00 2.0821385651e+00 3.6063697831e+00 
28100 5.0774781279e+00 -3.3920017298e-02 2.0829559166e+00 -3.6077854774e+00 2.0829559166e+00 3.6077854774e+00 
28200 5.0773470191e+00 -3.3804559521e-02 2.0837701975e+00 -3.6091958534e+00 2.0837701975e+00 3.6091958534e+00 
28300 5.0772163340e+00 -3.3688202614e-02 2.0845813895e+00 -3.6106008790e+00 2.0845813895e+00 3.6106008790e+00 
28400 5.0770860769e+00 -3.3570967831e-02 2.0853894744e+00 -3.6120005233e+00 2.0853894744e+00 3.6120005233e+00 
28500 5.0769562521e+00 -3.3452876295e-02 2.0861944350e+00 -3.6133947559e+00 2.0861944350e+00 3.6133947559e+00 
28600 5.0768268640e+00 -3.3333948996e-02 2.0869962543e+00 -3.6147835476e+00 2.0869962543e+00 3.6147835476e+00 
28700 5.0766979169e+00 -3.3214206787e-02 2.0877949159e+00 -3.6161668701e+00 2.0877949159e+00 3.6161668701e+00 
28800 5.0765694149e+00 -3.3093670387e-02 2.0885904038e+00 -3.6175446956e+00 2.0885904038e+00 3.6175446956e+00 
28900 5.0764413624e+00 -3.2972360379e-02 2.0893827028e+00 -3.6189169978e+00 2.0893827028e+00 3.6189169978e+00 
29000 5.0763137636e+00 -3.2850297206e-02 2.0901717980e+00 -3.6202837507e+00 2.0901717980e+00 3.6202837507e+00 
29100 5.0761866226e+00 -3.2727501175e-02 2.0909576749e+00 -3.6216449294e+00 2.0909576749e+00 3.6216449294e+00 
29200 5.0760599436e+00 -3.2603992449e-02 2.0917403197e+00 -3.6230005099e+00 2.0917403197e+00 3.6230005099e+00 
29300 5.0759337307e+00 -3.2479791052e-02 2.0925197189e+00 -3.6243504690e+00 2.0925197189e+00 3.6243504690e+00 
29400 5.0758079881e+00 -3.2354916868e-02 2.0932958597e+00 -3.6256947843e+00 2.0932958597e+00 3.6256947843e+00 
29500 5.0756827196e+00 -3.2229389633e-02 2.0940687296e+00 -3.6270334342e+00 2.0940687296e+00 3.6270334342e+00 
29600 5.0755579295e+00 -3.2103228941e-02 2.0948383166e+00 -3.6283663980e+00 2.0948383166e+00 3.6283663980e+00 
29700 5.0754336216e+00 -3.1976454241e-02 2.0956046093e+00 -3.6296936559e+00 2.0956046093e+00 3.6296936559e+00 
29800 5.0753098000e+00 -3.1849084834e-02 2.0963675966e+00 -3.6310151886e+00 2.0963675966e+00 3.6310151886e+00 
29900 5.0751864685e+00 -3.1721139873e-02 2.0971272679e+00 -3.6323309780e+00 2.0971272679e+00 3.6323309780e+00 
30000 5.0750636310e+00 -3.1592638363e-02 2.0978836132e+00 -3.6336410064e+00 2.0978836132e+00 3.6336410064e+00 
30100 5.0749412913e+00 -3.1463599160e-02 2.0986366227e+00 -3.6349452572e+00 2.0986366227e+00 3.6349452572e+00 
30200 5.0748194533e+00 -3.1334040966e-02 2.0993862873e+00 -3.6362437144e+00 2.0993862873e+00 3.6362437144e+00 
30300 5.0746981207e+00 -3.1203982333e-02 2.1001325982e+00 -3.6375363628e+00 2.1001325982e+00 3.6375363628e+00 
30400 5.0745772971e+00 -3.1073441660e-02 2.1008755471e+00 -3.6388231879e+00 2.1008755471e+00 3.6388231879e+00 
30500 5.0744569863e+00 -3.0942437191e-02 2.1016151259e+00 -3.6401041761e+00 2.1016151259e+00 3.6401041761e+00 
30600 5.0743371920e+00 -3.0810987016e-02 2.1023513274e+00 -3.6413793144e+00 2.1023513274e+00 3.6413793144e+00 
30700 5.0742179176e+00 -3.0679109066e-02 2.1030841444e+00 -3.6426485907e+00 2.1030841444e+00 3.6426485907e+00 
30800 5.0740991666e+00 -3.0546821119e-02 2.1038135703e+00 -3.6439119935e+00 2.1038135703e+00 3.6439119935e+00 
30900 5.0739809427e+00 -3.0414140791e-02 2.1045395990e+00 -3.6451695120e+00 2.1045395990e+00 3.6451695120e+00 
31000 5.0738632492e+00 -3.0281085542e-02 2.1052622245e+00 -3.6464211361e+00 2.1052622245e+00 3.6464211361e+00 
31100 5.0737460894e+00 -3.0147672669e-02 2.1059814415e+00 -3.6476668565e+00 2.1059814415e+00 3.6476668565e+00 
31200 5.0736294668e+00 -3.0013919311e-02 2.1066972451e+00 -3.6489066646e+00 2.1066972451e+00 3.6489066646e+00 
31300 5.0735133846e+00 -2.9879842444e-02 2.1074096305e+00 -3.6501405525e+00 2.1074096305e+00 3.6501405525e+00 
31400 5.0733978460e+00 -2.9745458879e-02 2.1081185937e+00 -3.6513685127e+00 2.1081185937e+00 3.6513685127e+00 
31500 5.0732828542e+00 -2.9610785268e-02 2.1088241308e+00 -3.6525905388e+00 2.1088241308e+00 3.6525905388e+00 
31600 5.0731684124e+00 -2.9475838095e-02 2.1095262384e+00 -3.6538066248e+00 2.1095262384e+00 3.6538066248e+00 
31700 5.0730545236e+00 -2.9340633680e-02 2.1102249134e+00 -3.6550167654e+00 2.1102249134e+00 3.6550167654e+00 
31800 5.0729411908e+00 -2.9205188177e-02 2.1109201531e+00 -3.6562209559e+00 2.1109201531e+00 3.6562209559e+00 
31900 5.0728284170e+00 -2.9069517573e-02 2.1116119553e+00 -3.6574191924e+00 2.1116119553e+00 3.6574191924e+00 
32000 5.0727162051e+00 -2.8933637689e-02 2.1123003180e+00 -3.6586114715e+00 2.1123003180e+00 3.6586114715e+00 
32100 5.0726045578e+00 -2.8797564176e-02 2.1129852395e+00 -3.6597977905e+00 2.1129852395e+00 3.6597977905e+00 
32200 5.0724934781e+00 -2.8661312517e-02 2.1136667188e+00 -3.6609781472e+00 2.1136667188e+00 3.6609781472e+00 
32300 5.0723829687e+00 -2.8524898025e-02 2.1143447548e+00 -3.6621525400e+00 2.1143447548e+00 3.6621525400e+00 
32400 5.0722730321e+00 -2.8388335844e-02 2.1150193471e+00 -3.6633209682e+00 2.1150193471e+00 3.6633209682e+00 
32500 5.0721636710e+00 -2.8251640947e-02 2.1156904955e+00 -3.6644834313e+00 2.1156904955e+00 3.6644834313e+00 
32600 5.0720548880e+00 -2.8114828134e-02 2.1163582001e+00 -3.6656399296e+00 2.1163582001e+00 3.6656399296e+00 
32700 5.0719466855e+00 -2.7977912036e-02 2.1170224615e+00 -3.6667904640e+00 2.1170224615e+00 3.6667904640e+00 
32800 5.0718390659e+00 -2.7840907110e-02 2.1176832803e+00 -3.6679350358e+00 2.1176832803e+00 3.6679350358e+00 
32900 5.0717320317e+00 -2.7703827641e-02 2.1183406578e+00 -3.6690736471e+00 2.1183406578e+00 3.6690736471e+00 
33000 5.0716255850e+00 -2.7566687739e-02 2.1189945954e+00 -3.6702063002e+00 2.1189945954e+00 3.6702063002e+00 
33100 5.0715197282e+00 -2.7429501344e-02 2.1196450949e+00 -3.6713329984e+00 2.1196450949e+00 3.6713329984e+00 
33200 5.0714144634e+00 -2.7292282219e-02 2.1202921583e+00 -3.6724537451e+00 2.1202921583e+00 3.6724537451e+00 
33300 5.0713097927e+00 -2.7155043954e-02 2.1209357881e+00 -3.6735685446e+00 2.1209357881e+00 3.6735685446e+00 
33400 5.0712057182e+00 -2.7017799965e-02 2.1215759869e+00 -3.6746774014e+00 2.1215759869e+00 3.6746774014e+00 
33500 5.0711022417e+00 -2.6880563490e-02 2.1222127576e+00 -3.6757803207e+00 2.1222127576e+00 3.6757803207e+00 
33600 5.0709993653e+00 -2.6743347596e-02 2.1228461036e+00 -3.6768773081e+00 2.1228461036e+00 3.6768773081e+00 
33700 5.0708970908e+00 -2.6606165173e-02 2.1234760285e+00 -3.6779683700e+00 2.1234760285e+00 3.6779683700e+00 
33800 5.0707954198e+00 -2.6469028935e-02 2.1241025360e+00 -3.6790535128e+00 2.1241025360e+00 3.6790535128e+00 
33900 5.0706943542e+00 -2.6331951421e-02 2.1247256302e+00 -3.6801327437e+00 2.1247256302e+00 3.6801327437e+00 
34000 5.0705938956e+00 -2.6194944995e-02 2.1253453157e+00 -3.6812060704e+00 2.1253453157e+00 3.6812060704e+00 
34100 5.0704940455e+00 -2.6058021843e-02 2.1259615970e+00 -3.6822735009e+00 2.1259615970e+00 3.6822735009e+00 
34200 5.0703948054e+00 -2.5921193978e-02 2.1265744790e+00 -3.6833350437e+00 2.1265744790e+00 3.6833350437e+00 
34300 5.0702961769e+00 -2.5784473235e-02 2.1271839670e+00 -3.6843907079e+00 2.1271839670e+00 3.6843907079e+00 
34400 5.0701981611e+00 -2.5647871275e-02 2.1277900664e+00 -3.6854405028e+00 2.1277900664e+00 3.6854405028e+00 
34500 5.0701007595e+00 -2.5511399582e-02 2.1283927828e+00 -3.6864844383e+00 2.1283927828e+00 3.6864844383e+00 
34600 5.0700039733e+00 -2.5375069466e-02 2.1289921223e+00 -3.6875225247e+00 2.1289921223e+00 3.6875225247e+00 
34700 5.0699078036e+00 -2.5238892060e-02 2.1295880910e+00 -3.6885547728e+00 2.1295880910e+00 3.6885547728e+00 
34800 5.0698122515e+00 -2.5102878322e-02 2.1301806953e+00 -3.6895811936e+00 2.1301806953e+00 3.6895811936e+00 
34900 5.0697173180e+00 -2.4967039035e-02 2.1307699419e+00 -3.6906017987e+00 2.1307699419e+00 3.6906017987e+00 
35000 5.0696230041e+00 -2.4831384810e-02 2.1313558377e+00 -3.6916165999e+00 2.1313558377e+00 3.6916165999e+00 
35100 5.0695293107e+00 -2.4695926080e-02 2.1319383898e+00 -3.6926256097e+00 2.1319383898e+00 3.6926256097e+00 
35200 5.0694362385e+00 -2.4560673105e-02 2.1325176055e+00 -3.6936288408e+00 2.1325176055e+00 3.6936288408e+00 
35300 5.0693437883e+00 -2.4425635971e-02 2.1330934924e+00 -3.6946263061e+00 2.1330934924e+00 3.6946263061e+00 
35400 5.0692519609e+00 -2.4290824593e-02 2.1336660582e+00 -3.6956180192e+00 2.1336660582e+00 3.6956180192e+00 
35500 5.0691607567e+00 -2.4156248709e-02 2.1342353109e+00 -3.6966039938e+00 2.1342353109e+00 3.6966039938e+00 
35600 5.0690701763e+00 -2.4021917888e-02 2.1348012587e+00 -3.6975842442e+00 2.1348012587e+00 3.6975842442e+00 
35700 5.0689802203e+00 -2.3887841526e-02 2.1353639100e+00 -3.6985587848e+00 2.1353639100e+00 3.6985587848e+00 
35800 5.0688908889e+00 -2.3754028847e-02 2.1359232733e+00 -3.6995276304e+00 2.1359232733e+00 3.6995276304e+00 
35900 5.0688021825e+00 -2.3620488905e-02 2.1364793574e+00 -3.7004907963e+00 2.1364793574e+00 3.7004907963e+00 
36000 5.0687141013e+00 -2.3487230583e-02 2.1370321712e+00 -3.7014482980e+00 2.1370321712e+00 3.7014482980e+00 
36100 5.0686266457e+00 -2.3354262594e-02 2.1375817240e+00 -3.7024001512e+00 2.1375817240e+00 3.7024001512e+00 
36200 5.0685398156e+00 -2.3221593483e-02 2.1381280249e+00 -3.7033463722e+00 2.1381280249e+00 3.7033463722e+00 
36300 5.0684536111e+00 -2.3089231627e-02 2.1386710835e+00 -3.7042869773e+00 2.1386710835e+00 3.7042869773e+00 
36400 5.0683680322e+00 -2.2957185235e-02 2.1392109094e+00 -3.7052219832e+00 2.1392109094e+00 3.7052219832e+00 
36500 5.0682830788e+00 -2.2825462348e-02 2.1397475125e+00 -3.7061514071e+00 2.1397475125e+00 3.7061514071e+00 
36600 5.0681987508e+00 -2.2694070844e-02 2.1402809028e+00 -3.7070752661e+00 2.1402809028e+00 3.7070752661e+00 
36700 5.0681150480e+00 -2.2563018433e-02 2.1408110904e+00 -3.7079935780e+00 2.1408110904e+00 3.7079935780e+00 
36800 5.0680319700e+00 -2.2432312662e-02 2.1413380856e+00 -3.7089063605e+00 2.1413380856e+00 3.7089063605e+00 
36900 5.0679495165e+00 -2.2301960914e-02 2.1418618989e+00 -3.7098136317e+00 2.1418618989e+00 3.7098136317e+00 
37000 5.0678676871e+00 -2.2171970411e-02 2.1423825409e+00 -3.7107154101e+00 2.1423825409e+00 3.7107154101e+00 
37100 5.0677864814e+00 -2.2042348211e-02 2.1429000223e+00 -3.7116117142e+00 2.1429000223e+00 3.7116117142e+00 
37200 5.0677058986e+00 -2.1913101214e-02 2.1434143540e+00 -3.7125025628e+00 2.1434143540e+00 3.7125025628e+00 
37300 5.0676259383e+00 -2.1784236159e-02 2.1439255471e+00 -3.7133879752e+00 2.1439255471e+00 3.7133879752e+00 
37400 5.0675465998e+00 -2.1655759626e-02 2.1444336127e+00 -3.7142679707e+00 2.1444336127e+00 3.7142679707e+00 
37500 5.0674678822e+00 -2.1527678039e-02 2.1449385621e+00 -3.7151425687e+00 2.1449385621e+00 3.7151425687e+00 
37600 5.0673897849e+00 -2.1399997665e-02 2.1454404067e+00 -3.7160117891e+00 2.1454404067e+00 3.7160117891e+00 
37700 5.0673123069e+00 -2.1272724615e-02 2.1459391581e+00 -3.7168756518e+00 2.1459391581e+00 3.7168756518e+00 
37800 5.0672354473e+00 -2.1145864846e-02 2.1464348279e+00 -3.7177341770e+00 2.1464348279e+00 3.7177341770e+00 
37900 5.0671592051e+00 -2.1019424162e-02 2.1469274278e+00 -3.7185873851e+00 2.1469274278e+00 3.7185873851e+00 
38000 5.0670835792e+00 -2.0893408217e-02 2.1474169698e+00 -3.7194352967e+00 2.1474169698e+00 3.7194352967e+00 
38100 5.0670085686e+00 -2.0767822512e-02 2.1479034658e+00 -3.7202779326e+00 2.1479034658e+00 3.7202779326e+00 
38200 5.0669341720e+00 -2.0642672400e-02 2.1483869280e+00 -3.7211153136e+00 2.1483869280e+00 3.7211153136e+00 
38300 5.0668603882e+00 -2.0517963084e-02 2.1488673685e+00 -3.7219474610e+00 2.1488673685e+00 3.7219474610e+00 
38400 5.0667872159e+00 -2.0393699623e-02 2.1493447996e+00 -3.7227743959e+00 2.1493447996e+00 3.7227743959e+00 
38500 5.0667146538e+00 -2.0269886928e-02 2.1498192337e+00 -3.7235961399e+00 2.1498192337e+00 3.7235961399e+00 
38600 5.0666427004e+00 -2.0146529766e-02 2.1502906833e+00 -3.7244127145e+00 2.1502906833e+00 3.7244127145e+00 
38700 5.0665713543e+00 -2.0023632763e-02 2.1507591609e+00 -3.7252241415e+00 2.1507591609e+00 3.7252241415e+00 
38800 5.0665006139e+00 -1.9901200400e-02 2.1512246792e+00 -3.7260304429e+00 2.1512246792e+00 3.7260304429e+00 
38900 5.0664304776e+00 -1.9779237021e-02 2.1516872509e+00 -3.7268316406e+00 2.1516872509e+00 3.7268316406e+00 
39000 5.0663609439e+00 -1.9657746830e-02 2.1521468888e+00 -3.7276277568e+00 2.1521468888e+00 3.7276277568e+00 
39100 5.0662920110e+00 -1.9536733893e-02 2.1526036059e+00 -3.7284188139e+00 2.1526036059e+00 3.7284188139e+00 
39200 5.0662236772e+00 -1.9416202141e-02 2.1530574149e+00 -3.7292048342e+00 2.1530574149e+00 3.7292048342e+00 
39300 5.0661559407e+00 -1.9296155368e-02 2.1535083290e+00 -3.7299858404e+00 2.1535083290e+00 3.7299858404e+00 
39400 5.0660887996e+00 -1.9176597238e-02 2.1539563613e+00 -3.7307618550e+00 2.1539563613e+00 3.7307618550e+00 
39500 5.0660222520e+00 -1.9057531282e-02 2.1544015249e+00 -3.7315329009e+00 2.1544015249e+00 3.7315329009e+00 
39600 5.0659562960e+00 -1.8938960900e-02 2.1548438329e+00 -3.7322990010e+00 2.1548438329e+00 3.7322990010e+00 
39700 5.0658909295e+00 -1.8820889364e-02 2.1552832987e+00 -3.7330601781e+00 2.1552832987e+00 3.7330601781e+00 
39800 5.0658261506e+00 -1.8703319818e-02 2.1557199356e+00 -3.7338164554e+00 2.1557199356e+00 3.7338164554e+00 
39900 5.0657619571e+00 -1.8586255282e-02 2.1561537570e+00 -3.7345678561e+00 2.1561537570e+00 3.7345678561e+00 
40000 5.0656983468e+00 -1.8469698651e-02 2.1565847762e+00 -3.7353144033e+00 2.1565847762e+00 3.7353144033e+00 
40100 5.0656353176e+00 -1.8353652696e-02 2.1570130068e+00 -3.7360561203e+00 2.1570130068e+00 3.7360561203e+00 
40200 5.0655728672e+00 -1.8238120068e-02 2.1574384622e+00 -3.7367930307e+00 2.1574384622e+00 3.7367930307e+00 
40300 5.0655109934e+00 -1.8123103298e-02 2.1578611559e+00 -3.7375251577e+00 2.1578611559e+00 3.7375251577e+00 
40400 5.0654496938e+00 -1.8008604800e-02 2.1582811016e+00 -3.7382525251e+00 2.1582811016e+00 3.7382525251e+00 
40500 5.0653889660e+00 -1.7894626871e-02 2.1586983129e+00 -3.7389751562e+00 2.1586983129e+00 3.7389751562e+00 
40600 5.0653288076e+00 -1.7781171693e-02 2.1591128034e+00 -3.7396930748e+00 2.1591128034e+00 3.7396930748e+00 
40700 5.0652692163e+00 -1.7668241333e-02 2.1595245869e+00 -3.7404063046e+00 2.1595245869e+00 3.7404063046e+00 
40800 5.0652101893e+00 -1.7555837749e-02 2.1599336769e+00 -3.7411148693e+00 2.1599336769e+00 3.7411148693e+00 
40900 5.0651517244e+00 -1.7443962788e-02 2.1603400872e+00 -3.7418187927e+00 2.1603400872e+00 3.7418187927e+00 
41000 5.0650938187e+00 -1.7332618188e-02 2.1607438317e+00 -3.7425180986e+00 2.1607438317e+00 3.7425180986e+00 
41100 5.0650364699e+00 -1.7221805579e-02 2.1611449240e+00 -3.7432128108e+00 2.1611449240e+00 3.7432128108e+00 
41200 5.0649796751e+00 -1.7111526489e-02 2.1615433779e+00 -3.7439029533e+00 2.1615433779e+00 3.7439029533e+00 
41300 5.0649234317e+00 -1.7001782338e-02 2.1619392073e+00 -3.7445885500e+00 2.1619392073e+00 3.7445885500e+00 
41400 5.0648677370e+00 -1.6892574446e-02 2.1623324260e+00 -3.7452696247e+00 2.1623324260e+00 3.7452696247e+00 
41500 5.0648125883e+00 -1.6783904034e-02 2.1627230478e+00 -3.7459462015e+00 2.1627230478e+00 3.7459462015e+00 
41600 5.0647579826e+00 -1.6675772221e-02 2.1631110865e+00 -3.7466183043e+00 2.1631110865e+00 3.7466183043e+00 
41700 5.0647039173e+00 -1.6568180030e-02 2.1634965560e+00 -3.7472859570e+00 2.1634965560e+00 3.7472859570e+00 
41800 5.0646503895e+00 -1.6461128388e-02 2.1638794702e+00 -3.7479491838e+00 2.1638794702e+00 3.7479491838e+00 
41900 5.0645973962e+00 -1.6354618129e-02 2.1642598428e+00 -3.7486080085e+00 2.1642598428e+00 3.7486080085e+00 
42000 5.0645449346e+00 -1.6248649993e-02 2.1646376878e+00 -3.7492624552e+00 2.1646376878e+00 3.7492624552e+00 
42100 5.0644930017e+00 -1.6143224630e-02 2.1650130189e+00 -3.7499125478e+00 2.1650130189e+00 3.7499125478e+00 
42200 5.0644415945e+00 -1.6038342600e-02 2.1653858501e+00 -3.7505583104e+00 2.1653858501e+00 3.7505583104e+00 
42300 5.0643907101e+00 -1.5934004375e-02 2.1657561952e+00 -3.7511997669e+00 2.1657561952e+00 3.7511997669e+00 
42400 5.0643403454e+00 -1.5830210341e-02 2.1661240680e+00 -3.7518369412e+00 2.1661240680e+00 3.7518369412e+00 
42500 5.0642904974e+00 -1.5726960800e-02 2.1664894823e+00 -3.7524698574e+00 2.1664894823e+00 3.7524698574e+00 
42600 5.0642411629e+00 -1.5624255970e-02 2.1668524520e+00 -3.7530985393e+00 2.1668524520e+00 3.7530985393e+00 
42700 5.0641923390e+00 -1.5522095989e-02 2.1672129908e+00 -3.7537230109e+00 2.1672129908e+00 3.7537230109e+00 
42800 5.0641440224e+00 -1.5420480914e-02 2.1675711126e+00 -3.7543432960e+00 2.1675711126e+00 3.7543432960e+00 
42900 5.0640962100e+00 -1.5319410723e-02 2.1679268311e+00 -3.7549594185e+00 2.1679268311e+00 3.7549594185e+00 
43000 5.0640488987e+00 -1.5218885319e-02 2.1682801601e+00 -3.7555714023e+00 2.1682801601e+00 3.7555714023e+00 
43100 5.0640020853e+00 -1.5118904528e-02 2.1686311132e+00 -3.7561792710e+00 2.1686311132e+00 3.7561792710e+00 
43200 5.0639557665e+00 -1.5019468103e-02 2.1689797043e+00 -3.7567830485e+00 2.1689797043e+00 3.7567830485e+00 
43300 5.0639099392e+00 -1.4920575725e-02 2.1693259470e+00 -3.7573827584e+00 2.1693259470e+00 3.7573827584e+00 
43400 5.0638646001e+00 -1.4822227004e-02 2.1696698550e+00 -3.7579784245e+00 2.1696698550e+00 3.7579784245e+00 
43500 5.0638197459e+00 -1.4724421481e-02 2.1700114419e+00 -3.7585700703e+00 2.1700114419e+00 3.7585700703e+00 
43600 5.0637753734e+00 -1.4627158629e-02 2.1703507213e+00 -3.7591577196e+00 2.1703507213e+00 3.7591577196e+00 
43700 5.0637314793e+00 -1.4530437855e-02 2.1706877069e+00 -3.7597413957e+00 2.1706877069e+00 3.7597413957e+00 
43800 5.0636880602e+00 -1.4434258502e-02 2.1710224121e+00 -3.7603211222e+00 2.1710224121e+00 3.7603211222e+00 
43900 5.0636451129e+00 -1.4338619848e-02 2.1713548506e+00 -3.7608969225e+00 2.1713548506e+00 3.7608969225e+00 
44000 5.0636026340e+00 -1.4243521111e-02 2.1716850357e+00 -3.7614688199e+00 2.1716850357e+00 3.7614688199e+00 
44100 5.0635606202e+00 -1.4148961448e-02 2.1720129811e+00 -3.7620368379e+00 2.1720129811e+00 3.7620368379e+00 
44200 5.0635190682e+00 -1.4054939957e-02 2.1723387000e+00 -3.7626009997e+00 2.1723387000e+00 3.7626009997e+00 
44300 5.0634779745e+00 -1.3961455677e-02 2.1726622059e+00 -3.7631613284e+00 2.1726622059e+00 3.7631613284e+00 
44400 5.0634373358e+00 -1.3868507595e-02 2.1729835122e+00 -3.7637178471e+00 2.1729835122e+00 3.7637178471e+00 
44500 5.0633971488e+00 -1.3776094639e-02 2.1733026321e+00 -3.7642705791e+00 2.1733026321e+00 3.7642705791e+00 
44600 5.0633574100e+00 -1.3684215685e-02 2.1736195790e+00 -3.7648195472e+00 2.1736195790e+00 3.7648195472e+00 
44700 5.0633181160e+00 -1.3592869559e-02 2.1739343661e+00 -3.7653647743e+00 2.1739343661e+00 3.7653647743e+00 
44800 5.0632792634e+00 -1.3502055034e-02 2.1742470065e+00 -3.7659062834e+00 2.1742470065e+00 3.7659062834e+00 
44900 5.0632408489e+00 -1.3411770834e-02 2.1745575134e+00 -3.7664440973e+00 2.1745575134e+00 3.7664440973e+00 
45000 5.0632028690e+00 -1.3322015637e-02 2.1748659000e+00 -3.7669782385e+00 2.1748659000e+00 3.7669782385e+00 
45100 5.0631653202e+00 -1.3232788072e-02 2.1751721793e+00 -3.7675087298e+00 2.1751721793e+00 3.7675087298e+00 
45200 5.0631281993e+00 -1.3144086724e-02 2.1754763644e+00 -3.7680355938e+00 2.1754763644e+00 3.7680355938e+00 
45300 5.0630915027e+00 -1.3055910134e-02 2.1757784681e+00 -3.7685588528e+00 2.1757784681e+00 3.7685588528e+00 
45400 5.0630552270e+00 -1.2968256800e-02 2.1760785035e+00 -3.7690785293e+00 2.1760785035e+00 3.7690785293e+00 
45500 5.0630193689e+00 -1.2881125178e-02 2.1763764834e+00 -3.7695946456e+00 2.1763764834e+00 3.7695946456e+00 
45600 5.0629839248e+00 -1.2794513685e-02 2.1766724206e+00 -3.7701072239e+00 2.1766724206e+00 3.7701072239e+00 
45700 5.0629488913e+00 -1.2708420698e-02 2.1769663280e+00 -3.7706162864e+00 2.1769663280e+00 3.7706162864e+00 
45800 5.0629142651e+00 -1.2622844556e-02 2.1772582182e+00 -3.7711218552e+00 2.1772582182e+00 3.7711218552e+00 
45900 5.0628800427e+00 -1.2537783562e-02 2.1775481040e+00 -3.7716239521e+00 2.1775481040e+00 3.7716239521e+00 
46000 5.0628462206e+00 -1.2453235984e-02 2.1778359980e+00 -3.7721225991e+00 2.1778359980e+00 3.7721225991e+00 
46100 5.0628127955e+00 -1.2369200053e-02 2.1781219128e+00 -3.7726178180e+00 2.1781219128e+00 3.7726178180e+00 
46200 5.0627797639e+00 -1.2285673971e-02 2.1784058608e+00 -3.7731096304e+00 2.1784058608e+00 3.7731096304e+00 
46300 5.0627471224e+00 -1.2202655905e-02 2.1786878546e+00 -3.7735980580e+00 2.1786878546e+00 3.7735980580e+00 
46400 5.0627148677e+00 -1.2120143991e-02 2.1789679066e+00 -3.7740831223e+00 2.1789679066e+00 3.7740831223e+00 
46500 5.0626829962e+00 -1.2038136338e-02 2.1792460291e+00 -3.7745648446e+00 2.1792460291e+00 3.7745648446e+00 
46600 5.0626515046e+00 -1.1956631023e-02 2.1795222345e+00 -3.7750432464e+00 2.1795222345e+00 3.7750432464e+00 
46700 5.0626203896e+00 -1.1875626097e-02 2.1797965350e+00 -3.7755183489e+00 2.1797965350e+00 3.7755183489e+00 
46800 5.0625896476e+00 -1.1795119585e-02 2.1800689429e+00 -3.7759901731e+00 2.1800689429e+00 3.7759901731e+00 
46900 5.0625592754e+00 -1.1715109485e-02 2.1803394702e+00 -3.7764587401e+00 2.1803394702e+00 3.7764587401e+00 
47000 5.0625292696e+00 -1.1635593771e-02 2.1806081290e+00 -3.7769240709e+00 2.1806081290e+00 3.7769240709e+00 
47100 5.0624996267e+00 -1.1556570393e-02 2.1808749315e+00 -3.7773861863e+00 2.1808749315e+00 3.7773861863e+00 
47200 5.0624703435e+00 -1.1478037279e-02 2.1811398895e+00 -3.7778451070e+00 2.1811398895e+00 3.7778451070e+00 
47300 5.0624414166e+00 -1.1399992337e-02 2.1814030149e+00 -3.7783008536e+00 2.1814030149e+00 3.7783008536e+00 
47400 5.0624128427e+00 -1.1322433450e-02 2.1816643197e+00 -3.7787534467e+00 2.1816643197e+00 3.7787534467e+00 
47500 5.0623846184e+00 -1.1245358486e-02 2.1819238155e+00 -3.7792029068e+00 2.1819238155e+00 3.7792029068e+00 
47600 5.0623567404e+00 -1.1168765291e-02 2.1821815143e+00 -3.7796492540e+00 2.1821815143e+00 3.7796492540e+00 
47700 5.0623292054e+00 -1.1092651695e-02 2.1824374275e+00 -3.7800925088e+00 2.1824374275e+00 3.7800925088e+00 
47800 5.0623020102e+00 -1.1017015510e-02 2.1826915669e+00 -3.7805326912e+00 2.1826915669e+00 3.7805326912e+00 
47900 5.0622751514e+00 -1.0941854531e-02 2.1829439440e+00 -3.7809698211e+00 2.1829439440e+00 3.7809698211e+00 
48000 5.0622486257e+00 -1.0867166539e-02 2.1831945704e+00 -3.7814039187e+00 2.1831945704e+00 3.7814039187e+00 
48100 5.0622224300e+00 -1.0792949301e-02 2.1834434573e+00 -3.7818350035e+00 2.1834434573e+00 3.7818350035e+00 
48200 5.0621965609e+00 -1.0719200570e-02 2.1836906163e+00 -3.7822630954e+00 2.1836906163e+00 3.7822630954e+00 
48300 5.0621710152e+00 -1.0645918085e-02 2.1839360586e+00 -3.7826882140e+00 2.1839360586e+00 3.7826882140e+00 
48400 5.0621457898e+00 -1.0573099574e-02 2.1841797955e+00 -3.7831103787e+00 2.1841797955e+00 3.7831103787e+00 
48500 5.0621208813e+00 -1.0500742753e-02 2.1844218382e+00 -3.7835296089e+00 2.1844218382e+00 3.7835296089e+00 
48600 5.0620962867e+00 -1.0428845328e-02 2.1846621978e+00 -3.7839459239e+00 2.1846621978e+00 3.7839459239e+00 
48700 5.0620720027e+00 -1.0357404996e-02 2.1849008854e+00 -3.7843593430e+00 2.1849008854e+00 3.7843593430e+00 
48800 5.0620480263e+00 -1.0286419443e-02 2.1851379120e+00 -3.7847698851e+00 2.1851379120e+00 3.7847698851e+00 
48900 5.0620243541e+00 -1.0215886348e-02 2.1853732885e+00 -3.7851775692e+00 2.1853732885e+00 3.7851775692e+00 
49000 5.0620009832e+00 -1.0145803383e-02 2.1856070259e+00 -3.7855824142e+00 2.1856070259e+00 3.7855824142e+00 
49100 5.0619779104e+00 -1.0076168211e-02 2.1858391349e+00 -3.7859844389e+00 2.1858391349e+00 3.7859844389e+00 
49200 5.0619551326e+00 -1.0006978491e-02 2.1860696264e+00 -3.7863836618e+00 2.1860696264e+00 3.7863836618e+00 
49300 5.0619326468e+00 -9.9382318740e-03 2.1862985110e+00 -3.7867801015e+00 2.1862985110e+00 3.7867801015e+00 
49400 5.0619104498e+00 -9.8699260076e-03 2.1865257993e+00 -3.7871737765e+00 2.1865257993e+00 3.7871737765e+00 
49500 5.0618885386e+00 -9.8020585343e-03 2.1867515020e+00 -3.7875647051e+00 2.1867515020e+00 3.7875647051e+00 
49600 5.0618669103e+00 -9.7346270931e-03 2.1869756296e+00 -3.7879529054e+00 2.1869756296e+00 3.7879529054e+00 
49700 5.0618455617e+00 -9.6676293197e-03 2.1871981925e+00 -3.7883383956e+00 2.1871981925e+00 3.7883383956e+00 
49800 5.0618244899e+00 -9.6010628470e-03 2.1874192011e+00 -3.7887211938e+00 2.1874192011e+00 3.7887211938e+00 
49900 5.0618036920e+00 -9.5349253060e-03 2.1876386657e+00 -3.7891013177e+00 2.1876386657e+00 3.7891013177e+00 
50000 5.0617831649e+00 -9.4692143260e-03 2.1878565967e+00 -3.7894787851e+00 2.1878565967e+00 3.7894787851e+00 
50100 5.0617629058e+00 -9.4039275355e-03 2.1880730042e+00 -3.7898536139e+00 2.1880730042e+00 3.7898536139e+00 
50200 5.0617429117e+00 -9.3390625622e-03 2.1882878983e+00 -3.7902258215e+00 2.1882878983e+00 3.7902258215e+00 
50300 5.0617231797e+00 -9.2746170341e-03 2.1885012892e+00 -3.7905954253e+00 2.1885012892e+00 3.7905954253e+00 
50400 5.0617037070e+00 -9.2105885796e-03 2.1887131869e+00 -3.7909624429e+00 2.1887131869e+00 3.7909624429e+00 
50500 5.0616844906e+00 -9.1469748280e-03 2.1889236013e+00 -3.7913268913e+00 2.1889236013e+00 3.7913268913e+00 
50600 5.0616655278e+00 -9.0837734102e-03 2.1891325424e+00 -3.7916887879e+00 2.1891325424e+00 3.7916887879e+00 
50700 5.0616468157e+00 -9.0209819588e-03 2.1893400199e+00 -3.7920481495e+00 2.1893400199e+00 3.7920481495e+00 
50800 5.0616283515e+00 -8.9585981090e-03 2.1895460437e+00 -3.7924049932e+00 2.1895460437e+00 3.7924049932e+00 
50900 5.0616101325e+00 -8.8966194985e-03 2.1897506235e+00 -3.7927593358e+00 2.1897506235e+00 3.7927593358e+00 
51000 5.0615921558e+00 -8.8350437683e-03 2.1899537689e+00 -3.7931111940e+00 2.1899537689e+00 3.7931111940e+00 
51100 5.0615744188e+00 -8.7738685629e-03 2.1901554896e+00 -3.7934605845e+00 2.1901554896e+00 3.7934605845e+00 
51200 5.0615569187e+00 -8.7130915310e-03 2.1903557951e+00 -3.7938075237e+00 2.1903557951e+00 3.7938075237e+00 
51300 5.0615396528e+00 -8.6527103253e-03 2.1905546948e+00 -3.7941520282e+00 2.1905546948e+00 3.7941520282e+00 
51400 5.0615226184e+00 -8.5927226033e-03 2.1907521982e+00 -3.7944941141e+00 2.1907521982e+00 3.7944941141e+00 
51500 5.0615058129e+00 -8.5331260279e-03 2.1909483147e+00 -3.7948337978e+00 2.1909483147e+00 3.7948337978e+00 
51600 5.0614892336e+00 -8.4739182668e-03 2.1911430535e+00 -3.7951710952e+00 2.1911430535e+00 3.7951710952e+00 
51700 5.0614728779e+00 -8.4150969940e-03 2.1913364238e+00 -3.7955060226e+00 2.1913364238e+00 3.7955060226e+00 
51800 5.0614567433e+00 -8.3566598891e-03 2.1915284350e+00 -3.7958385956e+00 2.1915284350e+00 3.7958385956e+00 
51900 5.0614408271e+00 -8.2986046385e-03 2.1917190960e+00 -3.7961688302e+00 2.1917190960e+00 3.7961688302e+00 
52000 5.0614251268e+00 -8.2409289347e-03 2.1919084160e+00 -3.7964967420e+00 2.1919084160e+00 3.7964967420e+00 
52100 5.0614096398e+00 -8.1836304777e-03 2.1920964039e+00 -3.7968223466e+00 2.1920964039e+00 3.7968223466e+00 
52200 5.0613943636e+00 -8.1267069744e-03 2.1922830687e+00 -3.7971456596e+00 2.1922830687e+00 3.7971456596e+00 
52300 5.0613792958e+00 -8.0701561392e-03 2.1924684194e+00 -3.7974666964e+00 2.1924684194e+00 3.7974666964e+00 
52400 5.0613644339e+00 -8.0139756944e-03 2.1926524647e+00 -3.7977854721e+00 2.1926524647e+00 3.7977854721e+00 
52500 5.0613497754e+00 -7.9581633701e-03 2.1928352133e+00 -3.7981020021e+00 2.1928352133e+00 3.7981020021e+00 
52600 5.0613353178e+00 -7.9027169047e-03 2.1930166742e+00 -3.7984163015e+00 2.1930166742e+00 3.7984163015e+00 
52700 5.0613210588e+00 -7.8476340451e-03 2.1931968558e+00 -3.7987283852e+00 2.1931968558e+00 3.7987283852e+00 
52800 5.0613069960e+00 -7.7929125468e-03 2.1933757668e+00 -3.7990382681e+00 2.1933757668e+00 3.7990382681e+00 
52900 5.0612931271e+00 -7.7385501743e-03 2.1935534157e+00 -3.7993459651e+00 2.1935534157e+00 3.7993459651e+00 
53000 5.0612794496e+00 -7.6845447010e-03 2.1937298111e+00 -3.7996514909e+00 2.1937298111e+00 3.7996514909e+00 
53100 5.0612659612e+00 -7.6308939096e-03 2.1939049613e+00 -3.7999548600e+00 2.1939049613e+00 3.7999548600e+00 
53200 5.0612526597e+00 -7.5775955925e-03 2.1940788749e+00 -3.8002560871e+00 2.1940788749e+00 3.8002560871e+00 
53300 5.0612395427e+00 -7.5246475513e-03 2.1942515600e+00 -3.8005551864e+00 2.1942515600e+00 3.8005551864e+00 
53400 5.0612266081e+00 -7.4720475979e-03 2.1944230249e+00 -3.8008521725e+00 2.1944230249e+00 3.8008521725e+00 
53500 5.0612138535e+00 -7.4197935536e-03 2.1945932780e+00 -3.8011470594e+00 2.1945932780e+00 3.8011470594e+00 
53600 5.0612012767e+00 -7.3678832503e-03 2.1947623273e+00 -3.8014398614e+00 2.1947623273e+00 3.8014398614e+00 
53700 5.0611888756e+00 -7.3163145298e-03 2.1949301809e+00 -3.8017305924e+00 2.1949301809e+00 3.8017305924e+00 
53800 5.0611766479e+00 -7.2650852445e-03 2.1950968470e+00 -3.8020192665e+00 2.1950968470e+00 3.8020192665e+00 
53900 5.0611645915e+00 -7.2141932571e-03 2.1952623334e+00 -3.8023058975e+00 2.1952623334e+00 3.8023058975e+00 
54000 5.0611527043e+00 -7.1636364412e-03 2.1954266483e+00 -3.8025904991e+00 2.1954266483e+00 3.8025904991e+00 
54100 5.0611409841e+00 -7.1134126807e-03 2.1955897994e+00 -3.8028730851e+00 2.1955897994e+00 3.8028730851e+00 
54200 5.0611294289e+00 -7.0635198709e-03 2.1957517946e+00 -3.8031536690e+00 2.1957517946e+00 3.8031536690e+00 
54300 5.0611180365e+00 -7.0139559176e-03 2.1959126417e+00 -3.8034322644e+00 2.1959126417e+00 3.8034322644e+00 
54400 5.0611068050e+00 -6.9647187379e-03 2.1960723484e+00 -3.8037088845e+00 2.1960723484e+00 3.8037088845e+00 
54500 5.0610957322e+00 -6.9158062599e-03 2.1962309225e+00 -3.8039835429e+00 2.1962309225e+00 3.8039835429e+00 
54600 5.0610848162e+00 -6.8672164228e-03 2.1963883715e+00 -3.8042562526e+00 2.1963883715e+00 3.8042562526e+00 
54700 5.0610740550e+00 -6.8189471774e-03 2.1965447031e+00 -3.8045270269e+00 2.1965447031e+00 3.8045270269e+00 
54800 5.0610634466e+00 -6.7709964856e-03 2.1966999248e+00 -3.8047958787e+00 2.1966999248e+00 3.8047958787e+00 
54900 5.0610529890e+00 -6.7233623207e-03 2.1968540441e+00 -3.8050628211e+00 2.1968540441e+00 3.8050628211e+00 
55000 5.0610426804e+00 -6.6760426675e-03 2.1970070683e+00 -3.8053278670e+00 2.1970070683e+00 3.8053278670e+00 
55100 5.0610325188e+00 -6.6290355226e-03 2.1971590050e+00 -3.8055910290e+00 2.1971590050e+00 3.8055910290e+00 
55200 5.0610225022e+00 -6.5823388937e-03 2.1973098615e+00 -3.8058523200e+00 2.1973098615e+00 3.8058523200e+00 
55300 5.0610126289e+00 -6.5359508003e-03 2.1974596449e+00 -3.8061117526e+00 2.1974596449e+00 3.8061117526e+00 
55400 5.0610028970e+00 -6.4898692738e-03 2.1976083627e+00 -3.8063693393e+00 2.1976083627e+00 3.8063693393e+00 
55500 5.0609933046e+00 -6.4440923568e-03 2.1977560219e+00 -3.8066250925e+00 2.1977560219e+00 3.8066250925e+00 
55600 5.0609838500e+00 -6.3986181041e-03 2.1979026297e+00 -3.8068790247e+00 2.1979026297e+00 3.8068790247e+00 
55700 5.0609745313e+00 -6.3534445817e-03 2.1980481932e+00 -3.8071311481e+00 2.1980481932e+00 3.8071311481e+00 
55800 5.0609653467e+00 -6.3085698678e-03 2.1981927195e+00 -3.8073814750e+00 2.1981927195e+00 3.8073814750e+00 
55900 5.0609562946e+00 -6.2639920521e-03 2.1983362155e+00 -3.8076300174e+00 2.1983362155e+00 3.8076300174e+00 
56000 5.0609473731e+00 -6.2197092362e-03 2.1984786882e+00 -3.8078767874e+00 2.1984786882e+00 3.8078767874e+00 
56100 5.0609385806e+00 -6.1757195333e-03 2.1986201446e+00 -3.8081217970e+00 2.1986201446e+00 3.8081217970e+00 
56200 5.0609299153e+00 -6.1320210685e-03 2.1987605914e+00 -3.8083650581e+00 2.1987605914e+00 3.8083650581e+00 
56300 5.0609213755e+00 -6.0886119787e-03 2.1989000356e+00 -3.8086065824e+00 2.1989000356e+00 3.8086065824e+00 
56400 5.0609129597e+00 -6.0454904125e-03 2.1990384838e+00 -3.8088463818e+00 2.1990384838e+00 3.8088463818e+00 
56500 5.0609046661e+00 -6.0026545301e-03 2.1991759428e+00 -3.8090844678e+00 2.1991759428e+00 3.8090844678e+00 
56600 5.0608964931e+00 -5.9601025038e-03 2.1993124193e+00 -3.8093208520e+00 2.1993124193e+00 3.8093208520e+00 
56700 5.0608884392e+00 -5.9178325172e-03 2.1994479199e+00 -3.8095555459e+00 2.1994479199e+00 3.8095555459e+00 
56800 5.0608805027e+00 -5.8758427660e-03 2.1995824513e+00 -3.8097885610e+00 2.1995824513e+00 3.8097885610e+00 
56900 5.0608726820e+00 -5.8341314572e-03 2.1997160199e+00 -3.8100199086e+00 2.1997160199e+00 3.8100199086e+00 
57000 5.0608649756e+00 -5.7926968098e-03 2.1998486322e+00 -3.8102495999e+00 2.1998486322e+00 3.8102495999e+00 
57100 5.0608573821e+00 -5.7515370542e-03 2.1999802948e+00 -3.8104776462e+00 2.1999802948e+00 3.8104776462e+00 
57200 5.0608498997e+00 -5.7106504325e-03 2.2001110140e+00 -3.8107040585e+00 2.2001110140e+00 3.8107040585e+00 
57300 5.0608425271e+00 -5.6700351983e-03 2.2002407962e+00 -3.8109288479e+00 2.2002407962e+00 3.8109288479e+00 
57400 5.0608352628e+00 -5.6296896167e-03 2.2003696478e+00 -3.8111520254e+00 2.2003696478e+00 3.8111520254e+00 
57500 5.0608281052e+00 -5.5896119644e-03 2.2004975751e+00 -3.8113736019e+00 2.2004975751e+00 3.8113736019e+00 
57600 5.0608210530e+00 -5.5498005294e-03 2.2006245842e+00 -3.8115935882e+00 2.2006245842e+00 3.8115935882e+00 
57700 5.0608141047e+00 -5.5102536111e-03 2.2007506814e+00 -3.8118119950e+00 2.2007506814e+00 3.8118119950e+00 
57800 5.0608072589e+00 -5.4709695205e-03 2.2008758729e+00 -3.8120288331e+00 2.2008758729e+00 3.8120288331e+00 
57900 5.0608005142e+00 -5.4319465796e-03 2.2010001648e+00 -3.8122441129e+00 2.2010001648e+00 3.8122441129e+00 
58000 5.0607938692e+00 -5.3931831219e-03 2.2011235632e+00 -3.8124578452e+00 2.2011235632e+00 3.8124578452e+00 
58100 5.0607873225e+00 -5.3546774918e-03 2.2012460741e+00 -3.8126700403e+00 2.2012460741e+00 3.8126700403e+00 
58200 5.0607808728e+00 -5.3164280453e-03 2.2013677036e+00 -3.8128807087e+00 2.2013677036e+00 3.8128807087e+00 
58300 5.0607745188e+00 -5.2784331489e-03 2.2014884575e+00 -3.8130898607e+00 2.2014884575e+00 3.8130898607e+00 
58400 5.0607682592e+00 -5.2406911808e-03 2.2016083419e+00 -3.8132975065e+00 2.2016083419e+00 3.8132975065e+00 
58500 5.0607620925e+00 -5.2032005296e-03 2.2017273626e+00 -3.8135036564e+00 2.2017273626e+00 3.8135036564e+00 
58600 5.0607560177e+00 -5.1659595953e-03 2.2018455254e+00 -3.8137083204e+00 2.2018455254e+00 3.8137083204e+00 
58700 5.0607500333e+00 -5.1289667883e-03 2.2019628362e+00 -3.8139115087e+00 2.2019628362e+00 3.8139115087e+00 
58800 5.0607441381e+00 -5.0922205303e-03 2.2020793008e+00 -3.8141132312e+00 2.2020793008e+00 3.8141132312e+00 
58900 5.0607383309e+00 -5.0557192532e-03 2.2021949248e+00 -3.8143134979e+00 2.2021949248e+00 3.8143134979e+00 
59000 5.0607326105e+00 -5.0194614001e-03 2.2023097140e+00 -3.8145123186e+00 2.2023097140e+00 3.8145123186e+00 
59100 5.0607269757e+00 -4.9834454244e-03 2.2024236740e+00 -3.8147097031e+00 2.2024236740e+00 3.8147097031e+00 
59200 5.0607214251e+00 -4.9476697899e-03 2.2025368104e+00 -3.8149056612e+00 2.2025368104e+00 3.8149056612e+00 
59300 5.0607159578e+00 -4.9121329713e-03 2.2026491289e+00 -3.8151002025e+00 2.2026491289e+00 3.8151002025e+00 
59400 5.0607105725e+00 -4.8768334534e-03 2.2027606350e+00 -3.8152933367e+00 2.2027606350e+00 3.8152933367e+00 
59500 5.0607052680e+00 -4.8417697313e-03 2.2028713341e+00 -3.8154850732e+00 2.2028713341e+00 3.8154850732e+00 
59600 5.0607000433e+00 -4.8069403106e-03 2.2029812318e+00 -3.8156754216e+00 2.2029812318e+00 3.8156754216e+00 
59700 5.0606948971e+00 -4.7723437069e-03 2.2030903335e+00 -3.8158643913e+00 2.2030903335e+00 3.8158643913e+00 
59800 5.0606898285e+00 -4.7379784460e-03 2.2031986446e+00 -3.8160519916e+00 2.2031986446e+00 3.8160519916e+00 
59900 5.0606848362e+00 -4.7038430637e-03 2.2033061705e+00 -3.8162382319e+00 2.2033061705e+00 3.8162382319e+00 
60000 5.0606799193e+00 -4.6699361059e-03 2.2034129164e+00 -3.8164231213e+00 2.2034129164e+00 3.8164231213e+00 
60100 5.0606750766e+00 -4.6362561283e-03 2.2035188878e+00 -3.8166066691e+00 2.2035188878e+00 3.8166066691e+00 
60200 5.0606703071e+00 -4.6028016964e-03 2.2036240898e+00 -3.8167888844e+00 2.2036240898e+00 3.8167888844e+00 
60300 5.0606656097e+00 -4.5695713855e-03 2.2037285277e+00 -3.8169697761e+00 2.2037285277e+00 3.8169697761e+00 
60400 5.0606609835e+00 -4.5365637807e-03 2.2038322067e+00 -3.8171493534e+00 2.2038322067e+00 3.8171493534e+00 
60500 5.0606564274e+00 -4.5037774765e-03 2.2039351320e+00 -3.8173276252e+00 2.2039351320e+00 3.8173276252e+00 
60600 5.0606519404e+00 -4.4712110771e-03 2.2040373086e+00 -3.8175046003e+00 2.2040373086e+00 3.8175046003e+00 
60700 5.0606475215e+00 -4.4388631962e-03 2.2041387417e+00 -3.8176802875e+00 2.2041387417e+00 3.8176802875e+00 
60800 5.0606431698e+00 -4.4067324566e-03 2.2042394362e+00 -3.8178546956e+00 2.2042394362e+00 3.8178546956e+00 
60900 5.0606388843e+00 -4.3748174908e-03 2.2043393974e+00 -3.8180278334e+00 2.2043393974e+00 3.8180278334e+00 
61000 5.0606346640e+00 -4.3431169402e-03 2.2044386301e+00 -3.8181997095e+00 2.2044386301e+00 3.8181997095e+00 
61100 5.0606305080e+00 -4.3116294556e-03 2.2045371393e+00 -3.8183703324e+00 2.2045371393e+00 3.8183703324e+00 
61200 5.0606264154e+00 -4.2803536968e-03 2.2046349299e+00 -3.8185397107e+00 2.2046349299e+00 3.8185397107e+00 
61300 5.0606223853e+00 -4.2492883326e-03 2.2047320068e+00 -3.8187078529e+00 2.2047320068e+00 3.8187078529e+00 
61400 5.0606184167e+00 -4.2184320408e-03 2.2048283750e+00 -3.8188747675e+00 2.2048283750e+00 3.8188747675e+00 
61500 5.0606145087e+00 -4.1877835080e-03 2.2049240392e+00 -3.8190404627e+00 2.2049240392e+00 3.8190404627e+00 
61600 5.0606106606e+00 -4.1573414295e-03 2.2050190042e+00 -3.8192049470e+00 2.2050190042e+00 3.8192049470e+00 
61700 5.0606068714e+00 -4.1271045096e-03 2.2051132749e+00 -3.8193682285e+00 2.2051132749e+00 3.8193682285e+00 
61800 5.0606031403e+00 -4.0970714610e-03 2.2052068559e+00 -3.8195303156e+00 2.2052068559e+00 3.8195303156e+00 
61900 5.0605994664e+00 -4.0672410050e-03 2.2052997519e+00 -3.8196912162e+00 2.2052997519e+00 3.8196912162e+00 
62000 5.0605958488e+00 -4.0376118715e-03 2.2053919677e+00 -3.8198509387e+00 2.2053919677e+00 3.8198509387e+00 
62100 5.0605922869e+00 -4.0081827987e-03 2.2054835079e+00 -3.8200094909e+00 2.2054835079e+00 3.8200094909e+00 
62200 5.0605887797e+00 -3.9789525332e-03 2.2055743771e+00 -3.8201668810e+00 2.2055743771e+00 3.8201668810e+00 
62300 5.0605853265e+00 -3.9499198300e-03 2.2056645799e+00 -3.8203231168e+00 2.2056645799e+00 3.8203231168e+00 
62400 5.0605819265e+00 -3.9210834521e-03 2.2057541209e+00 -3.8204782063e+00 2.2057541209e+00 3.8204782063e+00 
62500 5.0605785789e+00 -3.8924421707e-03 2.2058430045e+00 -3.8206321573e+00 2.2058430045e+00 3.8206321573e+00 
62600 5.0605752828e+00 -3.8639947652e-03 2.2059312354e+00 -3.8207849776e+00 2.2059312354e+00 3.8207849776e+00 
62700 5.0605720377e+00 -3.8357400227e-03 2.2060188179e+00 -3.8209366750e+00 2.2060188179e+00 3.8209366750e+00 
62800 5.0605688427e+00 -3.8076767385e-03 2.2061057565e+00 -3.8210872571e+00 2.2061057565e+00 3.8210872571e+00 
62900 5.0605656971e+00 -3.7798037157e-03 2.2061920557e+00 -3.8212367317e+00 2.2061920557e+00 3.8212367317e+00 
63000 5.0605626001e+00 -3.7521197650e-03 2.2062777198e+00 -3.8213851062e+00 2.2062777198e+00 3.8213851062e+00 
63100 5.0605595511e+00 -3.7246237051e-03 2.2063627531e+00 -3.8215323883e+00 2.2063627531e+00 3.8215323883e+00 
63200 5.0605565493e+00 -3.6973143620e-03 2.2064471601e+00 -3.8216785854e+00 2.2064471601e+00 3.8216785854e+00 
63300 5.0605535941e+00 -3.6701905696e-03 2.2065309449e+00 -3.8218237051e+00 2.2065309449e+00 3.8218237051e+00 
63400 5.0605506847e+00 -3.6432511691e-03 2.2066141120e+00 -3.8219677547e+00 2.2066141120e+00 3.8219677547e+00 
63500 5.0605478205e+00 -3.6164950092e-03 2.2066966655e+00 -3.8221107415e+00 2.2066966655e+00 3.8221107415e+00 
63600 5.0605450008e+00 -3.5899209461e-03 2.2067786096e+00 -3.8222526729e+00 2.2067786096e+00 3.8222526729e+00 
63700 5.0605422249e+00 -3.5635278430e-03 2.2068599486e+00 -3.8223935562e+00 2.2068599486e+00 3.8223935562e+00 
63800 5.0605394922e+00 -3.5373145706e-03 2.2069406866e+00 -3.8225333985e+00 2.2069406866e+00 3.8225333985e+00 
63900 5.0605368021e+00 -3.5112800069e-03 2.2070208278e+00 -3.8226722071e+00 2.2070208278e+00 3.8226722071e+00 
64000 5.0605341539e+00 -3.4854230366e-03 2.2071003762e+00 -3.8228099890e+00 2.2071003762e+00 3.8228099890e+00 
64100 5.0605315469e+00 -3.4597425517e-03 2.2071793360e+00 -3.8229467514e+00 2.2071793360e+00 3.8229467514e+00 
64200 5.0605289807e+00 -3.4342374513e-03 2.2072577112e+00 -3.8230825013e+00 2.2072577112e+00 3.8230825013e+00 
64300 5.0605264545e+00 -3.4089066413e-03 2.2073355059e+00 -3.8232172456e+00 2.2073355059e+00 3.8232172456e+00 
64400 5.0605239678e+00 -3.3837490343e-03 2.2074127240e+00 -3.8233509913e+00 2.2074127240e+00 3.8233509913e+00 
64500 5.0605215200e+00 -3.3587635500e-03 2.2074893696e+00 -3.8234837453e+00 2.2074893696e+00 3.8234837453e+00 
64600 5.0605191104e+00 -3.3339491148e-03 2.2075654466e+00 -3.8236155146e+00 2.2075654466e+00 3.8236155146e+00 
64700 5.0605167386e+00 -3.3093046614e-03 2.2076409589e+00 -3.8237463057e+00 2.2076409589e+00 3.8237463057e+00 
64800 5.0605144039e+00 -3.2848291298e-03 2.2077159105e+00 -3.8238761257e+00 2.2077159105e+00 3.8238761257e+00 
64900 5.0605121059e+00 -3.2605214659e-03 2.2077903052e+00 -3.8240049811e+00 2.2077903052e+00 3.8240049811e+00 
65000 5.0605098438e+00 -3.2363806225e-03 2.2078641469e+00 -3.8241328787e+00 2.2078641469e+00 3.8241328787e+00 
65100 5.0605076173e+00 -3.2124055588e-03 2.2079374394e+00 -3.8242598250e+00 2.2079374394e+00 3.8242598250e+00 
65200 5.0605054258e+00 -3.1885952403e-03 2.2080101866e+00 -3.8243858268e+00 2.2080101866e+00 3.8243858268e+00 
65300 5.0605032687e+00 -3.1649486389e-03 2.2080823922e+00 -3.8245108905e+00 2.2080823922e+00 3.8245108905e+00 
65400 5.0605011455e+00 -3.1414647328e-03 2.2081540599e+00 -3.8246350227e+00 2.2081540599e+00 3.8246350227e+00 
65500 5.0604990557e+00 -3.1181425064e-03 2.2082251936e+00 -3.8247582298e+00 2.2082251936e+00 3.8247582298e+00 
65600 5.0604969989e+00 -3.0949809503e-03 2.2082957968e+00 -3.8248805183e+00 2.2082957968e+00 3.8248805183e+00 
65700 5.0604949744e+00 -3.0719790612e-03 2.2083658734e+00 -3.8250018945e+00 2.2083658734e+00 3.8250018945e+00 
65800 5.0604929819e+00 -3.0491358419e-03 2.2084354270e+00 -3.8251223648e+00 2.2084354270e+00 3.8251223648e+00 
65900 5.0604910208e+00 -3.0264503012e-03 2.2085044612e+00 -3.8252419356e+00 2.2085044612e+00 3.8252419356e+00 
66000 5.0604890906e+00 -3.0039214539e-03 2.2085729797e+00 -3.8253606130e+00 2.2085729797e+00 3.8253606130e+00 
66100 5.0604871909e+00 -2.9815483206e-03 2.2086409860e+00 -3.8254784034e+00 2.2086409860e+00 3.8254784034e+00 
66200 5.0604853213e+00 -2.9593299279e-03 2.2087084837e+00 -3.8255953128e+00 2.2087084837e+00 3.8255953128e+00 
66300 5.0604834812e+00 -2.9372653083e-03 2.2087754763e+00 -3.8257113475e+00 2.2087754763e+00 3.8257113475e+00 
66400 5.0604816702e+00 -2.9153534998e-03 2.2088419675e+00 -3.8258265135e+00 2.2088419675e+00 3.8258265135e+00 
66500 5.0604798879e+00 -2.8935935464e-03 2.2089079606e+00 -3.8259408170e+00 2.2089079606e+00 3.8259408170e+00 
66600 5.0604781338e+00 -2.8719844976e-03 2.2089734592e+00 -3.8260542639e+00 2.2089734592e+00 3.8260542639e+00 
66700 5.0604764076e+00 -2.8505254085e-03 2.2090384667e+00 -3.8261668603e+00 2.2090384667e+00 3.8261668603e+00 
66800 5.0604747087e+00 -2.8292153400e-03 2.2091029866e+00 -3.8262786120e+00 2.2091029866e+00 3.8262786120e+00 
66900 5.0604730367e+00 -2.8080533584e-03 2.2091670223e+00 -3.8263895251e+00 2.2091670223e+00 3.8263895251e+00 
67000 5.0604713914e+00 -2.7870385354e-03 2.2092305772e+00 -3.8264996054e+00 2.2092305772e+00 3.8264996054e+00 
67100 5.0604697721e+00 -2.7661699483e-03 2.2092936547e+00 -3.8266088587e+00 2.2092936547e+00 3.8266088587e+00 
67200 5.0604681786e+00 -2.7454466797e-03 2.2093562580e+00 -3.8267172909e+00 2.2093562580e+00 3.8267172909e+00 
67300 5.0604666104e+00 -2.7248678178e-03 2.2094183906e+00 -3.8268249076e+00 2.2094183906e+00 3.8268249076e+00 
67400 5.0604650672e+00 -2.7044324557e-03 2.2094800557e+00 -3.8269317147e+00 2.2094800557e+00 3.8269317147e+00 
67500 5.0604635485e+00 -2.6841396922e-03 2.2095412566e+00 -3.8270377179e+00 2.2095412566e+00 3.8270377179e+00 
67600 5.0604620541e+00 -2.6639886311e-03 2.2096019966e+00 -3.8271429227e+00 2.2096019966e+00 3.8271429227e+00 
67700 5.0604605834e+00 -2.6439783814e-03 2.2096622790e+00 -3.8272473348e+00 2.2096622790e+00 3.8272473348e+00 
67800 5.0604591362e+00 -2.6241080574e-03 2.2097221069e+00 -3.8273509598e+00 2.2097221069e+00 3.8273509598e+00 
67900 5.0604577121e+00 -2.6043767783e-03 2.2097814836e+00 -3.8274538032e+00 2.2097814836e+00 3.8274538032e+00 
68000 5.0604563108e+00 -2.5847836686e-03 2.2098404123e+00 -3.8275558706e+00 2.2098404123e+00 3.8275558706e+00 
68100 5.0604549318e+00 -2.5653278577e-03 2.2098988960e+00 -3.8276571675e+00 2.2098988960e+00 3.8276571675e+00 
68200 5.0604535748e+00 -2.5460084801e-03 2.2099569380e+00 -3.8277576992e+00 2.2099569380e+00 3.8277576992e+00 
68300 5.0604522396e+00 -2.5268246752e-03 2.2100145414e+00 -3.8278574711e+00 2.2100145414e+00 3.8278574711e+00 
68400 5.0604509257e+00 -2.5077755873e-03 2.2100717092e+00 -3.8279564888e+00 2.2100717092e+00 3.8279564888e+00 
68500 5.0604496328e+00 -2.4888603657e-03 2.2101284446e+00 -3.8280547574e+00 2.2101284446e+00 3.8280547574e+00 
68600 5.0604483607e+00 -2.4700781644e-03 2.2101847507e+00 -3.8281522823e+00 2.2101847507e+00 3.8281522823e+00 
68700 5.0604471089e+00 -2.4514281424e-03 2.2102406303e+00 -3.8282490687e+00 2.2102406303e+00 3.8282490687e+00 
68800 5.0604458772e+00 -2.4329094634e-03 2.2102960867e+00 -3.8283451220e+00 2.2102960867e+00 3.8283451220e+00 
68900 5.0604446652e+00 -2.4145212958e-03 2.2103511228e+00 -3.8284404472e+00 2.2103511228e+00 3.8284404472e+00 
69000 5.0604434727e+00 -2.3962628128e-03 2.2104057415e+00 -3.8285350496e+00 2.2104057415e+00 3.8285350496e+00 
69100 5.0604422993e+00 -2.3781331923e-03 2.2104599459e+00 -3.8286289343e+00 2.2104599459e+00 3.8286289343e+00 
69200 5.0604411448e+00 -2.3601316168e-03 2.2105137388e+00 -3.8287221064e+00 2.2105137388e+00 3.8287221064e+00 
69300 5.0604400088e+00 -2.3422572735e-03 2.2105671232e+00 -3.8288145710e+00 2.2105671232e+00 3.8288145710e+00 
69400 5.0604388911e+00 -2.3245093540e-03 2.2106201021e+00 -3.8289063331e+00 2.2106201021e+00 3.8289063331e+00 
69500 5.0604377914e+00 -2.3068870546e-03 2.2106726783e+00 -3.8289973977e+00 2.2106726783e+00 3.8289973977e+00 
69600 5.0604367093e+00 -2.2893895762e-03 2.2107248546e+00 -3.8290877697e+00 2.2107248546e+00 3.8290877697e+00 
69700 5.0604356447e+00 -2.2720161241e-03 2.2107766340e+00 -3.8291774542e+00 2.2107766340e+00 3.8291774542e+00 
69800 5.0604345973e+00 -2.2547659081e-03 2.2108280192e+00 -3.8292664560e+00 2.2108280192e+00 3.8292664560e+00 
69900 5.0604335667e+00 -2.2376381424e-03 2.2108790131e+00 -3.8293547801e+00 2.2108790131e+00 3.8293547801e+00 
70000 5.0604325527e+00 -2.2206320456e-03 2.2109296185e+00 -3.8294424311e+00 2.2109296185e+00 3.8294424311e+00 
70100 5.0604315551e+00 -2.2037468407e-03 2.2109798381e+00 -3.8295294140e+00 2.2109798381e+00 3.8295294140e+00 
70200 5.0604305736e+00 -2.1869817552e-03 2.2110296747e+00 -3.8296157336e+00 2.2110296747e+00 3.8296157336e+00 
70300 5.0604296079e+00 -2.1703360207e-03 2.2110791310e+00 -3.8297013945e+00 2.2110791310e+00 3.8297013945e+00 
70400 5.0604286578e+00 -2.1538088732e-03 2.2111282099e+00 -3.8297864016e+00 2.2111282099e+00 3.8297864016e+00 
70500 5.0604277231e+00 -2.1373995529e-03 2.2111769139e+00 -3.8298707594e+00 2.2111769139e+00 3.8298707594e+00 
70600 5.0604268035e+00 -2.1211073045e-03 2.2112252458e+00 -3.8299544727e+00 2.2112252458e+00 3.8299544727e+00 
70700 5.0604258987e+00 -2.1049313765e-03 2.2112732082e+00 -3.8300375461e+00 2.2112732082e+00 3.8300375461e+00 
70800 5.0604250086e+00 -2.0888710220e-03 2.2113208039e+00 -3.8301199841e+00 2.2113208039e+00 3.8301199841e+00 
70900 5.0604241329e+00 -2.0729254980e-03 2.2113680353e+00 -3.8302017914e+00 2.2113680353e+00 3.8302017914e+00 
71000 5.0604232714e+00 -2.0570940657e-03 2.2114149053e+00 -3.8302829725e+00 2.2114149053e+00 3.8302829725e+00 
71100 5.0604224239e+00 -2.0413759905e-03 2.2114614162e+00 -3.8303635319e+00 2.2114614162e+00 3.8303635319e+00 
71200 5.0604215901e+00 -2.0257705419e-03 2.2115075709e+00 -3.8304434740e+00 2.2115075709e+00 3.8304434740e+00 
71300 5.0604207698e+00 -2.0102769933e-03 2.2115533717e+00 -3.8305228034e+00 2.2115533717e+00 3.8305228034e+00 
71400 5.0604199628e+00 -1.9948946223e-03 2.2115988213e+00 -3.8306015244e+00 2.2115988213e+00 3.8306015244e+00 
71500 5.0604191689e+00 -1.9796227105e-03 2.2116439222e+00 -3.8306796414e+00 2.2116439222e+00 3.8306796414e+00 
71600 5.0604183879e+00 -1.9644605434e-03 2.2116886769e+00 -3.8307571588e+00 2.2116886769e+00 3.8307571588e+00 
71700 5.0604176196e+00 -1.9494074106e-03 2.2117330879e+00 -3.8308340810e+00 2.2117330879e+00 3.8308340810e+00 
71800 5.0604168638e+00 -1.9344626057e-03 2.2117771577e+00 -3.8309104122e+00 2.2117771577e+00 3.8309104122e+00 
71900 5.0604161202e+00 -1.9196254259e-03 2.2118208888e+00 -3.8309861567e+00 2.2118208888e+00 3.8309861567e+00 
72000 5.0604153888e+00 -1.9048951728e-03 2.2118642836e+00 -3.8310613187e+00 2.2118642836e+00 3.8310613187e+00 
72100 5.0604146693e+00 -1.8902711515e-03 2.2119073446e+00 -3.8311359025e+00 2.2119073446e+00 3.8311359025e+00 
72200 5.0604139614e+00 -1.8757526712e-03 2.2119500742e+00 -3.8312099123e+00 2.2119500742e+00 3.8312099123e+00 
72300 5.0604132651e+00 -1.8613390447e-03 2.2119924748e+00 -3.8312833523e+00 2.2119924748e+00 3.8312833523e+00 
72400 5.0604125801e+00 -1.8470295888e-03 2.2120345487e+00 -3.8313562265e+00 2.2120345487e+00 3.8313562265e+00 
72500 5.0604119063e+00 -1.8328236242e-03 2.2120762984e+00 -3.8314285391e+00 2.2120762984e+00 3.8314285391e+00 
72600 5.0604112435e+00 -1.8187204751e-03 2.2121177262e+00 -3.8315002941e+00 2.2121177262e+00 3.8315002941e+00 
72700 5.0604105915e+00 -1.8047194697e-03 2.2121588345e+00 -3.8315714957e+00 2.2121588345e+00 3.8315714957e+00 
72800 5.0604099501e+00 -1.7908199399e-03 2.2121996255e+00 -3.8316421479e+00 2.2121996255e+00 3.8316421479e+00 
72900 5.0604093192e+00 -1.7770212213e-03 2.2122401016e+00 -3.8317122546e+00 2.2122401016e+00 3.8317122546e+00 
73000 5.0604086986e+00 -1.7633226530e-03 2.2122802651e+00 -3.8317818198e+00 2.2122802651e+00 3.8317818198e+00 
73100 5.0604080882e+00 -1.7497235783e-03 2.2123201183e+00 -3.8318508475e+00 2.2123201183e+00 3.8318508475e+00 
73200 5.0604074877e+00 -1.7362233436e-03 2.2123596634e+00 -3.8319193417e+00 2.2123596634e+00 3.8319193417e+00 
73300 5.0604068970e+00 -1.7228212993e-03 2.2123989027e+00 -3.8319873061e+00 2.2123989027e+00 3.8319873061e+00 
73400 5.0604063160e+00 -1.7095167993e-03 2.2124378384e+00 -3.8320547448e+00 2.2124378384e+00 3.8320547448e+00 
73500 5.0604057445e+00 -1.6963092011e-03 2.2124764728e+00 -3.8321216614e+00 2.2124764728e+00 3.8321216614e+00 
73600 5.0604051824e+00 -1.6831978660e-03 2.2125148080e+00 -3.8321880599e+00 2.2125148080e+00 3.8321880599e+00 
73700 5.0604046294e+00 -1.6701821585e-03 2.2125528462e+00 -3.8322539440e+00 2.2125528462e+00 3.8322539440e+00 
73800 5.0604040855e+00 -1.6572614470e-03 2.2125905896e+00 -3.8323193176e+00 2.2125905896e+00 3.8323193176e+00 
73900 5.0604035505e+00 -1.6444351033e-03 2.2126280404e+00 -3.8323841843e+00 2.2126280404e+00 3.8323841843e+00 
74000 5.0604030243e+00 -1.6317025027e-03 2.2126652008e+00 -3.8324485479e+00 2.2126652008e+00 3.8324485479e+00 
74100 5.0604025067e+00 -1.6190630241e-03 2.2127020727e+00 -3.8325124120e+00 2.2127020727e+00 3.8325124120e+00 
74200 5.0604019976e+00 -1.6065160497e-03 2.2127386585e+00 -3.8325757804e+00 2.2127386585e+00 3.8325757804e+00 
74300 5.0604014969e+00 -1.5940609655e-03 2.2127749601e+00 -3.8326386567e+00 2.2127749601e+00 3.8326386567e+00 
74400 5.0604010043e+00 -1.5816971606e-03 2.2128109797e+00 -3.8327010444e+00 2.2128109797e+00 3.8327010444e+00 
74500 5.0604005199e+00 -1.5694240277e-03 2.2128467194e+00 -3.8327629473e+00 2.2128467194e+00 3.8327629473e+00 
74600 5.0604000434e+00 -1.5572409630e-03 2.2128821811e+00 -3.8328243689e+00 2.2128821811e+00 3.8328243689e+00 
74700 5.0603995748e+00 -1.5451473661e-03 2.2129173670e+00 -3.8328853126e+00 2.2129173670e+00 3.8328853126e+00 
74800 5.0603991138e+00 -1.5331426398e-03 2.2129522791e+00 -3.8329457821e+00 2.2129522791e+00 3.8329457821e+00 
74900 5.0603986604e+00 -1.5212261904e-03 2.2129869194e+00 -3.8330057809e+00 2.2129869194e+00 3.8330057809e+00 
75000 5.0603982145e+00 -1.5093974277e-03 2.2130212899e+00 -3.8330653124e+00 2.2130212899e+00 3.8330653124e+00 
75100 5.0603977759e+00 -1.4976557646e-03 2.2130553927e+00 -3.8331243800e+00 2.2130553927e+00 3.8331243800e+00 
75200 5.0603973446e+00 -1.4860006174e-03 2.2130892296e+00 -3.8331829873e+00 2.2130892296e+00 3.8331829873e+00 
75300 5.0603969203e+00 -1.4744314058e-03 2.2131228027e+00 -3.8332411376e+00 2.2131228027e+00 3.8332411376e+00 
75400 5.0603965030e+00 -1.4629475528e-03 2.2131561138e+00 -3.8332988343e+00 2.2131561138e+00 3.8332988343e+00 
75500 5.0603960926e+00 -1.4515484846e-03 2.2131891651e+00 -3.8333560807e+00 2.2131891651e+00 3.8333560807e+00 
75600 5.0603956890e+00 -1.4402336307e-03 2.2132219583e+00 -3.8334128802e+00 2.2132219583e+00 3.8334128802e+00 
75700 5.0603952920e+00 -1.4290024238e-03 2.2132544954e+00 -3.8334692362e+00 2.2132544954e+00 3.8334692362e+00 
75800 5.0603949016e+00 -1.4178543000e-03 2.2132867783e+00 -3.8335251518e+00 2.2132867783e+00 3.8335251518e+00 
75900 5.0603945176e+00 -1.4067886985e-03 2.2133188089e+00 -3.8335806304e+00 2.2133188089e+00 3.8335806304e+00 
76000 5.0603941399e+00 -1.3958050617e-03 2.2133505891e+00 -3.8336356752e+00 2.2133505891e+00 3.8336356752e+00 
76100 5.0603937685e+00 -1.3849028352e-03 2.2133821206e+00 -3.8336902895e+00 2.2133821206e+00 3.8336902895e+00 
76200 5.0603934032e+00 -1.3740814679e-03 2.2134134055e+00 -3.8337444765e+00 2.2134134055e+00 3.8337444765e+00 
76300 5.0603930439e+00 -1.3633404117e-03 2.2134444454e+00 -3.8337982392e+00 2.2134444454e+00 3.8337982392e+00 
76400 5.0603926906e+00 -1.3526791218e-03 2.2134752423e+00 -3.8338515810e+00 2.2134752423e+00 3.8338515810e+00 
76500 5.0603923431e+00 -1.3420970565e-03 2.2135057979e+00 -3.8339045049e+00 2.2135057979e+00 3.8339045049e+00 
76600 5.0603920014e+00 -1.3315936771e-03 2.2135361141e+00 -3.8339570140e+00 2.2135361141e+00 3.8339570140e+00 
76700 5.0603916653e+00 -1.3211684481e-03 2.2135661926e+00 -3.8340091115e+00 2.2135661926e+00 3.8340091115e+00 
76800 5.0603913348e+00 -1.3108208373e-03 2.2135960352e+00 -3.8340608004e+00 2.2135960352e+00 3.8340608004e+00 
76900 5.0603910097e+00 -1.3005503152e-03 2.2136256437e+00 -3.8341120838e+00 2.2136256437e+00 3.8341120838e+00 
77000 5.0603906901e+00 -1.2903563556e-03 2.2136550197e+00 -3.8341629646e+00 2.2136550197e+00 3.8341629646e+00 
77100 5.0603903757e+00 -1.2802384354e-03 2.2136841652e+00 -3.8342134460e+00 2.2136841652e+00 3.8342134460e+00 
77200 5.0603900665e+00 -1.2701960345e-03 2.2137130817e+00 -3.8342635309e+00 2.2137130817e+00 3.8342635309e+00 
77300 5.0603897625e+00 -1.2602286357e-03 2.2137417710e+00 -3.8343132223e+00 2.2137417710e+00 3.8343132223e+00 
77400 5.0603894634e+00 -1.2503357249e-03 2.2137702349e+00 -3.8343625231e+00 2.2137702349e+00 3.8343625231e+00 
77500 5.0603891694e+00 -1.2405167911e-03 2.2137984749e+00 -3.8344114362e+00 2.2137984749e+00 3.8344114362e+00 
77600 5.0603888802e+00 -1.2307713263e-03 2.2138264928e+00 -3.8344599647e+00 2.2138264928e+00 3.8344599647e+00 
77700 5.0603885958e+00 -1.2210988252e-03 2.2138542902e+00 -3.8345081112e+00 2.2138542902e+00 3.8345081112e+00 
77800 5.0603883162e+00 -1.2114987857e-03 2.2138818689e+00 -3.8345558788e+00 2.2138818689e+00 3.8345558788e+00 
77900 5.0603880412e+00 -1.2019707087e-03 2.2139092303e+00 -3.8346032703e+00 2.2139092303e+00 3.8346032703e+00 
78000 5.0603877707e+00 -1.1925140980e-03 2.2139363763e+00 -3.8346502884e+00 2.2139363763e+00 3.8346502884e+00 
78100 5.0603875047e+00 -1.1831284601e-03 2.2139633083e+00 -3.8346969361e+00 2.2139633083e+00 3.8346969361e+00 
78200 5.0603872432e+00 -1.1738133047e-03 2.2139900281e+00 -3.8347432161e+00 2.2139900281e+00 3.8347432161e+00 
78300 5.0603869860e+00 -1.1645681443e-03 2.2140165371e+00 -3.8347891311e+00 2.2140165371e+00 3.8347891311e+00 
78400 5.0603867331e+00 -1.1553924942e-03 2.2140428371e+00 -3.8348346839e+00 2.2140428371e+00 3.8348346839e+00 
78500 5.0603864843e+00 -1.1462858727e-03 2.2140689295e+00 -3.8348798773e+00 2.2140689295e+00 3.8348798773e+00 
78600 5.0603862398e+00 -1.1372478010e-03 2.2140948159e+00 -3.8349247140e+00 2.2140948159e+00 3.8349247140e+00 
78700 5.0603859992e+00 -1.1282778030e-03 2.2141204980e+00 -3.8349691966e+00 2.2141204980e+00 3.8349691966e+00 
78800 5.0603857627e+00 -1.1193754055e-03 2.2141459772e+00 -3.8350133279e+00 2.2141459772e+00 3.8350133279e+00 
78900 5.0603855302e+00 -1.1105401381e-03 2.2141712551e+00 -3.8350571104e+00 2.2141712551e+00 3.8350571104e+00 
79000 5.0603853015e+00 -1.1017715333e-03 2.2141963331e+00 -3.8351005469e+00 2.2141963331e+00 3.8351005469e+00 
79100 5.0603850766e+00 -1.0930691264e-03 2.2142212129e+00 -3.8351436399e+00 2.2142212129e+00 3.8351436399e+00 
79200 5.0603848554e+00 -1.0844324553e-03 2.2142458958e+00 -3.8351863920e+00 2.2142458958e+00 3.8351863920e+00 
79300 5.0603846380e+00 -1.0758610610e-03 2.2142703835e+00 -3.8352288059e+00 2.2142703835e+00 3.8352288059e+00 
79400 5.0603844241e+00 -1.0673544869e-03 2.2142946774e+00 -3.8352708841e+00 2.2142946774e+00 3.8352708841e+00 
79500 5.0603842138e+00 -1.0589122794e-03 2.2143187789e+00 -3.8353126291e+00 2.2143187789e+00 3.8353126291e+00 
79600 5.0603840071e+00 -1.0505339876e-03 2.2143426895e+00 -3.8353540435e+00 2.2143426895e+00 3.8353540435e+00 
79700 5.0603838038e+00 -1.0422191633e-03 2.2143664106e+00 -3.8353951298e+00 2.2143664106e+00 3.8353951298e+00 
79800 5.0603836038e+00 -1.0339673610e-03 2.2143899438e+00 -3.8354358904e+00 2.2143899438e+00 3.8354358904e+00 
79900 5.0603834072e+00 -1.0257781378e-03 2.2144132904e+00 -3.8354763279e+00 2.2144132904e+00 3.8354763279e+00 
80000 5.0603832139e+00 -1.0176510538e-03 2.2144364518e+00 -3.8355164447e+00 2.2144364518e+00 3.8355164447e+00 
80100 5.0603830239e+00 -1.0095856715e-03 2.2144594295e+00 -3.8355562432e+00 2.2144594295e+00 3.8355562432e+00 
80200 5.0603828370e+00 -1.0015815561e-03 2.2144822249e+00 -3.8355957259e+00 2.2144822249e+00 3.8355957259e+00 
80300 5.0603826532e+00 -9.9363827561e-04 2.2145048393e+00 -3.8356348952e+00 2.2145048393e+00 3.8356348952e+00 
80400 5.0603824725e+00 -9.8575540052e-04 2.2145272741e+00 -3.8356737534e+00 2.2145272741e+00 3.8356737534e+00 
80500 5.0603822948e+00 -9.7793250403e-04 2.2145495307e+00 -3.8357123030e+00 2.2145495307e+00 3.8357123030e+00 
80600 5.0603821200e+00 -9.7016916195e-04 2.2145716104e+00 -3.8357505463e+00 2.2145716104e+00 3.8357505463e+00 
80700 5.0603819483e+00 -9.6246495269e-04 2.2145935147e+00 -3.8357884855e+00 2.2145935147e+00 3.8357884855e+00 
80800 5.0603817793e+00 -9.5481945726e-04 2.2146152448e+00 -3.8358261232e+00 2.2146152448e+00 3.8358261232e+00 
80900 5.0603816132e+00 -9.4723225925e-04 2.2146368020e+00 -3.8358634614e+00 2.2146368020e+00 3.8358634614e+00 
81000 5.0603814499e+00 -9.3970294483e-04 2.2146581878e+00 -3.8359005027e+00 2.2146581878e+00 3.8359005027e+00 
81100 5.0603812893e+00 -9.3223110272e-04 2.2146794034e+00 -3.8359372491e+00 2.2146794034e+00 3.8359372491e+00 
81200 5.0603811314e+00 -9.2481632420e-04 2.2147004500e+00 -3.8359737030e+00 2.2147004500e+00 3.8359737030e+00 
81300 5.0603809762e+00 -9.1745820309e-04 2.2147213291e+00 -3.8360098666e+00 2.2147213291e+00 3.8360098666e+00 
81400 5.0603808235e+00 -9.1015633572e-04 2.2147420419e+00 -3.8360457422e+00 2.2147420419e+00 3.8360457422e+00 
81500 5.0603806734e+00 -9.0291032094e-04 2.2147625896e+00 -3.8360813318e+00 2.2147625896e+00 3.8360813318e+00 
81600 5.0603805259e+00 -8.9571976011e-04 2.2147829735e+00 -3.8361166379e+00 2.2147829735e+00 3.8361166379e+00 
81700 5.0603803808e+00 -8.8858425708e-04 2.2148031949e+00 -3.8361516624e+00 2.2148031949e+00 3.8361516624e+00 
81800 5.0603802381e+00 -8.8150341816e-04 2.2148232551e+00 -3.8361864076e+00 2.2148232551e+00 3.8361864076e+00 
81900 5.0603800978e+00 -8.7447685217e-04 2.2148431552e+00 -3.8362208756e+00 2.2148431552e+00 3.8362208756e+00 
82000 5.0603799599e+00 -8.6750417034e-04 2.2148628965e+00 -3.8362550685e+00 2.2148628965e+00 3.8362550685e+00 
82100 5.0603798243e+00 -8.6058498636e-04 2.2148824802e+00 -3.8362889886e+00 2.2148824802e+00 3.8362889886e+00 
82200 5.0603796909e+00 -8.5371891637e-04 2.2149019076e+00 -3.8363226377e+00 2.2149019076e+00 3.8363226377e+00 
82300 5.0603795598e+00 -8.4690557892e-04 2.2149211798e+00 -3.8363560181e+00 2.2149211798e+00 3.8363560181e+00 
82400 5.0603794309e+00 -8.4014459496e-04 2.2149402980e+00 -3.8363891319e+00 2.2149402980e+00 3.8363891319e+00 
82500 5.0603793042e+00 -8.3343558786e-04 2.2149592634e+00 -3.8364219809e+00 2.2149592634e+00 3.8364219809e+00 
82600 5.0603791796e+00 -8.2677818335e-04 2.2149780772e+00 -3.8364545674e+00 2.2149780772e+00 3.8364545674e+00 
82700 5.0603790571e+00 -8.2017200956e-04 2.2149967406e+00 -3.8364868933e+00 2.2149967406e+00 3.8364868933e+00 
82800 5.0603789367e+00 -8.1361669699e-04 2.2150152547e+00 -3.8365189607e+00 2.2150152547e+00 3.8365189607e+00 
82900 5.0603788182e+00 -8.0711187846e-04 2.2150336207e+00 -3.8365507715e+00 2.2150336207e+00 3.8365507715e+00 
83000 5.0603787018e+00 -8.0065718916e-04 2.2150518397e+00 -3.8365823277e+00 2.2150518397e+00 3.8365823277e+00 
83100 5.0603785873e+00 -7.9425226660e-04 2.2150699128e+00 -3.8366136313e+00 2.2150699128e+00 3.8366136313e+00 
83200 5.0603784748e+00 -7.8789675062e-04 2.2150878412e+00 -3.8366446842e+00 2.2150878412e+00 3.8366446842e+00 
83300 5.0603783641e+00 -7.8159028336e-04 2.2151056260e+00 -3.8366754883e+00 2.2151056260e+00 3.8366754883e+00 
83400 5.0603782553e+00 -7.7533250925e-04 2.2151232683e+00 -3.8367060457e+00 2.2151232683e+00 3.8367060457e+00 
83500 5.0603781484e+00 -7.6912307502e-04 2.2151407692e+00 -3.8367363582e+00 2.2151407692e+00 3.8367363582e+00 
83600 5.0603780432e+00 -7.6296162967e-04 2.2151581298e+00 -3.8367664276e+00 2.2151581298e+00 3.8367664276e+00 
83700 5.0603779398e+00 -7.5684782446e-04 2.2151753512e+00 -3.8367962560e+00 2.2151753512e+00 3.8367962560e+00 
83800 5.0603778382e+00 -7.5078131290e-04 2.2151924345e+00 -3.8368258451e+00 2.2151924345e+00 3.8368258451e+00 
83900 5.0603777382e+00 -7.4476175075e-04 2.2152093807e+00 -3.8368551968e+00 2.2152093807e+00 3.8368551968e+00 
84000 5.0603776400e+00 -7.3878879599e-04 2.2152261909e+00 -3.8368843129e+00 2.2152261909e+00 3.8368843129e+00 
84100 5.0603775434e+00 -7.3286210883e-04 2.2152428662e+00 -3.8369131953e+00 2.2152428662e+00 3.8369131953e+00 
84200 5.0603774484e+00 -7.2698135168e-04 2.2152594075e+00 -3.8369418458e+00 2.2152594075e+00 3.8369418458e+00 
84300 5.0603773551e+00 -7.2114618916e-04 2.2152758161e+00 -3.8369702662e+00 2.2152758161e+00 3.8369702662e+00 
84400 5.0603772633e+00 -7.1535628804e-04 2.2152920927e+00 -3.8369984582e+00 2.2152920927e+00 3.8369984582e+00 
84500 5.0603771730e+00 -7.0961131731e-04 2.2153082386e+00 -3.8370264237e+00 2.2153082386e+00 3.8370264237e+00 
84600 5.0603770843e+00 -7.0391094810e-04 2.2153242547e+00 -3.8370541644e+00 2.2153242547e+00 3.8370541644e+00 
84700 5.0603769971e+00 -6.9825485369e-04 2.2153401421e+00 -3.8370816821e+00 2.2153401421e+00 3.8370816821e+00 
84800 5.0603769113e+00 -6.9264270951e-04 2.2153559016e+00 -3.8371089785e+00 2.2153559016e+00 3.8371089785e+00 
84900 5.0603768270e+00 -6.8707419312e-04 2.2153715344e+00 -3.8371360552e+00 2.2153715344e+00 3.8371360552e+00 
85000 5.0603767441e+00 -6.8154898420e-04 2.2153870414e+00 -3.8371629141e+00 2.2153870414e+00 3.8371629141e+00 
85100 5.0603766626e+00 -6.7606676454e-04 2.2154024236e+00 -3.8371895569e+00 2.2154024236e+00 3.8371895569e+00 
85200 5.0603765825e+00 -6.7062721803e-04 2.2154176819e+00 -3.8372159851e+00 2.2154176819e+00 3.8372159851e+00 
85300 5.0603765038e+00 -6.6523003063e-04 2.2154328174e+00 -3.8372422005e+00 2.2154328174e+00 3.8372422005e+00 
85400 5.0603764264e+00 -6.5987489040e-04 2.2154478310e+00 -3.8372682047e+00 2.2154478310e+00 3.8372682047e+00 
85500 5.0603763503e+00 -6.5456148745e-04 2.2154627236e+00 -3.8372939995e+00 2.2154627236e+00 3.8372939995e+00 
85600 5.0603762754e+00 -6.4928951396e-04 2.2154774961e+00 -3.8373195864e+00 2.2154774961e+00 3.8373195864e+00 
85700 5.0603762019e+00 -6.4405866415e-04 2.2154921497e+00 -3.8373449670e+00 2.2154921497e+00 3.8373449670e+00 
85800 5.0603761296e+00 -6.3886863425e-04 2.2155066850e+00 -3.8373701429e+00 2.2155066850e+00 3.8373701429e+00 
85900 5.0603760585e+00 -6.3371912255e-04 2.2155211031e+00 -3.8373951159e+00 2.2155211031e+00 3.8373951159e+00 
86000 5.0603759886e+00 -6.2860982934e-04 2.2155354050e+00 -3.8374198874e+00 2.2155354050e+00 3.8374198874e+00 
86100 5.0603759199e+00 -6.2354045688e-04 2.2155495914e+00 -3.8374444590e+00 2.2155495914e+00 3.8374444590e+00 
86200 5.0603758523e+00 -6.1851070947e-04 2.2155636633e+00 -3.8374688323e+00 2.2155636633e+00 3.8374688323e+00 
86300 5.0603757859e+00 -6.1352029337e-04 2.2155776216e+00 -3.8374930088e+00 2.2155776216e+00 3.8374930088e+00 
86400 5.0603757206e+00 -6.0856891679e-04 2.2155914673e+00 -3.8375169901e+00 2.2155914673e+00 3.8375169901e+00 
86500 5.0603756565e+00 -6.0365628993e-04 2.2156052011e+00 -3.8375407778e+00 2.2156052011e+00 3.8375407778e+00 
86600 5.0603755934e+00 -5.9878212492e-04 2.2156188239e+00 -3.8375643732e+00 2.2156188239e+00 3.8375643732e+00 
86700 5.0603755314e+00 -5.9394613583e-04 2.2156323367e+00 -3.8375877780e+00 2.2156323367e+00 3.8375877780e+00 
86800 5.0603754704e+00 -5.8914803868e-04 2.2156457402e+00 -3.8376109936e+00 2.2156457402e+00 3.8376109936e+00 
86900 5.0603754105e+00 -5.8438755136e-04 2.2156590354e+00 -3.8376340216e+00 2.2156590354e+00 3.8376340216e+00 
87000 5.0603753515e+00 -5.7966439373e-04 2.2156722231e+00 -3.8376568633e+00 2.2156722231e+00 3.8376568633e+00 
87100 5.0603752936e+00 -5.7497828748e-04 2.2156853041e+00 -3.8376795203e+00 2.2156853041e+00 3.8376795203e+00 
87200 5.0603752367e+00 -5.7032895624e-04 2.2156982793e+00 -3.8377019940e+00 2.2156982793e+00 3.8377019940e+00 
87300 5.0603751807e+00 -5.6571612548e-04 2.2157111495e+00 -3.8377242858e+00 2.2157111495e+00 3.8377242858e+00 
87400 5.0603751257e+00 -5.6113952257e-04 2.2157239155e+00 -3.8377463972e+00 2.2157239155e+00 3.8377463972e+00 
87500 5.0603750716e+00 -5.5659887669e-04 2.2157365782e+00 -3.8377683297e+00 2.2157365782e+00 3.8377683297e+00 
87600 5.0603750184e+00 -5.5209391890e-04 2.2157491384e+00 -3.8377900845e+00 2.2157491384e+00 3.8377900845e+00 
87700 5.0603749662e+00 -5.4762438210e-04 2.2157615968e+00 -3.8378116631e+00 2.2157615968e+00 3.8378116631e+00 
87800 5.0603749148e+00 -5.4319000097e-04 2.2157739543e+00 -3.8378330669e+00 2.2157739543e+00 3.8378330669e+00 
87900 5.0603748643e+00 -5.3879051206e-04 2.2157862116e+00 -3.8378542972e+00 2.2157862116e+00 3.8378542972e+00 
88000 5.0603748146e+00 -5.3442565368e-04 2.2157983696e+00 -3.8378753555e+00 2.2157983696e+00 3.8378753555e+00 
88100 5.0603747658e+00 -5.3009516595e-04 2.2158104291e+00 -3.8378962431e+00 2.2158104291e+00 3.8378962431e+00 
88200 5.0603747179e+00 -5.2579879079e-04 2.2158223907e+00 -3.8379169613e+00 2.2158223907e+00 3.8379169613e+00 
88300 5.0603746707e+00 -5.2153627187e-04 2.2158342554e+00 -3.8379375115e+00 2.2158342554e+00 3.8379375115e+00 
88400 5.0603746243e+00 -5.1730735464e-04 2.2158460238e+00 -3.8379578950e+00 2.2158460238e+00 3.8379578950e+00 
88500 5.0603745788e+00 -5.1311178628e-04 2.2158576967e+00 -3.8379781130e+00 2.2158576967e+00 3.8379781130e+00 
88600 5.0603745340e+00 -5.0894931575e-04 2.2158692749e+00 -3.8379981671e+00 2.2158692749e+00 3.8379981671e+00 
88700 5.0603744899e+00 -5.0481969372e-04 2.2158807591e+00 -3.8380180583e+00 2.2158807591e+00 3.8380180583e+00 
88800 5.0603744466e+00 -5.0072267258e-04 2.2158921501e+00 -3.8380377880e+00 2.2158921501e+00 3.8380377880e+00 
88900 5.0603744041e+00 -4.9665800644e-04 2.2159034485e+00 -3.8380573575e+00 2.2159034485e+00 3.8380573575e+00 
89000 5.0603743623e+00 -4.9262545113e-04 2.2159146552e+00 -3.8380767680e+00 2.2159146552e+00 3.8380767680e+00 
89100 5.0603743211e+00 -4.8862476416e-04 2.2159257708e+00 -3.8380960209e+00 2.2159257708e+00 3.8380960209e+00 
89200 5.0603742807e+00 -4.8465570472e-04 2.2159367961e+00 -3.8381151173e+00 2.2159367961e+00 3.8381151173e+00 
89300 5.0603742410e+00 -4.8071803368e-04 2.2159477318e+00 -3.8381340584e+00 2.2159477318e+00 3.8381340584e+00 
89400 5.0603742019e+00 -4.7681151357e-04 2.2159585786e+00 -3.8381528456e+00 2.2159585786e+00 3.8381528456e+00 
89500 5.0603741636e+00 -4.7293590860e-04 2.2159693372e+00 -3.8381714801e+00 2.2159693372e+00 3.8381714801e+00 
89600 5.0603741258e+00 -4.6909098460e-04 2.2159800083e+00 -3.8381899629e+00 2.2159800083e+00 3.8381899629e+00 
89700 5.0603740887e+00 -4.6527650903e-04 2.2159905926e+00 -3.8382082954e+00 2.2159905926e+00 3.8382082954e+00 
89800 5.0603740523e+00 -4.6149225101e-04 2.2160010908e+00 -3.8382264788e+00 2.2160010908e+00 3.8382264788e+00 
89900 5.0603740164e+00 -4.5773798124e-04 2.2160115035e+00 -3.8382445142e+00 2.2160115035e+00 3.8382445142e+00 
90000 5.0603739812e+00 -4.5401347205e-04 2.2160218315e+00 -3.8382624028e+00 2.2160218315e+00 3.8382624028e+00 
90100 5.0603739466e+00 -4.5031849737e-04 2.2160320754e+00 -3.8382801457e+00 2.2160320754e+00 3.8382801457e+00 
90200 5.0603739125e+00 -4.4665283270e-04 2.2160422358e+00 -3.8382977442e+00 2.2160422358e+00 3.8382977442e+00 
90300 5.0603738791e+00 -4.4301625513e-04 2.2160523136e+00 -3.8383151993e+00 2.2160523136e+00 3.8383151993e+00 
90400 5.0603738462e+00 -4.3940854333e-04 2.2160623092e+00 -3.8383325122e+00 2.2160623092e+00 3.8383325122e+00 
90500 5.0603738139e+00 -4.3582947750e-04 2.2160722234e+00 -3.8383496841e+00 2.2160722234e+00 3.8383496841e+00 
90600 5.0603737821e+00 -4.3227883943e-04 2.2160820567e+00 -3.8383667160e+00 2.2160820567e+00 3.8383667160e+00 
90700 5.0603737509e+00 -4.2875641242e-04 2.2160918100e+00 -3.8383836091e+00 2.2160918100e+00 3.8383836091e+00 
90800 5.0603737202e+00 -4.2526198133e-04 2.2161014837e+00 -3.8384003645e+00 2.2161014837e+00 3.8384003645e+00 
90900 5.0603736900e+00 -4.2179533250e-04 2.2161110785e+00 -3.8384169832e+00 2.2161110785e+00 3.8384169832e+00 
91000 5.0603736603e+00 -4.1835625384e-04 2.2161205951e+00 -3.8384334664e+00 2.2161205951e+00 3.8384334664e+00 
91100 5.0603736312e+00 -4.1494453472e-04 2.2161300340e+00 -3.8384498151e+00 2.2161300340e+00 3.8384498151e+00 
91200 5.0603736025e+00 -4.1155996602e-04 2.2161393960e+00 -3.8384660305e+00 2.2161393960e+00 3.8384660305e+00 
91300 5.0603735744e+00 -4.0820234011e-04 2.2161486815e+00 -3.8384821134e+00 2.2161486815e+00 3.8384821134e+00 
91400 5.0603735467e+00 -4.0487145085e-04 2.2161578912e+00 -3.8384980652e+00 2.2161578912e+00 3.8384980652e+00 
91500 5.0603735195e+00 -4.0156709353e-04 2.2161670258e+00 -3.8385138867e+00 2.2161670258e+00 3.8385138867e+00 
91600 5.0603734927e+00 -3.9828906494e-04 2.2161760857e+00 -3.8385295790e+00 2.2161760857e+00 3.8385295790e+00 
91700 5.0603734664e+00 -3.9503716330e-04 2.2161850717e+00 -3.8385451431e+00 2.2161850717e+00 3.8385451431e+00 
91800 5.0603734406e+00 -3.9181118828e-04 2.2161939842e+00 -3.8385605801e+00 2.2161939842e+00 3.8385605801e+00 
91900 5.0603734152e+00 -3.8861094096e-04 2.2162028240e+00 -3.8385758910e+00 2.2162028240e+00 3.8385758910e+00 
92000 5.0603733902e+00 -3.8543622388e-04 2.2162115915e+00 -3.8385910767e+00 2.2162115915e+00 3.8385910767e+00 
92100 5.0603733657e+00 -3.8228684098e-04 2.2162202873e+00 -3.8386061384e+00 2.2162202873e+00 3.8386061384e+00 
92200 5.0603733415e+00 -3.7916259758e-04 2.2162289120e+00 -3.8386210769e+00 2.2162289120e+00 3.8386210769e+00 
92300 5.0603733178e+00 -3.7606330044e-04 2.2162374663e+00 -3.8386358932e+00 2.2162374663e+00 3.8386358932e+00 
92400 5.0603732945e+00 -3.7298875768e-04 2.2162459506e+00 -3.8386505884e+00 2.2162459506e+00 3.8386505884e+00 
92500 5.0603732716e+00 -3.6993877881e-04 2.2162543654e+00 -3.8386651634e+00 2.2162543654e+00 3.8386651634e+00 
92600 5.0603732491e+00 -3.6691317472e-04 2.2162627115e+00 -3.8386796192e+00 2.2162627115e+00 3.8386796192e+00 
92700 5.0603732270e+00 -3.6391175764e-04 2.2162709892e+00 -3.8386939567e+00 2.2162709892e+00 3.8386939567e+00 
92800 5.0603732052e+00 -3.6093434117e-04 2.2162791992e+00 -3.8387081768e+00 2.2162791992e+00 3.8387081768e+00 
92900 5.0603731839e+00 -3.5798074027e-04 2.2162873420e+00 -3.8387222806e+00 2.2162873420e+00 3.8387222806e+00 
93000 5.0603731629e+00 -3.5505077120e-04 2.2162954182e+00 -3.8387362689e+00 2.2162954182e+00 3.8387362689e+00 
93100 5.0603731422e+00 -3.5214425157e-04 2.2163034282e+00 -3.8387501426e+00 2.2163034282e+00 3.8387501426e+00 
93200 5.0603731219e+00 -3.4926100033e-04 2.2163113726e+00 -3.8387639028e+00 2.2163113726e+00 3.8387639028e+00 
93300 5.0603731020e+00 -3.4640083770e-04 2.2163192519e+00 -3.8387775502e+00 2.2163192519e+00 3.8387775502e+00 
93400 5.0603730824e+00 -3.4356358524e-04 2.2163270667e+00 -3.8387910858e+00 2.2163270667e+00 3.8387910858e+00 
93500 5.0603730631e+00 -3.4074906578e-04 2.2163348175e+00 -3.8388045104e+00 2.2163348175e+00 3.8388045104e+00 
93600 5.0603730442e+00 -3.3795710346e-04 2.2163425047e+00 -3.8388178251e+00 2.2163425047e+00 3.8388178251e+00 
93700 5.0603730255e+00 -3.3518752368e-04 2.2163501289e+00 -3.8388310306e+00 2.2163501289e+00 3.8388310306e+00 
93800 5.0603730072e+00 -3.3244015311e-04 2.2163576906e+00 -3.8388441279e+00 2.2163576906e+00 3.8388441279e+00 
93900 5.0603729893e+00 -3.2971481971e-04 2.2163651903e+00 -3.8388571178e+00 2.2163651903e+00 3.8388571178e+00 
94000 5.0603729716e+00 -3.2701135265e-04 2.2163726285e+00 -3.8388700011e+00 2.2163726285e+00 3.8388700011e+00 
94100 5.0603729542e+00 -3.2432958240e-04 2.2163800057e+00 -3.8388827787e+00 2.2163800057e+00 3.8388827787e+00 
94200 5.0603729371e+00 -3.2166934061e-04 2.2163873223e+00 -3.8388954515e+00 2.2163873223e+00 3.8388954515e+00 
94300 5.0603729204e+00 -3.1903046020e-04 2.2163945790e+00 -3.8389080204e+00 2.2163945790e+00 3.8389080204e+00 
94400 5.0603729039e+00 -3.1641277531e-04 2.2164017760e+00 -3.8389204861e+00 2.2164017760e+00 3.8389204861e+00 
94500 5.0603728877e+00 -3.1381612128e-04 2.2164089140e+00 -3.8389328494e+00 2.2164089140e+00 3.8389328494e+00 
94600 5.0603728717e+00 -3.1124033467e-04 2.2164159934e+00 -3.8389451113e+00 2.2164159934e+00 3.8389451113e+00 
94700 5.0603728561e+00 -3.0868525321e-04 2.2164230147e+00 -3.8389572724e+00 2.2164230147e+00 3.8389572724e+00 
94800 5.0603728407e+00 -3.0615071586e-04 2.2164299782e+00 -3.8389693337e+00 2.2164299782e+00 3.8389693337e+00 
94900 5.0603728255e+00 -3.0363656275e-04 2.2164368846e+00 -3.8389812960e+00 2.2164368846e+00 3.8389812960e+00 
95000 5.0603728107e+00 -3.0114263516e-04 2.2164437343e+00 -3.8389931599e+00 2.2164437343e+00 3.8389931599e+00 
95100 5.0603727961e+00 -2.9866877557e-04 2.2164505277e+00 -3.8390049264e+00 2.2164505277e+00 3.8390049264e+00 
95200 5.0603727817e+00 -2.9621482761e-04 2.2164572652e+00 -3.8390165962e+00 2.2164572652e+00 3.8390165962e+00 
95300 5.0603727676e+00 -2.9378063605e-04 2.2164639474e+00 -3.8390281700e+00 2.2164639474e+00 3.8390281700e+00 
95400 5.0603727537e+00 -2.9136604682e-04 2.2164705746e+00 -3.8390396488e+00 2.2164705746e+00 3.8390396488e+00 
95500 5.0603727401e+00 -2.8897090699e-04 2.2164771474e+00 -3.8390510331e+00 2.2164771474e+00 3.8390510331e+00 
95600 5.0603727267e+00 -2.8659506474e-04 2.2164836661e+00 -3.8390623238e+00 2.2164836661e+00 3.8390623238e+00 
95700 5.0603727135e+00 -2.8423836939e-04 2.2164901312e+00 -3.8390735217e+00 2.2164901312e+00 3.8390735217e+00 
95800 5.0603727006e+00 -2.8190067136e-04 2.2164965431e+00 -3.8390846274e+00 2.2164965431e+00 3.8390846274e+00 
95900 5.0603726879e+00 -2.7958182219e-04 2.2165029022e+00 -3.8390956418e+00 2.2165029022e+00 3.8390956418e+00 
96000 5.0603726754e+00 -2.7728167452e-04 2.2165092091e+00 -3.8391065655e+00 2.2165092091e+00 3.8391065655e+00 
96100 5.0603726631e+00 -2.7500008208e-04 2.2165154640e+00 -3.8391173994e+00 2.2165154640e+00 3.8391173994e+00 
96200 5.0603726510e+00 -2.7273689966e-04 2.2165216674e+00 -3.8391281440e+00 2.2165216674e+00 3.8391281440e+00 
96300 5.0603726391e+00 -2.7049198318e-04 2.2165278198e+00 -3.8391388003e+00 2.2165278198e+00 3.8391388003e+00 
96400 5.0603726275e+00 -2.6826518959e-04 2.2165339215e+00 -3.8391493687e+00 2.2165339215e+00 3.8391493687e+00 
96500 5.0603726160e+00 -2.6605637691e-04 2.2165399730e+00 -3.8391598502e+00 2.2165399730e+00 3.8391598502e+00 
96600 5.0603726048e+00 -2.6386540422e-04 2.2165459746e+00 -3.8391702453e+00 2.2165459746e+00 3.8391702453e+00 
96700 5.0603725937e+00 -2.6169213167e-04 2.2165519267e+00 -3.8391805547e+00 2.2165519267e+00 3.8391805547e+00 
96800 5.0603725828e+00 -2.5953642041e-04 2.2165578299e+00 -3.8391907793e+00 2.2165578299e+00 3.8391907793e+00 
96900 5.0603725721e+00 -2.5739813267e-04 2.2165636844e+00 -3.8392009196e+00 2.2165636844e+00 3.8392009196e+00 
97000 5.0603725616e+00 -2.5527713167e-04 2.2165694906e+00 -3.8392109763e+00 2.2165694906e+00 3.8392109763e+00 
97100 5.0603725513e+00 -2.5317328168e-04 2.2165752490e+00 -3.8392209501e+00 2.2165752490e+00 3.8392209501e+00 
97200 5.0603725411e+00 -2.5108644797e-04 2.2165809599e+00 -3.8392308417e+00 2.2165809599e+00 3.8392308417e+00 
97300 5.0603725312e+00 -2.4901649681e-04 2.2165866238e+00 -3.8392406517e+00 2.2165866238e+00 3.8392406517e+00 
97400 5.0603725214e+00 -2.4696329549e-04 2.2165922409e+00 -3.8392503809e+00 2.2165922409e+00 3.8392503809e+00 
97500 5.0603725117e+00 -2.4492671229e-04 2.2165978117e+00 -3.8392600297e+00 2.2165978117e+00 3.8392600297e+00 
97600 5.0603725023e+00 -2.4290661645e-04 2.2166033365e+00 -3.8392695990e+00 2.2166033365e+00 3.8392695990e+00 
97700 5.0603724929e+00 -2.4090287824e-04 2.2166088158e+00 -3.8392790894e+00 2.2166088158e+00 3.8392790894e+00 
97800 5.0603724838e+00 -2.3891536886e-04 2.2166142498e+00 -3.8392885014e+00 2.2166142498e+00 3.8392885014e+00 
97900 5.0603724748e+00 -2.3694396049e-04 2.2166196390e+00 -3.8392978358e+00 2.2166196390e+00 3.8392978358e+00 
98000 5.0603724660e+00 -2.3498852628e-04 2.2166249837e+00 -3.8393070931e+00 2.2166249837e+00 3.8393070931e+00 
98100 5.0603724573e+00 -2.3304894032e-04 2.2166302843e+00 -3.8393162740e+00 2.2166302843e+00 3.8393162740e+00 
98200 5.0603724488e+00 -2.3112507766e-04 2.2166355411e+00 -3.8393253791e+00 2.2166355411e+00 3.8393253791e+00 
98300 5.0603724404e+00 -2.2921681429e-04 2.2166407546e+00 -3.8393344090e+00 2.2166407546e+00 3.8393344090e+00 
98400 5.0603724322e+00 -2.2732402711e-04 2.2166459249e+00 -3.8393433644e+00 2.2166459249e+00 3.8393433644e+00 
98500 5.0603724241e+00 -2.2544659398e-04 2.2166510526e+00 -3.8393522457e+00 2.2166510526e+00 3.8393522457e+00 
98600 5.0603724161e+00 -2.2358439366e-04 2.2166561379e+00 -3.8393610537e+00 2.2166561379e+00 3.8393610537e+00 
98700 5.0603724083e+00 -2.2173730584e-04 2.2166611812e+00 -3.8393697889e+00 2.2166611812e+00 3.8393697889e+00 
98800 5.0603724006e+00 -2.1990521111e-04 2.2166661828e+00 -3.8393784520e+00 2.2166661828e+00 3.8393784520e+00 
98900 5.0603723931e+00 -2.1808799096e-04 2.2166711430e+00 -3.8393870434e+00 2.2166711430e+00 3.8393870434e+00 
99000 5.0603723856e+00 -2.1628552778e-04 2.2166760623e+00 -3.8393955639e+00 2.2166760623e+00 3.8393955639e+00 
99100 5.0603723783e+00 -2.1449770485e-04 2.2166809409e+00 -3.8394040138e+00 2.2166809409e+00 3.8394040138e+00 
99200 5.0603723712e+00 -2.1272440633e-04 2.2166857792e+00 -3.8394123940e+00 2.2166857792e+00 3.8394123940e+00 
99300 5.0603723641e+00 -2.1096551726e-04 2.2166905774e+00 -3.8394207048e+00 2.2166905774e+00 3.8394207048e+00 
99400 5.0603723572e+00 -2.0922092356e-04 2.2166953360e+00 -3.8394289469e+00 2.2166953360e+00 3.8394289469e+00 
99500 5.0603723504e+00 -2.0749051200e-04 2.2167000552e+00 -3.8394371208e+00 2.2167000552e+00 3.8394371208e+00 
99600 5.0603723437e+00 -2.0577417022e-04 2.2167047354e+00 -3.8394452271e+00 2.2167047354e+00 3.8394452271e+00 
99700 5.0603723372e+00 -2.0407178670e-04 2.2167093768e+00 -3.8394532663e+00 2.2167093768e+00 3.8394532663e+00 
99800 5.0603723307e+00 -2.0238325079e-04 2.2167139799e+00 -3.8394612390e+00 2.2167139799e+00 3.8394612390e+00 
99900 5.0603723244e+00 -2.0070845266e-04 2.2167185448e+00 -3.8394691457e+00 2.2167185448e+00 3.8394691457e+00 
100000 5.0603723181e+00 -1.9904728332e-04 2.2167230720e+00 -3.8394769869e+00 2.2167230720e+00 3.8394769869e+00 
100100 5.0603723120e+00 -1.9739963462e-04 2.2167275616e+00 -3.8394847633e+00 2.2167275616e+00 3.8394847633e+00 
100200 5.0603723060e+00 -1.9576539922e-04 2.2167320141e+00 -3.8394924753e+00 2.2167320141e+00 3.8394924753e+00 
100300 5.0603723001e+00 -1.9414447061e-04 2.2167364298e+00 -3.8395001234e+00 2.2167364298e+00 3.8395001234e+00 
100400 5.0603722942e+00 -1.9253674308e-04 2.2167408088e+00 -3.8395077081e+00 2.2167408088e+00 3.8395077081e+00 
100500 5.0603722885e+00 -1.9094211174e-04 2.2167451516e+00 -3.8395152300e+00 2.2167451516e+00 3.8395152300e+00 
100600 5.0603722829e+00 -1.8936047248e-04 2.2167494584e+00 -3.8395226897e+00 2.2167494584e+00 3.8395226897e+00 
100700 5.0603722774e+00 -1.8779172201e-04 2.2167537296e+00 -3.8395300875e+00 2.2167537296e+00 3.8395300875e+00 
100800 5.0603722720e+00 -1.8623575782e-04 2.2167579653e+00 -3.8395374240e+00 2.2167579653e+00 3.8395374240e+00 
100900 5.0603722667e+00 -1.8469247816e-04 2.2167621659e+00 -3.8395446997e+00 2.2167621659e+00 3.8395446997e+00 
101000 5.0603722614e+00 -1.8316178210e-04 2.2167663318e+00 -3.8395519151e+00 2.2167663318e+00 3.8395519151e+00 
101100 5.0603722563e+00 -1.8164356945e-04 2.2167704630e+00 -3.8395590707e+00 2.2167704630e+00 3.8395590707e+00 
101200 5.0603722512e+00 -1.8013774080e-04 2.2167745601e+00 -3.8395661670e+00 2.2167745601e+00 3.8395661670e+00 
101300 5.0603722462e+00 -1.7864419751e-04 2.2167786231e+00 -3.8395732044e+00 2.2167786231e+00 3.8395732044e+00 
101400 5.0603722414e+00 -1.7716284167e-04 2.2167826525e+00 -3.8395801835e+00 2.2167826525e+00 3.8395801835e+00 
101500 5.0603722366e+00 -1.7569357615e-04 2.2167866484e+00 -3.8395871047e+00 2.2167866484e+00 3.8395871047e+00 
101600 5.0603722319e+00 -1.7423630455e-04 2.2167906112e+00 -3.8395939684e+00 2.2167906112e+00 3.8395939684e+00 
101700 5.0603722272e+00 -1.7279093120e-04 2.2167945412e+00 -3.8396007753e+00 2.2167945412e+00 3.8396007753e+00 
101800 5.0603722227e+00 -1.7135736120e-04 2.2167984385e+00 -3.8396075256e+00 2.2167984385e+00 3.8396075256e+00 
101900 5.0603722182e+00 -1.6993550033e-04 2.2168023035e+00 -3.8396142199e+00 2.2168023035e+00 3.8396142199e+00 
102000 5.0603722138e+00 -1.6852525515e-04 2.2168061364e+00 -3.8396208587e+00 2.2168061364e+00 3.8396208587e+00 
102100 5.0603722095e+00 -1.6712653289e-04 2.2168099374e+00 -3.8396274424e+00 2.2168099374e+00 3.8396274424e+00 
102200 5.0603722052e+00 -1.6573924151e-04 2.2168137070e+00 -3.8396339714e+00 2.2168137070e+00 3.8396339714e+00 
102300 5.0603722011e+00 -1.6436328970e-04 2.2168174452e+00 -3.8396404462e+00 2.2168174452e+00 3.8396404462e+00 
102400 5.0603721970e+00 -1.6299858683e-04 2.2168211524e+00 -3.8396468672e+00 2.2168211524e+00 3.8396468672e+00 
102500 5.0603721929e+00 -1.6164504297e-04 2.2168248288e+00 -3.8396532350e+00 2.2168248288e+00 3.8396532350e+00 
102600 5.0603721890e+00 -1.6030256889e-04 2.2168284747e+00 -3.8396595498e+00 2.2168284747e+00 3.8396595498e+00 
102700 5.0603721851e+00 -1.5897107604e-04 2.2168320903e+00 -3.8396658122e+00 2.2168320903e+00 3.8396658122e+00 
102800 5.0603721813e+00 -1.5765047658e-04 2.2168356758e+00 -3.8396720225e+00 2.2168356758e+00 3.8396720225e+00 
102900 5.0603721775e+00 -1.5634068331e-04 2.2168392316e+00 -3.8396781813e+00 2.2168392316e+00 3.8396781813e+00 
103000 5.0603721738e+00 -1.5504160973e-04 2.2168427578e+00 -3.8396842888e+00 2.2168427578e+00 3.8396842888e+00 
103100 5.0603721702e+00 -1.5375317000e-04 2.2168462547e+00 -3.8396903457e+00 2.2168462547e+00 3.8396903457e+00 
103200 5.0603721666e+00 -1.5247527894e-04 2.2168497225e+00 -3.8396963521e+00 2.2168497225e+00 3.8396963521e+00 
103300 5.0603721631e+00 -1.5120785205e-04 2.2168531615e+00 -3.8397023087e+00 2.2168531615e+00 3.8397023087e+00 
103400 5.0603721597e+00 -1.4995080545e-04 2.2168565719e+00 -3.8397082157e+00 2.2168565719e+00 3.8397082157e+00 
103500 5.0603721563e+00 -1.4870405594e-04 2.2168599540e+00 -3.8397140736e+00 2.2168599540e+00 3.8397140736e+00 
103600 5.0603721530e+00 -1.4746752094e-04 2.2168633079e+00 -3.8397198828e+00 2.2168633079e+00 3.8397198828e+00 
103700 5.0603721497e+00 -1.4624111854e-04 2.2168666340e+00 -3.8397256436e+00 2.2168666340e+00 3.8397256436e+00 
103800 5.0603721465e+00 -1.4502476743e-04 2.2168699323e+00 -3.8397313566e+00 2.2168699323e+00 3.8397313566e+00 
103900 5.0603721434e+00 -1.4381838696e-04 2.2168732033e+00 -3.8397370220e+00 2.2168732033e+00 3.8397370220e+00 
104000 5.0603721403e+00 -1.4262189709e-04 2.2168764470e+00 -3.8397426403e+00 2.2168764470e+00 3.8397426403e+00 
104100 5.0603721372e+00 -1.4143521842e-04 2.2168796637e+00 -3.8397482119e+00 2.2168796637e+00 3.8397482119e+00 
104200 5.0603721342e+00 -1.4025827213e-04 2.2168828537e+00 -3.8397537370e+00 2.2168828537e+00 3.8397537370e+00 
104300 5.0603721313e+00 -1.3909098006e-04 2.2168860171e+00 -3.8397592162e+00 2.2168860171e+00 3.8397592162e+00 
104400 5.0603721284e+00 -1.3793326461e-04 2.2168891542e+00 -3.8397646498e+00 2.2168891542e+00 3.8397646498e+00 
104500 5.0603721256e+00 -1.3678504883e-04 2.2168922652e+00 -3.8397700382e+00 2.2168922652e+00 3.8397700382e+00 
104600 5.0603721228e+00 -1.3564625633e-04 2.2168953502e+00 -3.8397753816e+00 2.2168953502e+00 3.8397753816e+00 
104700 5.0603721200e+00 -1.3451681134e-04 2.2168984096e+00 -3.8397806806e+00 2.2168984096e+00 3.8397806806e+00 
104800 5.0603721173e+00 -1.3339663867e-04 2.2169014435e+00 -3.8397859355e+00 2.2169014435e+00 3.8397859355e+00 
104900 5.0603721147e+00 -1.3228566372e-04 2.2169044521e+00 -3.8397911466e+00 2.2169044521e+00 3.8397911466e+00 
105000 5.0603721121e+00 -1.3118381246e-04 2.2169074357e+00 -3.8397963143e+00 2.2169074357e+00 3.8397963143e+00 
105100 5.0603721095e+00 -1.3009101145e-04 2.2169103944e+00 -3.8398014389e+00 2.2169103944e+00 3.8398014389e+00 
105200 5.0603721070e+00 -1.2900718783e-04 2.2169133285e+00 -3.8398065209e+00 2.2169133285e+00 3.8398065209e+00 
105300 5.0603721046e+00 -1.2793226929e-04 2.2169162381e+00 -3.8398115605e+00 2.2169162381e+00 3.8398115605e+00 
105400 5.0603721022e+00 -1.2686618409e-04 2.2169191234e+00 -3.8398165581e+00 2.2169191234e+00 3.8398165581e+00 
105500 5.0603720998e+00 -1.2580886105e-04 2.2169219848e+00 -3.8398215140e+00 2.2169219848e+00 3.8398215140e+00 
105600 5.0603720974e+00 -1.2476022956e-04 2.2169248222e+00 -3.8398264287e+00 2.2169248222e+00 3.8398264287e+00 
105700 5.0603720951e+00 -1.2372021955e-04 2.2169276360e+00 -3.8398313023e+00 2.2169276360e+00 3.8398313023e+00 
105800 5.0603720929e+00 -1.2268876150e-04 2.2169304264e+00 -3.8398361354e+00 2.2169304264e+00 3.8398361354e+00 
105900 5.0603720907e+00 -1.2166578643e-04 2.2169331935e+00 -3.8398409281e+00 2.2169331935e+00 3.8398409281e+00 
106000 5.0603720885e+00 -1.2065122590e-04 2.2169359375e+00 -3.8398456809e+00 2.2169359375e+00 3.8398456809e+00 
106100 5.0603720863e+00 -1.1964501202e-04 2.2169386586e+00 -3.8398503940e+00 2.2169386586e+00 3.8398503940e+00 
106200 5.0603720842e+00 -1.1864707742e-04 2.2169413570e+00 -3.8398550678e+00 2.2169413570e+00 3.8398550678e+00 
106300 5.0603720822e+00 -1.1765735525e-04 2.2169440330e+00 -3.8398597026e+00 2.2169440330e+00 3.8398597026e+00 
106400 5.0603720801e+00 -1.1667577920e-04 2.2169466866e+00 -3.8398642988e+00 2.2169466866e+00 3.8398642988e+00 
106500 5.0603720781e+00 -1.1570228348e-04 2.2169493180e+00 -3.8398688566e+00 2.2169493180e+00 3.8398688566e+00 
106600 5.0603720762e+00 -1.1473680280e-04 2.2169519275e+00 -3.8398733764e+00 2.2169519275e+00 3.8398733764e+00 
106700 5.0603720742e+00 -1.1377927240e-04 2.2169545152e+00 -3.8398778584e+00 2.2169545152e+00 3.8398778584e+00 
106800 5.0603720724e+00 -1.1282962802e-04 2.2169570813e+00 -3.8398823031e+00 2.2169570813e+00 3.8398823031e+00 
106900 5.0603720705e+00 -1.1188780590e-04 2.2169596260e+00 -3.8398867106e+00 2.2169596260e+00 3.8398867106e+00 
107000 5.0603720687e+00 -1.1095374280e-04 2.2169621495e+00 -3.8398910814e+00 2.2169621495e+00 3.8398910814e+00 
107100 5.0603720669e+00 -1.1002737595e-04 2.2169646519e+00 -3.8398954156e+00 2.2169646519e+00 3.8398954156e+00 
107200 5.0603720651e+00 -1.0910864309e-04 2.2169671334e+00 -3.8398997137e+00 2.2169671334e+00 3.8398997137e+00 
107300 5.0603720634e+00 -1.0819748245e-04 2.2169695941e+00 -3.8399039759e+00 2.2169695941e+00 3.8399039759e+00 
107400 5.0603720617e+00 -1.0729383275e-04 2.2169720343e+00 -3.8399082024e+00 2.2169720343e+00 3.8399082024e+00 
107500 5.0603720600e+00 -1.0639763318e-04 2.2169744542e+00 -3.8399123937e+00 2.2169744542e+00 3.8399123937e+00 
107600 5.0603720583e+00 -1.0550882342e-04 2.2169768538e+00 -3.8399165499e+00 2.2169768538e+00 3.8399165499e+00 
107700 5.0603720567e+00 -1.0462734361e-04 2.2169792333e+00 -3.8399206715e+00 2.2169792333e+00 3.8399206715e+00 
107800 5.0603720551e+00 -1.0375313438e-04 2.2169815930e+00 -3.8399247586e+00 2.2169815930e+00 3.8399247586e+00 
107900 5.0603720536e+00 -1.0288613682e-04 2.2169839330e+00 -3.8399288115e+00 2.2169839330e+00 3.8399288115e+00 
108000 5.0603720520e+00 -1.0202629249e-04 2.2169862534e+00 -3.8399328306e+00 2.2169862534e+00 3.8399328306e+00 
108100 5.0603720505e+00 -1.0117354339e-04 2.2169885544e+00 -3.8399368160e+00 2.2169885544e+00 3.8399368160e+00 
108200 5.0603720491e+00 -1.0032783200e-04 2.2169908362e+00 -3.8399407682e+00 2.2169908362e+00 3.8399407682e+00 
108300 5.0603720476e+00 -9.9489101260e-05 2.2169930989e+00 -3.8399446873e+00 2.2169930989e+00 3.8399446873e+00 
108400 5.0603720462e+00 -9.8657294536e-05 2.2169953427e+00 -3.8399485737e+00 2.2169953427e+00 3.8399485737e+00 
108500 5.0603720448e+00 -9.7832355657e-05 2.2169975677e+00 -3.8399524275e+00 2.2169975677e+00 3.8399524275e+00 
108600 5.0603720434e+00 -9.7014228893e-05 2.2169997741e+00 -3.8399562491e+00 2.2169997741e+00 3.8399562491e+00 
108700 5.0603720420e+00 -9.6202858954e-05 2.2170019621e+00 -3.8399600388e+00 2.2170019621e+00 3.8399600388e+00 
108800 5.0603720407e+00 -9.5398190988e-05 2.2170041317e+00 -3.8399637968e+00 2.2170041317e+00 3.8399637968e+00 
108900 5.0603720394e+00 -9.4600170578e-05 2.2170062833e+00 -3.8399675233e+00 2.2170062833e+00 3.8399675233e+00 
109000 5.0603720381e+00 -9.3808743733e-05 2.2170084168e+00 -3.8399712186e+00 2.2170084168e+00 3.8399712186e+00 
109100 5.0603720368e+00 -9.3023856896e-05 2.2170105324e+00 -3.8399748831e+00 2.2170105324e+00 3.8399748831e+00 
109200 5.0603720356e+00 -9.2245456929e-05 2.2170126304e+00 -3.8399785168e+00 2.2170126304e+00 3.8399785168e+00 
109300 5.0603720344e+00 -9.1473491117e-05 2.2170147108e+00 -3.8399821202e+00 2.2170147108e+00 3.8399821202e+00 
109400 5.0603720332e+00 -9.0707907163e-05 2.2170167738e+00 -3.8399856934e+00 2.2170167738e+00 3.8399856934e+00 
109500 5.0603720320e+00 -8.9948653184e-05 2.2170188195e+00 -3.8399892367e+00 2.2170188195e+00 3.8399892367e+00 
109600 5.0603720309e+00 -8.9195677709e-05 2.2170208481e+00 -3.8399927503e+00 2.2170208481e+00 3.8399927503e+00 
109700 5.0603720297e+00 -8.8448929673e-05 2.2170228597e+00 -3.8399962345e+00 2.2170228597e+00 3.8399962345e+00 
109800 5.0603720286e+00 -8.7708358420e-05 2.2170248545e+00 -3.8399996896e+00 2.2170248545e+00 3.8399996896e+00 
109900 5.0603720275e+00 -8.6973913693e-05 2.2170268325e+00 -3.8400031157e+00 2.2170268325e+00 3.8400031157e+00 
110000 5.0603720264e+00 -8.6245545635e-05 2.2170287940e+00 -3.8400065131e+00 2.2170287940e+00 3.8400065131e+00 
110100 5.0603720254e+00 -8.5523204785e-05 2.2170307391e+00 -3.8400098821e+00 2.2170307391e+00 3.8400098821e+00 
110200 5.0603720243e+00 -8.4806842075e-05 2.2170326679e+00 -3.8400132228e+00 2.2170326679e+00 3.8400132228e+00 
110300 5.0603720233e+00 -8.4096408828e-05 2.2170345805e+00 -3.8400165356e+00 2.2170345805e+00 3.8400165356e+00 
110400 5.0603720223e+00 -8.3391856752e-05 2.2170364771e+00 -3.8400198206e+00 2.2170364771e+00 3.8400198206e+00 
110500 5.0603720213e+00 -8.2693137939e-05 2.2170383578e+00 -3.8400230780e+00 2.2170383578e+00 3.8400230780e+00 
110600 5.0603720204e+00 -8.2000204863e-05 2.2170402228e+00 -3.8400263082e+00 2.2170402228e+00 3.8400263082e+00 
110700 5.0603720194e+00 -8.1313010379e-05 2.2170420721e+00 -3.8400295113e+00 2.2170420721e+00 3.8400295113e+00 
110800 5.0603720185e+00 -8.0631507711e-05 2.2170439059e+00 -3.8400326876e+00 2.2170439059e+00 3.8400326876e+00 
110900 5.0603720176e+00 -7.9955650460e-05 2.2170457243e+00 -3.8400358372e+00 2.2170457243e+00 3.8400358372e+00 
111000 5.0603720166e+00 -7.9285392595e-05 2.2170475275e+00 -3.8400389605e+00 2.2170475275e+00 3.8400389605e+00 
111100 5.0603720158e+00 -7.8620688452e-05 2.2170493156e+00 -3.8400420575e+00 2.2170493156e+00 3.8400420575e+00 
111200 5.0603720149e+00 -7.7961492733e-05 2.2170510887e+00 -3.8400451286e+00 2.2170510887e+00 3.8400451286e+00 
111300 5.0603720140e+00 -7.7307760495e-05 2.2170528469e+00 -3.8400481740e+00 2.2170528469e+00 3.8400481740e+00 
111400 5.0603720132e+00 -7.6659447160e-05 2.2170545904e+00 -3.8400511938e+00 2.2170545904e+00 3.8400511938e+00 
111500 5.0603720124e+00 -7.6016508503e-05 2.2170563193e+00 -3.8400541882e+00 2.2170563193e+00 3.8400541882e+00 
111600 5.0603720116e+00 -7.5378900651e-05 2.2170580336e+00 -3.8400571576e+00 2.2170580336e+00 3.8400571576e+00 
111700 5.0603720108e+00 -7.4746580081e-05 2.2170597336e+00 -3.8400601020e+00 2.2170597336e+00 3.8400601020e+00 
111800 5.0603720100e+00 -7.4119503619e-05 2.2170614193e+00 -3.8400630218e+00 2.2170614193e+00 3.8400630218e+00 
111900 5.0603720092e+00 -7.3497628435e-05 2.2170630909e+00 -3.8400659170e+00 2.2170630909e+00 3.8400659170e+00 
112000 5.0603720085e+00 -7.2880912041e-05 2.2170647484e+00 -3.8400687880e+00 2.2170647484e+00 3.8400687880e+00 
112100 5.0603720077e+00 -7.2269312289e-05 2.2170663921e+00 -3.8400716348e+00 2.2170663921e+00 3.8400716348e+00 
112200 5.0603720070e+00 -7.1662787366e-05 2.2170680219e+00 -3.8400744578e+00 2.2170680219e+00 3.8400744578e+00 
112300 5.0603720063e+00 -7.1061295796e-05 2.2170696381e+00 -3.8400772571e+00 2.2170696381e+00 3.8400772571e+00 
112400 5.0603720056e+00 -7.0464796433e-05 2.2170712407e+00 -3.8400800328e+00 2.2170712407e+00 3.8400800328e+00 
112500 5.0603720050e+00 -7.0768764517e-05 2.2170712407e+00 -3.8400800328e+00 2.2170712407e+00 3.8400800328e+00 
112600 5.0603720043e+00 -7.0173758262e-05 2.2170728367e+00 -3.8400827972e+00 2.2170728367e+00 3.8400827972e+00 
112700 5.0603720037e+00 -7.0475437354e-05 2.2170728367e+00 -3.8400827972e+00 2.2170728367e+00 3.8400827972e+00 
112800 5.0603720032e+00 -7.0777444536e-05 2.2170728367e+00 -3.8400827972e+00 2.2170728367e+00 3.8400827972e+00 
112900 5.0603720025e+00 -7.0180194528e-05 2.2170744329e+00 -3.8400855619e+00 2.2170744329e+00 3.8400855619e+00 
113000 5.0603720020e+00 -7.0479599019e-05 2.2170744329e+00 -3.8400855619e+00 2.2170744329e+00 3.8400855619e+00 
113100 5.0603720014e+00 -7.0779184278e-05 2.2170744329e+00 -3.8400855619e+00 2.2170744329e+00 3.8400855619e+00 
113200 5.0603720008e+00 -7.0179336549e-05 2.2170760291e+00 -3.8400883266e+00 2.2170760291e+00 3.8400883266e+00 
113300 5.0603720003e+00 -7.0476041753e-05 2.2170760291e+00 -3.8400883266e+00 2.2170760291e+00 3.8400883266e+00 
113400 5.0603719998e+00 -7.0772797245e-05 2.2170760291e+00 -3.8400883266e+00 2.2170760291e+00 3.8400883266e+00 
113500 5.0603719992e+00 -7.0170063777e-05 2.2170776252e+00 -3.8400910911e+00 2.2170776252e+00 3.8400910911e+00 
113600 5.0603719987e+00 -7.0463693789e-05 2.2170776252e+00 -3.8400910911e+00 2.2170776252e+00 3.8400910911e+00 
113700 5.0603719983e+00 -7.0757258438e-05 2.2170776252e+00 -3.8400910911e+00 2.2170776252e+00 3.8400910911e+00 
113800 5.0603719977e+00 -7.0151409100e-05 2.2170792209e+00 -3.8400938550e+00 2.2170792209e+00 3.8400938550e+00 
113900 5.0603719973e+00 -7.0441631152e-05 2.2170792209e+00 -3.8400938550e+00 2.2170792209e+00 3.8400938550e+00 
114000 5.0603719968e+00 -7.0731685343e-05 2.2170792209e+00 -3.8400938550e+00 2.2170792209e+00 3.8400938550e+00 
114100 5.0603719963e+00 -7.0122541102e-05 2.2170808161e+00 -3.8400966179e+00 2.2170808161e+00 3.8400966179e+00 
114200 5.0603719959e+00 -7.0409060869e-05 2.2170808161e+00 -3.8400966179e+00 2.2170808161e+00 3.8400966179e+00 
114300 5.0603719954e+00 -7.0695322030e-05 2.2170808161e+00 -3.8400966179e+00 2.2170808161e+00 3.8400966179e+00 
114400 5.0603719950e+00 -7.0981269596e-05 2.2170808161e+00 -3.8400966179e+00 2.2170808161e+00 3.8400966179e+00 
114500 5.0603719945e+00 -7.0364691684e-05 2.2170824168e+00 -3.8400993905e+00 2.2170824168e+00 3.8400993905e+00 
114600 5.0603719941e+00 -7.0646819374e-05 2.2170824168e+00 -3.8400993905e+00 2.2170824168e+00 3.8400993905e+00 
114700 5.0603719937e+00 -7.0928559277e-05 2.2170824168e+00 -3.8400993905e+00 2.2170824168e+00 3.8400993905e+00 
114800 5.0603719932e+00 -7.0308362316e-05 2.2170840164e+00 -3.8401021611e+00 2.2170840164e+00 3.8401021611e+00 
114900 5.0603719929e+00 -7.0586145365e-05 2.2170840164e+00 -3.8401021611e+00 2.2170840164e+00 3.8401021611e+00 
115000 5.0603719925e+00 -7.0863475346e-05 2.2170840164e+00 -3.8401021611e+00 2.2170840164e+00 3.8401021611e+00 
115100 5.0603719920e+00 -7.0239623349e-05 2.2170856146e+00 -3.8401049292e+00 2.2170856146e+00 3.8401049292e+00 
115200 5.0603719917e+00 -7.0512877080e-05 2.2170856146e+00 -3.8401049292e+00 2.2170856146e+00 3.8401049292e+00 
115300 5.0603719913e+00 -7.0785620613e-05 2.2170856146e+00 -3.8401049292e+00 2.2170856146e+00 3.8401049292e+00 
115400 5.0603719909e+00 -7.0158107647e-05 2.2170872109e+00 -3.8401076941e+00 2.2170872109e+00 3.8401076941e+00 
115500 5.0603719906e+00 -7.0426671715e-05 2.2170872109e+00 -3.8401076941e+00 2.2170872109e+00 3.8401076941e+00 
115600 5.0603719902e+00 -7.0694675940e-05 2.2170872109e+00 -3.8401076941e+00 2.2170872109e+00 3.8401076941e+00 
115700 5.0603719899e+00 -7.0962078183e-05 2.2170872109e+00 -3.8401076941e+00 2.2170872109e+00 3.8401076941e+00 
115800 5.0603719895e+00 -7.0326880441e-05 2.2170888113e+00 -3.8401104660e+00 2.2170888113e+00 3.8401104660e+00 
115900 5.0603719892e+00 -7.0589923916e-05 2.2170888113e+00 -3.8401104660e+00 2.2170888113e+00 3.8401104660e+00 
116000 5.0603719889e+00 -7.0852327521e-05 2.2170888113e+00 -3.8401104660e+00 2.2170888113e+00 3.8401104660e+00 
116100 5.0603719885e+00 -7.0213481468e-05 2.2170904091e+00 -3.8401132336e+00 2.2170904091e+00 3.8401132336e+00 
116200 5.0603719882e+00 -7.0471461275e-05 2.2170904091e+00 -3.8401132336e+00 2.2170904091e+00 3.8401132336e+00 
116300 5.0603719879e+00 -7.0728769162e-05 2.2170904091e+00 -3.8401132336e+00 2.2170904091e+00 3.8401132336e+00 
116400 5.0603719875e+00 -7.0086359246e-05 2.2170920042e+00 -3.8401159964e+00 2.2170920042e+00 3.8401159964e+00 
116500 5.0603719873e+00 -7.0339190176e-05 2.2170920042e+00 -3.8401159964e+00 2.2170920042e+00 3.8401159964e+00 
116600 5.0603719870e+00 -7.0591322571e-05 2.2170920042e+00 -3.8401159964e+00 2.2170920042e+00 3.8401159964e+00 
116700 5.0603719867e+00 -7.0842721583e-05 2.2170920042e+00 -3.8401159964e+00 2.2170920042e+00 3.8401159964e+00 
116800 5.0603719864e+00 -7.0192884573e-05 2.2170936019e+00 -3.8401187636e+00 2.2170936019e+00 3.8401187636e+00 
116900 5.0603719861e+00 -7.0439688239e-05 2.2170936019e+00 -3.8401187636e+00 2.2170936019e+00 3.8401187636e+00 
117000 5.0603719859e+00 -7.0685741254e-05 2.2170936019e+00 -3.8401187636e+00 2.2170936019e+00 3.8401187636e+00 
117100 5.0603719856e+00 -7.0931011658e-05 2.2170936019e+00 -3.8401187636e+00 2.2170936019e+00 3.8401187636e+00 
117200 5.0603719853e+00 -7.0273866354e-05 2.2170952015e+00 -3.8401215342e+00 2.2170952015e+00 3.8401215342e+00 
117300 5.0603719850e+00 -7.0514447512e-05 2.2170952015e+00 -3.8401215342e+00 2.2170952015e+00 3.8401215342e+00 
117400 5.0603719848e+00 -7.0754237063e-05 2.2170952015e+00 -3.8401215342e+00 2.2170952015e+00 3.8401215342e+00 
117500 5.0603719845e+00 -7.0093842686e-05 2.2170967972e+00 -3.8401242980e+00 2.2170967972e+00 3.8401242980e+00 
117600 5.0603719843e+00 -7.0328936317e-05 2.2170967972e+00 -3.8401242980e+00 2.2170967972e+00 3.8401242980e+00 
117700 5.0603719841e+00 -7.0563232871e-05 2.2170967972e+00 -3.8401242980e+00 2.2170967972e+00 3.8401242980e+00 
117800 5.0603719838e+00 -7.0796704155e-05 2.2170967972e+00 -3.8401242980e+00 2.2170967972e+00 3.8401242980e+00 
117900 5.0603719835e+00 -7.0129410280e-05 2.2170983938e+00 -3.8401270634e+00 2.2170983938e+00 3.8401270634e+00 
118000 5.0603719833e+00 -7.0358123681e-05 2.2170983938e+00 -3.8401270634e+00 2.2170983938e+00 3.8401270634e+00 
118100 5.0603719831e+00 -7.0586013424e-05 2.2170983938e+00 -3.8401270634e+00 2.2170983938e+00 3.8401270634e+00 
118200 5.0603719829e+00 -7.0813053526e-05 2.2170983938e+00 -3.8401270634e+00 2.2170983938e+00 3.8401270634e+00 
118300 5.0603719826e+00 -7.0139088678e-05 2.2170999907e+00 -3.8401298294e+00 2.2170999907e+00 3.8401298294e+00 
118400 5.0603719824e+00 -7.0361327815e-05 2.2170999907e+00 -3.8401298294e+00 2.2170999907e+00 3.8401298294e+00 
118500 5.0603719823e+00 -7.0582725185e-05 2.2170999907e+00 -3.8401298294e+00 2.2170999907e+00 3.8401298294e+00 
118600 5.0603719821e+00 -7.0803256766e-05 2.2170999907e+00 -3.8401298294e+00 2.2170999907e+00 3.8401298294e+00 
118700 5.0603719818e+00 -7.0122884375e-05 2.2171015875e+00 -3.8401325951e+00 2.2171015875e+00 3.8401325951e+00 
118800 5.0603719816e+00 -7.0338588772e-05 2.2171015875e+00 -3.8401325951e+00 2.2171015875e+00 3.8401325951e+00 
118900 5.0603719814e+00 -7.0553440799e-05 2.2171015875e+00 -3.8401325951e+00 2.2171015875e+00 3.8401325951e+00 
119000 5.0603719813e+00 -7.0767418181e-05 2.2171015875e+00 -3.8401325951e+00 2.2171015875e+00 3.8401325951e+00 
119100 5.0603719810e+00 -7.0080931102e-05 2.2171031834e+00 -3.8401353594e+00 2.2171031834e+00 3.8401353594e+00 
119200 5.0603719808e+00 -7.0290070160e-05 2.2171031834e+00 -3.8401353594e+00 2.2171031834e+00 3.8401353594e+00 
119300 5.0603719807e+00 -7.0498352901e-05 2.2171031834e+00 -3.8401353594e+00 2.2171031834e+00 3.8401353594e+00 
119400 5.0603719805e+00 -7.0705758606e-05 2.2171031834e+00 -3.8401353594e+00 2.2171031834e+00 3.8401353594e+00 
119500 5.0603719804e+00 -7.0912267551e-05 2.2171031834e+00 -3.8401353594e+00 2.2171031834e+00 3.8401353594e+00 
119600 5.0603719801e+00 -7.0216440067e-05 2.2171047827e+00 -3.8401381293e+00 2.2171047827e+00 3.8401381293e+00 
119700 5.0603719800e+00 -7.0418067574e-05 2.2171047827e+00 -3.8401381293e+00 2.2171047827e+00 3.8401381293e+00 
119800 5.0603719798e+00 -7.0618823959e-05 2.2171047827e+00 -3.8401381293e+00 2.2171047827e+00 3.8401381293e+00 
119900 5.0603719797e+00 -7.0818690720e-05 2.2171047827e+00 -3.8401381293e+00 2.2171047827e+00 3.8401381293e+00 
120000 5.0603719794e+00 -7.0117410885e-05 2.2171063798e+00 -3.8401408955e+00 2.2171063798e+00 3.8401408955e+00 
120100 5.0603719793e+00 -7.0312418014e-05 2.2171063798e+00 -3.8401408955e+00 2.2171063798e+00 3.8401408955e+00 
120200 5.0603719792e+00 -7.0506564534e-05 2.2171063798e+00 -3.8401408955e+00 2.2171063798e+00 3.8401408955e+00 
120300 5.0603719790e+00 -7.0699833045e-05 2.2171063798e+00 -3.8401408955e+00 2.2171063798e+00 3.8401408955e+00 
120400 5.0603719789e+00 -7.0892207038e-05 2.2171063798e+00 -3.8401408955e+00 2.2171063798e+00 3.8401408955e+00 
120500 5.0603719787e+00 -7.0182486934e-05 2.2171079785e+00 -3.8401436646e+00 2.2171079785e+00 3.8401436646e+00 
120600 5.0603719786e+00 -7.0369994067e-05 2.2171079785e+00 -3.8401436646e+00 2.2171079785e+00 3.8401436646e+00 
120700 5.0603719784e+00 -7.0556641356e-05 2.2171079785e+00 -3.8401436646e+00 2.2171079785e+00 3.8401436646e+00 
120800 5.0603719783e+00 -7.0742413128e-05 2.2171079785e+00 -3.8401436646e+00 2.2171079785e+00 3.8401436646e+00 
120900 5.0603719781e+00 -7.0028007588e-05 2.2171095739e+00 -3.8401464279e+00 2.2171095739e+00 3.8401464279e+00 
121000 5.0603719780e+00 -7.0208959330e-05 2.2171095739e+00 -3.8401464279e+00 2.2171095739e+00 3.8401464279e+00 
121100 5.0603719779e+00 -7.0389072452e-05 2.2171095739e+00 -3.8401464279e+00 2.2171095739e+00 3.8401464279e+00 
121200 5.0603719778e+00 -7.0568332045e-05 2.2171095739e+00 -3.8401464279e+00 2.2171095739e+00 3.8401464279e+00 
121300 5.0603719777e+00 -7.0746724008e-05 2.2171095739e+00 -3.8401464279e+00 2.2171095739e+00 3.8401464279e+00 
121400 5.0603719775e+00 -7.0024884226e-05 2.2171111694e+00 -3.8401491914e+00 2.2171111694e+00 3.8401491914e+00 
121500 5.0603719774e+00 -7.0198476226e-05 2.2171111694e+00 -3.8401491914e+00 2.2171111694e+00 3.8401491914e+00 
121600 5.0603719773e+00 -7.0371241878e-05 2.2171111694e+00 -3.8401491914e+00 2.2171111694e+00 3.8401491914e+00 
121700 5.0603719772e+00 -7.0543167620e-05 2.2171111694e+00 -3.8401491914e+00 2.2171111694e+00 3.8401491914e+00 
121800 5.0603719771e+00 -7.0714240655e-05 2.2171111694e+00 -3.8401491914e+00 2.2171111694e+00 3.8401491914e+00 
121900 5.0603719769e+00 -6.9985502524e-05 2.2171127641e+00 -3.8401519535e+00 2.2171127641e+00 3.8401519535e+00 
122000 5.0603719768e+00 -7.0151810537e-05 2.2171127641e+00 -3.8401519535e+00 2.2171127641e+00 3.8401519535e+00 
122100 5.0603719767e+00 -7.0317310710e-05 2.2171127641e+00 -3.8401519535e+00 2.2171127641e+00 3.8401519535e+00 
122200 5.0603719766e+00 -7.0481990603e-05 2.2171127641e+00 -3.8401519535e+00 2.2171127641e+00 3.8401519535e+00 
122300 5.0603719765e+00 -7.0645838496e-05 2.2171127641e+00 -3.8401519535e+00 2.2171127641e+00 3.8401519535e+00 
122400 5.0603719764e+00 -7.0808843350e-05 2.2171127641e+00 -3.8401519535e+00 2.2171127641e+00 3.8401519535e+00 
122500 5.0603719762e+00 -7.0070835772e-05 2.2171143610e+00 -3.8401547194e+00 2.2171143610e+00 3.8401547194e+00 
122600 5.0603719761e+00 -7.0229095891e-05 2.2171143610e+00 -3.8401547194e+00 2.2171143610e+00 3.8401547194e+00 
122700 5.0603719761e+00 -7.0386562812e-05 2.2171143610e+00 -3.8401547194e+00 2.2171143610e+00 3.8401547194e+00 
122800 5.0603719760e+00 -7.0543225577e-05 2.2171143610e+00 -3.8401547194e+00 2.2171143610e+00 3.8401547194e+00 
122900 5.0603719759e+00 -7.0699073893e-05 2.2171143610e+00 -3.8401547194e+00 2.2171143610e+00 3.8401547194e+00 
123000 5.0603719758e+00 -7.0854098089e-05 2.2171143610e+00 -3.8401547194e+00 2.2171143610e+00 3.8401547194e+00 
123100 5.0603719757e+00 -7.0107545419e-05 2.2171159589e+00 -3.8401574870e+00 2.2171159589e+00 3.8401574870e+00 
123200 5.0603719756e+00 -7.0257864655e-05 2.2171159589e+00 -3.8401574870e+00 2.2171159589e+00 3.8401574870e+00 
123300 5.0603719755e+00 -7.0407413437e-05 2.2171159589e+00 -3.8401574870e+00 2.2171159589e+00 3.8401574870e+00 
123400 5.0603719754e+00 -7.0556181965e-05 2.2171159589e+00 -3.8401574870e+00 2.2171159589e+00 3.8401574870e+00 
123500 5.0603719754e+00 -7.0704161054e-05 2.2171159589e+00 -3.8401574870e+00 2.2171159589e+00 3.8401574870e+00 
123600 5.0603719753e+00 -7.0851342096e-05 2.2171159589e+00 -3.8401574870e+00 2.2171159589e+00 3.8401574870e+00 
123700 5.0603719751e+00 -7.0096999653e-05 2.2171175567e+00 -3.8401602545e+00 2.2171175567e+00 3.8401602545e+00 
123800 5.0603719751e+00 -7.0239531003e-05 2.2171175567e+00 -3.8401602545e+00 2.2171175567e+00 3.8401602545e+00 
123900 5.0603719750e+00 -7.0381320903e-05 2.2171175567e+00 -3.8401602545e+00 2.2171175567e+00 3.8401602545e+00 
124000 5.0603719749e+00 -7.0522360450e-05 2.2171175567e+00 -3.8401602545e+00 2.2171175567e+00 3.8401602545e+00 
124100 5.0603719749e+00 -7.0662641315e-05 2.2171175567e+00 -3.8401602545e+00 2.2171175567e+00 3.8401602545e+00 
124200 5.0603719748e+00 -7.0802155714e-05 2.2171175567e+00 -3.8401602545e+00 2.2171175567e+00 3.8401602545e+00 
124300 5.0603719747e+00 -7.0040796123e-05 2.2171191534e+00 -3.8401630201e+00 2.2171191534e+00 3.8401630201e+00 
124400 5.0603719746e+00 -7.0175728412e-05 2.2171191534e+00 -3.8401630201e+00 2.2171191534e+00 3.8401630201e+00 
124500 5.0603719745e+00 -7.0309953038e-05 2.2171191534e+00 -3.8401630201e+00 2.2171191534e+00 3.8401630201e+00 
124600 5.0603719745e+00 -7.0443461787e-05 2.2171191534e+00 -3.8401630201e+00 2.2171191534e+00 3.8401630201e+00 
124700 5.0603719744e+00 -7.0576246990e-05 2.2171191534e+00 -3.8401630201e+00 2.2171191534e+00 3.8401630201e+00 
124800 5.0603719744e+00 -7.0708301490e-05 2.2171191534e+00 -3.8401630201e+00 2.2171191534e+00 3.8401630201e+00 
124900 5.0603719743e+00 -7.0839618620e-05 2.2171191534e+00 -3.8401630201e+00 2.2171191534e+00 3.8401630201e+00 
125000 5.0603719742e+00 -7.0069606487e-05 2.2171207510e+00 -3.8401657872e+00 2.2171207510e+00 3.8401657872e+00 
125100 5.0603719741e+00 -7.0196401227e-05 2.2171207510e+00 -3.8401657872e+00 2.2171207510e+00 3.8401657872e+00 
125200 5.0603719741e+00 -7.0322520481e-05 2.2171207510e+00 -3.8401657872e+00 2.2171207510e+00 3.8401657872e+00 
125300 5.0603719740e+00 -7.0447956953e-05 2.2171207510e+00 -3.8401657872e+00 2.2171207510e+00 3.8401657872e+00 
125400 5.0603719740e+00 -7.0572703842e-05 2.2171207510e+00 -3.8401657872e+00 2.2171207510e+00 3.8401657872e+00 
125500 5.0603719739e+00 -7.0696754824e-05 2.2171207510e+00 -3.8401657872e+00 2.2171207510e+00 3.8401657872e+00 
125600 5.0603719739e+00 -7.0820104016e-05 2.2171207510e+00 -3.8401657872e+00 2.2171207510e+00 3.8401657872e+00 
125700 5.0603719737e+00 -7.0042399895e-05 2.2171223481e+00 -3.8401685535e+00 2.2171223481e+00 3.8401685535e+00 
125800 5.0603719737e+00 -7.0161300895e-05 2.2171223481e+00 -3.8401685535e+00 2.2171223481e+00 3.8401685535e+00 
125900 5.0603719737e+00 -7.0279564108e-05 2.2171223481e+00 -3.8401685535e+00 2.2171223481e+00 3.8401685535e+00 
126000 5.0603719736e+00 -7.0397182879e-05 2.2171223481e+00 -3.8401685535e+00 2.2171223481e+00 3.8401685535e+00 
126100 5.0603719736e+00 -7.0514151015e-05 2.2171223481e+00 -3.8401685535e+00 2.2171223481e+00 3.8401685535e+00 
126200 5.0603719735e+00 -7.0630462768e-05 2.2171223481e+00 -3.8401685535e+00 2.2171223481e+00 3.8401685535e+00 
126300 5.0603719735e+00 -7.0746112803e-05 2.2171223481e+00 -3.8401685535e+00 2.2171223481e+00 3.8401685535e+00 
126400 5.0603719734e+00 -6.9961682952e-05 2.2171239435e+00 -3.8401713169e+00 2.2171239435e+00 3.8401713169e+00 
126500 5.0603719733e+00 -7.0072969611e-05 2.2171239435e+00 -3.8401713169e+00 2.2171239435e+00 3.8401713169e+00 
126600 5.0603719733e+00 -7.0183659938e-05 2.2171239435e+00 -3.8401713169e+00 2.2171239435e+00 3.8401713169e+00 
126700 5.0603719732e+00 -7.0293747716e-05 2.2171239435e+00 -3.8401713169e+00 2.2171239435e+00 3.8401713169e+00 
126800 5.0603719732e+00 -7.0403227163e-05 2.2171239435e+00 -3.8401713169e+00 2.2171239435e+00 3.8401713169e+00 
126900 5.0603719732e+00 -7.0512092918e-05 2.2171239435e+00 -3.8401713169e+00 2.2171239435e+00 3.8401713169e+00 
127000 5.0603719731e+00 -7.0620340009e-05 2.2171239435e+00 -3.8401713169e+00 2.2171239435e+00 3.8401713169e+00 
127100 5.0603719731e+00 -7.0727963839e-05 2.2171239435e+00 -3.8401713169e+00 2.2171239435e+00 3.8401713169e+00 
127200 5.0603719730e+00 -6.9935769197e-05 2.2171255386e+00 -3.8401740796e+00 2.2171255386e+00 3.8401740796e+00 
127300 5.0603719729e+00 -7.0039109369e-05 2.2171255386e+00 -3.8401740796e+00 2.2171255386e+00 3.8401740796e+00 
127400 5.0603719729e+00 -7.0141893608e-05 2.2171255386e+00 -3.8401740796e+00 2.2171255386e+00 3.8401740796e+00 
127500 5.0603719729e+00 -7.0244116275e-05 2.2171255386e+00 -3.8401740796e+00 2.2171255386e+00 3.8401740796e+00 
127600 5.0603719728e+00 -7.0345772137e-05 2.2171255386e+00 -3.8401740796e+00 2.2171255386e+00 3.8401740796e+00 
127700 5.0603719728e+00 -7.0446856338e-05 2.2171255386e+00 -3.8401740796e+00 2.2171255386e+00 3.8401740796e+00 
127800 5.0603719728e+00 -7.0547364388e-05 2.2171255386e+00 -3.8401740796e+00 2.2171255386e+00 3.8401740796e+00 
127900 5.0603719728e+00 -7.0647292139e-05 2.2171255386e+00 -3.8401740796e+00 2.2171255386e+00 3.8401740796e+00 
128000 5.0603719727e+00 -7.0746635764e-05 2.2171255386e+00 -3.8401740796e+00 2.2171255386e+00 3.8401740796e+00 
128100 5.0603719726e+00 -6.9945954516e-05 2.2171271340e+00 -3.8401768430e+00 2.2171271340e+00 3.8401768430e+00 
128200 5.0603719726e+00 -6.9947274820e-05 2.2171271340e+00 -3.8401768430e+00 2.2171271340e+00 3.8401768430e+00 
128200 5.0603719726e+00 -6.9947274820e-05 2.2171271340e+00 -3.8401768430e+00 2.2171271340e+00 3.8401768430e+00 
