# step Hamiltonian StressXX CellTensor1 CellTensor2 CellTensor3 CellTensor4 
0 5.8871739896e+00 -1.2598672396e-01 1.3385767752e+00 -2.3184829844e+00 1.3385767752e+00 2.3184829844e+00 
100 5.8859640581e+00 -1.2706794991e-01 1.3385767752e+00 -2.3184829844e+00 1.3385767752e+00 2.3184829844e+00 
200 5.8836981416e+00 -1.2753609080e-01 1.3433259528e+00 -2.3267088014e+00 1.3433259528e+00 2.3267088014e+00 
300 5.8813136513e+00 -1.2813737268e-01 1.3480757658e+00 -2.3349357188e+00 1.3480757658e+00 2.3349357188e+00 
400 5.8788404016e+00 -1.2883874520e-01 1.3528311513e+00 -2.3431722881e+00 1.3528311513e+00 2.3431722881e+00 
500 5.8763023127e+00 -1.2961334562e-01 1.3575957541e+00 -2.3514248223e+00 1.3575957541e+00 2.3514248223e+00 
600 5.8737186241e+00 -1.3043925198e-01 1.3623721774e+00 -2.3596978300e+00 1.3623721774e+00 2.3596978300e+00 
700 5.8711048466e+00 -1.3129851085e-01 1.3671621818e+00 -2.3679943611e+00 1.3671621818e+00 2.3679943611e+00 
800 5.8684735111e+00 -1.3217637547e-01 1.3719668459e+00 -2.3763162834e+00 1.3719668459e+00 2.3763162834e+00 
900 5.8658347587e+00 -1.3306070611e-01 1.3767866946e+00 -2.3846645062e+00 1.3767866946e+00 2.3846645062e+00 
1000 5.8631968083e+00 -1.3394149601e-01 1.3816218034e+00 -2.3930391604e+00 1.3816218034e+00 2.3930391604e+00 
1100 5.8605663262e+00 -1.3481049501e-01 1.3864718840e+00 -2.4014397464e+00 1.3864718840e+00 2.4014397464e+00 
1200 5.8579487196e+00 -1.3566090948e-01 1.3913363535e+00 -2.4098652547e+00 1.3913363535e+00 2.4098652547e+00 
1300 5.8553483703e+00 -1.3648716210e-01 1.3962143925e+00 -2.4183142660e+00 1.3962143925e+00 2.4183142660e+00 
1400 5.8527688198e+00 -1.3728469859e-01 1.4011049923e+00 -2.4267850334e+00 1.4011049923e+00 2.4267850334e+00 
1500 5.8502129166e+00 -1.3804983158e-01 1.4060069956e+00 -2.4352755522e+00 1.4060069956e+00 2.4352755522e+00 
1600 5.8476829342e+00 -1.3877961373e-01 1.4109191294e+00 -2.4437836175e+00 1.4109191294e+00 2.4437836175e+00 
1700 5.8451806639e+00 -1.3947173395e-01 1.4158400336e+00 -2.4523068736e+00 1.4158400336e+00 2.4523068736e+00 
1800 5.8427074897e+00 -1.4012443203e-01 1.4207682852e+00 -2.4608428558e+00 1.4207682852e+00 2.4608428558e+00 
1900 5.8402644477e+00 -1.4073642772e-01 1.4257024188e+00 -2.4693890259e+00 1.4257024188e+00 2.4693890259e+00 
2000 5.8378522738e+00 -1.4130686129e-01 1.4306409442e+00 -2.4779428027e+00 1.4306409442e+00 2.4779428027e+00 
2100 5.8354714416e+00 -1.4183524322e-01 1.4355823615e+00 -2.4865015886e+00 1.4355823615e+00 2.4865015886e+00 
2200 5.8331221939e+00 -1.4232141100e-01 1.4405251748e+00 -2.4950627923e+00 1.4405251748e+00 2.4950627923e+00 
2300 5.8308045681e+00 -1.4276549170e-01 1.4454679025e+00 -2.5036238479e+00 1.4454679025e+00 2.5036238479e+00 
2400 5.8285184172e+00 -1.4316786889e-01 1.4504090882e+00 -2.5121822326e+00 1.4504090882e+00 2.5121822326e+00 
2500 5.8262634278e+00 -1.4352915325e-01 1.4553473084e+00 -2.5207354808e+00 1.4553473084e+00 2.5207354808e+00 
2600 5.8240391363e+00 -1.4385015590e-01 1.4602811799e+00 -2.5292811969e+00 1.4602811799e+00 2.5292811969e+00 
2700 5.8218449420e+00 -1.4413186397e-01 1.4652093661e+00 -2.5378170657e+00 1.4652093661e+00 2.5378170657e+00 
2800 5.8196801210e+00 -1.4437541805e-01 1.4701305819e+00 -2.5463408617e+00 1.4701305819e+00 2.5463408617e+00 
2900 5.8175438376e+00 -1.4458209104e-01 1.4750435986e+00 -2.5548504561e+00 1.4750435986e+00 2.5548504561e+00 
3000 5.8154351564e+00 -1.4475326832e-01 1.4799472465e+00 -2.5633438235e+00 1.4799472465e+00 2.5633438235e+00 
3100 5.8133530540e+00 -1.4489042890e-01 1.4848404185e+00 -2.5718190460e+00 1.4848404185e+00 2.5718190460e+00 
3200 5.8112964300e+00 -1.4499512759e-01 1.4897220716e+00 -2.5802743172e+00 1.4897220716e+00 2.5802743172e+00 
3300 5.8092641190e+00 -1.4506897806e-01 1.4945912287e+00 -2.5887079446e+00 1.4945912287e+00 2.5887079446e+00 
3400 5.8072549022e+00 -1.4511363665e-01 1.4994469789e+00 -2.5971183507e+00 1.4994469789e+00 2.5971183507e+00 
3500 5.8052675188e+00 -1.4513078707e-01 1.5042884784e+00 -2.6055040738e+00 1.5042884784e+00 2.6055040738e+00 
3600 5.8033006780e+00 -1.4512212594e-01 1.5091149497e+00 -2.6138637674e+00 1.5091149497e+00 2.6138637674e+00 
3700 5.8013530707e+00 -1.4508934909e-01 1.5139256815e+00 -2.6221961992e+00 1.5139256815e+00 2.6221961992e+00 
3800 5.7994233813e+00 -1.4503413874e-01 1.5187200267e+00 -2.6305002486e+00 1.5187200267e+00 2.6305002486e+00 
3900 5.7975102989e+00 -1.4495815162e-01 1.5234974016e+00 -2.6387749047e+00 1.5234974016e+00 2.6387749047e+00 
4000 5.7956125289e+00 -1.4486300791e-01 1.5282572837e+00 -2.6470192623e+00 1.5282572837e+00 2.6470192623e+00 
4100 5.7937288039e+00 -1.4475028115e-01 1.5329992094e+00 -2.6552325187e+00 1.5329992094e+00 2.6552325187e+00 
4200 5.7918578937e+00 -1.4462148908e-01 1.5377227719e+00 -2.6634139689e+00 1.5377227719e+00 2.6634139689e+00 
4300 5.7899986161e+00 -1.4447808548e-01 1.5424276178e+00 -2.6715630011e+00 1.5424276178e+00 2.6715630011e+00 
4400 5.7881498452e+00 -1.4432145288e-01 1.5471134448e+00 -2.6796790915e+00 1.5471134448e+00 2.6796790915e+00 
4500 5.7863105208e+00 -1.4415289637e-01 1.5517799983e+00 -2.6877617992e+00 1.5517799983e+00 2.6877617992e+00 
4600 5.7844796556e+00 -1.4397363825e-01 1.5564270679e+00 -2.6958107599e+00 1.5564270679e+00 2.6958107599e+00 
4700 5.7826563426e+00 -1.4378481369e-01 1.5610544847e+00 -2.7038256808e+00 1.5610544847e+00 2.7038256808e+00 
4800 5.7808397607e+00 -1.4358746731e-01 1.5656621170e+00 -2.7118063342e+00 1.5656621170e+00 2.7118063342e+00 
4900 5.7790291801e+00 -1.4338255065e-01 1.5702498678e+00 -2.7197525517e+00 1.5702498678e+00 2.7197525517e+00 
5000 5.7772239665e+00 -1.4317092046e-01 1.5748176705e+00 -2.7276642180e+00 1.5748176705e+00 2.7276642180e+00 
5100 5.7754235838e+00 -1.4295333792e-01 1.5793654858e+00 -2.7355412652e+00 1.5793654858e+00 2.7355412652e+00 
5200 5.7736275969e+00 -1.4273046854e-01 1.5838932983e+00 -2.7433836664e+00 1.5838932983e+00 2.7433836664e+00 
5300 5.7718356724e+00 -1.4250288283e-01 1.5884011129e+00 -2.7511914304e+00 1.5884011129e+00 2.7511914304e+00 
5400 5.7700475792e+00 -1.4227105768e-01 1.5928889518e+00 -2.7589645954e+00 1.5928889518e+00 2.7589645954e+00 
5500 5.7682631875e+00 -1.4203537829e-01 1.5973568512e+00 -2.7667032241e+00 1.5973568512e+00 2.7667032241e+00 
5600 5.7664824678e+00 -1.4179614078e-01 1.6018048580e+00 -2.7744073979e+00 1.6018048580e+00 2.7744073979e+00 
5700 5.7647054879e+00 -1.4155355521e-01 1.6062330273e+00 -2.7820772121e+00 1.6062330273e+00 2.7820772121e+00 
5800 5.7629324103e+00 -1.4130774913e-01 1.6106414194e+00 -2.7897127712e+00 1.6106414194e+00 2.7897127712e+00 
5900 5.7611634881e+00 -1.4105877150e-01 1.6150300970e+00 -2.7973141838e+00 1.6150300970e+00 2.7973141838e+00 
6000 5.7593990605e+00 -1.4080659694e-01 1.6193991230e+00 -2.8048815588e+00 1.6193991230e+00 2.8048815588e+00 
6100 5.7576395479e+00 -1.4055113035e-01 1.6237485582e+00 -2.8124150016e+00 1.6237485582e+00 2.8124150016e+00 
6200 5.7558854461e+00 -1.4029221165e-01 1.6280784590e+00 -2.8199146097e+00 1.6280784590e+00 2.8199146097e+00 
6300 5.7541373203e+00 -1.4002962079e-01 1.6323888755e+00 -2.8273804701e+00 1.6323888755e+00 2.8273804701e+00 
6400 5.7523957990e+00 -1.3976308288e-01 1.6366798500e+00 -2.8348126560e+00 1.6366798500e+00 2.8348126560e+00 
6500 5.7506615670e+00 -1.3949227340e-01 1.6409514152e+00 -2.8422112239e+00 1.6409514152e+00 2.8422112239e+00 
6600 5.7489353587e+00 -1.3921682349e-01 1.6452035928e+00 -2.8495762115e+00 1.6452035928e+00 2.8495762115e+00 
6700 5.7472179511e+00 -1.3893632521e-01 1.6494363924e+00 -2.8569076354e+00 1.6494363924e+00 2.8569076354e+00 
6800 5.7455101563e+00 -1.3865033680e-01 1.6536498104e+00 -2.8642054895e+00 1.6536498104e+00 2.8642054895e+00 
6900 5.7438128148e+00 -1.3835838788e-01 1.6578438293e+00 -2.8714697434e+00 1.6578438293e+00 2.8714697434e+00 
7000 5.7421267884e+00 -1.3805998458e-01 1.6620184169e+00 -2.8787003411e+00 1.6620184169e+00 2.8787003411e+00 
7100 5.7404529529e+00 -1.3775461448e-01 1.6661735255e+00 -2.8858972005e+00 1.6661735255e+00 2.8858972005e+00 
7200 5.7387921914e+00 -1.3744175151e-01 1.6703090923e+00 -2.8930602122e+00 1.6703090923e+00 2.8930602122e+00 
7300 5.7371453876e+00 -1.3712086064e-01 1.6744250382e+00 -2.9001892396e+00 1.6744250382e+00 2.9001892396e+00 
7400 5.7355134195e+00 -1.3679140236e-01 1.6785212684e+00 -2.9072841185e+00 1.6785212684e+00 2.9072841185e+00 
7500 5.7338971533e+00 -1.3645283704e-01 1.6825976723e+00 -2.9143446572e+00 1.6825976723e+00 2.9143446572e+00 
7600 5.7322974372e+00 -1.3610462902e-01 1.6866541236e+00 -2.9213706369e+00 1.6866541236e+00 2.9213706369e+00 
7700 5.7307150967e+00 -1.3574625048e-01 1.6906904806e+00 -2.9283618123e+00 1.6906904806e+00 2.9283618123e+00 
7800 5.7291509284e+00 -1.3537718518e-01 1.6947065867e+00 -2.9353179120e+00 1.6947065867e+00 2.9353179120e+00 
7900 5.7276056964e+00 -1.3499693182e-01 1.6987022706e+00 -2.9422386396e+00 1.6987022706e+00 2.9422386396e+00 
8000 5.7260801274e+00 -1.3460500729e-01 1.7026773473e+00 -2.9491236745e+00 1.7026773473e+00 2.9491236745e+00 
8100 5.7245749066e+00 -1.3420094960e-01 1.7066316188e+00 -2.9559726735e+00 1.7066316188e+00 2.9559726735e+00 
8200 5.7230906748e+00 -1.3378432063e-01 1.7105648741e+00 -2.9627852717e+00 1.7105648741e+00 2.9627852717e+00 
8300 5.7216280251e+00 -1.3335470858e-01 1.7144768912e+00 -2.9695610839e+00 1.7144768912e+00 2.9695610839e+00 
8400 5.7201875003e+00 -1.3291173023e-01 1.7183674368e+00 -2.9762997066e+00 1.7183674368e+00 2.9762997066e+00 
8500 5.7187695905e+00 -1.3245503294e-01 1.7222362681e+00 -2.9830007189e+00 1.7222362681e+00 2.9830007189e+00 
8600 5.7173747318e+00 -1.3198429644e-01 1.7260831332e+00 -2.9896636849e+00 1.7260831332e+00 2.9896636849e+00 
8700 5.7160033048e+00 -1.3149923435e-01 1.7299077727e+00 -2.9962881547e+00 1.7299077727e+00 2.9962881547e+00 
8800 5.7146556335e+00 -1.3099959552e-01 1.7337099199e+00 -3.0028736669e+00 1.7337099199e+00 3.0028736669e+00 
8900 5.7133319849e+00 -1.3048516516e-01 1.7374893027e+00 -3.0094197500e+00 1.7374893027e+00 3.0094197500e+00 
9000 5.7120325690e+00 -1.2995576570e-01 1.7412456442e+00 -3.0159259243e+00 1.7412456442e+00 3.0159259243e+00 
9100 5.7107575388e+00 -1.2941125751e-01 1.7449786639e+00 -3.0223917040e+00 1.7449786639e+00 3.0223917040e+00 
9200 5.7095069911e+00 -1.2885153937e-01 1.7486880787e+00 -3.0288165989e+00 1.7486880787e+00 3.0288165989e+00 
9300 5.7082809673e+00 -1.2827654886e-01 1.7523736042e+00 -3.0352001163e+00 1.7523736042e+00 3.0352001163e+00 
9400 5.7070794544e+00 -1.2768626238e-01 1.7560349556e+00 -3.0415417629e+00 1.7560349556e+00 3.0415417629e+00 
9500 5.7059023870e+00 -1.2708069522e-01 1.7596718487e+00 -3.0478410467e+00 1.7596718487e+00 3.0478410467e+00 
9600 5.7047496485e+00 -1.2645990126e-01 1.7632840015e+00 -3.0540974787e+00 1.7632840015e+00 3.0540974787e+00 
9700 5.7036210737e+00 -1.2582397268e-01 1.7668711342e+00 -3.0603105749e+00 1.7668711342e+00 3.0603105749e+00 
9800 5.7025164506e+00 -1.2517303942e-01 1.7704329715e+00 -3.0664798580e+00 1.7704329715e+00 3.0664798580e+00 
9900 5.7014355230e+00 -1.2450726854e-01 1.7739692424e+00 -3.0726048589e+00 1.7739692424e+00 3.0726048589e+00 
10000 5.7003779931e+00 -1.2382686342e-01 1.7774796820e+00 -3.0786851187e+00 1.7774796820e+00 3.0786851187e+00 
10100 5.6993435244e+00 -1.2313206290e-01 1.7809640320e+00 -3.0847201899e+00 1.7809640320e+00 3.0847201899e+00 
10200 5.6983317444e+00 -1.2242314023e-01 1.7844220418e+00 -3.0907096385e+00 1.7844220418e+00 3.0907096385e+00 
10300 5.6973422475e+00 -1.2170040197e-01 1.7878534690e+00 -3.0966530448e+00 1.7878534690e+00 3.0966530448e+00 
10400 5.6963745987e+00 -1.2096418676e-01 1.7912580809e+00 -3.1025500055e+00 1.7912580809e+00 3.1025500055e+00 
10500 5.6954283358e+00 -1.2021486398e-01 1.7946356544e+00 -3.1084001345e+00 1.7946356544e+00 3.1084001345e+00 
10600 5.6945029734e+00 -1.1945283244e-01 1.7979859775e+00 -3.1142030644e+00 1.7979859775e+00 3.1142030644e+00 
10700 5.6935980057e+00 -1.1867851883e-01 1.8013088496e+00 -3.1199584476e+00 1.8013088496e+00 3.1199584476e+00 
10800 5.6927129099e+00 -1.1789237624e-01 1.8046040820e+00 -3.1256659576e+00 1.8046040820e+00 3.1256659576e+00 
10900 5.6918471490e+00 -1.1709488253e-01 1.8078714989e+00 -3.1313252896e+00 1.8078714989e+00 3.1313252896e+00 
11000 5.6910001754e+00 -1.1628653875e-01 1.8111109376e+00 -3.1369361621e+00 1.8111109376e+00 3.1369361621e+00 
11100 5.6901714335e+00 -1.1546786740e-01 1.8143222493e+00 -3.1424983170e+00 1.8143222493e+00 3.1424983170e+00 
11200 5.6893603632e+00 -1.1463941072e-01 1.8175052991e+00 -3.1480115210e+00 1.8175052991e+00 3.1480115210e+00 
11300 5.6885664022e+00 -1.1380172899e-01 1.8206599668e+00 -3.1534755658e+00 1.8206599668e+00 3.1534755658e+00 
11400 5.6877889893e+00 -1.1295539869e-01 1.8237861472e+00 -3.1588902692e+00 1.8237861472e+00 3.1588902692e+00 
11500 5.6870275669e+00 -1.1210101078e-01 1.8268837503e+00 -3.1642554750e+00 1.8268837503e+00 3.1642554750e+00 
11600 5.6862815830e+00 -1.1123916885e-01 1.8299527013e+00 -3.1695710541e+00 1.8299527013e+00 3.1695710541e+00 
11700 5.6855504946e+00 -1.1037048736e-01 1.8329929414e+00 -3.1748369044e+00 1.8329929414e+00 3.1748369044e+00 
11800 5.6848337688e+00 -1.0949558986e-01 1.8360044274e+00 -3.1800529512e+00 1.8360044274e+00 3.1800529512e+00 
11900 5.6841308857e+00 -1.0861510717e-01 1.8389871321e+00 -3.1852191473e+00 1.8389871321e+00 3.1852191473e+00 
12000 5.6834413398e+00 -1.0772967565e-01 1.8419410443e+00 -3.1903354733e+00 1.8419410443e+00 3.1903354733e+00 
12100 5.6827646417e+00 -1.0683993544e-01 1.8448661688e+00 -3.1954019375e+00 1.8448661688e+00 3.1954019375e+00 
12200 5.6821003199e+00 -1.0594652874e-01 1.8477625263e+00 -3.2004185758e+00 1.8477625263e+00 3.2004185758e+00 
12300 5.6814479218e+00 -1.0505009814e-01 1.8506301535e+00 -3.2053854519e+00 1.8506301535e+00 3.2053854519e+00 
12400 5.6808070150e+00 -1.0415128497e-01 1.8534691030e+00 -3.2103026566e+00 1.8534691030e+00 3.2103026566e+00 
12500 5.6801771880e+00 -1.0325072767e-01 1.8562794427e+00 -3.2151703079e+00 1.8562794427e+00 3.2151703079e+00 
12600 5.6795580512e+00 -1.0234906023e-01 1.8590612564e+00 -3.2199885505e+00 1.8590612564e+00 3.2199885505e+00 
12700 5.6789492374e+00 -1.0144691071e-01 1.8618146429e+00 -3.2247575557e+00 1.8618146429e+00 3.2247575557e+00 
12800 5.6783504021e+00 -1.0054489973e-01 1.8645397158e+00 -3.2294775206e+00 1.8645397158e+00 3.2294775206e+00 
12900 5.6777612236e+00 -9.9643639053e-02 1.8672366039e+00 -3.2341486677e+00 1.8672366039e+00 3.2341486677e+00 
13000 5.6771814032e+00 -9.8743730291e-02 1.8699054498e+00 -3.2387712444e+00 1.8699054498e+00 3.2387712444e+00 
13100 5.6766106650e+00 -9.7845763553e-02 1.8725464105e+00 -3.2433455225e+00 1.8725464105e+00 3.2433455225e+00 
13200 5.6760487556e+00 -9.6950316232e-02 1.8751596564e+00 -3.2478717972e+00 1.8751596564e+00 3.2478717972e+00 
13300 5.6754954434e+00 -9.6057951841e-02 1.8777453712e+00 -3.2523503866e+00 1.8777453712e+00 3.2523503866e+00 
13400 5.6749505183e+00 -9.5169218903e-02 1.8803037514e+00 -3.2567816310e+00 1.8803037514e+00 3.2567816310e+00 
13500 5.6744137910e+00 -9.4284649917e-02 1.8828350056e+00 -3.2611658920e+00 1.8828350056e+00 3.2611658920e+00 
13600 5.6738850920e+00 -9.3404760389e-02 1.8853393546e+00 -3.2655035517e+00 1.8853393546e+00 3.2655035517e+00 
13700 5.6733642705e+00 -9.2530047928e-02 1.8878170303e+00 -3.2697950118e+00 1.8878170303e+00 3.2697950118e+00 
13800 5.6728511937e+00 -9.1660991417e-02 1.8902682753e+00 -3.2740406927e+00 1.8902682753e+00 3.2740406927e+00 
13900 5.6723457456e+00 -9.0798050251e-02 1.8926933427e+00 -3.2782410328e+00 1.8926933427e+00 3.2782410328e+00 
14000 5.6718478256e+00 -8.9941663637e-02 1.8950924954e+00 -3.2823964870e+00 1.8950924954e+00 3.2823964870e+00 
14100 5.6713573474e+00 -8.9092249977e-02 1.8974660051e+00 -3.2865075265e+00 1.8974660051e+00 3.2865075265e+00 
14200 5.6708742378e+00 -8.8250206308e-02 1.8998141526e+00 -3.2905746372e+00 1.8998141526e+00 3.2905746372e+00 
14300 5.6703984352e+00 -8.7415907812e-02 1.9021372263e+00 -3.2945983189e+00 1.9021372263e+00 3.2945983189e+00 
14400 5.6699298884e+00 -8.6589707400e-02 1.9044355222e+00 -3.2985790843e+00 1.9044355222e+00 3.2985790843e+00 
14500 5.6694685554e+00 -8.5771935356e-02 1.9067093434e+00 -3.3025174580e+00 1.9067093434e+00 3.3025174580e+00 
14600 5.6690144015e+00 -8.4962899048e-02 1.9089589988e+00 -3.3064139754e+00 1.9089589988e+00 3.3064139754e+00 
14700 5.6685673988e+00 -8.4162882708e-02 1.9111848032e+00 -3.3102691817e+00 1.9111848032e+00 3.3102691817e+00 
14800 5.6681275244e+00 -8.3372147267e-02 1.9133870765e+00 -3.3140836310e+00 1.9133870765e+00 3.3140836310e+00 
14900 5.6676947592e+00 -8.2590930262e-02 1.9155661429e+00 -3.3178578847e+00 1.9155661429e+00 3.3178578847e+00 
15000 5.6672690870e+00 -8.1819445797e-02 1.9177223306e+00 -3.3215925114e+00 1.9177223306e+00 3.3215925114e+00 
15100 5.6668504928e+00 -8.1057884564e-02 1.9198559710e+00 -3.3252880851e+00 1.9198559710e+00 3.3252880851e+00 
15200 5.6664389626e+00 -8.0306413924e-02 1.9219673983e+00 -3.3289451843e+00 1.9219673983e+00 3.3289451843e+00 
15300 5.6660344816e+00 -7.9565178044e-02 1.9240569485e+00 -3.3325643914e+00 1.9240569485e+00 3.3325643914e+00 
15400 5.6656370336e+00 -7.8834298086e-02 1.9261249593e+00 -3.3361462913e+00 1.9261249593e+00 3.3361462913e+00 
15500 5.6652466003e+00 -7.8113872453e-02 1.9281717695e+00 -3.3396914705e+00 1.9281717695e+00 3.3396914705e+00 
15600 5.6648631603e+00 -7.7403977080e-02 1.9301977180e+00 -3.3432005162e+00 1.9301977180e+00 3.3432005162e+00 
15700 5.6644866887e+00 -7.6704665783e-02 1.9322031438e+00 -3.3466740155e+00 1.9322031438e+00 3.3466740155e+00 
15800 5.6641171563e+00 -7.6015970646e-02 1.9341883849e+00 -3.3501125541e+00 1.9341883849e+00 3.3501125541e+00 
15900 5.6637545292e+00 -7.5337902458e-02 1.9361537785e+00 -3.3535167157e+00 1.9361537785e+00 3.3535167157e+00 
16000 5.6633987684e+00 -7.4670451200e-02 1.9380996598e+00 -3.3568870809e+00 1.9380996598e+00 3.3568870809e+00 
16100 5.6630498296e+00 -7.4013586560e-02 1.9400263618e+00 -3.3602242266e+00 1.9400263618e+00 3.3602242266e+00 
16200 5.6627076628e+00 -7.3367258502e-02 1.9419342148e+00 -3.3635287250e+00 1.9419342148e+00 3.3635287250e+00 
16300 5.6623722123e+00 -7.2731397863e-02 1.9438235461e+00 -3.3668011428e+00 1.9438235461e+00 3.3668011428e+00 
16400 5.6620434167e+00 -7.2105916991e-02 1.9456946792e+00 -3.3700420405e+00 1.9456946792e+00 3.3700420405e+00 
16500 5.6617212088e+00 -7.1490710416e-02 1.9475479338e+00 -3.3732519715e+00 1.9475479338e+00 3.3732519715e+00 
16600 5.6614055156e+00 -7.0885655552e-02 1.9493836249e+00 -3.3764314818e+00 1.9493836249e+00 3.3764314818e+00 
16700 5.6610962588e+00 -7.0290613429e-02 1.9512020629e+00 -3.3795811088e+00 1.9512020629e+00 3.3795811088e+00 
16800 5.6607933547e+00 -6.9705429455e-02 1.9530035529e+00 -3.3827013809e+00 1.9530035529e+00 3.3827013809e+00 
16900 5.6604967147e+00 -6.9129934199e-02 1.9547883943e+00 -3.3857928170e+00 1.9547883943e+00 3.3857928170e+00 
17000 5.6602062454e+00 -6.8563944198e-02 1.9565568811e+00 -3.3888559259e+00 1.9565568811e+00 3.3888559259e+00 
17100 5.6599218491e+00 -6.8007262792e-02 1.9583093006e+00 -3.3918912055e+00 1.9583093006e+00 3.3918912055e+00 
17200 5.6596434242e+00 -6.7459680969e-02 1.9600459339e+00 -3.3948991427e+00 1.9600459339e+00 3.3948991427e+00 
17300 5.6593708658e+00 -6.6920978227e-02 1.9617670554e+00 -3.3978802126e+00 1.9617670554e+00 3.3978802126e+00 
17400 5.6591040657e+00 -6.6390923458e-02 1.9634729324e+00 -3.4008348782e+00 1.9634729324e+00 3.4008348782e+00 
17500 5.6588429131e+00 -6.5869275836e-02 1.9651638252e+00 -3.4037635904e+00 1.9651638252e+00 3.4037635904e+00 
17600 5.6585872954e+00 -6.5355785717e-02 1.9668399864e+00 -3.4066667869e+00 1.9668399864e+00 3.4066667869e+00 
17700 5.6583370980e+00 -6.4850195542e-02 1.9685016615e+00 -3.4095448925e+00 1.9685016615e+00 3.4095448925e+00 
17800 5.6580922053e+00 -6.4352240754e-02 1.9701490879e+00 -3.4123983188e+00 1.9701490879e+00 3.4123983188e+00 
17900 5.6578525012e+00 -6.3861650708e-02 1.9717824954e+00 -3.4152274635e+00 1.9717824954e+00 3.4152274635e+00 
18000 5.6576178689e+00 -6.3378149582e-02 1.9734021057e+00 -3.4180327108e+00 1.9734021057e+00 3.4180327108e+00 
18100 5.6573881922e+00 -6.2901457285e-02 1.9750081326e+00 -3.4208144310e+00 1.9750081326e+00 3.4208144310e+00 
18200 5.6571633552e+00 -6.2431290364e-02 1.9766007818e+00 -3.4235729804e+00 1.9766007818e+00 3.4235729804e+00 
18300 5.6569432432e+00 -6.1967362900e-02 1.9781802509e+00 -3.4263087011e+00 1.9781802509e+00 3.4263087011e+00 
18400 5.6567277426e+00 -6.1509387386e-02 1.9797467293e+00 -3.4290219213e+00 1.9797467293e+00 3.4290219213e+00 
18500 5.6565167417e+00 -6.1057075608e-02 1.9813003984e+00 -3.4317129551e+00 1.9813003984e+00 3.4317129551e+00 
18600 5.6563101306e+00 -6.0610139495e-02 1.9828414314e+00 -3.4343821025e+00 1.9828414314e+00 3.4343821025e+00 
18700 5.6561078017e+00 -6.0168291963e-02 1.9843699933e+00 -3.4370296494e+00 1.9843699933e+00 3.4370296494e+00 
18800 5.6559096498e+00 -5.9731247729e-02 1.9858862415e+00 -3.4396558683e+00 1.9858862415e+00 3.4396558683e+00 
18900 5.6557155723e+00 -5.9298724112e-02 1.9873903252e+00 -3.4422610176e+00 1.9873903252e+00 3.4422610176e+00 
19000 5.6555254696e+00 -5.8870441808e-02 1.9888823858e+00 -3.4448453425e+00 1.9888823858e+00 3.4448453425e+00 
19100 5.6553392448e+00 -5.8446125629e-02 1.9903625572e+00 -3.4474090746e+00 1.9903625572e+00 3.4474090746e+00 
19200 5.6551568042e+00 -5.8025505228e-02 1.9918309657e+00 -3.4499524327e+00 1.9918309657e+00 3.4499524327e+00 
19300 5.6549780570e+00 -5.7608315785e-02 1.9932877302e+00 -3.4524756228e+00 1.9932877302e+00 3.4524756228e+00 
19400 5.6548029157e+00 -5.7194298664e-02 1.9947329624e+00 -3.4549788384e+00 1.9947329624e+00 3.4549788384e+00 
19500 5.6546312959e+00 -5.6783202035e-02 1.9961667670e+00 -3.4574622607e+00 1.9961667670e+00 3.4574622607e+00 
19600 5.6544631161e+00 -5.6374781463e-02 1.9975892418e+00 -3.4599260595e+00 1.9975892418e+00 3.4599260595e+00 
19700 5.6542982981e+00 -5.5968800462e-02 1.9990004782e+00 -3.4623703926e+00 1.9990004782e+00 3.4623703926e+00 
19800 5.6541367665e+00 -5.5565031004e-02 2.0004005611e+00 -3.4647954074e+00 2.0004005611e+00 3.4647954074e+00 
19900 5.6539784488e+00 -5.5163254003e-02 2.0017895694e+00 -3.4672012402e+00 2.0017895694e+00 3.4672012402e+00 
20000 5.6538232754e+00 -5.4763259746e-02 2.0031675758e+00 -3.4695880173e+00 2.0031675758e+00 3.4695880173e+00 
20100 5.6536711792e+00 -5.4364848291e-02 2.0045346477e+00 -3.4719558554e+00 2.0045346477e+00 3.4719558554e+00 
20200 5.6535220957e+00 -5.3967829828e-02 2.0058908471e+00 -3.4743048616e+00 2.0058908471e+00 3.4743048616e+00 
20300 5.6533759628e+00 -5.3572024988e-02 2.0072362308e+00 -3.4766351346e+00 2.0072362308e+00 3.4766351346e+00 
20400 5.6532327205e+00 -5.3177265119e-02 2.0085708510e+00 -3.4789467645e+00 2.0085708510e+00 3.4789467645e+00 
20500 5.6530923110e+00 -5.2783392524e-02 2.0098947550e+00 -3.4812398336e+00 2.0098947550e+00 3.4812398336e+00 
20600 5.6529546784e+00 -5.2390260643e-02 2.0112079864e+00 -3.4835144170e+00 2.0112079864e+00 3.4835144170e+00 
20700 5.6528197684e+00 -5.1997734212e-02 2.0125105844e+00 -3.4857705830e+00 2.0125105844e+00 3.4857705830e+00 
20800 5.6526875286e+00 -5.1605689370e-02 2.0138025849e+00 -3.4880083935e+00 2.0138025849e+00 3.4880083935e+00 
20900 5.6525579079e+00 -5.1214013725e-02 2.0150840203e+00 -3.4902279047e+00 2.0150840203e+00 3.4902279047e+00 
21000 5.6524308563e+00 -5.0822606390e-02 2.0163549200e+00 -3.4924291676e+00 2.0163549200e+00 3.4924291676e+00 
21100 5.6523063253e+00 -5.0431377971e-02 2.0176153106e+00 -3.4946122282e+00 2.0176153106e+00 3.4946122282e+00 
21200 5.6521842674e+00 -5.0040250521e-02 2.0188652164e+00 -3.4967771285e+00 2.0188652164e+00 3.4967771285e+00 
21300 5.6520646357e+00 -4.9649157459e-02 2.0201046594e+00 -3.4989239067e+00 2.0201046594e+00 3.4989239067e+00 
21400 5.6519473846e+00 -4.9258043447e-02 2.0213336598e+00 -3.5010525979e+00 2.0213336598e+00 3.5010525979e+00 
21500 5.6518324688e+00 -4.8866864245e-02 2.0225522362e+00 -3.5031632341e+00 2.0225522362e+00 3.5031632341e+00 
21600 5.6517198437e+00 -4.8475586516e-02 2.0237604059e+00 -3.5052558454e+00 2.0237604059e+00 3.5052558454e+00 
21700 5.6516094655e+00 -4.8084187618e-02 2.0249581852e+00 -3.5073304599e+00 2.0249581852e+00 3.5073304599e+00 
21800 5.6515012906e+00 -4.7692655350e-02 2.0261455895e+00 -3.5093871046e+00 2.0261455895e+00 3.5093871046e+00 
21900 5.6513952759e+00 -4.7300987684e-02 2.0273226340e+00 -3.5114258054e+00 2.0273226340e+00 3.5114258054e+00 
22000 5.6512913787e+00 -4.6909192456e-02 2.0284893334e+00 -3.5134465880e+00 2.0284893334e+00 3.5134465880e+00 
22100 5.6511895567e+00 -4.6517287047e-02 2.0296457025e+00 -3.5154494780e+00 2.0296457025e+00 3.5154494780e+00 
22200 5.6510897679e+00 -4.6125298028e-02 2.0307917562e+00 -3.5174345014e+00 2.0307917562e+00 3.5174345014e+00 
22300 5.6509919704e+00 -4.5733260796e-02 2.0319275102e+00 -3.5194016849e+00 2.0319275102e+00 3.5194016849e+00 
22400 5.6508961230e+00 -4.5341219177e-02 2.0330529804e+00 -3.5213510566e+00 2.0330529804e+00 3.5213510566e+00 
22500 5.6508021846e+00 -4.4949225028e-02 2.0341681841e+00 -3.5232826459e+00 2.0341681841e+00 3.5232826459e+00 
22600 5.6507101144e+00 -4.4557337807e-02 2.0352731392e+00 -3.5251964844e+00 2.0352731392e+00 3.5251964844e+00 
22700 5.6506198720e+00 -4.4165624141e-02 2.0363678652e+00 -3.5270926055e+00 2.0363678652e+00 3.5270926055e+00 
22800 5.6505314175e+00 -4.3774157379e-02 2.0374523830e+00 -3.5289710453e+00 2.0374523830e+00 3.5289710453e+00 
22900 5.6504447112e+00 -4.3383017131e-02 2.0385267149e+00 -3.5308318428e+00 2.0385267149e+00 3.5308318428e+00 
23000 5.6503597139e+00 -4.2992288808e-02 2.0395908851e+00 -3.5326750397e+00 2.0395908851e+00 3.5326750397e+00 
23100 5.6502763871e+00 -4.2602063147e-02 2.0406449198e+00 -3.5345006813e+00 2.0406449198e+00 3.5345006813e+00 
23200 5.6501946926e+00 -4.2212435734e-02 2.0416888470e+00 -3.5363088162e+00 2.0416888470e+00 3.5363088162e+00 
23300 5.6501145929e+00 -4.1823506530e-02 2.0427226969e+00 -3.5380994967e+00 2.0427226969e+00 3.5380994967e+00 
23400 5.6500360510e+00 -4.1435379388e-02 2.0437465020e+00 -3.5398727792e+00 2.0437465020e+00 3.5398727792e+00 
23500 5.6499590305e+00 -4.1048161576e-02 2.0447602970e+00 -3.5416287238e+00 2.0447602970e+00 3.5416287238e+00 
23600 5.6498834960e+00 -4.0661963301e-02 2.0457641193e+00 -3.5433673949e+00 2.0457641193e+00 3.5433673949e+00 
23700 5.6498094126e+00 -4.0276897235e-02 2.0467580084e+00 -3.5450888614e+00 2.0467580084e+00 3.5450888614e+00 
23800 5.6497367462e+00 -3.9893078050e-02 2.0477420066e+00 -3.5467931962e+00 2.0477420066e+00 3.5467931962e+00 
23900 5.6496654636e+00 -3.9510621957e-02 2.0487161586e+00 -3.5484804770e+00 2.0487161586e+00 3.5484804770e+00 
24000 5.6495955323e+00 -3.9129646254e-02 2.0496805118e+00 -3.5501507857e+00 2.0496805118e+00 3.5501507857e+00 
24100 5.6495269207e+00 -3.8750268884e-02 2.0506351162e+00 -3.5518042091e+00 2.0506351162e+00 3.5518042091e+00 
24200 5.6494595983e+00 -3.8372608002e-02 2.0515800245e+00 -3.5534408383e+00 2.0515800245e+00 3.5534408383e+00 
24300 5.6493935352e+00 -3.7996781554e-02 2.0525152920e+00 -3.5550607691e+00 2.0525152920e+00 3.5550607691e+00 
24400 5.6493287027e+00 -3.7622906871e-02 2.0534409766e+00 -3.5566641019e+00 2.0534409766e+00 3.5566641019e+00 
24500 5.6492650729e+00 -3.7251100272e-02 2.0543571389e+00 -3.5582509415e+00 2.0543571389e+00 3.5582509415e+00 
24600 5.6492026187e+00 -3.6881476689e-02 2.0552638420e+00 -3.5598213973e+00 2.0552638420e+00 3.5598213973e+00 
24700 5.6491413143e+00 -3.6514149298e-02 2.0561611516e+00 -3.5613755831e+00 2.0561611516e+00 3.5613755831e+00 
24800 5.6490811345e+00 -3.6149229174e-02 2.0570491359e+00 -3.5629136170e+00 2.0570491359e+00 3.5629136170e+00 
24900 5.6490220551e+00 -3.5786824956e-02 2.0579278655e+00 -3.5644356214e+00 2.0579278655e+00 3.5644356214e+00 
25000 5.6489640530e+00 -3.5427042538e-02 2.0587974136e+00 -3.5659417228e+00 2.0587974136e+00 3.5659417228e+00 
25100 5.6489071059e+00 -3.5069984766e-02 2.0596578554e+00 -3.5674320518e+00 2.0596578554e+00 3.5674320518e+00 
25200 5.6488511922e+00 -3.4715751167e-02 2.0605092687e+00 -3.5689067428e+00 2.0605092687e+00 3.5689067428e+00 
25300 5.6487962913e+00 -3.4364437680e-02 2.0613517331e+00 -3.5703659340e+00 2.0613517331e+00 3.5703659340e+00 
25400 5.6487423834e+00 -3.4016136423e-02 2.0621853306e+00 -3.5718097672e+00 2.0621853306e+00 3.5718097672e+00 
25500 5.6486894495e+00 -3.3670935467e-02 2.0630101450e+00 -3.5732383877e+00 2.0630101450e+00 3.5732383877e+00 
25600 5.6486374714e+00 -3.3328918632e-02 2.0638262620e+00 -3.5746519439e+00 2.0638262620e+00 3.5746519439e+00 
25700 5.6485864315e+00 -3.2990165304e-02 2.0646337692e+00 -3.5760505873e+00 2.0646337692e+00 3.5760505873e+00 
25800 5.6485363130e+00 -3.2654750268e-02 2.0654327558e+00 -3.5774344726e+00 2.0654327558e+00 3.5774344726e+00 
25900 5.6484870995e+00 -3.2322743568e-02 2.0662233124e+00 -3.5788037569e+00 2.0662233124e+00 3.5788037569e+00 
26000 5.6484387755e+00 -3.1994210371e-02 2.0670055314e+00 -3.5801586000e+00 2.0670055314e+00 3.5801586000e+00 
26100 5.6483913260e+00 -3.1669210866e-02 2.0677795063e+00 -3.5814991637e+00 2.0677795063e+00 3.5814991637e+00 
26200 5.6483447363e+00 -3.1347800169e-02 2.0685453318e+00 -3.5828256124e+00 2.0685453318e+00 3.5828256124e+00 
26300 5.6482989924e+00 -3.1030028253e-02 2.0693031037e+00 -3.5841381119e+00 2.0693031037e+00 3.5841381119e+00 
26400 5.6482540807e+00 -3.0715939897e-02 2.0700529190e+00 -3.5854368301e+00 2.0700529190e+00 3.5854368301e+00 
26500 5.6482099878e+00 -3.0405574644e-02 2.0707948753e+00 -3.5867219360e+00 2.0707948753e+00 3.5867219360e+00 
26600 5.6481667009e+00 -3.0098966786e-02 2.0715290709e+00 -3.5879936001e+00 2.0715290709e+00 3.5879936001e+00 
26700 5.6481242075e+00 -2.9796145360e-02 2.0722556049e+00 -3.5892519939e+00 2.0722556049e+00 3.5892519939e+00 
26800 5.6480824953e+00 -2.9497134160e-02 2.0729745767e+00 -3.5904972896e+00 2.0729745767e+00 3.5904972896e+00 
26900 5.6480415522e+00 -2.9201951767e-02 2.0736860862e+00 -3.5917296602e+00 2.0736860862e+00 3.5917296602e+00 
27000 5.6480013663e+00 -2.8910611595e-02 2.0743902333e+00 -3.5929492789e+00 2.0743902333e+00 3.5929492789e+00 
27100 5.6479619262e+00 -2.8623121944e-02 2.0750871184e+00 -3.5941563191e+00 2.0750871184e+00 3.5941563191e+00 
27200 5.6479232202e+00 -2.8339486079e-02 2.0757768414e+00 -3.5953509544e+00 2.0757768414e+00 3.5953509544e+00 
27300 5.6478852371e+00 -2.8059702310e-02 2.0764595024e+00 -3.5965333580e+00 2.0764595024e+00 3.5965333580e+00 
27400 5.6478479657e+00 -2.7783764091e-02 2.0771352012e+00 -3.5977037026e+00 2.0771352012e+00 3.5977037026e+00 
27500 5.6478113949e+00 -2.7511660133e-02 2.0778040371e+00 -3.5988621605e+00 2.0778040371e+00 3.5988621605e+00 
27600 5.6477755135e+00 -2.7243374520e-02 2.0784661092e+00 -3.6000089030e+00 2.0784661092e+00 3.6000089030e+00 
27700 5.6477403107e+00 -2.6978886846e-02 2.0791215158e+00 -3.6011441004e+00 2.0791215158e+00 3.6011441004e+00 
27800 5.6477057755e+00 -2.6718172348e-02 2.0797703545e+00 -3.6022679220e+00 2.0797703545e+00 3.6022679220e+00 
27900 5.6476718970e+00 -2.6461202067e-02 2.0804127222e+00 -3.6033805355e+00 2.0804127222e+00 3.6033805355e+00 
28000 5.6476386643e+00 -2.6207942996e-02 2.0810487150e+00 -3.6044821074e+00 2.0810487150e+00 3.6044821074e+00 
28100 5.6476060668e+00 -2.5958358253e-02 2.0816784279e+00 -3.6055728021e+00 2.0816784279e+00 3.6055728021e+00 
28200 5.6475740934e+00 -2.5712407252e-02 2.0823019549e+00 -3.6066527825e+00 2.0823019549e+00 3.6066527825e+00 
28300 5.6475427336e+00 -2.5470045882e-02 2.0829193888e+00 -3.6077222095e+00 2.0829193888e+00 3.6077222095e+00 
28400 5.6475119765e+00 -2.5231226692e-02 2.0835308213e+00 -3.6087812416e+00 2.0835308213e+00 3.6087812416e+00 
28500 5.6474818113e+00 -2.4995899077e-02 2.0841363426e+00 -3.6098300354e+00 2.0841363426e+00 3.6098300354e+00 
28600 5.6474522275e+00 -2.4764009479e-02 2.0847360418e+00 -3.6108687448e+00 2.0847360418e+00 3.6108687448e+00 
28700 5.6474232144e+00 -2.4535501576e-02 2.0853300063e+00 -3.6118975215e+00 2.0853300063e+00 3.6118975215e+00 
28800 5.6473947613e+00 -2.4310316485e-02 2.0859183222e+00 -3.6129165145e+00 2.0859183222e+00 3.6129165145e+00 
28900 5.6473668577e+00 -2.4088392965e-02 2.0865010739e+00 -3.6139258700e+00 2.0865010739e+00 3.6139258700e+00 
29000 5.6473394931e+00 -2.3869667614e-02 2.0870783442e+00 -3.6149257316e+00 2.0870783442e+00 3.6149257316e+00 
29100 5.6473126571e+00 -2.3654075079e-02 2.0876502144e+00 -3.6159162398e+00 2.0876502144e+00 3.6159162398e+00 
29200 5.6472863392e+00 -2.3441548255e-02 2.0882167639e+00 -3.6168975324e+00 2.0882167639e+00 3.6168975324e+00 
29300 5.6472605292e+00 -2.3232018489e-02 2.0887780706e+00 -3.6178697439e+00 2.0887780706e+00 3.6178697439e+00 
29400 5.6472352170e+00 -2.3025415784e-02 2.0893342103e+00 -3.6188330062e+00 2.0893342103e+00 3.6188330062e+00 
29500 5.6472103925e+00 -2.2821668996e-02 2.0898852573e+00 -3.6197874476e+00 2.0898852573e+00 3.6197874476e+00 
29600 5.6471860456e+00 -2.2620706031e-02 2.0904312840e+00 -3.6207331936e+00 2.0904312840e+00 3.6207331936e+00 
29700 5.6471621666e+00 -2.2422454047e-02 2.0909723609e+00 -3.6216703663e+00 2.0909723609e+00 3.6216703663e+00 
29800 5.6471387457e+00 -2.2226839636e-02 2.0915085567e+00 -3.6225990846e+00 2.0915085567e+00 3.6225990846e+00 
29900 5.6471157735e+00 -2.2033789020e-02 2.0920399382e+00 -3.6235194645e+00 2.0920399382e+00 3.6235194645e+00 
30000 5.6470932404e+00 -2.1843228233e-02 2.0925665705e+00 -3.6244316182e+00 2.0925665705e+00 3.6244316182e+00 
30100 5.6470711373e+00 -2.1655083296e-02 2.0930885165e+00 -3.6253356553e+00 2.0930885165e+00 3.6253356553e+00 
30200 5.6470494551e+00 -2.1469280398e-02 2.0936058375e+00 -3.6262316816e+00 2.0936058375e+00 3.6262316816e+00 
30300 5.6470281847e+00 -2.1285746061e-02 2.0941185930e+00 -3.6271198001e+00 2.0941185930e+00 3.6271198001e+00 
30400 5.6470073176e+00 -2.1104407303e-02 2.0946268404e+00 -3.6280001105e+00 2.0946268404e+00 3.6280001105e+00 
30500 5.6469868451e+00 -2.0925191799e-02 2.0951306355e+00 -3.6288727091e+00 2.0951306355e+00 3.6288727091e+00 
30600 5.6469667589e+00 -2.0748028027e-02 2.0956300321e+00 -3.6297376894e+00 2.0956300321e+00 3.6297376894e+00 
30700 5.6469470508e+00 -2.0572845416e-02 2.0961250823e+00 -3.6305951416e+00 2.0961250823e+00 3.6305951416e+00 
30800 5.6469277127e+00 -2.0399574482e-02 2.0966158366e+00 -3.6314451530e+00 2.0966158366e+00 3.6314451530e+00 
30900 5.6469087369e+00 -2.0228146960e-02 2.0971023436e+00 -3.6322878078e+00 2.0971023436e+00 3.6322878078e+00 
31000 5.6468901158e+00 -2.0058495926e-02 2.0975846501e+00 -3.6331231871e+00 2.0975846501e+00 3.6331231871e+00 
31100 5.6468718420e+00 -1.9890555911e-02 2.0980628014e+00 -3.6339513695e+00 2.0980628014e+00 3.6339513695e+00 
31200 5.6468539081e+00 -1.9724263015e-02 2.0985368412e+00 -3.6347724305e+00 2.0985368412e+00 3.6347724305e+00 
31300 5.6468363072e+00 -1.9559555004e-02 2.0990068115e+00 -3.6355864429e+00 2.0990068115e+00 3.6355864429e+00 
31400 5.6468190324e+00 -1.9396371402e-02 2.0994727528e+00 -3.6363934769e+00 2.0994727528e+00 3.6363934769e+00 
31500 5.6468020771e+00 -1.9234653581e-02 2.0999347041e+00 -3.6371936000e+00 2.0999347041e+00 3.6371936000e+00 
31600 5.6467854347e+00 -1.9074344834e-02 2.1003927029e+00 -3.6379868772e+00 2.1003927029e+00 3.6379868772e+00 
31700 5.6467690989e+00 -1.8915390448e-02 2.1008467854e+00 -3.6387733712e+00 2.1008467854e+00 3.6387733712e+00 
31800 5.6467530635e+00 -1.8757737768e-02 2.1012969864e+00 -3.6395531422e+00 2.1012969864e+00 3.6395531422e+00 
31900 5.6467373227e+00 -1.8601336244e-02 2.1017433393e+00 -3.6403262482e+00 2.1017433393e+00 3.6403262482e+00 
32000 5.6467218706e+00 -1.8446137487e-02 2.1021858764e+00 -3.6410927449e+00 2.1021858764e+00 3.6410927449e+00 
32100 5.6467067014e+00 -1.8292095304e-02 2.1026246288e+00 -3.6418526863e+00 2.1026246288e+00 3.6418526863e+00 
32200 5.6466918098e+00 -1.8139165728e-02 2.1030596262e+00 -3.6426061239e+00 2.1030596262e+00 3.6426061239e+00 
32300 5.6466771903e+00 -1.7987307048e-02 2.1034908975e+00 -3.6433531077e+00 2.1034908975e+00 3.6433531077e+00 
32400 5.6466628377e+00 -1.7836479820e-02 2.1039184704e+00 -3.6440936858e+00 2.1039184704e+00 3.6440936858e+00 
32500 5.6466487469e+00 -1.7686646884e-02 2.1043423718e+00 -3.6448279045e+00 2.1043423718e+00 3.6448279045e+00 
32600 5.6466349129e+00 -1.7537773364e-02 2.1047626275e+00 -3.6455558087e+00 2.1047626275e+00 3.6455558087e+00 
32700 5.6466213310e+00 -1.7389826663e-02 2.1051792624e+00 -3.6462774415e+00 2.1051792624e+00 3.6462774415e+00 
32800 5.6466079963e+00 -1.7242776459e-02 2.1055923007e+00 -3.6469928449e+00 2.1055923007e+00 3.6469928449e+00 
32900 5.6465949043e+00 -1.7096594685e-02 2.1060017659e+00 -3.6477020594e+00 2.1060017659e+00 3.6477020594e+00 
33000 5.6465820504e+00 -1.6951255509e-02 2.1064076807e+00 -3.6484051244e+00 2.1064076807e+00 3.6484051244e+00 
33100 5.6465694303e+00 -1.6806735306e-02 2.1068100671e+00 -3.6491020780e+00 2.1068100671e+00 3.6491020780e+00 
33200 5.6465570396e+00 -1.6663012624e-02 2.1072089465e+00 -3.6497929575e+00 2.1072089465e+00 3.6497929575e+00 
33300 5.6465448742e+00 -1.6520068150e-02 2.1076043400e+00 -3.6504777991e+00 2.1076043400e+00 3.6504777991e+00 
33400 5.6465329298e+00 -1.6377884663e-02 2.1079962679e+00 -3.6511566382e+00 2.1079962679e+00 3.6511566382e+00 
33500 5.6465212024e+00 -1.6236446986e-02 2.1083847503e+00 -3.6518295094e+00 2.1083847503e+00 3.6518295094e+00 
33600 5.6465096881e+00 -1.6095741937e-02 2.1087698067e+00 -3.6524964467e+00 2.1087698067e+00 3.6524964467e+00 
33700 5.6464983829e+00 -1.5955758271e-02 2.1091514564e+00 -3.6531574834e+00 2.1091514564e+00 3.6531574834e+00 
33800 5.6464872831e+00 -1.5816486618e-02 2.1095297184e+00 -3.6538126523e+00 2.1095297184e+00 3.6538126523e+00 
33900 5.6464763849e+00 -1.5677919424e-02 2.1099046113e+00 -3.6544619859e+00 2.1099046113e+00 3.6544619859e+00 
34000 5.6464656846e+00 -1.5540050879e-02 2.1102761537e+00 -3.6551055161e+00 2.1102761537e+00 3.6551055161e+00 
34100 5.6464551785e+00 -1.5402876853e-02 2.1106443638e+00 -3.6557432748e+00 2.1106443638e+00 3.6557432748e+00 
34200 5.6464448632e+00 -1.5266394817e-02 2.1110092600e+00 -3.6563752935e+00 2.1110092600e+00 3.6563752935e+00 
34300 5.6464347351e+00 -1.5130603775e-02 2.1113708603e+00 -3.6570016036e+00 2.1113708603e+00 3.6570016036e+00 
34400 5.6464247909e+00 -1.4995504184e-02 2.1117291827e+00 -3.6576222363e+00 2.1117291827e+00 3.6576222363e+00 
34500 5.6464150270e+00 -1.4861097873e-02 2.1120842454e+00 -3.6582372229e+00 2.1120842454e+00 3.6582372229e+00 
34600 5.6464054403e+00 -1.4727387971e-02 2.1124360664e+00 -3.6588465947e+00 2.1124360664e+00 3.6588465947e+00 
34700 5.6463960273e+00 -1.4594378816e-02 2.1127846637e+00 -3.6594503830e+00 2.1127846637e+00 3.6594503830e+00 
34800 5.6463867851e+00 -1.4462075883e-02 2.1131300557e+00 -3.6600486194e+00 2.1131300557e+00 3.6600486194e+00 
34900 5.6463777102e+00 -1.4330485693e-02 2.1134722605e+00 -3.6606413356e+00 2.1134722605e+00 3.6606413356e+00 
35000 5.6463687998e+00 -1.4199615737e-02 2.1138112966e+00 -3.6612285634e+00 2.1138112966e+00 3.6612285634e+00 
35100 5.6463600507e+00 -1.4069474388e-02 2.1141471826e+00 -3.6618103349e+00 2.1141471826e+00 3.6618103349e+00 
35200 5.6463514599e+00 -1.3940070823e-02 2.1144799372e+00 -3.6623866828e+00 2.1144799372e+00 3.6623866828e+00 
35300 5.6463430244e+00 -1.3811414937e-02 2.1148095793e+00 -3.6629576397e+00 2.1148095793e+00 3.6629576397e+00 
35400 5.6463347415e+00 -1.3683517263e-02 2.1151361281e+00 -3.6635232388e+00 2.1151361281e+00 3.6635232388e+00 
35500 5.6463266082e+00 -1.3556388890e-02 2.1154596029e+00 -3.6640835136e+00 2.1154596029e+00 3.6640835136e+00 
35600 5.6463186218e+00 -1.3430041387e-02 2.1157800234e+00 -3.6646384982e+00 2.1157800234e+00 3.6646384982e+00 
35700 5.6463107796e+00 -1.3304486720e-02 2.1160974093e+00 -3.6651882268e+00 2.1160974093e+00 3.6651882268e+00 
35800 5.6463030788e+00 -1.3179737178e-02 2.1164117809e+00 -3.6657327342e+00 2.1164117809e+00 3.6657327342e+00 
35900 5.6462955168e+00 -1.3055805300e-02 2.1167231584e+00 -3.6662720559e+00 2.1167231584e+00 3.6662720559e+00 
36000 5.6462880910e+00 -1.2932703795e-02 2.1170315625e+00 -3.6668062275e+00 2.1170315625e+00 3.6668062275e+00 
36100 5.6462807989e+00 -1.2810445480e-02 2.1173370141e+00 -3.6673352852e+00 2.1173370141e+00 3.6673352852e+00 
36200 5.6462736381e+00 -1.2689043201e-02 2.1176395345e+00 -3.6678592658e+00 2.1176395345e+00 3.6678592658e+00 
36300 5.6462666061e+00 -1.2568509776e-02 2.1179391450e+00 -3.6683782065e+00 2.1179391450e+00 3.6683782065e+00 
36400 5.6462597004e+00 -1.2448857925e-02 2.1182358675e+00 -3.6688921449e+00 2.1182358675e+00 3.6688921449e+00 
36500 5.6462529189e+00 -1.2330100208e-02 2.1185297239e+00 -3.6694011192e+00 2.1185297239e+00 3.6694011192e+00 
36600 5.6462462591e+00 -1.2212248970e-02 2.1188207367e+00 -3.6699051681e+00 2.1188207367e+00 3.6699051681e+00 
36700 5.6462397189e+00 -1.2095316283e-02 2.1191089283e+00 -3.6704043305e+00 2.1191089283e+00 3.6704043305e+00 
36800 5.6462332960e+00 -1.1979313890e-02 2.1193943215e+00 -3.6708986461e+00 2.1193943215e+00 3.6708986461e+00 
36900 5.6462269884e+00 -1.1864253160e-02 2.1196769395e+00 -3.6713881549e+00 2.1196769395e+00 3.6713881549e+00 
37000 5.6462207939e+00 -1.1750145035e-02 2.1199568056e+00 -3.6718728972e+00 2.1199568056e+00 3.6718728972e+00 
37100 5.6462147104e+00 -1.1636999991e-02 2.1202339434e+00 -3.6723529138e+00 2.1202339434e+00 3.6723529138e+00 
37200 5.6462087360e+00 -1.1524827993e-02 2.1205083765e+00 -3.6728282460e+00 2.1205083765e+00 3.6728282460e+00 
37300 5.6462028687e+00 -1.1413638457e-02 2.1207801292e+00 -3.6732989354e+00 2.1207801292e+00 3.6732989354e+00 
37400 5.6461971065e+00 -1.1303440216e-02 2.1210492254e+00 -3.6737650238e+00 2.1210492254e+00 3.6737650238e+00 
37500 5.6461914475e+00 -1.1194241490e-02 2.1213156897e+00 -3.6742265534e+00 2.1213156897e+00 3.6742265534e+00 
37600 5.6461858900e+00 -1.1086049853e-02 2.1215795465e+00 -3.6746835669e+00 2.1215795465e+00 3.6746835669e+00 
37700 5.6461804320e+00 -1.0978872210e-02 2.1218408207e+00 -3.6751361070e+00 2.1218408207e+00 3.6751361070e+00 
37800 5.6461750719e+00 -1.0872714775e-02 2.1220995370e+00 -3.6755842167e+00 2.1220995370e+00 3.6755842167e+00 
37900 5.6461698079e+00 -1.0767583050e-02 2.1223557204e+00 -3.6760279394e+00 2.1223557204e+00 3.6760279394e+00 
38000 5.6461646382e+00 -1.0663481807e-02 2.1226093960e+00 -3.6764673184e+00 2.1226093960e+00 3.6764673184e+00 
38100 5.6461595612e+00 -1.0560415079e-02 2.1228605890e+00 -3.6769023975e+00 2.1228605890e+00 3.6769023975e+00 
38200 5.6461545753e+00 -1.0458386144e-02 2.1231093246e+00 -3.6773332202e+00 2.1231093246e+00 3.6773332202e+00 
38300 5.6461496789e+00 -1.0357397522e-02 2.1233556282e+00 -3.6777598305e+00 2.1233556282e+00 3.6777598305e+00 
38400 5.6461448703e+00 -1.0257450967e-02 2.1235995250e+00 -3.6781822723e+00 2.1235995250e+00 3.6781822723e+00 
38500 5.6461401480e+00 -1.0158547465e-02 2.1238410406e+00 -3.6786005895e+00 2.1238410406e+00 3.6786005895e+00 
38600 5.6461355106e+00 -1.0060687235e-02 2.1240802001e+00 -3.6790148260e+00 2.1240802001e+00 3.6790148260e+00 
38700 5.6461309565e+00 -9.9638697320e-03 2.1243170291e+00 -3.6794250258e+00 2.1243170291e+00 3.6794250258e+00 
38800 5.6461264843e+00 -9.8680936523e-03 2.1245515528e+00 -3.6798312327e+00 2.1245515528e+00 3.6798312327e+00 
38900 5.6461220924e+00 -9.7733569402e-03 2.1247837965e+00 -3.6802334906e+00 2.1247837965e+00 3.6802334906e+00 
39000 5.6461177796e+00 -9.6796567987e-03 2.1250137853e+00 -3.6806318430e+00 2.1250137853e+00 3.6806318430e+00 
39100 5.6461135443e+00 -9.5869897013e-03 2.1252415446e+00 -3.6810263335e+00 2.1252415446e+00 3.6810263335e+00 
39200 5.6461093854e+00 -9.4953514062e-03 2.1254670991e+00 -3.6814170055e+00 2.1254670991e+00 3.6814170055e+00 
39300 5.6461053013e+00 -9.4047369722e-03 2.1256904740e+00 -3.6818039021e+00 2.1256904740e+00 3.6818039021e+00 
39400 5.6461012907e+00 -9.3151407763e-03 2.1259116939e+00 -3.6821870662e+00 2.1259116939e+00 3.6821870662e+00 
39500 5.6460973525e+00 -9.2265565337e-03 2.1261307834e+00 -3.6825665404e+00 2.1261307834e+00 3.6825665404e+00 
39600 5.6460934852e+00 -9.1389773184e-03 2.1263477671e+00 -3.6829423672e+00 2.1263477671e+00 3.6829423672e+00 
39700 5.6460896877e+00 -9.0523955859e-03 2.1265626692e+00 -3.6833145885e+00 2.1265626692e+00 3.6833145885e+00 
39800 5.6460859587e+00 -8.9668031970e-03 2.1267755138e+00 -3.6836832461e+00 2.1267755138e+00 3.6836832461e+00 
39900 5.6460822969e+00 -8.8821914432e-03 2.1269863247e+00 -3.6840483814e+00 2.1269863247e+00 3.6840483814e+00 
40000 5.6460787012e+00 -8.7985510723e-03 2.1271951257e+00 -3.6844100353e+00 2.1271951257e+00 3.6844100353e+00 
40100 5.6460751704e+00 -8.7158723163e-03 2.1274019401e+00 -3.6847682484e+00 2.1274019401e+00 3.6847682484e+00 
40200 5.6460717033e+00 -8.6341449188e-03 2.1276067912e+00 -3.6851230609e+00 2.1276067912e+00 3.6851230609e+00 
40300 5.6460682988e+00 -8.5533581642e-03 2.1278097019e+00 -3.6854745125e+00 2.1278097019e+00 3.6854745125e+00 
40400 5.6460649557e+00 -8.4735009070e-03 2.1280106948e+00 -3.6858226424e+00 2.1280106948e+00 3.6858226424e+00 
40500 5.6460616730e+00 -8.3945616017e-03 2.1282097923e+00 -3.6861674894e+00 2.1282097923e+00 3.6861674894e+00 
40600 5.6460584495e+00 -8.3165283332e-03 2.1284070166e+00 -3.6865090919e+00 2.1284070166e+00 3.6865090919e+00 
40700 5.6460552842e+00 -8.2393888476e-03 2.1286023893e+00 -3.6868474874e+00 2.1286023893e+00 3.6868474874e+00 
40800 5.6460521759e+00 -8.1631305829e-03 2.1287959321e+00 -3.6871827134e+00 2.1287959321e+00 3.6871827134e+00 
40900 5.6460491238e+00 -8.0877406999e-03 2.1289876662e+00 -3.6875148065e+00 2.1289876662e+00 3.6875148065e+00 
41000 5.6460461267e+00 -8.0132061133e-03 2.1291776123e+00 -3.6878438029e+00 2.1291776123e+00 3.6878438029e+00 
41100 5.6460431837e+00 -7.9395135224e-03 2.1293657912e+00 -3.6881697383e+00 2.1293657912e+00 3.6881697383e+00 
41200 5.6460402937e+00 -7.8666494419e-03 2.1295522230e+00 -3.6884926476e+00 2.1295522230e+00 3.6884926476e+00 
41300 5.6460374558e+00 -7.7946002320e-03 2.1297369276e+00 -3.6888125654e+00 2.1297369276e+00 3.6888125654e+00 
41400 5.6460346691e+00 -7.7233521287e-03 2.1299199247e+00 -3.6891295256e+00 2.1299199247e+00 3.6891295256e+00 
41500 5.6460319325e+00 -7.6528912729e-03 2.1301012334e+00 -3.6894435615e+00 2.1301012334e+00 3.6894435615e+00 
41600 5.6460292452e+00 -7.5832037398e-03 2.1302808727e+00 -3.6897547060e+00 2.1302808727e+00 3.6897547060e+00 
41700 5.6460266063e+00 -7.5142755669e-03 2.1304588612e+00 -3.6900629911e+00 2.1304588612e+00 3.6900629911e+00 
41800 5.6460240148e+00 -7.4460927819e-03 2.1306352171e+00 -3.6903684484e+00 2.1306352171e+00 3.6903684484e+00 
41900 5.6460214700e+00 -7.3786414297e-03 2.1308099583e+00 -3.6906711090e+00 2.1308099583e+00 3.6906711090e+00 
42000 5.6460189709e+00 -7.3119075983e-03 2.1309831023e+00 -3.6909710033e+00 2.1309831023e+00 3.6909710033e+00 
42100 5.6460165167e+00 -7.2458774442e-03 2.1311546665e+00 -3.6912681611e+00 2.1311546665e+00 3.6912681611e+00 
42200 5.6460141066e+00 -7.1805372170e-03 2.1313246676e+00 -3.6915626117e+00 2.1313246676e+00 3.6915626117e+00 
42300 5.6460117398e+00 -7.1158732822e-03 2.1314931223e+00 -3.6918543838e+00 2.1314931223e+00 3.6918543838e+00 
42400 5.6460094154e+00 -7.0518721443e-03 2.1316600467e+00 -3.6921435054e+00 2.1316600467e+00 3.6921435054e+00 
42500 5.6460071328e+00 -6.9885204678e-03 2.1318254569e+00 -3.6924300041e+00 2.1318254569e+00 3.6924300041e+00 
42600 5.6460048911e+00 -6.9258050975e-03 2.1319893683e+00 -3.6927139070e+00 2.1319893683e+00 3.6927139070e+00 
42700 5.6460026896e+00 -6.8637130776e-03 2.1321517962e+00 -3.6929952405e+00 2.1321517962e+00 3.6929952405e+00 
42800 5.6460005275e+00 -6.8022316702e-03 2.1323127556e+00 -3.6932740304e+00 2.1323127556e+00 3.6932740304e+00 
42900 5.6459984042e+00 -6.7413483718e-03 2.1324722612e+00 -3.6935503022e+00 2.1324722612e+00 3.6935503022e+00 
43000 5.6459963190e+00 -6.6810509289e-03 2.1326303273e+00 -3.6938240807e+00 2.1326303273e+00 3.6938240807e+00 
43100 5.6459942710e+00 -6.6213273533e-03 2.1327869680e+00 -3.6940953903e+00 2.1327869680e+00 3.6940953903e+00 
43200 5.6459922598e+00 -6.5621659347e-03 2.1329421970e+00 -3.6943642548e+00 2.1329421970e+00 3.6943642548e+00 
43300 5.6459902845e+00 -6.5035552535e-03 2.1330960278e+00 -3.6946306976e+00 2.1330960278e+00 3.6946306976e+00 
43400 5.6459883447e+00 -6.4454841914e-03 2.1332484737e+00 -3.6948947416e+00 2.1332484737e+00 3.6948947416e+00 
43500 5.6459864395e+00 -6.3879419415e-03 2.1333995475e+00 -3.6951564091e+00 2.1333995475e+00 3.6951564091e+00 
43600 5.6459845684e+00 -6.3309180168e-03 2.1335492620e+00 -3.6954157222e+00 2.1335492620e+00 3.6954157222e+00 
43700 5.6459827308e+00 -6.2744022580e-03 2.1336976296e+00 -3.6956727024e+00 2.1336976296e+00 3.6956727024e+00 
43800 5.6459809260e+00 -6.2183848395e-03 2.1338446625e+00 -3.6959273709e+00 2.1338446625e+00 3.6959273709e+00 
43900 5.6459791535e+00 -6.1628562747e-03 2.1339903726e+00 -3.6961797482e+00 2.1339903726e+00 3.6961797482e+00 
44000 5.6459774128e+00 -6.1078074203e-03 2.1341347717e+00 -3.6964298548e+00 2.1341347717e+00 3.6964298548e+00 
44100 5.6459757032e+00 -6.0532294790e-03 2.1342778713e+00 -3.6966777105e+00 2.1342778713e+00 3.6966777105e+00 
44200 5.6459740241e+00 -5.9991140018e-03 2.1344196826e+00 -3.6969233350e+00 2.1344196826e+00 3.6969233350e+00 
44300 5.6459723751e+00 -5.9454528886e-03 2.1345602168e+00 -3.6971667474e+00 2.1345602168e+00 3.6971667474e+00 
44400 5.6459707556e+00 -5.8922383884e-03 2.1346994848e+00 -3.6974079666e+00 2.1346994848e+00 3.6974079666e+00 
44500 5.6459691651e+00 -5.8394630979e-03 2.1348374973e+00 -3.6976470112e+00 2.1348374973e+00 3.6976470112e+00 
44600 5.6459676030e+00 -5.7871199598e-03 2.1349742647e+00 -3.6978838993e+00 2.1349742647e+00 3.6978838993e+00 
44700 5.6459660688e+00 -5.7352022596e-03 2.1351097975e+00 -3.6981186490e+00 2.1351097975e+00 3.6981186490e+00 
44800 5.6459645621e+00 -5.6837036223e-03 2.1352441059e+00 -3.6983512780e+00 2.1352441059e+00 3.6983512780e+00 
44900 5.6459630824e+00 -5.6326180072e-03 2.1353771999e+00 -3.6985818035e+00 2.1353771999e+00 3.6985818035e+00 
45000 5.6459616292e+00 -5.5819397030e-03 2.1355090894e+00 -3.6988102428e+00 2.1355090894e+00 3.6988102428e+00 
45100 5.6459602020e+00 -5.5316633214e-03 2.1356397841e+00 -3.6990366127e+00 2.1356397841e+00 3.6990366127e+00 
45200 5.6459588003e+00 -5.4817837904e-03 2.1357692938e+00 -3.6992609300e+00 2.1357692938e+00 3.6992609300e+00 
45300 5.6459574237e+00 -5.4322963469e-03 2.1358976278e+00 -3.6994832111e+00 2.1358976278e+00 3.6994832111e+00 
45400 5.6459560718e+00 -5.3831965283e-03 2.1360247957e+00 -3.6997034723e+00 2.1360247957e+00 3.6997034723e+00 
45500 5.6459547441e+00 -5.3344801644e-03 2.1361508066e+00 -3.6999217296e+00 2.1361508066e+00 3.6999217296e+00 
45600 5.6459534401e+00 -5.2861433675e-03 2.1362756698e+00 -3.7001379990e+00 2.1362756698e+00 3.7001379990e+00 
45700 5.6459521595e+00 -5.2381825234e-03 2.1363993943e+00 -3.7003522962e+00 2.1363993943e+00 3.7003522962e+00 
45800 5.6459509019e+00 -5.1905942811e-03 2.1365219892e+00 -3.7005646368e+00 2.1365219892e+00 3.7005646368e+00 
45900 5.6459496668e+00 -5.1433755420e-03 2.1366434633e+00 -3.7007750362e+00 2.1366434633e+00 3.7007750362e+00 
46000 5.6459484538e+00 -5.0965234498e-03 2.1367638256e+00 -3.7009835097e+00 2.1367638256e+00 3.7009835097e+00 
46100 5.6459472625e+00 -5.0500353786e-03 2.1368830847e+00 -3.7011900725e+00 2.1368830847e+00 3.7011900725e+00 
46200 5.6459460926e+00 -5.0039089222e-03 2.1370012494e+00 -3.7013947397e+00 2.1370012494e+00 3.7013947397e+00 
46300 5.6459449437e+00 -4.9581418820e-03 2.1371183283e+00 -3.7015975263e+00 2.1371183283e+00 3.7015975263e+00 
46400 5.6459438154e+00 -4.9127322558e-03 2.1372343299e+00 -3.7017984471e+00 2.1372343299e+00 3.7017984471e+00 
46500 5.6459427072e+00 -4.8676782255e-03 2.1373492630e+00 -3.7019975170e+00 2.1373492630e+00 3.7019975170e+00 
46600 5.6459416190e+00 -4.8229781454e-03 2.1374631358e+00 -3.7021947506e+00 2.1374631358e+00 3.7021947506e+00 
46700 5.6459405502e+00 -4.7786305300e-03 2.1375759570e+00 -3.7023901625e+00 2.1375759570e+00 3.7023901625e+00 
46800 5.6459395006e+00 -4.7346340424e-03 2.1376877348e+00 -3.7025837674e+00 2.1376877348e+00 3.7025837674e+00 
46900 5.6459384698e+00 -4.6909874819e-03 2.1377984777e+00 -3.7027755797e+00 2.1377984777e+00 3.7027755797e+00 
47000 5.6459374575e+00 -4.6476897722e-03 2.1379081940e+00 -3.7029656140e+00 2.1379081940e+00 3.7029656140e+00 
47100 5.6459364633e+00 -4.6047399499e-03 2.1380168921e+00 -3.7031538845e+00 2.1380168921e+00 3.7031538845e+00 
47200 5.6459354870e+00 -4.5621371525e-03 2.1381245802e+00 -3.7033404057e+00 2.1381245802e+00 3.7033404057e+00 
47300 5.6459345281e+00 -4.5198806070e-03 2.1382312665e+00 -3.7035251920e+00 2.1382312665e+00 3.7035251920e+00 
47400 5.6459335865e+00 -4.4779696186e-03 2.1383369594e+00 -3.7037082575e+00 2.1383369594e+00 3.7037082575e+00 
47500 5.6459326617e+00 -4.4364035598e-03 2.1384416671e+00 -3.7038896165e+00 2.1384416671e+00 3.7038896165e+00 
47600 5.6459317534e+00 -4.3951818593e-03 2.1385453978e+00 -3.7040692833e+00 2.1385453978e+00 3.7040692833e+00 
47700 5.6459308615e+00 -4.3543039914e-03 2.1386481596e+00 -3.7042472720e+00 2.1386481596e+00 3.7042472720e+00 
47800 5.6459299855e+00 -4.3137694662e-03 2.1387499608e+00 -3.7044235968e+00 2.1387499608e+00 3.7044235968e+00 
47900 5.6459291252e+00 -4.2735778191e-03 2.1388508095e+00 -3.7045982719e+00 2.1388508095e+00 3.7045982719e+00 
48000 5.6459282803e+00 -4.2337286016e-03 2.1389507139e+00 -3.7047713114e+00 2.1389507139e+00 3.7047713114e+00 
48100 5.6459274505e+00 -4.1942213721e-03 2.1390496821e+00 -3.7049427293e+00 2.1390496821e+00 3.7049427293e+00 
48200 5.6459266357e+00 -4.1550556865e-03 2.1391477222e+00 -3.7051125397e+00 2.1391477222e+00 3.7051125397e+00 
48300 5.6459258354e+00 -4.1162310903e-03 2.1392448423e+00 -3.7052807568e+00 2.1392448423e+00 3.7052807568e+00 
48400 5.6459250494e+00 -4.0777471104e-03 2.1393410506e+00 -3.7054473944e+00 2.1393410506e+00 3.7054473944e+00 
48500 5.6459242775e+00 -4.0396032474e-03 2.1394363552e+00 -3.7056124667e+00 2.1394363552e+00 3.7056124667e+00 
48600 5.6459235194e+00 -4.0017989681e-03 2.1395307640e+00 -3.7057759876e+00 2.1395307640e+00 3.7057759876e+00 
48700 5.6459227749e+00 -3.9643336993e-03 2.1396242851e+00 -3.7059379710e+00 2.1396242851e+00 3.7059379710e+00 
48800 5.6459220438e+00 -3.9272068209e-03 2.1397169267e+00 -3.7060984308e+00 2.1397169267e+00 3.7060984308e+00 
48900 5.6459213257e+00 -3.8904176602e-03 2.1398086966e+00 -3.7062573811e+00 2.1398086966e+00 3.7062573811e+00 
49000 5.6459206205e+00 -3.8539654865e-03 2.1398996030e+00 -3.7064148355e+00 2.1398996030e+00 3.7064148355e+00 
49100 5.6459199279e+00 -3.8178495059e-03 2.1399896538e+00 -3.7065708081e+00 2.1399896538e+00 3.7065708081e+00 
49200 5.6459192477e+00 -3.7820688570e-03 2.1400788569e+00 -3.7067253124e+00 2.1400788569e+00 3.7067253124e+00 
49300 5.6459185797e+00 -3.7466226066e-03 2.1401672204e+00 -3.7068783624e+00 2.1401672204e+00 3.7068783624e+00 
49400 5.6459179236e+00 -3.7115097458e-03 2.1402547521e+00 -3.7070299717e+00 2.1402547521e+00 3.7070299717e+00 
49500 5.6459172793e+00 -3.6767291873e-03 2.1403414598e+00 -3.7071801540e+00 2.1403414598e+00 3.7071801540e+00 
49600 5.6459166465e+00 -3.6422797621e-03 2.1404273516e+00 -3.7073289229e+00 2.1404273516e+00 3.7073289229e+00 
49700 5.6459160251e+00 -3.6081602177e-03 2.1405124352e+00 -3.7074762919e+00 2.1405124352e+00 3.7074762919e+00 
49800 5.6459154148e+00 -3.5743692153e-03 2.1405967183e+00 -3.7076222747e+00 2.1405967183e+00 3.7076222747e+00 
49900 5.6459148154e+00 -3.5409053293e-03 2.1406802089e+00 -3.7077668846e+00 2.1406802089e+00 3.7077668846e+00 
50000 5.6459142267e+00 -3.5077670453e-03 2.1407629146e+00 -3.7079101350e+00 2.1407629146e+00 3.7079101350e+00 
50100 5.6459136486e+00 -3.4749527599e-03 2.1408448431e+00 -3.7080520393e+00 2.1408448431e+00 3.7080520393e+00 
50200 5.6459130809e+00 -3.4424607802e-03 2.1409260020e+00 -3.7081926108e+00 2.1409260020e+00 3.7081926108e+00 
50300 5.6459125233e+00 -3.4102893238e-03 2.1410063991e+00 -3.7083318625e+00 2.1410063991e+00 3.7083318625e+00 
50400 5.6459119757e+00 -3.3784365193e-03 2.1410860418e+00 -3.7084698077e+00 2.1410860418e+00 3.7084698077e+00 
50500 5.6459114379e+00 -3.3469004068e-03 2.1411649377e+00 -3.7086064594e+00 2.1411649377e+00 3.7086064594e+00 
50600 5.6459109097e+00 -3.3156789392e-03 2.1412430942e+00 -3.7087418305e+00 2.1412430942e+00 3.7087418305e+00 
50700 5.6459103910e+00 -3.2847699836e-03 2.1413205188e+00 -3.7088759339e+00 2.1413205188e+00 3.7088759339e+00 
50800 5.6459098816e+00 -3.2541713226e-03 2.1413972189e+00 -3.7090087823e+00 2.1413972189e+00 3.7090087823e+00 
50900 5.6459093814e+00 -3.2238806570e-03 2.1414732018e+00 -3.7091403885e+00 2.1414732018e+00 3.7091403885e+00 
51000 5.6459088901e+00 -3.1938956071e-03 2.1415484747e+00 -3.7092707651e+00 2.1415484747e+00 3.7092707651e+00 
51100 5.6459084076e+00 -3.1642137159e-03 2.1416230449e+00 -3.7093999245e+00 2.1416230449e+00 3.7093999245e+00 
51200 5.6459079337e+00 -3.1348324517e-03 2.1416969196e+00 -3.7095278791e+00 2.1416969196e+00 3.7095278791e+00 
51300 5.6459074684e+00 -3.1057492107e-03 2.1417701057e+00 -3.7096546412e+00 2.1417701057e+00 3.7096546412e+00 
51400 5.6459070114e+00 -3.0769613206e-03 2.1418426104e+00 -3.7097802230e+00 2.1418426104e+00 3.7097802230e+00 
51500 5.6459065626e+00 -3.0484660435e-03 2.1419144405e+00 -3.7099046365e+00 2.1419144405e+00 3.7099046365e+00 
51600 5.6459061218e+00 -3.0202605797e-03 2.1419856031e+00 -3.7100278937e+00 2.1419856031e+00 3.7100278937e+00 
51700 5.6459056890e+00 -2.9923420713e-03 2.1420561049e+00 -3.7101500064e+00 2.1420561049e+00 3.7101500064e+00 
51800 5.6459052639e+00 -2.9647076058e-03 2.1421259527e+00 -3.7102709863e+00 2.1421259527e+00 3.7102709863e+00 
51900 5.6459048465e+00 -2.9373542203e-03 2.1421951532e+00 -3.7103908451e+00 2.1421951532e+00 3.7103908451e+00 
52000 5.6459044365e+00 -2.9102789052e-03 2.1422637130e+00 -3.7105095942e+00 2.1422637130e+00 3.7105095942e+00 
52100 5.6459040339e+00 -2.8834786085e-03 2.1423316387e+00 -3.7106272449e+00 2.1423316387e+00 3.7106272449e+00 
52200 5.6459036385e+00 -2.8569502396e-03 2.1423989367e+00 -3.7107438085e+00 2.1423989367e+00 3.7107438085e+00 
52300 5.6459032502e+00 -2.8306906740e-03 2.1424656135e+00 -3.7108592960e+00 2.1424656135e+00 3.7108592960e+00 
52400 5.6459028689e+00 -2.8046967572e-03 2.1425316754e+00 -3.7109737185e+00 2.1425316754e+00 3.7109737185e+00 
52500 5.6459024944e+00 -2.7789653090e-03 2.1425971286e+00 -3.7110870868e+00 2.1425971286e+00 3.7110870868e+00 
52600 5.6459021266e+00 -2.7534931280e-03 2.1426619793e+00 -3.7111994116e+00 2.1426619793e+00 3.7111994116e+00 
52700 5.6459017655e+00 -2.7282769953e-03 2.1427262336e+00 -3.7113107033e+00 2.1427262336e+00 3.7113107033e+00 
52800 5.6459014108e+00 -2.7033136793e-03 2.1427898976e+00 -3.7114209726e+00 2.1427898976e+00 3.7114209726e+00 
52900 5.6459010625e+00 -2.6785999398e-03 2.1428529772e+00 -3.7115302297e+00 2.1428529772e+00 3.7115302297e+00 
53000 5.6459007205e+00 -2.6541325317e-03 2.1429154783e+00 -3.7116384848e+00 2.1429154783e+00 3.7116384848e+00 
53100 5.6459003846e+00 -2.6299082098e-03 2.1429774067e+00 -3.7117457479e+00 2.1429774067e+00 3.7117457479e+00 
53200 5.6459000547e+00 -2.6059237321e-03 2.1430387681e+00 -3.7118520289e+00 2.1430387681e+00 3.7118520289e+00 
53300 5.6458997308e+00 -2.5821758643e-03 2.1430995681e+00 -3.7119573376e+00 2.1430995681e+00 3.7119573376e+00 
53400 5.6458994126e+00 -2.5586613834e-03 2.1431598123e+00 -3.7120616837e+00 2.1431598123e+00 3.7120616837e+00 
53500 5.6458991002e+00 -2.5353770815e-03 2.1432195063e+00 -3.7121650766e+00 2.1432195063e+00 3.7121650766e+00 
53600 5.6458987934e+00 -2.5123197692e-03 2.1432786553e+00 -3.7122675258e+00 2.1432786553e+00 3.7122675258e+00 
53700 5.6458984921e+00 -2.4894862796e-03 2.1433372649e+00 -3.7123690405e+00 2.1433372649e+00 3.7123690405e+00 
53800 5.6458981962e+00 -2.4668734713e-03 2.1433953401e+00 -3.7124696298e+00 2.1433953401e+00 3.7124696298e+00 
53900 5.6458979057e+00 -2.4444782317e-03 2.1434528863e+00 -3.7125693027e+00 2.1434528863e+00 3.7125693027e+00 
54000 5.6458976203e+00 -2.4222974802e-03 2.1435099085e+00 -3.7126680681e+00 2.1435099085e+00 3.7126680681e+00 
54100 5.6458973401e+00 -2.4003281712e-03 2.1435664119e+00 -3.7127659347e+00 2.1435664119e+00 3.7127659347e+00 
54200 5.6458970649e+00 -2.3785672969e-03 2.1436224012e+00 -3.7128629112e+00 2.1436224012e+00 3.7128629112e+00 
54300 5.6458967947e+00 -2.3570118898e-03 2.1436778816e+00 -3.7129590059e+00 2.1436778816e+00 3.7129590059e+00 
54400 5.6458965293e+00 -2.3356590254e-03 2.1437328577e+00 -3.7130542274e+00 2.1437328577e+00 3.7130542274e+00 
54500 5.6458962687e+00 -2.3145058244e-03 2.1437873344e+00 -3.7131485837e+00 2.1437873344e+00 3.7131485837e+00 
54600 5.6458960128e+00 -2.2935494550e-03 2.1438413163e+00 -3.7132420832e+00 2.1438413163e+00 3.7132420832e+00 
54700 5.6458957615e+00 -2.2727871348e-03 2.1438948081e+00 -3.7133347337e+00 2.1438948081e+00 3.7133347337e+00 
54800 5.6458955146e+00 -2.2522161328e-03 2.1439478143e+00 -3.7134265432e+00 2.1439478143e+00 3.7134265432e+00 
54900 5.6458952723e+00 -2.2318337706e-03 2.1440003395e+00 -3.7135175195e+00 2.1440003395e+00 3.7135175195e+00 
55000 5.6458950343e+00 -2.2116374247e-03 2.1440523881e+00 -3.7136076703e+00 2.1440523881e+00 3.7136076703e+00 
55100 5.6458948005e+00 -2.1916245271e-03 2.1441039644e+00 -3.7136970031e+00 2.1441039644e+00 3.7136970031e+00 
55200 5.6458945710e+00 -2.1717925668e-03 2.1441550728e+00 -3.7137855254e+00 2.1441550728e+00 3.7137855254e+00 
55300 5.6458943456e+00 -2.1521390906e-03 2.1442057175e+00 -3.7138732445e+00 2.1442057175e+00 3.7138732445e+00 
55400 5.6458941243e+00 -2.1326617042e-03 2.1442559027e+00 -3.7139601678e+00 2.1442559027e+00 3.7139601678e+00 
55500 5.6458939069e+00 -2.1133580728e-03 2.1443056325e+00 -3.7140463024e+00 2.1443056325e+00 3.7140463024e+00 
55600 5.6458936935e+00 -2.0942259212e-03 2.1443549111e+00 -3.7141316554e+00 2.1443549111e+00 3.7141316554e+00 
55700 5.6458934839e+00 -2.0752630349e-03 2.1444037424e+00 -3.7142162338e+00 2.1444037424e+00 3.7142162338e+00 
55800 5.6458932780e+00 -2.0564672594e-03 2.1444521305e+00 -3.7143000443e+00 2.1444521305e+00 3.7143000443e+00 
55900 5.6458930759e+00 -2.0378365011e-03 2.1445000792e+00 -3.7143830940e+00 2.1445000792e+00 3.7143830940e+00 
56000 5.6458928774e+00 -2.0193687265e-03 2.1445475924e+00 -3.7144653894e+00 2.1445475924e+00 3.7144653894e+00 
56100 5.6458926825e+00 -2.0010619625e-03 2.1445946741e+00 -3.7145469371e+00 2.1445946741e+00 3.7145469371e+00 
56200 5.6458924911e+00 -1.9829142956e-03 2.1446413279e+00 -3.7146277439e+00 2.1446413279e+00 3.7146277439e+00 
56300 5.6458923031e+00 -1.9649238716e-03 2.1446875575e+00 -3.7147078160e+00 2.1446875575e+00 3.7147078160e+00 
56400 5.6458921185e+00 -1.9470888949e-03 2.1447333668e+00 -3.7147871600e+00 2.1447333668e+00 3.7147871600e+00 
56500 5.6458919373e+00 -1.9294076280e-03 2.1447787593e+00 -3.7148657821e+00 2.1447787593e+00 3.7148657821e+00 
56600 5.6458917593e+00 -1.9118783900e-03 2.1448237386e+00 -3.7149436886e+00 2.1448237386e+00 3.7149436886e+00 
56700 5.6458915845e+00 -1.8944995564e-03 2.1448683084e+00 -3.7150208856e+00 2.1448683084e+00 3.7150208856e+00 
56800 5.6458914129e+00 -1.8772695573e-03 2.1449124721e+00 -3.7150973794e+00 2.1449124721e+00 3.7150973794e+00 
56900 5.6458912444e+00 -1.8601868769e-03 2.1449562332e+00 -3.7151731759e+00 2.1449562332e+00 3.7151731759e+00 
57000 5.6458910789e+00 -1.8432500517e-03 2.1449995952e+00 -3.7152482811e+00 2.1449995952e+00 3.7152482811e+00 
57100 5.6458909164e+00 -1.8264576693e-03 2.1450425616e+00 -3.7153227010e+00 2.1450425616e+00 3.7153227010e+00 
57200 5.6458907568e+00 -1.8098083670e-03 2.1450851356e+00 -3.7153964415e+00 2.1450851356e+00 3.7153964415e+00 
57300 5.6458906001e+00 -1.7933008306e-03 2.1451273208e+00 -3.7154695083e+00 2.1451273208e+00 3.7154695083e+00 
57400 5.6458904463e+00 -1.7769337922e-03 2.1451691203e+00 -3.7155419072e+00 2.1451691203e+00 3.7155419072e+00 
57500 5.6458902952e+00 -1.7607060291e-03 2.1452105376e+00 -3.7156136440e+00 2.1452105376e+00 3.7156136440e+00 
57600 5.6458901468e+00 -1.7446163619e-03 2.1452515758e+00 -3.7156847242e+00 2.1452515758e+00 3.7156847242e+00 
57700 5.6458900011e+00 -1.7286636531e-03 2.1452922382e+00 -3.7157551536e+00 2.1452922382e+00 3.7157551536e+00 
57800 5.6458898581e+00 -1.7128468047e-03 2.1453325280e+00 -3.7158249376e+00 2.1453325280e+00 3.7158249376e+00 
57900 5.6458897176e+00 -1.6971647572e-03 2.1453724484e+00 -3.7158940818e+00 2.1453724484e+00 3.7158940818e+00 
58000 5.6458895797e+00 -1.6816164871e-03 2.1454120026e+00 -3.7159625917e+00 2.1454120026e+00 3.7159625917e+00 
58100 5.6458894442e+00 -1.6662010057e-03 2.1454511937e+00 -3.7160304727e+00 2.1454511937e+00 3.7160304727e+00 
58200 5.6458893113e+00 -1.6509173566e-03 2.1454900249e+00 -3.7160977302e+00 2.1454900249e+00 3.7160977302e+00 
58300 5.6458891807e+00 -1.6357646146e-03 2.1455284991e+00 -3.7161643696e+00 2.1455284991e+00 3.7161643696e+00 
58400 5.6458890524e+00 -1.6207418831e-03 2.1455666195e+00 -3.7162303961e+00 2.1455666195e+00 3.7162303961e+00 
58500 5.6458889265e+00 -1.6058482928e-03 2.1456043892e+00 -3.7162958151e+00 2.1456043892e+00 3.7162958151e+00 
58600 5.6458888029e+00 -1.5910829997e-03 2.1456418111e+00 -3.7163606317e+00 2.1456418111e+00 3.7163606317e+00 
58700 5.6458886815e+00 -1.5764451830e-03 2.1456788883e+00 -3.7164248513e+00 2.1456788883e+00 3.7164248513e+00 
58800 5.6458885623e+00 -1.5619340439e-03 2.1457156238e+00 -3.7164884790e+00 2.1457156238e+00 3.7164884790e+00 
58900 5.6458884452e+00 -1.5475488032e-03 2.1457520205e+00 -3.7165515199e+00 2.1457520205e+00 3.7165515199e+00 
59000 5.6458883303e+00 -1.5332886999e-03 2.1457880813e+00 -3.7166139791e+00 2.1457880813e+00 3.7166139791e+00 
59100 5.6458882174e+00 -1.5191529894e-03 2.1458238093e+00 -3.7166758618e+00 2.1458238093e+00 3.7166758618e+00 
59200 5.6458881066e+00 -1.5051409418e-03 2.1458592073e+00 -3.7167371729e+00 2.1458592073e+00 3.7167371729e+00 
59300 5.6458879978e+00 -1.4912518403e-03 2.1458942782e+00 -3.7167979175e+00 2.1458942782e+00 3.7167979175e+00 
59400 5.6458878910e+00 -1.4774849794e-03 2.1459290249e+00 -3.7168581006e+00 2.1459290249e+00 3.7168581006e+00 
59500 5.6458877860e+00 -1.4638396638e-03 2.1459634503e+00 -3.7169177271e+00 2.1459634503e+00 3.7169177271e+00 
59600 5.6458876830e+00 -1.4503152064e-03 2.1459975572e+00 -3.7169768020e+00 2.1459975572e+00 3.7169768020e+00 
59700 5.6458875819e+00 -1.4369109271e-03 2.1460313485e+00 -3.7170353302e+00 2.1460313485e+00 3.7170353302e+00 
59800 5.6458874826e+00 -1.4236261514e-03 2.1460648269e+00 -3.7170933165e+00 2.1460648269e+00 3.7170933165e+00 
59900 5.6458873851e+00 -1.4104602089e-03 2.1460979953e+00 -3.7171507658e+00 2.1460979953e+00 3.7171507658e+00 
60000 5.6458872893e+00 -1.3974124324e-03 2.1461308564e+00 -3.7172076830e+00 2.1461308564e+00 3.7172076830e+00 
60100 5.6458871953e+00 -1.3844821561e-03 2.1461634130e+00 -3.7172640727e+00 2.1461634130e+00 3.7172640727e+00 
60200 5.6458871030e+00 -1.3716687149e-03 2.1461956679e+00 -3.7173199398e+00 2.1461956679e+00 3.7173199398e+00 
60300 5.6458870123e+00 -1.3589714434e-03 2.1462276238e+00 -3.7173752891e+00 2.1462276238e+00 3.7173752891e+00 
60400 5.6458869233e+00 -1.3463896743e-03 2.1462592834e+00 -3.7174301251e+00 2.1462592834e+00 3.7174301251e+00 
60500 5.6458868360e+00 -1.3339227380e-03 2.1462906495e+00 -3.7174844527e+00 2.1462906495e+00 3.7174844527e+00 
60600 5.6458867502e+00 -1.3215699613e-03 2.1463217246e+00 -3.7175382764e+00 2.1463217246e+00 3.7175382764e+00 
60700 5.6458866659e+00 -1.3093306670e-03 2.1463525116e+00 -3.7175916010e+00 2.1463525116e+00 3.7175916010e+00 
60800 5.6458865832e+00 -1.2972041728e-03 2.1463830129e+00 -3.7176444309e+00 2.1463830129e+00 3.7176444309e+00 
60900 5.6458865020e+00 -1.2851897906e-03 2.1464132314e+00 -3.7176967708e+00 2.1464132314e+00 3.7176967708e+00 
61000 5.6458864222e+00 -1.2732868262e-03 2.1464431695e+00 -3.7177486252e+00 2.1464431695e+00 3.7177486252e+00 
61100 5.6458863439e+00 -1.2614945783e-03 2.1464728300e+00 -3.7177999986e+00 2.1464728300e+00 3.7177999986e+00 
61200 5.6458862670e+00 -1.2498123383e-03 2.1465022153e+00 -3.7178508955e+00 2.1465022153e+00 3.7178508955e+00 
61300 5.6458861916e+00 -1.2382393898e-03 2.1465313282e+00 -3.7179013204e+00 2.1465313282e+00 3.7179013204e+00 
61400 5.6458861174e+00 -1.2267750083e-03 2.1465601710e+00 -3.7179512777e+00 2.1465601710e+00 3.7179512777e+00 
61500 5.6458860447e+00 -1.2154184606e-03 2.1465887465e+00 -3.7180007718e+00 2.1465887465e+00 3.7180007718e+00 
61600 5.6458859732e+00 -1.2041690050e-03 2.1466170570e+00 -3.7180498071e+00 2.1466170570e+00 3.7180498071e+00 
61700 5.6458859031e+00 -1.1930258907e-03 2.1466451051e+00 -3.7180983879e+00 2.1466451051e+00 3.7180983879e+00 
61800 5.6458858342e+00 -1.1819883580e-03 2.1466728933e+00 -3.7181465185e+00 2.1466728933e+00 3.7181465185e+00 
61900 5.6458857666e+00 -1.1710556379e-03 2.1467004241e+00 -3.7181942031e+00 2.1467004241e+00 3.7181942031e+00 
62000 5.6458857002e+00 -1.1602269526e-03 2.1467276999e+00 -3.7182414462e+00 2.1467276999e+00 3.7182414462e+00 
62100 5.6458856350e+00 -1.1495015148e-03 2.1467547231e+00 -3.7182882517e+00 2.1467547231e+00 3.7182882517e+00 
62200 5.6458855709e+00 -1.1388785286e-03 2.1467814961e+00 -3.7183346240e+00 2.1467814961e+00 3.7183346240e+00 
62300 5.6458855081e+00 -1.1283571888e-03 2.1468080214e+00 -3.7183805672e+00 2.1468080214e+00 3.7183805672e+00 
62400 5.6458854464e+00 -1.1179366819e-03 2.1468343014e+00 -3.7184260854e+00 2.1468343014e+00 3.7184260854e+00 
62500 5.6458853858e+00 -1.1076161856e-03 2.1468603383e+00 -3.7184711827e+00 2.1468603383e+00 3.7184711827e+00 
62600 5.6458853263e+00 -1.0973948698e-03 2.1468861345e+00 -3.7185158631e+00 2.1468861345e+00 3.7185158631e+00 
62700 5.6458852679e+00 -1.0872718962e-03 2.1469116924e+00 -3.7185601306e+00 2.1469116924e+00 3.7185601306e+00 
62800 5.6458852106e+00 -1.0772464191e-03 2.1469370142e+00 -3.7186039893e+00 2.1469370142e+00 3.7186039893e+00 
62900 5.6458851543e+00 -1.0673175856e-03 2.1469621022e+00 -3.7186474430e+00 2.1469621022e+00 3.7186474430e+00 
63000 5.6458850990e+00 -1.0574845359e-03 2.1469869588e+00 -3.7186904958e+00 2.1469869588e+00 3.7186904958e+00 
63100 5.6458850447e+00 -1.0477464042e-03 2.1470115860e+00 -3.7187331514e+00 2.1470115860e+00 3.7187331514e+00 
63200 5.6458849915e+00 -1.0381023187e-03 2.1470359861e+00 -3.7187754137e+00 2.1470359861e+00 3.7187754137e+00 
63300 5.6458849391e+00 -1.0285514021e-03 2.1470601614e+00 -3.7188172865e+00 2.1470601614e+00 3.7188172865e+00 
63400 5.6458848878e+00 -1.0190927726e-03 2.1470841140e+00 -3.7188587736e+00 2.1470841140e+00 3.7188587736e+00 
63500 5.6458848374e+00 -1.0097255437e-03 2.1471078461e+00 -3.7188998787e+00 2.1471078461e+00 3.7188998787e+00 
63600 5.6458847879e+00 -1.0004488254e-03 2.1471313597e+00 -3.7189406056e+00 2.1471313597e+00 3.7189406056e+00 
63700 5.6458847393e+00 -9.9126172446e-04 2.1471546571e+00 -3.7189809578e+00 2.1471546571e+00 3.7189809578e+00 
63800 5.6458846915e+00 -9.8216334503e-04 2.1471777403e+00 -3.7190209391e+00 2.1471777403e+00 3.7190209391e+00 
63900 5.6458846447e+00 -9.7315278920e-04 2.1472006114e+00 -3.7190605530e+00 2.1472006114e+00 3.7190605530e+00 
64000 5.6458845987e+00 -9.6422915762e-04 2.1472232724e+00 -3.7190998030e+00 2.1472232724e+00 3.7190998030e+00 
64100 5.6458845535e+00 -9.5539155013e-04 2.1472457254e+00 -3.7191386927e+00 2.1472457254e+00 3.7191386927e+00 
64200 5.6458845092e+00 -9.4663906632e-04 2.1472679723e+00 -3.7191772255e+00 2.1472679723e+00 3.7191772255e+00 
64300 5.6458844657e+00 -9.3797080616e-04 2.1472900152e+00 -3.7192154049e+00 2.1472900152e+00 3.7192154049e+00 
64400 5.6458844229e+00 -9.2938587058e-04 2.1473118561e+00 -3.7192532344e+00 2.1473118561e+00 3.7192532344e+00 
64500 5.6458843810e+00 -9.2088336210e-04 2.1473334968e+00 -3.7192907172e+00 2.1473334968e+00 3.7192907172e+00 
64600 5.6458843398e+00 -9.1246238539e-04 2.1473549393e+00 -3.7193278567e+00 2.1473549393e+00 3.7193278567e+00 
64700 5.6458842993e+00 -9.0412204786e-04 2.1473761855e+00 -3.7193646563e+00 2.1473761855e+00 3.7193646563e+00 
64800 5.6458842596e+00 -8.9586146028e-04 2.1473972373e+00 -3.7194011191e+00 2.1473972373e+00 3.7194011191e+00 
64900 5.6458842207e+00 -8.8767973730e-04 2.1474180966e+00 -3.7194372484e+00 2.1474180966e+00 3.7194372484e+00 
65000 5.6458841824e+00 -8.7957599802e-04 2.1474387652e+00 -3.7194730474e+00 2.1474387652e+00 3.7194730474e+00 
65100 5.6458841448e+00 -8.7154936654e-04 2.1474592449e+00 -3.7195085193e+00 2.1474592449e+00 3.7195085193e+00 
65200 5.6458841079e+00 -8.6359897251e-04 2.1474795375e+00 -3.7195436671e+00 2.1474795375e+00 3.7195436671e+00 
65300 5.6458840717e+00 -8.5572395157e-04 2.1474996448e+00 -3.7195784940e+00 2.1474996448e+00 3.7195784940e+00 
65400 5.6458840362e+00 -8.4792344595e-04 2.1475195685e+00 -3.7196130029e+00 2.1475195685e+00 3.7196130029e+00 
65500 5.6458840013e+00 -8.4019660484e-04 2.1475393105e+00 -3.7196471970e+00 2.1475393105e+00 3.7196471970e+00 
65600 5.6458839670e+00 -8.3254258494e-04 2.1475588724e+00 -3.7196810792e+00 2.1475588724e+00 3.7196810792e+00 
65700 5.6458839334e+00 -8.2496055081e-04 2.1475782559e+00 -3.7197146524e+00 2.1475782559e+00 3.7197146524e+00 
65800 5.6458839003e+00 -8.1744967536e-04 2.1475974626e+00 -3.7197479195e+00 2.1475974626e+00 3.7197479195e+00 
65900 5.6458838679e+00 -8.1000914021e-04 2.1476164944e+00 -3.7197808835e+00 2.1476164944e+00 3.7197808835e+00 
66000 5.6458838361e+00 -8.0263813605e-04 2.1476353528e+00 -3.7198135471e+00 2.1476353528e+00 3.7198135471e+00 
66100 5.6458838049e+00 -7.9533586303e-04 2.1476540393e+00 -3.7198459132e+00 2.1476540393e+00 3.7198459132e+00 
66200 5.6458837742e+00 -7.8810153104e-04 2.1476725558e+00 -3.7198779846e+00 2.1476725558e+00 3.7198779846e+00 
66300 5.6458837441e+00 -7.8093436002e-04 2.1476909036e+00 -3.7199097640e+00 2.1476909036e+00 3.7199097640e+00 
66400 5.6458837145e+00 -7.7383358028e-04 2.1477090844e+00 -3.7199412541e+00 2.1477090844e+00 3.7199412541e+00 
66500 5.6458836855e+00 -7.6679843267e-04 2.1477270998e+00 -3.7199724576e+00 2.1477270998e+00 3.7199724576e+00 
66600 5.6458836570e+00 -7.5982816890e-04 2.1477449512e+00 -3.7200033771e+00 2.1477449512e+00 3.7200033771e+00 
66700 5.6458836290e+00 -7.5292205168e-04 2.1477626402e+00 -3.7200340154e+00 2.1477626402e+00 3.7200340154e+00 
66800 5.6458836016e+00 -7.4607935491e-04 2.1477801682e+00 -3.7200643749e+00 2.1477801682e+00 3.7200643749e+00 
66900 5.6458835746e+00 -7.3929936385e-04 2.1477975369e+00 -3.7200944583e+00 2.1477975369e+00 3.7200944583e+00 
67000 5.6458835481e+00 -7.3258137525e-04 2.1478147476e+00 -3.7201242680e+00 2.1478147476e+00 3.7201242680e+00 
67100 5.6458835222e+00 -7.2592469744e-04 2.1478318017e+00 -3.7201538066e+00 2.1478318017e+00 3.7201538066e+00 
67200 5.6458834966e+00 -7.1932865042e-04 2.1478487007e+00 -3.7201830766e+00 2.1478487007e+00 3.7201830766e+00 
67300 5.6458834716e+00 -7.1279256593e-04 2.1478654461e+00 -3.7202120804e+00 2.1478654461e+00 3.7202120804e+00 
67400 5.6458834470e+00 -7.0631578744e-04 2.1478820391e+00 -3.7202408204e+00 2.1478820391e+00 3.7202408204e+00 
67500 5.6458834229e+00 -6.9989767026e-04 2.1478984813e+00 -3.7202692991e+00 2.1478984813e+00 3.7202692991e+00 
67600 5.6458833992e+00 -6.9353758142e-04 2.1479147739e+00 -3.7202975188e+00 2.1479147739e+00 3.7202975188e+00 
67700 5.6458833760e+00 -6.8723489972e-04 2.1479309184e+00 -3.7203254818e+00 2.1479309184e+00 3.7203254818e+00 
67800 5.6458833531e+00 -6.8098901565e-04 2.1479469160e+00 -3.7203531905e+00 2.1479469160e+00 3.7203531905e+00 
67900 5.6458833307e+00 -6.7479933132e-04 2.1479627681e+00 -3.7203806472e+00 2.1479627681e+00 3.7203806472e+00 
68000 5.6458833087e+00 -6.6866526040e-04 2.1479784760e+00 -3.7204078541e+00 2.1479784760e+00 3.7204078541e+00 
68100 5.6458832871e+00 -6.6258622796e-04 2.1479940410e+00 -3.7204348135e+00 2.1479940410e+00 3.7204348135e+00 
68200 5.6458832659e+00 -6.5656167040e-04 2.1480094644e+00 -3.7204615275e+00 2.1480094644e+00 3.7204615275e+00 
68300 5.6458832451e+00 -6.5059103528e-04 2.1480247475e+00 -3.7204879986e+00 2.1480247475e+00 3.7204879986e+00 
68400 5.6458832247e+00 -6.4467378118e-04 2.1480398914e+00 -3.7205142287e+00 2.1480398914e+00 3.7205142287e+00 
68500 5.6458832046e+00 -6.3880937750e-04 2.1480548975e+00 -3.7205402200e+00 2.1480548975e+00 3.7205402200e+00 
68600 5.6458831850e+00 -6.3299730432e-04 2.1480697671e+00 -3.7205659747e+00 2.1480697671e+00 3.7205659747e+00 
68700 5.6458831656e+00 -6.2723705218e-04 2.1480845012e+00 -3.7205914950e+00 2.1480845012e+00 3.7205914950e+00 
68800 5.6458831467e+00 -6.2152812185e-04 2.1480991011e+00 -3.7206167828e+00 2.1480991011e+00 3.7206167828e+00 
68900 5.6458831280e+00 -6.1587002412e-04 2.1481135680e+00 -3.7206418403e+00 2.1481135680e+00 3.7206418403e+00 
69000 5.6458831098e+00 -6.1026227961e-04 2.1481279032e+00 -3.7206666695e+00 2.1481279032e+00 3.7206666695e+00 
69100 5.6458830918e+00 -6.0470441847e-04 2.1481421077e+00 -3.7206912725e+00 2.1481421077e+00 3.7206912725e+00 
69200 5.6458830742e+00 -5.9919598014e-04 2.1481561828e+00 -3.7207156512e+00 2.1481561828e+00 3.7207156512e+00 
69300 5.6458830569e+00 -5.9373651315e-04 2.1481701296e+00 -3.7207398077e+00 2.1481701296e+00 3.7207398077e+00 
69400 5.6458830399e+00 -5.8832557477e-04 2.1481839492e+00 -3.7207637440e+00 2.1481839492e+00 3.7207637440e+00 
69500 5.6458830233e+00 -5.8296273082e-04 2.1481976427e+00 -3.7207874619e+00 2.1481976427e+00 3.7207874619e+00 
69600 5.6458830069e+00 -5.7764755535e-04 2.1482112114e+00 -3.7208109635e+00 2.1482112114e+00 3.7208109635e+00 
69700 5.6458829909e+00 -5.7237963036e-04 2.1482246563e+00 -3.7208342507e+00 2.1482246563e+00 3.7208342507e+00 
69800 5.6458829751e+00 -5.6715854554e-04 2.1482379784e+00 -3.7208573254e+00 2.1482379784e+00 3.7208573254e+00 
69900 5.6458829596e+00 -5.6198389800e-04 2.1482511790e+00 -3.7208801894e+00 2.1482511790e+00 3.7208801894e+00 
70000 5.6458829445e+00 -5.5685529194e-04 2.1482642590e+00 -3.7209028447e+00 2.1482642590e+00 3.7209028447e+00 
70100 5.6458829295e+00 -5.5177233840e-04 2.1482772196e+00 -3.7209252932e+00 2.1482772196e+00 3.7209252932e+00 
70200 5.6458829149e+00 -5.4673465499e-04 2.1482900619e+00 -3.7209475365e+00 2.1482900619e+00 3.7209475365e+00 
70300 5.6458829006e+00 -5.4174186554e-04 2.1483027868e+00 -3.7209695767e+00 2.1483027868e+00 3.7209695767e+00 
70400 5.6458828865e+00 -5.3679359991e-04 2.1483153954e+00 -3.7209914155e+00 2.1483153954e+00 3.7209914155e+00 
70500 5.6458828726e+00 -5.3188949363e-04 2.1483278887e+00 -3.7210130546e+00 2.1483278887e+00 3.7210130546e+00 
70600 5.6458828590e+00 -5.2702918768e-04 2.1483402679e+00 -3.7210344960e+00 2.1483402679e+00 3.7210344960e+00 
70700 5.6458828457e+00 -5.2221232818e-04 2.1483525339e+00 -3.7210557412e+00 2.1483525339e+00 3.7210557412e+00 
70800 5.6458828326e+00 -5.1743856615e-04 2.1483646877e+00 -3.7210767922e+00 2.1483646877e+00 3.7210767922e+00 
70900 5.6458828198e+00 -5.1270755724e-04 2.1483767303e+00 -3.7210976507e+00 2.1483767303e+00 3.7210976507e+00 
71000 5.6458828072e+00 -5.0801896146e-04 2.1483886628e+00 -3.7211183183e+00 2.1483886628e+00 3.7211183183e+00 
71100 5.6458827948e+00 -5.0337244295e-04 2.1484004860e+00 -3.7211387968e+00 2.1484004860e+00 3.7211387968e+00 
71200 5.6458827826e+00 -4.9876766972e-04 2.1484122011e+00 -3.7211590879e+00 2.1484122011e+00 3.7211590879e+00 
71300 5.6458827707e+00 -4.9420431341e-04 2.1484238089e+00 -3.7211791932e+00 2.1484238089e+00 3.7211791932e+00 
71400 5.6458827590e+00 -4.8968204908e-04 2.1484353105e+00 -3.7211991145e+00 2.1484353105e+00 3.7211991145e+00 
71500 5.6458827475e+00 -4.8520055497e-04 2.1484467067e+00 -3.7212188534e+00 2.1484467067e+00 3.7212188534e+00 
71600 5.6458827362e+00 -4.8075951229e-04 2.1484579986e+00 -3.7212384116e+00 2.1484579986e+00 3.7212384116e+00 
71700 5.6458827252e+00 -4.7635860503e-04 2.1484691871e+00 -3.7212577906e+00 2.1484691871e+00 3.7212577906e+00 
71800 5.6458827143e+00 -4.7199751973e-04 2.1484802731e+00 -3.7212769921e+00 2.1484802731e+00 3.7212769921e+00 
71900 5.6458827036e+00 -4.6767594530e-04 2.1484912576e+00 -3.7212960178e+00 2.1484912576e+00 3.7212960178e+00 
72000 5.6458826932e+00 -4.6339357290e-04 2.1485021414e+00 -3.7213148691e+00 2.1485021414e+00 3.7213148691e+00 
72100 5.6458826829e+00 -4.5915009566e-04 2.1485129255e+00 -3.7213335478e+00 2.1485129255e+00 3.7213335478e+00 
72200 5.6458826728e+00 -4.5494520863e-04 2.1485236109e+00 -3.7213520553e+00 2.1485236109e+00 3.7213520553e+00 
72300 5.6458826629e+00 -4.5077860855e-04 2.1485341983e+00 -3.7213703932e+00 2.1485341983e+00 3.7213703932e+00 
72400 5.6458826532e+00 -4.4664999374e-04 2.1485446886e+00 -3.7213885631e+00 2.1485446886e+00 3.7213885631e+00 
72500 5.6458826437e+00 -4.4255906398e-04 2.1485550829e+00 -3.7214065664e+00 2.1485550829e+00 3.7214065664e+00 
72600 5.6458826343e+00 -4.3850552035e-04 2.1485653819e+00 -3.7214244048e+00 2.1485653819e+00 3.7214244048e+00 
72700 5.6458826251e+00 -4.3448906516e-04 2.1485755865e+00 -3.7214420797e+00 2.1485755865e+00 3.7214420797e+00 
72800 5.6458826161e+00 -4.3050940180e-04 2.1485856976e+00 -3.7214595927e+00 2.1485856976e+00 3.7214595927e+00 
72900 5.6458826072e+00 -4.2656623470e-04 2.1485957161e+00 -3.7214769451e+00 2.1485957161e+00 3.7214769451e+00 
73000 5.6458825985e+00 -4.2265926920e-04 2.1486056427e+00 -3.7214941386e+00 2.1486056427e+00 3.7214941386e+00 
73100 5.6458825900e+00 -4.1878821147e-04 2.1486154784e+00 -3.7215111745e+00 2.1486154784e+00 3.7215111745e+00 
73200 5.6458825817e+00 -4.1495276850e-04 2.1486252239e+00 -3.7215280542e+00 2.1486252239e+00 3.7215280542e+00 
73300 5.6458825734e+00 -4.1115264797e-04 2.1486348802e+00 -3.7215447793e+00 2.1486348802e+00 3.7215447793e+00 
73400 5.6458825654e+00 -4.0738755826e-04 2.1486444479e+00 -3.7215613512e+00 2.1486444479e+00 3.7215613512e+00 
73500 5.6458825575e+00 -4.0365720835e-04 2.1486539280e+00 -3.7215777713e+00 2.1486539280e+00 3.7215777713e+00 
73600 5.6458825497e+00 -3.9996130785e-04 2.1486633213e+00 -3.7215940409e+00 2.1486633213e+00 3.7215940409e+00 
73700 5.6458825421e+00 -3.9629956692e-04 2.1486726285e+00 -3.7216101614e+00 2.1486726285e+00 3.7216101614e+00 
73800 5.6458825346e+00 -3.9267169629e-04 2.1486818505e+00 -3.7216261344e+00 2.1486818505e+00 3.7216261344e+00 
73900 5.6458825273e+00 -3.8907740722e-04 2.1486909880e+00 -3.7216419610e+00 2.1486909880e+00 3.7216419610e+00 
74000 5.6458825200e+00 -3.8551641153e-04 2.1487000418e+00 -3.7216576427e+00 2.1487000418e+00 3.7216576427e+00 
74100 5.6458825130e+00 -3.8198842156e-04 2.1487090128e+00 -3.7216731808e+00 2.1487090128e+00 3.7216731808e+00 
74200 5.6458825060e+00 -3.7849315023e-04 2.1487179016e+00 -3.7216885766e+00 2.1487179016e+00 3.7216885766e+00 
74300 5.6458824992e+00 -3.7503031101e-04 2.1487267090e+00 -3.7217038315e+00 2.1487267090e+00 3.7217038315e+00 
74400 5.6458824925e+00 -3.7159961796e-04 2.1487354358e+00 -3.7217189468e+00 2.1487354358e+00 3.7217189468e+00 
74500 5.6458824860e+00 -3.6820078578e-04 2.1487440827e+00 -3.7217339238e+00 2.1487440827e+00 3.7217339238e+00 
74600 5.6458824795e+00 -3.6483352980e-04 2.1487526506e+00 -3.7217487637e+00 2.1487526506e+00 3.7217487637e+00 
74700 5.6458824732e+00 -3.6149756604e-04 2.1487611400e+00 -3.7217634678e+00 2.1487611400e+00 3.7217634678e+00 
74800 5.6458824670e+00 -3.5819261125e-04 2.1487695518e+00 -3.7217780374e+00 2.1487695518e+00 3.7217780374e+00 
74900 5.6458824609e+00 -3.5491838294e-04 2.1487778866e+00 -3.7217924738e+00 2.1487778866e+00 3.7217924738e+00 
75000 5.6458824549e+00 -3.5167459948e-04 2.1487861452e+00 -3.7218067781e+00 2.1487861452e+00 3.7218067781e+00 
75100 5.6458824491e+00 -3.4846098006e-04 2.1487943283e+00 -3.7218209517e+00 2.1487943283e+00 3.7218209517e+00 
75200 5.6458824433e+00 -3.4527724484e-04 2.1488024366e+00 -3.7218349956e+00 2.1488024366e+00 3.7218349956e+00 
75300 5.6458824377e+00 -3.4212311496e-04 2.1488104708e+00 -3.7218489112e+00 2.1488104708e+00 3.7218489112e+00 
75400 5.6458824321e+00 -3.3899831259e-04 2.1488184316e+00 -3.7218626997e+00 2.1488184316e+00 3.7218626997e+00 
75500 5.6458824267e+00 -3.3590256102e-04 2.1488263196e+00 -3.7218763621e+00 2.1488263196e+00 3.7218763621e+00 
75600 5.6458824213e+00 -3.3283558471e-04 2.1488341355e+00 -3.7218898998e+00 2.1488341355e+00 3.7218898998e+00 
75700 5.6458824161e+00 -3.2979710937e-04 2.1488418801e+00 -3.7219033138e+00 2.1488418801e+00 3.7219033138e+00 
75800 5.6458824110e+00 -3.2678686199e-04 2.1488495539e+00 -3.7219166052e+00 2.1488495539e+00 3.7219166052e+00 
75900 5.6458824059e+00 -3.2380457095e-04 2.1488571577e+00 -3.7219297754e+00 2.1488571577e+00 3.7219297754e+00 
76000 5.6458824010e+00 -3.2084996606e-04 2.1488646921e+00 -3.7219428252e+00 2.1488646921e+00 3.7219428252e+00 
76100 5.6458823961e+00 -3.1792277863e-04 2.1488721576e+00 -3.7219557560e+00 2.1488721576e+00 3.7219557560e+00 
76200 5.6458823913e+00 -3.1502274155e-04 2.1488795551e+00 -3.7219685687e+00 2.1488795551e+00 3.7219685687e+00 
76300 5.6458823866e+00 -3.1214958935e-04 2.1488868850e+00 -3.7219812645e+00 2.1488868850e+00 3.7219812645e+00 
76400 5.6458823820e+00 -3.0930305825e-04 2.1488941481e+00 -3.7219938445e+00 2.1488941481e+00 3.7219938445e+00 
76500 5.6458823775e+00 -3.0648288624e-04 2.1489013449e+00 -3.7220063097e+00 2.1489013449e+00 3.7220063097e+00 
76600 5.6458823731e+00 -3.0368881317e-04 2.1489084760e+00 -3.7220186613e+00 2.1489084760e+00 3.7220186613e+00 
76700 5.6458823688e+00 -3.0092058075e-04 2.1489155421e+00 -3.7220309002e+00 2.1489155421e+00 3.7220309002e+00 
76800 5.6458823645e+00 -2.9817793266e-04 2.1489225438e+00 -3.7220430274e+00 2.1489225438e+00 3.7220430274e+00 
76900 5.6458823603e+00 -2.9546061461e-04 2.1489294817e+00 -3.7220550441e+00 2.1489294817e+00 3.7220550441e+00 
77000 5.6458823562e+00 -2.9276837434e-04 2.1489363563e+00 -3.7220669513e+00 2.1489363563e+00 3.7220669513e+00 
77100 5.6458823522e+00 -2.9010096176e-04 2.1489431682e+00 -3.7220787499e+00 2.1489431682e+00 3.7220787499e+00 
77200 5.6458823482e+00 -2.8745812894e-04 2.1489499181e+00 -3.7220904410e+00 2.1489499181e+00 3.7220904410e+00 
77300 5.6458823444e+00 -2.8483963017e-04 2.1489566064e+00 -3.7221020256e+00 2.1489566064e+00 3.7221020256e+00 
77400 5.6458823406e+00 -2.8224522202e-04 2.1489632338e+00 -3.7221135046e+00 2.1489632338e+00 3.7221135046e+00 
77500 5.6458823368e+00 -2.7967466339e-04 2.1489698008e+00 -3.7221248790e+00 2.1489698008e+00 3.7221248790e+00 
77600 5.6458823332e+00 -2.7712771553e-04 2.1489763080e+00 -3.7221361497e+00 2.1489763080e+00 3.7221361497e+00 
77700 5.6458823296e+00 -2.7460414210e-04 2.1489827559e+00 -3.7221473178e+00 2.1489827559e+00 3.7221473178e+00 
77800 5.6458823260e+00 -2.7210370919e-04 2.1489891451e+00 -3.7221583842e+00 2.1489891451e+00 3.7221583842e+00 
77900 5.6458823226e+00 -2.6962618536e-04 2.1489954761e+00 -3.7221693498e+00 2.1489954761e+00 3.7221693498e+00 
78000 5.6458823192e+00 -2.6717134165e-04 2.1490017494e+00 -3.7221802155e+00 2.1490017494e+00 3.7221802155e+00 
78100 5.6458823158e+00 -2.6473895167e-04 2.1490079655e+00 -3.7221909822e+00 2.1490079655e+00 3.7221909822e+00 
78200 5.6458823126e+00 -2.6232879153e-04 2.1490141251e+00 -3.7222016509e+00 2.1490141251e+00 3.7222016509e+00 
78300 5.6458823093e+00 -2.5994063994e-04 2.1490202286e+00 -3.7222122224e+00 2.1490202286e+00 3.7222122224e+00 
78400 5.6458823062e+00 -2.5757427817e-04 2.1490262765e+00 -3.7222226976e+00 2.1490262765e+00 3.7222226976e+00 
78500 5.6458823031e+00 -2.5522949011e-04 2.1490322693e+00 -3.7222330775e+00 2.1490322693e+00 3.7222330775e+00 
78600 5.6458823001e+00 -2.5290606224e-04 2.1490382075e+00 -3.7222433629e+00 2.1490382075e+00 3.7222433629e+00 
78700 5.6458822971e+00 -2.5060378368e-04 2.1490440917e+00 -3.7222535545e+00 2.1490440917e+00 3.7222535545e+00 
78800 5.6458822942e+00 -2.4832244613e-04 2.1490499223e+00 -3.7222636534e+00 2.1490499223e+00 3.7222636534e+00 
78900 5.6458822913e+00 -2.4606184395e-04 2.1490556998e+00 -3.7222736603e+00 2.1490556998e+00 3.7222736603e+00 
79000 5.6458822885e+00 -2.4382177410e-04 2.1490614247e+00 -3.7222835761e+00 2.1490614247e+00 3.7222835761e+00 
79100 5.6458822857e+00 -2.4160203615e-04 2.1490670974e+00 -3.7222934016e+00 2.1490670974e+00 3.7222934016e+00 
79200 5.6458822830e+00 -2.3940243227e-04 2.1490727185e+00 -3.7223031376e+00 2.1490727185e+00 3.7223031376e+00 
79300 5.6458822803e+00 -2.3722276723e-04 2.1490782884e+00 -3.7223127850e+00 2.1490782884e+00 3.7223127850e+00 
79400 5.6458822777e+00 -2.3506284840e-04 2.1490838076e+00 -3.7223223445e+00 2.1490838076e+00 3.7223223445e+00 
79500 5.6458822752e+00 -2.3292248568e-04 2.1490892765e+00 -3.7223318169e+00 2.1490892765e+00 3.7223318169e+00 
79600 5.6458822727e+00 -2.3080149152e-04 2.1490946956e+00 -3.7223412031e+00 2.1490946956e+00 3.7223412031e+00 
79700 5.6458822702e+00 -2.2869968090e-04 2.1491000654e+00 -3.7223505037e+00 2.1491000654e+00 3.7223505037e+00 
79800 5.6458822678e+00 -2.2661687131e-04 2.1491053862e+00 -3.7223597197e+00 2.1491053862e+00 3.7223597197e+00 
79900 5.6458822654e+00 -2.2455288270e-04 2.1491106585e+00 -3.7223688517e+00 2.1491106585e+00 3.7223688517e+00 
80000 5.6458822631e+00 -2.2250753744e-04 2.1491158829e+00 -3.7223779005e+00 2.1491158829e+00 3.7223779005e+00 
80100 5.6458822608e+00 -2.2048066035e-04 2.1491210596e+00 -3.7223868668e+00 2.1491210596e+00 3.7223868668e+00 
80200 5.6458822585e+00 -2.1847207862e-04 2.1491261891e+00 -3.7223957515e+00 2.1491261891e+00 3.7223957515e+00 
80300 5.6458822563e+00 -2.1648162176e-04 2.1491312720e+00 -3.7224045552e+00 2.1491312720e+00 3.7224045552e+00 
80400 5.6458822542e+00 -2.1450912164e-04 2.1491363084e+00 -3.7224132786e+00 2.1491363084e+00 3.7224132786e+00 
80500 5.6458822521e+00 -2.1255441235e-04 2.1491412990e+00 -3.7224219226e+00 2.1491412990e+00 3.7224219226e+00 
80600 5.6458822500e+00 -2.1061733026e-04 2.1491462441e+00 -3.7224304877e+00 2.1491462441e+00 3.7224304877e+00 
80700 5.6458822479e+00 -2.0869771389e-04 2.1491511442e+00 -3.7224389748e+00 2.1491511442e+00 3.7224389748e+00 
80800 5.6458822459e+00 -2.0679540395e-04 2.1491559995e+00 -3.7224473846e+00 2.1491559995e+00 3.7224473846e+00 
80900 5.6458822440e+00 -2.0491024324e-04 2.1491608106e+00 -3.7224557176e+00 2.1491608106e+00 3.7224557176e+00 
81000 5.6458822421e+00 -2.0304207662e-04 2.1491655778e+00 -3.7224639747e+00 2.1491655778e+00 3.7224639747e+00 
81100 5.6458822402e+00 -2.0119075100e-04 2.1491703016e+00 -3.7224721564e+00 2.1491703016e+00 3.7224721564e+00 
81200 5.6458822383e+00 -1.9935611524e-04 2.1491749822e+00 -3.7224802636e+00 2.1491749822e+00 3.7224802636e+00 
81300 5.6458822365e+00 -1.9753802014e-04 2.1491796202e+00 -3.7224882968e+00 2.1491796202e+00 3.7224882968e+00 
81400 5.6458822347e+00 -1.9573631839e-04 2.1491842159e+00 -3.7224962567e+00 2.1491842159e+00 3.7224962567e+00 
81500 5.6458822330e+00 -1.9395086452e-04 2.1491887696e+00 -3.7225041440e+00 2.1491887696e+00 3.7225041440e+00 
81600 5.6458822312e+00 -1.9218151485e-04 2.1491932818e+00 -3.7225119593e+00 2.1491932818e+00 3.7225119593e+00 
81700 5.6458822295e+00 -1.9042812746e-04 2.1491977528e+00 -3.7225197034e+00 2.1491977528e+00 3.7225197034e+00 
81800 5.6458822279e+00 -1.8869056211e-04 2.1492021830e+00 -3.7225273767e+00 2.1492021830e+00 3.7225273767e+00 
81900 5.6458822263e+00 -1.8696868022e-04 2.1492065728e+00 -3.7225349801e+00 2.1492065728e+00 3.7225349801e+00 
82000 5.6458822247e+00 -1.8526234485e-04 2.1492109225e+00 -3.7225425140e+00 2.1492109225e+00 3.7225425140e+00 
82100 5.6458822231e+00 -1.8357142058e-04 2.1492152325e+00 -3.7225499791e+00 2.1492152325e+00 3.7225499791e+00 
82200 5.6458822216e+00 -1.8189577353e-04 2.1492195032e+00 -3.7225573761e+00 2.1492195032e+00 3.7225573761e+00 
82300 5.6458822201e+00 -1.8023527130e-04 2.1492237349e+00 -3.7225647056e+00 2.1492237349e+00 3.7225647056e+00 
82400 5.6458822186e+00 -1.7858978290e-04 2.1492279279e+00 -3.7225719682e+00 2.1492279279e+00 3.7225719682e+00 
82500 5.6458822172e+00 -1.7695917875e-04 2.1492320826e+00 -3.7225791644e+00 2.1492320826e+00 3.7225791644e+00 
82600 5.6458822157e+00 -1.7534333060e-04 2.1492361994e+00 -3.7225862949e+00 2.1492361994e+00 3.7225862949e+00 
82700 5.6458822143e+00 -1.7374211151e-04 2.1492402786e+00 -3.7225933603e+00 2.1492402786e+00 3.7225933603e+00 
82800 5.6458822130e+00 -1.7215539579e-04 2.1492443206e+00 -3.7226003611e+00 2.1492443206e+00 3.7226003611e+00 
82900 5.6458822116e+00 -1.7058305899e-04 2.1492483256e+00 -3.7226072980e+00 2.1492483256e+00 3.7226072980e+00 
83000 5.6458822103e+00 -1.6902497782e-04 2.1492522940e+00 -3.7226141716e+00 2.1492522940e+00 3.7226141716e+00 
83100 5.6458822090e+00 -1.6748103016e-04 2.1492562262e+00 -3.7226209823e+00 2.1492562262e+00 3.7226209823e+00 
83200 5.6458822078e+00 -1.6595109500e-04 2.1492601225e+00 -3.7226277308e+00 2.1492601225e+00 3.7226277308e+00 
83300 5.6458822065e+00 -1.6443505237e-04 2.1492639831e+00 -3.7226344177e+00 2.1492639831e+00 3.7226344177e+00 
83400 5.6458822053e+00 -1.6293278339e-04 2.1492678085e+00 -3.7226410434e+00 2.1492678085e+00 3.7226410434e+00 
83500 5.6458822041e+00 -1.6144417015e-04 2.1492715990e+00 -3.7226476086e+00 2.1492715990e+00 3.7226476086e+00 
83600 5.6458822029e+00 -1.5996909574e-04 2.1492753547e+00 -3.7226541139e+00 2.1492753547e+00 3.7226541139e+00 
83700 5.6458822018e+00 -1.5850744418e-04 2.1492790762e+00 -3.7226605596e+00 2.1492790762e+00 3.7226605596e+00 
83800 5.6458822006e+00 -1.5705910041e-04 2.1492827637e+00 -3.7226669465e+00 2.1492827637e+00 3.7226669465e+00 
83900 5.6458821995e+00 -1.5562395027e-04 2.1492864174e+00 -3.7226732750e+00 2.1492864174e+00 3.7226732750e+00 
84000 5.6458821984e+00 -1.5420188046e-04 2.1492900378e+00 -3.7226795456e+00 2.1492900378e+00 3.7226795456e+00 
84100 5.6458821974e+00 -1.5279277852e-04 2.1492936251e+00 -3.7226857590e+00 2.1492936251e+00 3.7226857590e+00 
84200 5.6458821963e+00 -1.5139653281e-04 2.1492971796e+00 -3.7226919155e+00 2.1492971796e+00 3.7226919155e+00 
84300 5.6458821953e+00 -1.5001303247e-04 2.1493007016e+00 -3.7226980158e+00 2.1493007016e+00 3.7226980158e+00 
84400 5.6458821943e+00 -1.4864216744e-04 2.1493041914e+00 -3.7227040604e+00 2.1493041914e+00 3.7227040604e+00 
84500 5.6458821933e+00 -1.4728382838e-04 2.1493076493e+00 -3.7227100496e+00 2.1493076493e+00 3.7227100496e+00 
84600 5.6458821923e+00 -1.4593790673e-04 2.1493110756e+00 -3.7227159842e+00 2.1493110756e+00 3.7227159842e+00 
84700 5.6458821914e+00 -1.4460429461e-04 2.1493144706e+00 -3.7227218645e+00 2.1493144706e+00 3.7227218645e+00 
84800 5.6458821905e+00 -1.4328288487e-04 2.1493178345e+00 -3.7227276910e+00 2.1493178345e+00 3.7227276910e+00 
84900 5.6458821895e+00 -1.4197357106e-04 2.1493211678e+00 -3.7227334643e+00 2.1493211678e+00 3.7227334643e+00 
85000 5.6458821886e+00 -1.4067624737e-04 2.1493244705e+00 -3.7227391849e+00 2.1493244705e+00 3.7227391849e+00 
85100 5.6458821878e+00 -1.3939080870e-04 2.1493277431e+00 -3.7227448531e+00 2.1493277431e+00 3.7227448531e+00 
85200 5.6458821869e+00 -1.3811715059e-04 2.1493309857e+00 -3.7227504696e+00 2.1493309857e+00 3.7227504696e+00 
85300 5.6458821861e+00 -1.3685516923e-04 2.1493341988e+00 -3.7227560347e+00 2.1493341988e+00 3.7227560347e+00 
85400 5.6458821852e+00 -1.3560476146e-04 2.1493373824e+00 -3.7227615490e+00 2.1493373824e+00 3.7227615490e+00 
85500 5.6458821844e+00 -1.3436582472e-04 2.1493405370e+00 -3.7227670129e+00 2.1493405370e+00 3.7227670129e+00 
85600 5.6458821836e+00 -1.3313825713e-04 2.1493436628e+00 -3.7227724268e+00 2.1493436628e+00 3.7227724268e+00 
85700 5.6458821828e+00 -1.3192195741e-04 2.1493467599e+00 -3.7227777913e+00 2.1493467599e+00 3.7227777913e+00 
85800 5.6458821821e+00 -1.3071682488e-04 2.1493498288e+00 -3.7227831068e+00 2.1493498288e+00 3.7227831068e+00 
85900 5.6458821813e+00 -1.2952275951e-04 2.1493528697e+00 -3.7227883737e+00 2.1493528697e+00 3.7227883737e+00 
86000 5.6458821806e+00 -1.2833966187e-04 2.1493558827e+00 -3.7227935925e+00 2.1493558827e+00 3.7227935925e+00 
86100 5.6458821798e+00 -1.2716743314e-04 2.1493588683e+00 -3.7227987636e+00 2.1493588683e+00 3.7227987636e+00 
86200 5.6458821791e+00 -1.2600597513e-04 2.1493618265e+00 -3.7228038874e+00 2.1493618265e+00 3.7228038874e+00 
86300 5.6458821784e+00 -1.2485519025e-04 2.1493647578e+00 -3.7228089645e+00 2.1493647578e+00 3.7228089645e+00 
86400 5.6458821777e+00 -1.2371498153e-04 2.1493676623e+00 -3.7228139952e+00 2.1493676623e+00 3.7228139952e+00 
86500 5.6458821771e+00 -1.2258525262e-04 2.1493705402e+00 -3.7228189799e+00 2.1493705402e+00 3.7228189799e+00 
86600 5.6458821764e+00 -1.2146590779e-04 2.1493733919e+00 -3.7228239191e+00 2.1493733919e+00 3.7228239191e+00 
86700 5.6458821758e+00 -1.2035685194e-04 2.1493762175e+00 -3.7228288132e+00 2.1493762175e+00 3.7228288132e+00 
86800 5.6458821751e+00 -1.1925799056e-04 2.1493790173e+00 -3.7228336626e+00 2.1493790173e+00 3.7228336626e+00 
86900 5.6458821745e+00 -1.1816922982e-04 2.1493817915e+00 -3.7228384678e+00 2.1493817915e+00 3.7228384678e+00 
87000 5.6458821739e+00 -1.1709047650e-04 2.1493845404e+00 -3.7228432290e+00 2.1493845404e+00 3.7228432290e+00 
87100 5.6458821733e+00 -1.1602163801e-04 2.1493872642e+00 -3.7228479468e+00 2.1493872642e+00 3.7228479468e+00 
87200 5.6458821727e+00 -1.1496262241e-04 2.1493899632e+00 -3.7228526215e+00 2.1493899632e+00 3.7228526215e+00 
87300 5.6458821721e+00 -1.1391333841e-04 2.1493926375e+00 -3.7228572536e+00 2.1493926375e+00 3.7228572536e+00 
87400 5.6458821716e+00 -1.1287369538e-04 2.1493952874e+00 -3.7228618433e+00 2.1493952874e+00 3.7228618433e+00 
87500 5.6458821710e+00 -1.1184360334e-04 2.1493979131e+00 -3.7228663912e+00 2.1493979131e+00 3.7228663912e+00 
87600 5.6458821705e+00 -1.1082297298e-04 2.1494005148e+00 -3.7228708975e+00 2.1494005148e+00 3.7228708975e+00 
87700 5.6458821699e+00 -1.0981171565e-04 2.1494030928e+00 -3.7228753628e+00 2.1494030928e+00 3.7228753628e+00 
87800 5.6458821694e+00 -1.0880974339e-04 2.1494056473e+00 -3.7228797872e+00 2.1494056473e+00 3.7228797872e+00 
87900 5.6458821689e+00 -1.0781696890e-04 2.1494081785e+00 -3.7228841713e+00 2.1494081785e+00 3.7228841713e+00 
88000 5.6458821684e+00 -1.0683330559e-04 2.1494106865e+00 -3.7228885154e+00 2.1494106865e+00 3.7228885154e+00 
88100 5.6458821679e+00 -1.0585866755e-04 2.1494131717e+00 -3.7228928199e+00 2.1494131717e+00 3.7228928199e+00 
88200 5.6458821674e+00 -1.0489296956e-04 2.1494156342e+00 -3.7228970850e+00 2.1494156342e+00 3.7228970850e+00 
88300 5.6458821669e+00 -1.0393612712e-04 2.1494180743e+00 -3.7229013113e+00 2.1494180743e+00 3.7229013113e+00 
88400 5.6458821665e+00 -1.0298805643e-04 2.1494204920e+00 -3.7229054990e+00 2.1494204920e+00 3.7229054990e+00 
88500 5.6458821660e+00 -1.0204867440e-04 2.1494228877e+00 -3.7229096485e+00 2.1494228877e+00 3.7229096485e+00 
88600 5.6458821656e+00 -1.0111789865e-04 2.1494252616e+00 -3.7229137602e+00 2.1494252616e+00 3.7229137602e+00 
88700 5.6458821651e+00 -1.0019564754e-04 2.1494276138e+00 -3.7229178343e+00 2.1494276138e+00 3.7229178343e+00 
88800 5.6458821647e+00 -9.9281840129e-05 2.1494299446e+00 -3.7229218713e+00 2.1494299446e+00 3.7229218713e+00 
88900 5.6458821643e+00 -9.8376396236e-05 2.1494322541e+00 -3.7229258715e+00 2.1494322541e+00 3.7229258715e+00 
89000 5.6458821639e+00 -9.7479236387e-05 2.1494345425e+00 -3.7229298351e+00 2.1494345425e+00 3.7229298351e+00 
89100 5.6458821635e+00 -9.6590281856e-05 2.1494368100e+00 -3.7229337627e+00 2.1494368100e+00 3.7229337627e+00 
89200 5.6458821631e+00 -9.5709454648e-05 2.1494390569e+00 -3.7229376544e+00 2.1494390569e+00 3.7229376544e+00 
89300 5.6458821627e+00 -9.4836677510e-05 2.1494412833e+00 -3.7229415106e+00 2.1494412833e+00 3.7229415106e+00 
89400 5.6458821623e+00 -9.3971873933e-05 2.1494434894e+00 -3.7229453316e+00 2.1494434894e+00 3.7229453316e+00 
89500 5.6458821619e+00 -9.3114968149e-05 2.1494456753e+00 -3.7229491178e+00 2.1494456753e+00 3.7229491178e+00 
89600 5.6458821615e+00 -9.2265885136e-05 2.1494478414e+00 -3.7229528695e+00 2.1494478414e+00 3.7229528695e+00 
89700 5.6458821612e+00 -9.1424550614e-05 2.1494499876e+00 -3.7229565869e+00 2.1494499876e+00 3.7229565869e+00 
89800 5.6458821608e+00 -9.0590891050e-05 2.1494521143e+00 -3.7229602704e+00 2.1494521143e+00 3.7229602704e+00 
89900 5.6458821605e+00 -8.9764833657e-05 2.1494542216e+00 -3.7229639204e+00 2.1494542216e+00 3.7229639204e+00 
90000 5.6458821601e+00 -8.8946306390e-05 2.1494563097e+00 -3.7229675371e+00 2.1494563097e+00 3.7229675371e+00 
90100 5.6458821598e+00 -8.8135237947e-05 2.1494583788e+00 -3.7229711208e+00 2.1494583788e+00 3.7229711208e+00 
90200 5.6458821595e+00 -8.7331557769e-05 2.1494604289e+00 -3.7229746718e+00 2.1494604289e+00 3.7229746718e+00 
90300 5.6458821592e+00 -8.6535196031e-05 2.1494624604e+00 -3.7229781904e+00 2.1494624604e+00 3.7229781904e+00 
90400 5.6458821588e+00 -8.5746083657e-05 2.1494644734e+00 -3.7229816769e+00 2.1494644734e+00 3.7229816769e+00 
90500 5.6458821585e+00 -8.4964152295e-05 2.1494664679e+00 -3.7229851317e+00 2.1494664679e+00 3.7229851317e+00 
90600 5.6458821582e+00 -8.4189334326e-05 2.1494684443e+00 -3.7229885549e+00 2.1494684443e+00 3.7229885549e+00 
90700 5.6458821579e+00 -8.3421562859e-05 2.1494704027e+00 -3.7229919469e+00 2.1494704027e+00 3.7229919469e+00 
90800 5.6458821576e+00 -8.2660771726e-05 2.1494723432e+00 -3.7229953080e+00 2.1494723432e+00 3.7229953080e+00 
90900 5.6458821574e+00 -8.1906895477e-05 2.1494742661e+00 -3.7229986384e+00 2.1494742661e+00 3.7229986384e+00 
91000 5.6458821571e+00 -8.1159869379e-05 2.1494761713e+00 -3.7230019384e+00 2.1494761713e+00 3.7230019384e+00 
91100 5.6458821568e+00 -8.0419629408e-05 2.1494780592e+00 -3.7230052083e+00 2.1494780592e+00 3.7230052083e+00 
91200 5.6458821565e+00 -7.9686112235e-05 2.1494799299e+00 -3.7230084485e+00 2.1494799299e+00 3.7230084485e+00 
91300 5.6458821563e+00 -7.8959255239e-05 2.1494817835e+00 -3.7230116590e+00 2.1494817835e+00 3.7230116590e+00 
91400 5.6458821560e+00 -7.8238996484e-05 2.1494836202e+00 -3.7230148403e+00 2.1494836202e+00 3.7230148403e+00 
91500 5.6458821558e+00 -7.7525274719e-05 2.1494854402e+00 -3.7230179925e+00 2.1494854402e+00 3.7230179925e+00 
91600 5.6458821555e+00 -7.6818029370e-05 2.1494872435e+00 -3.7230211160e+00 2.1494872435e+00 3.7230211160e+00 
91700 5.6458821553e+00 -7.6117200539e-05 2.1494890304e+00 -3.7230242110e+00 2.1494890304e+00 3.7230242110e+00 
91800 5.6458821550e+00 -7.5422728983e-05 2.1494908010e+00 -3.7230272777e+00 2.1494908010e+00 3.7230272777e+00 
91900 5.6458821548e+00 -7.4734556122e-05 2.1494925554e+00 -3.7230303165e+00 2.1494925554e+00 3.7230303165e+00 
92000 5.6458821546e+00 -7.4052624020e-05 2.1494942939e+00 -3.7230333275e+00 2.1494942939e+00 3.7230333275e+00 
92100 5.6458821543e+00 -7.3376875380e-05 2.1494960164e+00 -3.7230363111e+00 2.1494960164e+00 3.7230363111e+00 
92200 5.6458821541e+00 -7.2707253536e-05 2.1494977233e+00 -3.7230392674e+00 2.1494977233e+00 3.7230392674e+00 
92300 5.6458821539e+00 -7.2043702449e-05 2.1494994145e+00 -3.7230421968e+00 2.1494994145e+00 3.7230421968e+00 
92400 5.6458821537e+00 -7.1386166690e-05 2.1495010903e+00 -3.7230450994e+00 2.1495010903e+00 3.7230450994e+00 
92500 5.6458821535e+00 -7.0734591438e-05 2.1495027509e+00 -3.7230479755e+00 2.1495027509e+00 3.7230479755e+00 
92600 5.6458821533e+00 -7.0088922469e-05 2.1495043962e+00 -3.7230508254e+00 2.1495043962e+00 3.7230508254e+00 
92700 5.6458821532e+00 -7.0127102216e-05 2.1495043962e+00 -3.7230508254e+00 2.1495043962e+00 3.7230508254e+00 
92800 5.6458821531e+00 -7.0169603803e-05 2.1495043962e+00 -3.7230508254e+00 2.1495043962e+00 3.7230508254e+00 
92900 5.6458821530e+00 -7.0216587997e-05 2.1495043962e+00 -3.7230508254e+00 2.1495043962e+00 3.7230508254e+00 
93000 5.6458821529e+00 -7.0268220950e-05 2.1495043962e+00 -3.7230508254e+00 2.1495043962e+00 3.7230508254e+00 
93100 5.6458821528e+00 -7.0324670300e-05 2.1495043962e+00 -3.7230508254e+00 2.1495043962e+00 3.7230508254e+00 
93200 5.6458821527e+00 -7.0386101719e-05 2.1495043962e+00 -3.7230508254e+00 2.1495043962e+00 3.7230508254e+00 
93300 5.6458821527e+00 -7.0452675875e-05 2.1495043962e+00 -3.7230508254e+00 2.1495043962e+00 3.7230508254e+00 
93400 5.6458821526e+00 -7.0524545782e-05 2.1495043962e+00 -3.7230508254e+00 2.1495043962e+00 3.7230508254e+00 
93500 5.6458821525e+00 -7.0601854492e-05 2.1495043962e+00 -3.7230508254e+00 2.1495043962e+00 3.7230508254e+00 
93600 5.6458821524e+00 -7.0684733111e-05 2.1495043962e+00 -3.7230508254e+00 2.1495043962e+00 3.7230508254e+00 
93700 5.6458821523e+00 -7.0773299122e-05 2.1495043962e+00 -3.7230508254e+00 2.1495043962e+00 3.7230508254e+00 
93800 5.6458821522e+00 -7.0183027055e-05 2.1495060425e+00 -3.7230536768e+00 2.1495060425e+00 3.7230536768e+00 
93900 5.6458821521e+00 -7.0278501271e-05 2.1495060425e+00 -3.7230536768e+00 2.1495060425e+00 3.7230536768e+00 
94000 5.6458821520e+00 -7.0379718517e-05 2.1495060425e+00 -3.7230536768e+00 2.1495060425e+00 3.7230536768e+00 
94100 5.6458821520e+00 -7.0486723228e-05 2.1495060425e+00 -3.7230536768e+00 2.1495060425e+00 3.7230536768e+00 
94200 5.6458821519e+00 -7.0599545348e-05 2.1495060425e+00 -3.7230536768e+00 2.1495060425e+00 3.7230536768e+00 
94300 5.6458821518e+00 -7.0718199584e-05 2.1495060425e+00 -3.7230536768e+00 2.1495060425e+00 3.7230536768e+00 
94400 5.6458821517e+00 -7.0158586907e-05 2.1495076875e+00 -3.7230565260e+00 2.1495076875e+00 3.7230565260e+00 
94500 5.6458821516e+00 -7.0284132040e-05 2.1495076875e+00 -3.7230565260e+00 2.1495076875e+00 3.7230565260e+00 
94600 5.6458821516e+00 -7.0415255111e-05 2.1495076875e+00 -3.7230565260e+00 2.1495076875e+00 3.7230565260e+00 
94700 5.6458821515e+00 -7.0551899043e-05 2.1495076875e+00 -3.7230565260e+00 2.1495076875e+00 3.7230565260e+00 
94800 5.6458821514e+00 -7.0693994195e-05 2.1495076875e+00 -3.7230565260e+00 2.1495076875e+00 3.7230565260e+00 
94900 5.6458821514e+00 -7.0841458120e-05 2.1495076875e+00 -3.7230565260e+00 2.1495076875e+00 3.7230565260e+00 
95000 5.6458821512e+00 -7.0308903019e-05 2.1495093354e+00 -3.7230593802e+00 2.1495093354e+00 3.7230593802e+00 
95100 5.6458821512e+00 -7.0462043664e-05 2.1495093354e+00 -3.7230593802e+00 2.1495093354e+00 3.7230593802e+00 
95200 5.6458821511e+00 -7.0620026184e-05 2.1495093354e+00 -3.7230593802e+00 2.1495093354e+00 3.7230593802e+00 
95300 5.6458821511e+00 -7.0782710314e-05 2.1495093354e+00 -3.7230593802e+00 2.1495093354e+00 3.7230593802e+00 
95400 5.6458821510e+00 -7.0265223036e-05 2.1495109818e+00 -3.7230622320e+00 2.1495109818e+00 3.7230622320e+00 
95500 5.6458821509e+00 -7.0432098774e-05 2.1495109818e+00 -3.7230622320e+00 2.1495109818e+00 3.7230622320e+00 
95600 5.6458821509e+00 -7.0603003784e-05 2.1495109818e+00 -3.7230622320e+00 2.1495109818e+00 3.7230622320e+00 
95700 5.6458821508e+00 -7.0777758430e-05 2.1495109818e+00 -3.7230622320e+00 2.1495109818e+00 3.7230622320e+00 
95800 5.6458821507e+00 -7.0271502618e-05 2.1495126282e+00 -3.7230650836e+00 2.1495126282e+00 3.7230650836e+00 
95900 5.6458821506e+00 -7.0448645107e-05 2.1495126282e+00 -3.7230650836e+00 2.1495126282e+00 3.7230650836e+00 
96000 5.6458821506e+00 -7.0628873429e-05 2.1495126282e+00 -3.7230650836e+00 2.1495126282e+00 3.7230650836e+00 
96100 5.6458821506e+00 -7.0811986088e-05 2.1495126282e+00 -3.7230650836e+00 2.1495126282e+00 3.7230650836e+00 
96200 5.6458821504e+00 -7.0312774327e-05 2.1495142754e+00 -3.7230679365e+00 2.1495142754e+00 3.7230679365e+00 
96300 5.6458821504e+00 -7.0496292939e-05 2.1495142754e+00 -3.7230679365e+00 2.1495142754e+00 3.7230679365e+00 
96400 5.6458821504e+00 -7.0681890923e-05 2.1495142754e+00 -3.7230679365e+00 2.1495142754e+00 3.7230679365e+00 
96500 5.6458821503e+00 -7.0869360893e-05 2.1495142754e+00 -3.7230679365e+00 2.1495142754e+00 3.7230679365e+00 
96600 5.6458821502e+00 -7.0372937234e-05 2.1495159239e+00 -3.7230707918e+00 2.1495159239e+00 3.7230707918e+00 
96700 5.6458821502e+00 -7.0558781680e-05 2.1495159239e+00 -3.7230707918e+00 2.1495159239e+00 3.7230707918e+00 
96800 5.6458821502e+00 -7.0745696988e-05 2.1495159239e+00 -3.7230707918e+00 2.1495159239e+00 3.7230707918e+00 
96900 5.6458821500e+00 -7.0249118660e-05 2.1495175695e+00 -3.7230736421e+00 2.1495175695e+00 3.7230736421e+00 
97000 5.6458821500e+00 -7.0432829923e-05 2.1495175695e+00 -3.7230736421e+00 2.1495175695e+00 3.7230736421e+00 
97100 5.6458821500e+00 -7.0616833308e-05 2.1495175695e+00 -3.7230736421e+00 2.1495175695e+00 3.7230736421e+00 
97200 5.6458821499e+00 -7.0800943137e-05 2.1495175695e+00 -3.7230736421e+00 2.1495175695e+00 3.7230736421e+00 
97300 5.6458821498e+00 -7.0300084662e-05 2.1495192164e+00 -3.7230764946e+00 2.1495192164e+00 3.7230764946e+00 
97400 5.6458821498e+00 -7.0479130844e-05 2.1495192164e+00 -3.7230764946e+00 2.1495192164e+00 3.7230764946e+00 
97500 5.6458821498e+00 -7.0657581500e-05 2.1495192164e+00 -3.7230764946e+00 2.1495192164e+00 3.7230764946e+00 
97600 5.6458821497e+00 -7.0835280407e-05 2.1495192164e+00 -3.7230764946e+00 2.1495192164e+00 3.7230764946e+00 
97700 5.6458821496e+00 -7.0326852444e-05 2.1495208641e+00 -3.7230793485e+00 2.1495208641e+00 3.7230793485e+00 
97800 5.6458821496e+00 -7.0497863986e-05 2.1495208641e+00 -3.7230793485e+00 2.1495208641e+00 3.7230793485e+00 
97900 5.6458821496e+00 -7.0667519586e-05 2.1495208641e+00 -3.7230793485e+00 2.1495208641e+00 3.7230793485e+00 
98000 5.6458821496e+00 -7.0835698348e-05 2.1495208641e+00 -3.7230793485e+00 2.1495208641e+00 3.7230793485e+00 
98100 5.6458821494e+00 -7.0317058269e-05 2.1495225118e+00 -3.7230822025e+00 2.1495225118e+00 3.7230822025e+00 
98200 5.6458821494e+00 -7.0477209781e-05 2.1495225118e+00 -3.7230822025e+00 2.1495225118e+00 3.7230822025e+00 
98300 5.6458821494e+00 -7.0635392349e-05 2.1495225118e+00 -3.7230822025e+00 2.1495225118e+00 3.7230822025e+00 
98400 5.6458821494e+00 -7.0791524001e-05 2.1495225118e+00 -3.7230822025e+00 2.1495225118e+00 3.7230822025e+00 
98500 5.6458821493e+00 -7.0260730269e-05 2.1495241585e+00 -3.7230850546e+00 2.1495241585e+00 3.7230850546e+00 
98600 5.6458821492e+00 -7.0407808326e-05 2.1495241585e+00 -3.7230850546e+00 2.1495241585e+00 3.7230850546e+00 
98700 5.6458821492e+00 -7.0552462989e-05 2.1495241585e+00 -3.7230850546e+00 2.1495241585e+00 3.7230850546e+00 
98800 5.6458821492e+00 -7.0694652591e-05 2.1495241585e+00 -3.7230850546e+00 2.1495241585e+00 3.7230850546e+00 
98900 5.6458821492e+00 -7.0834348812e-05 2.1495241585e+00 -3.7230850546e+00 2.1495241585e+00 3.7230850546e+00 
99000 5.6458821491e+00 -7.0286315802e-05 2.1495258062e+00 -3.7230879085e+00 2.1495258062e+00 3.7230879085e+00 
99100 5.6458821491e+00 -7.0416226769e-05 2.1495258062e+00 -3.7230879085e+00 2.1495258062e+00 3.7230879085e+00 
99200 5.6458821491e+00 -7.0506182672e-05 2.1495258062e+00 -3.7230879085e+00 2.1495258062e+00 3.7230879085e+00 
99200 5.6458821491e+00 -7.0506182672e-05 2.1495258062e+00 -3.7230879085e+00 2.1495258062e+00 3.7230879085e+00 
