# step Hamiltonian StressXX CellTensor1 CellTensor2 CellTensor3 CellTensor4 
0 5.4636100030e+00 2.0286725237e-01 2.8378601290e+00 -4.9153179282e+00 2.8378601290e+00 4.9153179282e+00 
100 5.4407525908e+00 2.3153437989e-01 2.8378601290e+00 -4.9153179282e+00 2.8378601290e+00 4.9153179282e+00 
200 5.4231913545e+00 2.5849358533e-01 2.8337817245e+00 -4.9082539244e+00 2.8337817245e+00 4.9082539244e+00 
300 5.4109813130e+00 2.8395769150e-01 2.8292220202e+00 -4.9003562850e+00 2.8292220202e+00 4.9003562850e+00 
400 5.4036796981e+00 3.0805826062e-01 2.8242052065e+00 -4.8916669087e+00 2.8242052065e+00 4.8916669087e+00 
500 5.4008102541e+00 3.3088588373e-01 2.8187530723e+00 -4.8822235351e+00 2.8187530723e+00 4.8822235351e+00 
600 5.4017976775e+00 3.5238647758e-01 2.8128857472e+00 -4.8720610300e+00 2.8128857472e+00 4.8720610300e+00 
700 5.4058534929e+00 3.7215465971e-01 2.8066242877e+00 -4.8612158640e+00 2.8066242877e+00 4.8612158640e+00 
800 5.4117784345e+00 3.8905451183e-01 2.7999969704e+00 -4.8497370138e+00 2.7999969704e+00 4.8497370138e+00 
900 5.4176767840e+00 4.0068352666e-01 2.7930524410e+00 -4.8377087361e+00 2.7930524410e+00 4.8377087361e+00 
1000 5.4207713493e+00 4.0319979202e-01 2.7858826583e+00 -4.8252903081e+00 2.7858826583e+00 4.8252903081e+00 
1100 5.4179486705e+00 3.9306399694e-01 2.7786493173e+00 -4.8127617940e+00 2.7786493173e+00 4.8127617940e+00 
1200 5.4075516095e+00 3.7129987063e-01 2.7715793928e+00 -4.8005163256e+00 2.7715793928e+00 4.8005163256e+00 
1300 5.3908305906e+00 3.4494128400e-01 2.7648837530e+00 -4.7889191372e+00 2.7648837530e+00 4.7889191372e+00 
1400 5.3706934088e+00 3.2127087415e-01 2.7586482054e+00 -4.7781188519e+00 2.7586482054e+00 4.7781188519e+00 
1500 5.3494722025e+00 3.0290220516e-01 2.7528272817e+00 -4.7680367164e+00 2.7528272817e+00 4.7680367164e+00 
1600 5.3283126772e+00 2.8897290263e-01 2.7473274614e+00 -4.7585107482e+00 2.7473274614e+00 4.7585107482e+00 
1700 5.3076334678e+00 2.7782233190e-01 2.7420699787e+00 -4.7494045211e+00 2.7420699787e+00 4.7494045211e+00 
1800 5.2875591924e+00 2.6817692176e-01 2.7370056180e+00 -4.7406327910e+00 2.7370056180e+00 4.7406327910e+00 
1900 5.2681176046e+00 2.5928207346e-01 2.7321079888e+00 -4.7321498484e+00 2.7321079888e+00 4.7321498484e+00 
2000 5.2493079689e+00 2.5074417232e-01 2.7273642728e+00 -4.7239334912e+00 2.7273642728e+00 4.7239334912e+00 
2100 5.2311219994e+00 2.4237691761e-01 2.7227687440e+00 -4.7159738019e+00 2.7227687440e+00 4.7159738019e+00 
2200 5.2135497919e+00 2.3410325807e-01 2.7183190313e+00 -4.7082666734e+00 2.7183190313e+00 4.7082666734e+00 
2300 5.1965812817e+00 2.2590074172e-01 2.7140141401e+00 -4.7008103831e+00 2.7140141401e+00 4.7008103831e+00 
2400 5.1802064158e+00 2.1777276235e-01 2.7098534595e+00 -4.6936038730e+00 2.7098534595e+00 4.6936038730e+00 
2500 5.1644149933e+00 2.0973386082e-01 2.7058362891e+00 -4.6866459297e+00 2.7058362891e+00 4.6866459297e+00 
2600 5.1491964670e+00 2.0180236347e-01 2.7019616326e+00 -4.6799348278e+00 2.7019616326e+00 4.6799348278e+00 
2700 5.1345397889e+00 1.9399678947e-01 2.6982281263e+00 -4.6734682052e+00 2.6982281263e+00 4.6734682052e+00 
2800 5.1204333198e+00 1.8633418161e-01 2.6946340334e+00 -4.6672430536e+00 2.6946340334e+00 4.6672430536e+00 
2900 5.1068647972e+00 1.7882941429e-01 2.6911772693e+00 -4.6612557626e+00 2.6911772693e+00 4.6612557626e+00 
3000 5.0938213528e+00 1.7149499387e-01 2.6878554411e+00 -4.6555021874e+00 2.6878554411e+00 4.6555021874e+00 
3100 5.0812895640e+00 1.6434110196e-01 2.6846658903e+00 -4.6499777233e+00 2.6846658903e+00 4.6499777233e+00 
3200 5.0692555305e+00 1.5737575264e-01 2.6816057360e+00 -4.6446773805e+00 2.6816057360e+00 4.6446773805e+00 
3300 5.0577049639e+00 1.5060499693e-01 2.6786719150e+00 -4.6395958537e+00 2.6786719150e+00 4.6395958537e+00 
3400 5.0466232846e+00 1.4403313975e-01 2.6758612195e+00 -4.6347275861e+00 2.6758612195e+00 4.6347275861e+00 
3500 5.0359957187e+00 1.3766295199e-01 2.6731703293e+00 -4.6300668277e+00 2.6731703293e+00 4.6300668277e+00 
3600 5.0258073914e+00 1.3149586904e-01 2.6705958426e+00 -4.6256076859e+00 2.6705958426e+00 4.6256076859e+00 
3700 5.0160434136e+00 1.2553217233e-01 2.6681343012e+00 -4.6213441710e+00 2.6681343012e+00 4.6213441710e+00 
3800 5.0066889607e+00 1.1977115264e-01 2.6657822136e+00 -4.6172702359e+00 2.6657822136e+00 4.6172702359e+00 
3900 4.9977293425e+00 1.1421125564e-01 2.6635360752e+00 -4.6133798100e+00 2.6635360752e+00 4.6133798100e+00 
4000 4.9891500626e+00 1.0885021074e-01 2.6613923850e+00 -4.6096668298e+00 2.6613923850e+00 4.6096668298e+00 
4100 4.9809368704e+00 1.0368514452e-01 2.6593476610e+00 -4.6061252638e+00 2.6593476610e+00 4.6061252638e+00 
4200 4.9730758025e+00 9.8712680343e-02 2.6573984524e+00 -4.6027491355e+00 2.6573984524e+00 4.6027491355e+00 
4300 4.9655532173e+00 9.3929025543e-02 2.6555413509e+00 -4.5995325413e+00 2.6555413509e+00 4.5995325413e+00 
4400 4.9583558217e+00 8.9330047626e-02 2.6537729997e+00 -4.5964696672e+00 2.6537729997e+00 4.5964696672e+00 
4500 4.9514706914e+00 8.4911340750e-02 2.6520901014e+00 -4.5935548020e+00 2.6520901014e+00 4.5935548020e+00 
4600 4.9448852852e+00 8.0668283667e-02 2.6504894244e+00 -4.5907823480e+00 2.6504894244e+00 4.5907823480e+00 
4700 4.9385874543e+00 7.6596090157e-02 2.6489678081e+00 -4.5881468312e+00 2.6489678081e+00 4.5881468312e+00 
4800 4.9325654479e+00 7.2689852887e-02 2.6475221673e+00 -4.5856429079e+00 2.6475221673e+00 4.5856429079e+00 
4900 4.9268079145e+00 6.8944581505e-02 2.6461494957e+00 -4.5832653710e+00 2.6461494957e+00 4.5832653710e+00 
5000 4.9213039000e+00 6.5355235680e-02 2.6448468686e+00 -4.5810091547e+00 2.6448468686e+00 4.5810091547e+00 
5100 4.9160428444e+00 6.1916753721e-02 2.6436114446e+00 -4.5788693376e+00 2.6436114446e+00 4.5788693376e+00 
5200 4.9110145754e+00 5.8624077315e-02 2.6424404673e+00 -4.5768411454e+00 2.6424404673e+00 4.5768411454e+00 
5300 4.9062093007e+00 5.5472172856e-02 2.6413312659e+00 -4.5749199522e+00 2.6413312659e+00 4.5749199522e+00 
5400 4.9016175997e+00 5.2456049785e-02 2.6402812557e+00 -4.5731012812e+00 2.6402812557e+00 4.5731012812e+00 
5500 4.8972304131e+00 4.9570776307e-02 2.6392879381e+00 -4.5713808045e+00 2.6392879381e+00 4.5713808045e+00 
5600 4.8930390331e+00 4.6811492777e-02 2.6383489000e+00 -4.5697543429e+00 2.6383489000e+00 4.5697543429e+00 
5700 4.8890350922e+00 4.4173423064e-02 2.6374618136e+00 -4.5682178642e+00 2.6374618136e+00 4.5682178642e+00 
5800 4.8852105522e+00 4.1651884103e-02 2.6366244350e+00 -4.5667674818e+00 2.6366244350e+00 4.5667674818e+00 
5900 4.8815576931e+00 3.9242293864e-02 2.6358346030e+00 -4.5653994528e+00 2.6358346030e+00 4.5653994528e+00 
6000 4.8780691017e+00 3.6940177910e-02 2.6350902383e+00 -4.5641101753e+00 2.6350902383e+00 4.5641101753e+00 
6100 4.8747376609e+00 3.4741174723e-02 2.6343893412e+00 -4.5628961859e+00 2.6343893412e+00 4.5628961859e+00 
6200 4.8715565385e+00 3.2641039919e-02 2.6337299906e+00 -4.5617541572e+00 2.6337299906e+00 4.5617541572e+00 
6300 4.8685191767e+00 3.0635649494e-02 2.6331103417e+00 -4.5606808937e+00 2.6331103417e+00 4.5606808937e+00 
6400 4.8656192819e+00 2.8721002212e-02 2.6325286243e+00 -4.5596733297e+00 2.6325286243e+00 4.5596733297e+00 
6500 4.8628508146e+00 2.6893221219e-02 2.6319831410e+00 -4.5587285248e+00 2.6319831410e+00 4.5587285248e+00 
6600 4.8602079797e+00 2.5148554995e-02 2.6314722648e+00 -4.5578436613e+00 2.6314722648e+00 4.5578436613e+00 
6700 4.8576852175e+00 2.3483377695e-02 2.6309944373e+00 -4.5570160398e+00 2.6309944373e+00 4.5570160398e+00 
6800 4.8552771943e+00 2.1894188972e-02 2.6305481666e+00 -4.5562430763e+00 2.6305481666e+00 4.5562430763e+00 
6900 4.8529787942e+00 2.0377613332e-02 2.6301320250e+00 -4.5555222979e+00 2.6301320250e+00 4.5555222979e+00 
7000 4.8507851109e+00 1.8930399079e-02 2.6297446469e+00 -4.5548513393e+00 2.6297446469e+00 4.5548513393e+00 
7100 4.8486914397e+00 1.7549416905e-02 2.6293847266e+00 -4.5542279391e+00 2.6293847266e+00 4.5542279391e+00 
7200 4.8466932697e+00 1.6231658165e-02 2.6290510165e+00 -4.5536499362e+00 2.6290510165e+00 4.5536499362e+00 
7300 4.8447862771e+00 1.4974232880e-02 2.6287423245e+00 -4.5531152660e+00 2.6287423245e+00 4.5531152660e+00 
7400 4.8429663180e+00 1.3774367504e-02 2.6284575122e+00 -4.5526219567e+00 2.6284575122e+00 4.5526219567e+00 
7500 4.8412294215e+00 1.2629402498e-02 2.6281954928e+00 -4.5521681257e+00 2.6281954928e+00 4.5521681257e+00 
7600 4.8395717839e+00 1.1536789723e-02 2.6279552289e+00 -4.5517519764e+00 2.6279552289e+00 4.5517519764e+00 
7700 4.8379897620e+00 1.0494089695e-02 2.6277357307e+00 -4.5513717944e+00 2.6277357307e+00 4.5513717944e+00 
7800 4.8364798676e+00 9.4989687234e-03 2.6275360539e+00 -4.5510259440e+00 2.6275360539e+00 4.5510259440e+00 
7900 4.8350387613e+00 8.5491959535e-03 2.6273552978e+00 -4.5507128654e+00 2.6273552978e+00 4.5507128654e+00 
8000 4.8336632478e+00 7.6426403323e-03 2.6271926037e+00 -4.5504310708e+00 2.6271926037e+00 4.5504310708e+00 
8100 4.8323502701e+00 6.7772675221e-03 2.6270471524e+00 -4.5501791418e+00 2.6270471524e+00 4.5501791418e+00 
8200 4.8310969043e+00 5.9511367735e-03 2.6269181632e+00 -4.5499557261e+00 2.6269181632e+00 4.5499557261e+00 
8300 4.8299003550e+00 5.1623977759e-03 2.6268048918e+00 -4.5497595342e+00 2.6268048918e+00 4.5497595342e+00 
8400 4.8287579504e+00 4.4092874993e-03 2.6267066286e+00 -4.5495893374e+00 2.6267066286e+00 4.5495893374e+00 
8500 4.8276671377e+00 3.6901270384e-03 2.6266226972e+00 -4.5494439639e+00 2.6266226972e+00 4.5494439639e+00 
8600 4.8266254786e+00 3.0033184728e-03 2.6265524528e+00 -4.5493222970e+00 2.6265524528e+00 4.5493222970e+00 
8700 4.8256306447e+00 2.3473417509e-03 2.6264952808e+00 -4.5492232721e+00 2.6264952808e+00 4.5492232721e+00 
8800 4.8246804138e+00 1.7207516082e-03 2.6264505951e+00 -4.5491458743e+00 2.6264505951e+00 4.5491458743e+00 
8900 4.8237726656e+00 1.1221745281e-03 2.6264178370e+00 -4.5490891357e+00 2.6264178370e+00 4.5490891357e+00 
9000 4.8229053773e+00 5.5030575101e-04 2.6263964739e+00 -4.5490521335e+00 2.6263964739e+00 4.5490521335e+00 
9100 4.8220766203e+00 3.9063391770e-06 2.6263859974e+00 -4.5490339878e+00 2.6263859974e+00 4.5490339878e+00 
9200 4.8212845563e+00 -5.1817260103e-04 2.6263859974e+00 -4.5490339878e+00 2.6263859974e+00 4.5490339878e+00 
9300 4.8205274334e+00 -1.0171008941e-03 2.6263958622e+00 -4.5490510741e+00 2.6263958622e+00 4.5490510741e+00 
9400 4.8198035830e+00 -1.4939102753e-03 2.6264152252e+00 -4.5490846119e+00 2.6264152252e+00 4.5490846119e+00 
9500 4.8191114159e+00 -1.9496043989e-03 2.6264436654e+00 -4.5491338717e+00 2.6264436654e+00 4.5491338717e+00 
9600 4.8184494193e+00 -2.3851348014e-03 2.6264807804e+00 -4.5491981567e+00 2.6264807804e+00 4.5491981567e+00 
9700 4.8178161533e+00 -2.8014034038e-03 2.6265261861e+00 -4.5492768017e+00 2.6265261861e+00 4.5492768017e+00 
9800 4.8172102480e+00 -3.1992649381e-03 2.6265795153e+00 -4.5493691706e+00 2.6265795153e+00 4.5493691706e+00 
9900 4.8166304004e+00 -3.5795292963e-03 2.6266404173e+00 -4.5494746559e+00 2.6266404173e+00 4.5494746559e+00 
10000 4.8160753713e+00 -3.9429637980e-03 2.6267085565e+00 -4.5495926765e+00 2.6267085565e+00 4.5495926765e+00 
10100 4.8155439826e+00 -4.2902953779e-03 2.6267836121e+00 -4.5497226766e+00 2.6267836121e+00 4.5497226766e+00 
10200 4.8150351144e+00 -4.6222126908e-03 2.6268652769e+00 -4.5498641242e+00 2.6268652769e+00 4.5498641242e+00 
10300 4.8145477028e+00 -4.9393681355e-03 2.6269532570e+00 -4.5500165103e+00 2.6269532570e+00 4.5500165103e+00 
10400 4.8140807364e+00 -5.2423797970e-03 2.6270472708e+00 -4.5501793470e+00 2.6270472708e+00 4.5501793470e+00 
10500 4.8136332549e+00 -5.5318333086e-03 2.6271470485e+00 -4.5503521670e+00 2.6271470485e+00 4.5503521670e+00 
10600 4.8132043457e+00 -5.8082836346e-03 2.6272523313e+00 -4.5505345222e+00 2.6272523313e+00 4.5505345222e+00 
10700 4.8127931426e+00 -6.0722567744e-03 2.6273628713e+00 -4.5507259829e+00 2.6273628713e+00 4.5507259829e+00 
10800 4.8123988227e+00 -6.3242513898e-03 2.6274784301e+00 -4.5509261367e+00 2.6274784301e+00 4.5509261367e+00 
10900 4.8120206046e+00 -6.5647403576e-03 2.6275987793e+00 -4.5511345877e+00 2.6275987793e+00 4.5511345877e+00 
11000 4.8116577466e+00 -6.7941722480e-03 2.6277236993e+00 -4.5513509555e+00 2.6277236993e+00 4.5513509555e+00 
11100 4.8113095444e+00 -7.0129727318e-03 2.6278529791e+00 -4.5515748745e+00 2.6278529791e+00 4.5515748745e+00 
11200 4.8109753294e+00 -7.2215459175e-03 2.6279864156e+00 -4.5518059934e+00 2.6279864156e+00 4.5518059934e+00 
11300 4.8106544666e+00 -7.4202756214e-03 2.6281238137e+00 -4.5520439740e+00 2.6281238137e+00 4.5520439740e+00 
11400 4.8103463534e+00 -7.6095265712e-03 2.6282649856e+00 -4.5522884908e+00 2.6282649856e+00 4.5522884908e+00 
11500 4.8100504175e+00 -7.7896455467e-03 2.6284097502e+00 -4.5525392305e+00 2.6284097502e+00 4.5525392305e+00 
11600 4.8097661154e+00 -7.9609624594e-03 2.6285579333e+00 -4.5527958912e+00 2.6285579333e+00 4.5527958912e+00 
11700 4.8094929311e+00 -8.1237913726e-03 2.6287093669e+00 -4.5530581818e+00 2.6287093669e+00 4.5530581818e+00 
11800 4.8092303745e+00 -8.2784314650e-03 2.6288638890e+00 -4.5533258219e+00 2.6288638890e+00 4.5533258219e+00 
11900 4.8089779799e+00 -8.4251679395e-03 2.6290213432e+00 -4.5535985406e+00 2.6290213432e+00 4.5535985406e+00 
12000 4.8087353051e+00 -8.5642728797e-03 2.6291815787e+00 -4.5538760767e+00 2.6291815787e+00 4.5538760767e+00 
12100 4.8085019297e+00 -8.6960060565e-03 2.6293444500e+00 -4.5541581779e+00 2.6293444500e+00 4.5541581779e+00 
12200 4.8082774543e+00 -8.8206156860e-03 2.6295098162e+00 -4.5544446007e+00 2.6295098162e+00 4.5544446007e+00 
12300 4.8080614991e+00 -8.9383391422e-03 2.6296775416e+00 -4.5547351095e+00 2.6296775416e+00 4.5547351095e+00 
12400 4.8078537031e+00 -9.0494036256e-03 2.6298474946e+00 -4.5550294769e+00 2.6298474946e+00 4.5550294769e+00 
12500 4.8076537227e+00 -9.1540267906e-03 2.6300195484e+00 -4.5553274827e+00 2.6300195484e+00 4.5553274827e+00 
12600 4.8074612312e+00 -9.2524173324e-03 2.6301935799e+00 -4.5556289142e+00 2.6301935799e+00 4.5556289142e+00 
12700 4.8072759177e+00 -9.3447755371e-03 2.6303694704e+00 -4.5559335655e+00 2.6303694704e+00 4.5559335655e+00 
12800 4.8070974861e+00 -9.4312937955e-03 2.6305471048e+00 -4.5562412372e+00 2.6305471048e+00 4.5562412372e+00 
12900 4.8069256545e+00 -9.5121570837e-03 2.6307263717e+00 -4.5565517366e+00 2.6307263717e+00 4.5565517366e+00 
13000 4.8067601544e+00 -9.5875434103e-03 2.6309071633e+00 -4.5568648769e+00 2.6309071633e+00 4.5568648769e+00 
13100 4.8066007298e+00 -9.6576242353e-03 2.6310893753e+00 -4.5571804772e+00 2.6310893753e+00 4.5571804772e+00 
13200 4.8064471369e+00 -9.7225648584e-03 2.6312729064e+00 -4.5574983625e+00 2.6312729064e+00 4.5574983625e+00 
13300 4.8062991428e+00 -9.7825247817e-03 2.6314576588e+00 -4.5578183630e+00 2.6314576588e+00 4.5578183630e+00 
13400 4.8061565257e+00 -9.8376580464e-03 2.6316435375e+00 -4.5581403144e+00 2.6316435375e+00 4.5581403144e+00 
13500 4.8060190738e+00 -9.8881135457e-03 2.6318304507e+00 -4.5584640574e+00 2.6318304507e+00 4.5584640574e+00 
13600 4.8058865847e+00 -9.9340353157e-03 2.6320183091e+00 -4.5587894378e+00 2.6320183091e+00 4.5587894378e+00 
13700 4.8057588653e+00 -9.9755628041e-03 2.6322070265e+00 -4.5591163060e+00 2.6322070265e+00 4.5591163060e+00 
13800 4.8056357309e+00 -1.0012831121e-02 2.6323965193e+00 -4.5594445170e+00 2.6323965193e+00 4.5594445170e+00 
13900 4.8055170052e+00 -1.0045971269e-02 2.6325867062e+00 -4.5597739306e+00 2.6325867062e+00 4.5597739306e+00 
14000 4.8054025194e+00 -1.0075110360e-02 2.6327775089e+00 -4.5601044105e+00 2.6327775089e+00 4.5601044105e+00 
14100 4.8052921120e+00 -1.0100371807e-02 2.6329688512e+00 -4.5604358250e+00 2.6329688512e+00 4.5604358250e+00 
14200 4.8051856285e+00 -1.0121875516e-02 2.6331606593e+00 -4.5607680464e+00 2.6331606593e+00 4.5607680464e+00 
14300 4.8050829211e+00 -1.0139738047e-02 2.6333528617e+00 -4.5611009508e+00 2.6333528617e+00 4.5611009508e+00 
14400 4.8049838479e+00 -1.0154072776e-02 2.6335453893e+00 -4.5614344184e+00 2.6335453893e+00 4.5614344184e+00 
14500 4.8048882734e+00 -1.0164990033e-02 2.6337381750e+00 -4.5617683330e+00 2.6337381750e+00 4.5617683330e+00 
14600 4.8047960673e+00 -1.0172597242e-02 2.6339311538e+00 -4.5621025821e+00 2.6339311538e+00 4.5621025821e+00 
14700 4.8047071048e+00 -1.0176999038e-02 2.6341242629e+00 -4.5624370569e+00 2.6341242629e+00 4.5624370569e+00 
14800 4.8046212663e+00 -1.0178297381e-02 2.6343174414e+00 -4.5627716518e+00 2.6343174414e+00 4.5627716518e+00 
14900 4.8045384369e+00 -1.0176591664e-02 2.6345106304e+00 -4.5631062650e+00 2.6345106304e+00 4.5631062650e+00 
15000 4.8044585065e+00 -1.0171978803e-02 2.6347037729e+00 -4.5634407975e+00 2.6347037729e+00 4.5634407975e+00 
15100 4.8043813690e+00 -1.0164553330e-02 2.6348968136e+00 -4.5637751538e+00 2.6348968136e+00 4.5637751538e+00 
15200 4.8043069230e+00 -1.0154407476e-02 2.6350896993e+00 -4.5641092416e+00 2.6350896993e+00 4.5641092416e+00 
15300 4.8042350706e+00 -1.0141631241e-02 2.6352823783e+00 -4.5644429715e+00 2.6352823783e+00 4.5644429715e+00 
15400 4.8041657180e+00 -1.0126312467e-02 2.6354748009e+00 -4.5647762571e+00 2.6354748009e+00 4.5647762571e+00 
15500 4.8040987751e+00 -1.0108536904e-02 2.6356669187e+00 -4.5651090150e+00 2.6356669187e+00 4.5651090150e+00 
15600 4.8040341549e+00 -1.0088388269e-02 2.6358586853e+00 -4.5654411646e+00 2.6358586853e+00 4.5654411646e+00 
15700 4.8039717740e+00 -1.0065948299e-02 2.6360500558e+00 -4.5657726280e+00 2.6360500558e+00 4.5657726280e+00 
15800 4.8039115522e+00 -1.0041296804e-02 2.6362409867e+00 -4.5661033300e+00 2.6362409867e+00 4.5661033300e+00 
15900 4.8038534121e+00 -1.0014511715e-02 2.6364314363e+00 -4.5664331983e+00 2.6364314363e+00 4.5664331983e+00 
16000 4.8037972795e+00 -9.9856691312e-03 2.6366213641e+00 -4.5667621629e+00 2.6366213641e+00 4.5667621629e+00 
16100 4.8037430826e+00 -9.9548433564e-03 2.6368107312e+00 -4.5670901564e+00 2.6368107312e+00 4.5670901564e+00 
16200 4.8036907527e+00 -9.9221069423e-03 2.6369995002e+00 -4.5674171139e+00 2.6369995002e+00 4.5674171139e+00 
16300 4.8036402232e+00 -9.8875307242e-03 2.6371876350e+00 -4.5677429728e+00 2.6371876350e+00 4.5677429728e+00 
16400 4.8035914303e+00 -9.8511838552e-03 2.6373751007e+00 -4.5680676731e+00 2.6373751007e+00 4.5680676731e+00 
16500 4.8035443124e+00 -9.8131338398e-03 2.6375618641e+00 -4.5683911567e+00 2.6375618641e+00 4.5683911567e+00 
16600 4.8034988101e+00 -9.7734465648e-03 2.6377478929e+00 -4.5687133680e+00 2.6377478929e+00 4.5687133680e+00 
16700 4.8034548663e+00 -9.7321863289e-03 2.6379331562e+00 -4.5690342536e+00 2.6379331562e+00 4.5690342536e+00 
16800 4.8034124259e+00 -9.6894158714e-03 2.6381176245e+00 -4.5693537620e+00 2.6381176245e+00 4.5693537620e+00 
16900 4.8033714356e+00 -9.6451963993e-03 2.6383012692e+00 -4.5696718440e+00 2.6383012692e+00 4.5696718440e+00 
17000 4.8033318445e+00 -9.5995876137e-03 2.6384840631e+00 -4.5699884523e+00 2.6384840631e+00 4.5699884523e+00 
17100 4.8032936030e+00 -9.5526477355e-03 2.6386659801e+00 -4.5703035417e+00 2.6386659801e+00 4.5703035417e+00 
17200 4.8032566637e+00 -9.5044335295e-03 2.6388469950e+00 -4.5706170687e+00 2.6388469950e+00 4.5706170687e+00 
17300 4.8032209807e+00 -9.4550003292e-03 2.6390270839e+00 -4.5709289918e+00 2.6390270839e+00 4.5709289918e+00 
17400 4.8031865097e+00 -9.4044020595e-03 2.6392062239e+00 -4.5712392714e+00 2.6392062239e+00 4.5712392714e+00 
17500 4.8031532082e+00 -9.3526912605e-03 2.6393843931e+00 -4.5715478696e+00 2.6393843931e+00 4.5715478696e+00 
17600 4.8031210349e+00 -9.2999191094e-03 2.6395615707e+00 -4.5718547502e+00 2.6395615707e+00 4.5718547502e+00 
17700 4.8030899503e+00 -9.2461354433e-03 2.6397377368e+00 -4.5721598788e+00 2.6397377368e+00 4.5721598788e+00 
17800 4.8030599161e+00 -9.1913887809e-03 2.6399128723e+00 -4.5724632224e+00 2.6399128723e+00 4.5724632224e+00 
17900 4.8030308955e+00 -9.1357263445e-03 2.6400869593e+00 -4.5727647499e+00 2.6400869593e+00 4.5727647499e+00 
18000 4.8030028528e+00 -9.0791940811e-03 2.6402599806e+00 -4.5730644316e+00 2.6402599806e+00 4.5730644316e+00 
18100 4.8029757538e+00 -9.0218366844e-03 2.6404319200e+00 -4.5733622394e+00 2.6404319200e+00 4.5733622394e+00 
18200 4.8029495654e+00 -8.9636976155e-03 2.6406027620e+00 -4.5736581464e+00 2.6406027620e+00 4.5736581464e+00 
18300 4.8029242557e+00 -8.9048191245e-03 2.6407724921e+00 -4.5739521275e+00 2.6407724921e+00 4.5739521275e+00 
18400 4.8028997940e+00 -8.8452422712e-03 2.6409410964e+00 -4.5742441588e+00 2.6409410964e+00 4.5742441588e+00 
18500 4.8028761505e+00 -8.7850069464e-03 2.6411085620e+00 -4.5745342177e+00 2.6411085620e+00 4.5745342177e+00 
18600 4.8028532966e+00 -8.7241518926e-03 2.6412748766e+00 -4.5748222831e+00 2.6412748766e+00 4.5748222831e+00 
18700 4.8028312048e+00 -8.6627147249e-03 2.6414400287e+00 -4.5751083349e+00 2.6414400287e+00 4.5751083349e+00 
18800 4.8028098483e+00 -8.6007319518e-03 2.6416040076e+00 -4.5753923546e+00 2.6416040076e+00 4.5753923546e+00 
18900 4.8027892016e+00 -8.5382389962e-03 2.6417668030e+00 -4.5756743245e+00 2.6417668030e+00 4.5756743245e+00 
19000 4.8027692399e+00 -8.4752702159e-03 2.6419284055e+00 -4.5759542284e+00 2.6419284055e+00 4.5759542284e+00 
19100 4.8027499393e+00 -8.4118589240e-03 2.6420888065e+00 -4.5762320509e+00 2.6420888065e+00 4.5762320509e+00 
19200 4.8027312768e+00 -8.3480374103e-03 2.6422479976e+00 -4.5765077781e+00 2.6422479976e+00 4.5765077781e+00 
19300 4.8027132301e+00 -8.2838369610e-03 2.6424059715e+00 -4.5767813968e+00 2.6424059715e+00 4.5767813968e+00 
19400 4.8026957778e+00 -8.2192878797e-03 2.6425627210e+00 -4.5770528950e+00 2.6425627210e+00 4.5770528950e+00 
19500 4.8026788993e+00 -8.1544195075e-03 2.6427182399e+00 -4.5773222616e+00 2.6427182399e+00 4.5773222616e+00 
19600 4.8026625747e+00 -8.0892602437e-03 2.6428725223e+00 -4.5775894866e+00 2.6428725223e+00 4.5775894866e+00 
19700 4.8026467847e+00 -8.0238375656e-03 2.6430255630e+00 -4.5778545608e+00 2.6430255630e+00 4.5778545608e+00 
19800 4.8026315107e+00 -7.9581780488e-03 2.6431773571e+00 -4.5781174759e+00 2.6431773571e+00 4.5781174759e+00 
19900 4.8026167350e+00 -7.8923073875e-03 2.6433279004e+00 -4.5783782245e+00 2.6433279004e+00 4.5783782245e+00 
20000 4.8026024404e+00 -7.8262504137e-03 2.6434771891e+00 -4.5786368002e+00 2.6434771891e+00 4.5786368002e+00 
20100 4.8025886101e+00 -7.7600311176e-03 2.6436252200e+00 -4.5788931972e+00 2.6436252200e+00 4.5788931972e+00 
20200 4.8025752281e+00 -7.6936726669e-03 2.6437719901e+00 -4.5791474104e+00 2.6437719901e+00 4.5791474104e+00 
20300 4.8025622791e+00 -7.6271974264e-03 2.6439174970e+00 -4.5793994359e+00 2.6439174970e+00 4.5793994359e+00 
20400 4.8025497480e+00 -7.5606269769e-03 2.6440617388e+00 -4.5796492699e+00 2.6440617388e+00 4.5796492699e+00 
20500 4.8025376206e+00 -7.4939821347e-03 2.6442047138e+00 -4.5798969099e+00 2.6442047138e+00 4.5798969099e+00 
20600 4.8025258830e+00 -7.4272829703e-03 2.6443464208e+00 -4.5801423537e+00 2.6443464208e+00 4.5801423537e+00 
20700 4.8025145217e+00 -7.3605488273e-03 2.6444868591e+00 -4.5803855999e+00 2.6444868591e+00 4.5803855999e+00 
20800 4.8025035240e+00 -7.2937983406e-03 2.6446260281e+00 -4.5806266478e+00 2.6446260281e+00 4.5806266478e+00 
20900 4.8024928774e+00 -7.2270494547e-03 2.6447639278e+00 -4.5808654970e+00 2.6447639278e+00 4.5808654970e+00 
21000 4.8024825698e+00 -7.1603194419e-03 2.6449005584e+00 -4.5811021481e+00 2.6449005584e+00 4.5811021481e+00 
21100 4.8024725898e+00 -7.0936249204e-03 2.6450359204e+00 -4.5813366020e+00 2.6450359204e+00 4.5813366020e+00 
21200 4.8024629262e+00 -7.0269818709e-03 2.6451700147e+00 -4.5815688601e+00 2.6451700147e+00 4.5815688601e+00 
21300 4.8024535682e+00 -6.9604056551e-03 2.6453028425e+00 -4.5817989245e+00 2.6453028425e+00 4.5817989245e+00 
21400 4.8024445055e+00 -6.8939110317e-03 2.6454344052e+00 -4.5820267978e+00 2.6454344052e+00 4.5820267978e+00 
21500 4.8024357280e+00 -6.8275121741e-03 2.6455647045e+00 -4.5822524829e+00 2.6455647045e+00 4.5822524829e+00 
21600 4.8024272261e+00 -6.7612226862e-03 2.6456937425e+00 -4.5824759833e+00 2.6456937425e+00 4.5824759833e+00 
21700 4.8024189906e+00 -6.6950556190e-03 2.6458215214e+00 -4.5826973028e+00 2.6458215214e+00 4.5826973028e+00 
21800 4.8024110124e+00 -6.6290234865e-03 2.6459480437e+00 -4.5829164459e+00 2.6459480437e+00 4.5829164459e+00 
21900 4.8024032828e+00 -6.5631382813e-03 2.6460733122e+00 -4.5831334172e+00 2.6460733122e+00 4.5831334172e+00 
22000 4.8023957936e+00 -6.4974114901e-03 2.6461973297e+00 -4.5833482219e+00 2.6461973297e+00 4.5833482219e+00 
22100 4.8023885367e+00 -6.4318541088e-03 2.6463200995e+00 -4.5835608654e+00 2.6463200995e+00 4.5835608654e+00 
22200 4.8023815042e+00 -6.3664766572e-03 2.6464416249e+00 -4.5837713536e+00 2.6464416249e+00 4.5837713536e+00 
22300 4.8023746888e+00 -6.3012891935e-03 2.6465619095e+00 -4.5839796927e+00 2.6465619095e+00 4.5839796927e+00 
22400 4.8023680831e+00 -6.2363013286e-03 2.6466809571e+00 -4.5841858892e+00 2.6466809571e+00 4.5841858892e+00 
22500 4.8023616801e+00 -6.1715222401e-03 2.6467987716e+00 -4.5843899499e+00 2.6467987716e+00 4.5843899499e+00 
22600 4.8023554733e+00 -6.1069606857e-03 2.6469153571e+00 -4.5845918819e+00 2.6469153571e+00 4.5845918819e+00 
22700 4.8023494559e+00 -6.0426250166e-03 2.6470307179e+00 -4.5847916926e+00 2.6470307179e+00 4.5847916926e+00 
22800 4.8023436219e+00 -5.9785231905e-03 2.6471448584e+00 -4.5849893898e+00 2.6471448584e+00 4.5849893898e+00 
22900 4.8023379651e+00 -5.9146627845e-03 2.6472577832e+00 -4.5851849813e+00 2.6472577832e+00 4.5851849813e+00 
23000 4.8023324796e+00 -5.8510510071e-03 2.6473694970e+00 -4.5853784752e+00 2.6473694970e+00 4.5853784752e+00 
23100 4.8023271599e+00 -5.7876947109e-03 2.6474800047e+00 -4.5855698801e+00 2.6474800047e+00 4.5855698801e+00 
23200 4.8023220005e+00 -5.7246004038e-03 2.6475893111e+00 -4.5857592045e+00 2.6475893111e+00 4.5857592045e+00 
23300 4.8023169961e+00 -5.6617742610e-03 2.6476974216e+00 -4.5859464572e+00 2.6476974216e+00 4.5859464572e+00 
23400 4.8023121417e+00 -5.5992221360e-03 2.6478043411e+00 -4.5861316473e+00 2.6478043411e+00 4.5861316473e+00 
23500 4.8023074323e+00 -5.5369495718e-03 2.6479100751e+00 -4.5863147840e+00 2.6479100751e+00 4.5863147840e+00 
23600 4.8023028633e+00 -5.4749618112e-03 2.6480146290e+00 -4.5864958766e+00 2.6480146290e+00 4.5864958766e+00 
23700 4.8022984301e+00 -5.4132638074e-03 2.6481180083e+00 -4.5866749348e+00 2.6481180083e+00 4.5866749348e+00 
23800 4.8022941282e+00 -5.3518602342e-03 2.6482202186e+00 -4.5868519682e+00 2.6482202186e+00 4.5868519682e+00 
23900 4.8022899534e+00 -5.2907554957e-03 2.6483212656e+00 -4.5870269868e+00 2.6483212656e+00 4.5870269868e+00 
24000 4.8022859017e+00 -5.2299537358e-03 2.6484211551e+00 -4.5872000004e+00 2.6484211551e+00 4.5872000004e+00 
24100 4.8022819689e+00 -5.1694588476e-03 2.6485198929e+00 -4.5873710193e+00 2.6485198929e+00 4.5873710193e+00 
24200 4.8022781513e+00 -5.1092744824e-03 2.6486174850e+00 -4.5875400538e+00 2.6486174850e+00 4.5875400538e+00 
24300 4.8022744452e+00 -5.0494040585e-03 2.6487139373e+00 -4.5877071141e+00 2.6487139373e+00 4.5877071141e+00 
24400 4.8022708470e+00 -4.9898507695e-03 2.6488092559e+00 -4.5878722107e+00 2.6488092559e+00 4.5878722107e+00 
24500 4.8022673532e+00 -4.9306175929e-03 2.6489034469e+00 -4.5880353543e+00 2.6489034469e+00 4.5880353543e+00 
24600 4.8022639605e+00 -4.8717072979e-03 2.6489965165e+00 -4.5881965556e+00 2.6489965165e+00 4.5881965556e+00 
24700 4.8022606657e+00 -4.8131224530e-03 2.6490884708e+00 -4.5883558252e+00 2.6490884708e+00 4.5883558252e+00 
24800 4.8022574655e+00 -4.7548654341e-03 2.6491793162e+00 -4.5885131740e+00 2.6491793162e+00 4.5885131740e+00 
24900 4.8022543571e+00 -4.6969384311e-03 2.6492690590e+00 -4.5886686130e+00 2.6492690590e+00 4.5886686130e+00 
25000 4.8022513375e+00 -4.6393434554e-03 2.6493577054e+00 -4.5888221531e+00 2.6493577054e+00 4.5888221531e+00 
25100 4.8022484038e+00 -4.5820823466e-03 2.6494452619e+00 -4.5889738054e+00 2.6494452619e+00 4.5889738054e+00 
25200 4.8022455533e+00 -4.5251567793e-03 2.6495317348e+00 -4.5891235810e+00 2.6495317348e+00 4.5891235810e+00 
25300 4.8022427835e+00 -4.4685682692e-03 2.6496171307e+00 -4.5892714910e+00 2.6496171307e+00 4.5892714910e+00 
25400 4.8022400916e+00 -4.4123181796e-03 2.6497014559e+00 -4.5894175466e+00 2.6497014559e+00 4.5894175466e+00 
25500 4.8022374754e+00 -4.3564077272e-03 2.6497847170e+00 -4.5895617590e+00 2.6497847170e+00 4.5895617590e+00 
25600 4.8022349323e+00 -4.3008379880e-03 2.6498669205e+00 -4.5897041396e+00 2.6498669205e+00 4.5897041396e+00 
25700 4.8022324601e+00 -4.2456099030e-03 2.6499480729e+00 -4.5898446997e+00 2.6499480729e+00 4.5898446997e+00 
25800 4.8022300566e+00 -4.1907242834e-03 2.6500281807e+00 -4.5899834505e+00 2.6500281807e+00 4.5899834505e+00 
25900 4.8022277195e+00 -4.1361818160e-03 2.6501072505e+00 -4.5901204034e+00 2.6501072505e+00 4.5901204034e+00 
26000 4.8022254468e+00 -4.0819830680e-03 2.6501852889e+00 -4.5902555699e+00 2.6501852889e+00 4.5902555699e+00 
26100 4.8022232365e+00 -4.0281284925e-03 2.6502623025e+00 -4.5903889612e+00 2.6502623025e+00 4.5903889612e+00 
26200 4.8022210866e+00 -3.9746184323e-03 2.6503382977e+00 -4.5905205889e+00 2.6503382977e+00 4.5905205889e+00 
26300 4.8022189952e+00 -3.9214531254e-03 2.6504132813e+00 -4.5906504643e+00 2.6504132813e+00 4.5906504643e+00 
26400 4.8022169605e+00 -3.8686327084e-03 2.6504872598e+00 -4.5907785988e+00 2.6504872598e+00 4.5907785988e+00 
26500 4.8022149806e+00 -3.8161572218e-03 2.6505602398e+00 -4.5909050038e+00 2.6505602398e+00 4.5909050038e+00 
26600 4.8022130540e+00 -3.7640266131e-03 2.6506322278e+00 -4.5910296908e+00 2.6506322278e+00 4.5910296908e+00 
26700 4.8022111789e+00 -3.7122407413e-03 2.6507032306e+00 -4.5911526712e+00 2.6507032306e+00 4.5911526712e+00 
26800 4.8022093537e+00 -3.6607993807e-03 2.6507732546e+00 -4.5912739563e+00 2.6507732546e+00 4.5912739563e+00 
26900 4.8022075768e+00 -3.6097022240e-03 2.6508423064e+00 -4.5913935576e+00 2.6508423064e+00 4.5913935576e+00 
27000 4.8022058468e+00 -3.5589488866e-03 2.6509103927e+00 -4.5915114864e+00 2.6509103927e+00 4.5915114864e+00 
27100 4.8022041621e+00 -3.5085389094e-03 2.6509775199e+00 -4.5916277541e+00 2.6509775199e+00 4.5916277541e+00 
27200 4.8022025214e+00 -3.4584717621e-03 2.6510436946e+00 -4.5917423721e+00 2.6510436946e+00 4.5917423721e+00 
27300 4.8022009233e+00 -3.4087468468e-03 2.6511089234e+00 -4.5918553516e+00 2.6511089234e+00 4.5918553516e+00 
27400 4.8021993665e+00 -3.3593635005e-03 2.6511732127e+00 -4.5919667040e+00 2.6511732127e+00 4.5919667040e+00 
27500 4.8021978496e+00 -3.3103209981e-03 2.6512365691e+00 -4.5920764406e+00 2.6512365691e+00 4.5920764406e+00 
27600 4.8021963715e+00 -3.2616185555e-03 2.6512989991e+00 -4.5921845725e+00 2.6512989991e+00 4.5921845725e+00 
27700 4.8021949308e+00 -3.2132553320e-03 2.6513605092e+00 -4.5922911111e+00 2.6513605092e+00 4.5922911111e+00 
27800 4.8021935265e+00 -3.1652304330e-03 2.6514211057e+00 -4.5923960674e+00 2.6514211057e+00 4.5923960674e+00 
27900 4.8021921574e+00 -3.1175429124e-03 2.6514807953e+00 -4.5924994527e+00 2.6514807953e+00 4.5924994527e+00 
28000 4.8021908224e+00 -3.0701917749e-03 2.6515395842e+00 -4.5926012781e+00 2.6515395842e+00 4.5926012781e+00 
28100 4.8021895205e+00 -3.0231759787e-03 2.6515974789e+00 -4.5927015547e+00 2.6515974789e+00 4.5927015547e+00 
28200 4.8021882506e+00 -2.9764944371e-03 2.6516544858e+00 -4.5928002936e+00 2.6516544858e+00 4.5928002936e+00 
28300 4.8021870116e+00 -2.9301460214e-03 2.6517106113e+00 -4.5928975057e+00 2.6517106113e+00 4.5928975057e+00 
28400 4.8021858027e+00 -2.8841295621e-03 2.6517658616e+00 -4.5929932020e+00 2.6517658616e+00 4.5929932020e+00 
28500 4.8021846229e+00 -2.8384438512e-03 2.6518202431e+00 -4.5930873935e+00 2.6518202431e+00 4.5930873935e+00 
28600 4.8021834713e+00 -2.7930876445e-03 2.6518737620e+00 -4.5931800911e+00 2.6518737620e+00 4.5931800911e+00 
28700 4.8021823470e+00 -2.7480596627e-03 2.6519264247e+00 -4.5932713056e+00 2.6519264247e+00 4.5932713056e+00 
28800 4.8021812492e+00 -2.7033585935e-03 2.6519782374e+00 -4.5933610478e+00 2.6519782374e+00 4.5933610478e+00 
28900 4.8021801769e+00 -2.6589830931e-03 2.6520292063e+00 -4.5934493285e+00 2.6520292063e+00 4.5934493285e+00 
29000 4.8021791295e+00 -2.6149317883e-03 2.6520793376e+00 -4.5935361583e+00 2.6520793376e+00 4.5935361583e+00 
29100 4.8021781061e+00 -2.5712032771e-03 2.6521286374e+00 -4.5936215481e+00 2.6521286374e+00 4.5936215481e+00 
29200 4.8021771059e+00 -2.5277961310e-03 2.6521771118e+00 -4.5937055084e+00 2.6521771118e+00 4.5937055084e+00 
29300 4.8021761283e+00 -2.4847088961e-03 2.6522247671e+00 -4.5937880497e+00 2.6522247671e+00 4.5937880497e+00 
29400 4.8021751725e+00 -2.4419400943e-03 2.6522716092e+00 -4.5938691826e+00 2.6522716092e+00 4.5938691826e+00 
29500 4.8021742379e+00 -2.3994882249e-03 2.6523176442e+00 -4.5939489176e+00 2.6523176442e+00 4.5939489176e+00 
29600 4.8021733237e+00 -2.3573517656e-03 2.6523628782e+00 -4.5940272651e+00 2.6523628782e+00 4.5940272651e+00 
29700 4.8021724293e+00 -2.3155291738e-03 2.6524073170e+00 -4.5941042354e+00 2.6524073170e+00 4.5941042354e+00 
29800 4.8021715541e+00 -2.2740188877e-03 2.6524509667e+00 -4.5941798389e+00 2.6524509667e+00 4.5941798389e+00 
29900 4.8021706975e+00 -2.2328193274e-03 2.6524938332e+00 -4.5942540858e+00 2.6524938332e+00 4.5942540858e+00 
30000 4.8021698588e+00 -2.1919288962e-03 2.6525359223e+00 -4.5943269864e+00 2.6525359223e+00 4.5943269864e+00 
30100 4.8021690376e+00 -2.1513459810e-03 2.6525772401e+00 -4.5943985508e+00 2.6525772401e+00 4.5943985508e+00 
30200 4.8021682332e+00 -2.1110689539e-03 2.6526177922e+00 -4.5944687891e+00 2.6526177922e+00 4.5944687891e+00 
30300 4.8021674451e+00 -2.0710961729e-03 2.6526575844e+00 -4.5945377113e+00 2.6526575844e+00 4.5945377113e+00 
30400 4.8021666727e+00 -2.0314259826e-03 2.6526966227e+00 -4.5946053275e+00 2.6526966227e+00 4.5946053275e+00 
30500 4.8021659157e+00 -1.9920567154e-03 2.6527349126e+00 -4.5946716476e+00 2.6527349126e+00 4.5946716476e+00 
30600 4.8021651734e+00 -1.9529866920e-03 2.6527724599e+00 -4.5947366815e+00 2.6527724599e+00 4.5947366815e+00 
30700 4.8021644454e+00 -1.9142142223e-03 2.6528092703e+00 -4.5948004389e+00 2.6528092703e+00 4.5948004389e+00 
30800 4.8021637312e+00 -1.8757376063e-03 2.6528453494e+00 -4.5948629297e+00 2.6528453494e+00 4.5948629297e+00 
30900 4.8021630304e+00 -1.8375551346e-03 2.6528807028e+00 -4.5949241636e+00 2.6528807028e+00 4.5949241636e+00 
31000 4.8021623426e+00 -1.7996650893e-03 2.6529153360e+00 -4.5949841502e+00 2.6529153360e+00 4.5949841502e+00 
31100 4.8021616673e+00 -1.7620657443e-03 2.6529492547e+00 -4.5950428991e+00 2.6529492547e+00 4.5950428991e+00 
31200 4.8021610040e+00 -1.7247553665e-03 2.6529824644e+00 -4.5951004199e+00 2.6529824644e+00 4.5951004199e+00 
31300 4.8021603525e+00 -1.6877322159e-03 2.6530149704e+00 -4.5951567220e+00 2.6530149704e+00 4.5951567220e+00 
31400 4.8021597123e+00 -1.6509945464e-03 2.6530467783e+00 -4.5952118149e+00 2.6530467783e+00 4.5952118149e+00 
31500 4.8021590830e+00 -1.6145406064e-03 2.6530778934e+00 -4.5952657078e+00 2.6530778934e+00 4.5952657078e+00 
31600 4.8021584643e+00 -1.5783686392e-03 2.6531083212e+00 -4.5953184102e+00 2.6531083212e+00 4.5953184102e+00 
31700 4.8021578558e+00 -1.5424768838e-03 2.6531380669e+00 -4.5953699313e+00 2.6531380669e+00 4.5953699313e+00 
31800 4.8021572572e+00 -1.5068635749e-03 2.6531671358e+00 -4.5954202802e+00 2.6531671358e+00 4.5954202802e+00 
31900 4.8021566681e+00 -1.4715269440e-03 2.6531955333e+00 -4.5954694662e+00 2.6531955333e+00 4.5954694662e+00 
32000 4.8021560882e+00 -1.4364652192e-03 2.6532232646e+00 -4.5955174981e+00 2.6532232646e+00 4.5955174981e+00 
32100 4.8021555172e+00 -1.4016766262e-03 2.6532503348e+00 -4.5955643851e+00 2.6532503348e+00 4.5955643851e+00 
32200 4.8021549548e+00 -1.3671593884e-03 2.6532767492e+00 -4.5956101362e+00 2.6532767492e+00 4.5956101362e+00 
32300 4.8021544007e+00 -1.3329117275e-03 2.6533025129e+00 -4.5956547601e+00 2.6533025129e+00 4.5956547601e+00 
32400 4.8021538547e+00 -1.2989318638e-03 2.6533276309e+00 -4.5956982658e+00 2.6533276309e+00 4.5956982658e+00 
32500 4.8021533163e+00 -1.2652180162e-03 2.6533521083e+00 -4.5957406620e+00 2.6533521083e+00 4.5957406620e+00 
32600 4.8021527854e+00 -1.2317684035e-03 2.6533759502e+00 -4.5957819574e+00 2.6533759502e+00 4.5957819574e+00 
32700 4.8021522617e+00 -1.1985812437e-03 2.6533991616e+00 -4.5958221607e+00 2.6533991616e+00 4.5958221607e+00 
32800 4.8021517450e+00 -1.1656547551e-03 2.6534217474e+00 -4.5958612804e+00 2.6534217474e+00 4.5958612804e+00 
32900 4.8021512349e+00 -1.1329871561e-03 2.6534437126e+00 -4.5958993252e+00 2.6534437126e+00 4.5958993252e+00 
33000 4.8021507313e+00 -1.1005766659e-03 2.6534650620e+00 -4.5959363034e+00 2.6534650620e+00 4.5959363034e+00 
33100 4.8021502340e+00 -1.0684215045e-03 2.6534858005e+00 -4.5959722236e+00 2.6534858005e+00 4.5959722236e+00 
33200 4.8021497426e+00 -1.0365198932e-03 2.6535059329e+00 -4.5960070940e+00 2.6535059329e+00 4.5960070940e+00 
33300 4.8021492569e+00 -1.0048700548e-03 2.6535254641e+00 -4.5960409230e+00 2.6535254641e+00 4.5960409230e+00 
33400 4.8021487769e+00 -9.7347021364e-04 2.6535443987e+00 -4.5960737187e+00 2.6535443987e+00 4.5960737187e+00 
33500 4.8021483022e+00 -9.4231859632e-04 2.6535627416e+00 -4.5961054895e+00 2.6535627416e+00 4.5961054895e+00 
33600 4.8021478326e+00 -9.1141343157e-04 2.6535804973e+00 -4.5961362433e+00 2.6535804973e+00 4.5961362433e+00 
33700 4.8021473680e+00 -8.8075295059e-04 2.6535976706e+00 -4.5961659884e+00 2.6535976706e+00 4.5961659884e+00 
33800 4.8021469082e+00 -8.5033538732e-04 2.6536142661e+00 -4.5961947326e+00 2.6536142661e+00 4.5961947326e+00 
33900 4.8021464530e+00 -8.2015897862e-04 2.6536302883e+00 -4.5962224839e+00 2.6536302883e+00 4.5962224839e+00 
34000 4.8021460022e+00 -7.9022196446e-04 2.6536457419e+00 -4.5962492502e+00 2.6536457419e+00 4.5962492502e+00 
34100 4.8021455556e+00 -7.6052258820e-04 2.6536606312e+00 -4.5962750393e+00 2.6536606312e+00 4.5962750393e+00 
34200 4.8021451130e+00 -7.3105909669e-04 2.6536749609e+00 -4.5962998591e+00 2.6536749609e+00 4.5962998591e+00 
34300 4.8021446744e+00 -7.0182974054e-04 2.6536887354e+00 -4.5963237172e+00 2.6536887354e+00 4.5963237172e+00 
34400 4.8021442395e+00 -6.7283277425e-04 2.6537019591e+00 -4.5963466213e+00 2.6537019591e+00 4.5963466213e+00 
34500 4.8021438082e+00 -6.4406645643e-04 2.6537146363e+00 -4.5963685789e+00 2.6537146363e+00 4.5963685789e+00 
34600 4.8021433804e+00 -6.1552904991e-04 2.6537267715e+00 -4.5963895977e+00 2.6537267715e+00 4.5963895977e+00 
34700 4.8021429558e+00 -5.8721882197e-04 2.6537383690e+00 -4.5964096851e+00 2.6537383690e+00 4.5964096851e+00 
34800 4.8021425344e+00 -5.5913404446e-04 2.6537494330e+00 -4.5964288485e+00 2.6537494330e+00 4.5964288485e+00 
34900 4.8021421160e+00 -5.3127299396e-04 2.6537599678e+00 -4.5964470953e+00 2.6537599678e+00 4.5964470953e+00 
35000 4.8021417006e+00 -5.0363395193e-04 2.6537699776e+00 -4.5964644328e+00 2.6537699776e+00 4.5964644328e+00 
35100 4.8021412878e+00 -4.7621520486e-04 2.6537794667e+00 -4.5964808683e+00 2.6537794667e+00 4.5964808683e+00 
35200 4.8021408777e+00 -4.4901504440e-04 2.6537884391e+00 -4.5964964090e+00 2.6537884391e+00 4.5964964090e+00 
35300 4.8021404702e+00 -4.2203176749e-04 2.6537968989e+00 -4.5965110619e+00 2.6537968989e+00 4.5965110619e+00 
35400 4.8021400650e+00 -3.9526367651e-04 2.6538048504e+00 -4.5965248343e+00 2.6538048504e+00 4.5965248343e+00 
35500 4.8021396621e+00 -3.6870907937e-04 2.6538122975e+00 -4.5965377331e+00 2.6538122975e+00 4.5965377331e+00 
35600 4.8021392614e+00 -3.4236628966e-04 2.6538192443e+00 -4.5965497653e+00 2.6538192443e+00 4.5965497653e+00 
35700 4.8021388627e+00 -3.1623362677e-04 2.6538256948e+00 -4.5965609378e+00 2.6538256948e+00 4.5965609378e+00 
35800 4.8021384660e+00 -2.9030941597e-04 2.6538316528e+00 -4.5965712575e+00 2.6538316528e+00 4.5965712575e+00 
35900 4.8021380711e+00 -2.6459198855e-04 2.6538371225e+00 -4.5965807311e+00 2.6538371225e+00 4.5965807311e+00 
36000 4.8021376781e+00 -2.3907968192e-04 2.6538421076e+00 -4.5965893656e+00 2.6538421076e+00 4.5965893656e+00 
36100 4.8021372866e+00 -2.1377083971e-04 2.6538466120e+00 -4.5965971674e+00 2.6538466120e+00 4.5965971674e+00 
36200 4.8021368968e+00 -1.8866381184e-04 2.6538506395e+00 -4.5966041434e+00 2.6538506395e+00 4.5966041434e+00 
36300 4.8021365084e+00 -1.6375695467e-04 2.6538541941e+00 -4.5966103000e+00 2.6538541941e+00 4.5966103000e+00 
36400 4.8021361215e+00 -1.3904863106e-04 2.6538572793e+00 -4.5966156438e+00 2.6538572793e+00 4.5966156438e+00 
36500 4.8021357358e+00 -1.1453721047e-04 2.6538598991e+00 -4.5966201814e+00 2.6538598991e+00 4.5966201814e+00 
36600 4.8021353514e+00 -9.0221069011e-05 2.6538620570e+00 -4.5966239190e+00 2.6538620570e+00 4.5966239190e+00 
36700 4.8021349681e+00 -6.6098589589e-05 2.6538637568e+00 -4.5966268632e+00 2.6538637568e+00 4.5966268632e+00 
36800 4.8021345859e+00 -4.2602919079e-05 2.6538637568e+00 -4.5966268632e+00 2.6538637568e+00 4.5966268632e+00 
36900 4.8021342046e+00 -1.9142098629e-05 2.6538637568e+00 -4.5966268632e+00 2.6538637568e+00 4.5966268632e+00 
37000 4.8021338243e+00 4.2850913300e-06 2.6538637568e+00 -4.5966268632e+00 2.6538637568e+00 4.5966268632e+00 
37100 4.8021334447e+00 2.7679756796e-05 2.6538637568e+00 -4.5966268632e+00 2.6538637568e+00 4.5966268632e+00 
37200 4.8021330660e+00 5.1042905336e-05 2.6538637568e+00 -4.5966268632e+00 2.6538637568e+00 4.5966268632e+00 
37300 4.8021326881e+00 7.4375458838e-05 2.6538637568e+00 -4.5966268632e+00 2.6538637568e+00 4.5966268632e+00 
37400 4.8021323108e+00 9.7189191781e-05 2.6538623556e+00 -4.5966244361e+00 2.6538623556e+00 4.5966244361e+00 
37500 4.8021319340e+00 1.1982192014e-04 2.6538605245e+00 -4.5966212646e+00 2.6538605245e+00 4.5966212646e+00 
37600 4.8021315578e+00 1.4227520296e-04 2.6538582670e+00 -4.5966173545e+00 2.6538582670e+00 4.5966173545e+00 
37700 4.8021311821e+00 1.6455059062e-04 2.6538555864e+00 -4.5966127116e+00 2.6538555864e+00 4.5966127116e+00 
37800 4.8021308068e+00 1.8664962497e-04 2.6538524862e+00 -4.5966073419e+00 2.6538524862e+00 4.5966073419e+00 
37900 4.8021304318e+00 2.0857383950e-04 2.6538489696e+00 -4.5966012510e+00 2.6538489696e+00 4.5966012510e+00 
38000 4.8021300571e+00 2.3032475942e-04 2.6538450400e+00 -4.5965944447e+00 2.6538450400e+00 4.5965944447e+00 
38100 4.8021296826e+00 2.5190390172e-04 2.6538407005e+00 -4.5965869285e+00 2.6538407005e+00 4.5965869285e+00 
38200 4.8021293084e+00 2.7331277526e-04 2.6538359545e+00 -4.5965787082e+00 2.6538359545e+00 4.5965787082e+00 
38300 4.8021289343e+00 2.9455288073e-04 2.6538308051e+00 -4.5965697892e+00 2.6538308051e+00 4.5965697892e+00 
38400 4.8021285603e+00 3.1562571074e-04 2.6538252555e+00 -4.5965601770e+00 2.6538252555e+00 4.5965601770e+00 
38500 4.8021281863e+00 3.3653274979e-04 2.6538193089e+00 -4.5965498772e+00 2.6538193089e+00 4.5965498772e+00 
38600 4.8021278123e+00 3.5727547428e-04 2.6538129684e+00 -4.5965388950e+00 2.6538129684e+00 4.5965388950e+00 
38700 4.8021274383e+00 3.7785535252e-04 2.6538062370e+00 -4.5965272360e+00 2.6538062370e+00 4.5965272360e+00 
38800 4.8021270642e+00 3.9827384470e-04 2.6537991179e+00 -4.5965149053e+00 2.6537991179e+00 4.5965149053e+00 
38900 4.8021266899e+00 4.1853240293e-04 2.6537916141e+00 -4.5965019083e+00 2.6537916141e+00 4.5965019083e+00 
39000 4.8021263155e+00 4.3863247114e-04 2.6537837285e+00 -4.5964882501e+00 2.6537837285e+00 4.5964882501e+00 
39100 4.8021259409e+00 4.5857548518e-04 2.6537754642e+00 -4.5964739360e+00 2.6537754642e+00 4.5964739360e+00 
39200 4.8021255660e+00 4.7836287271e-04 2.6537668242e+00 -4.5964589709e+00 2.6537668242e+00 4.5964589709e+00 
39300 4.8021251909e+00 4.9799605322e-04 2.6537578113e+00 -4.5964433601e+00 2.6537578113e+00 4.5964433601e+00 
39400 4.8021248154e+00 5.1747643802e-04 2.6537484285e+00 -4.5964271086e+00 2.6537484285e+00 4.5964271086e+00 
39500 4.8021244396e+00 5.3680543023e-04 2.6537386785e+00 -4.5964102212e+00 2.6537386785e+00 4.5964102212e+00 
39600 4.8021240633e+00 5.5598442474e-04 2.6537285644e+00 -4.5963927031e+00 2.6537285644e+00 4.5963927031e+00 
39700 4.8021236867e+00 5.7501480819e-04 2.6537180889e+00 -4.5963745589e+00 2.6537180889e+00 4.5963745589e+00 
39800 4.8021233095e+00 5.9389795900e-04 2.6537072548e+00 -4.5963557937e+00 2.6537072548e+00 4.5963557937e+00 
39900 4.8021229319e+00 6.1263524729e-04 2.6536960648e+00 -4.5963364121e+00 2.6536960648e+00 4.5963364121e+00 
40000 4.8021225537e+00 6.3122803493e-04 2.6536845218e+00 -4.5963164189e+00 2.6536845218e+00 4.5963164189e+00 
40100 4.8021221750e+00 6.4967767549e-04 2.6536726283e+00 -4.5962958189e+00 2.6536726283e+00 4.5962958189e+00 
40200 4.8021217957e+00 6.6798551422e-04 2.6536603872e+00 -4.5962746167e+00 2.6536603872e+00 4.5962746167e+00 
40300 4.8021214158e+00 6.8615288807e-04 2.6536478011e+00 -4.5962528170e+00 2.6536478011e+00 4.5962528170e+00 
40400 4.8021210353e+00 7.0418112565e-04 2.6536348727e+00 -4.5962304242e+00 2.6536348727e+00 4.5962304242e+00 
40500 4.8021206541e+00 7.2207154725e-04 2.6536216044e+00 -4.5962074429e+00 2.6536216044e+00 4.5962074429e+00 
40600 4.8021202721e+00 7.3982546480e-04 2.6536079991e+00 -4.5961838777e+00 2.6536079991e+00 4.5961838777e+00 
40700 4.8021198895e+00 7.5744418189e-04 2.6535940591e+00 -4.5961597330e+00 2.6535940591e+00 4.5961597330e+00 
40800 4.8021195061e+00 7.7492899373e-04 2.6535797870e+00 -4.5961350131e+00 2.6535797870e+00 4.5961350131e+00 
40900 4.8021191220e+00 7.9228118719e-04 2.6535651855e+00 -4.5961097224e+00 2.6535651855e+00 4.5961097224e+00 
41000 4.8021187370e+00 8.0950204078e-04 2.6535502569e+00 -4.5960838653e+00 2.6535502569e+00 4.5960838653e+00 
41100 4.8021183512e+00 8.2659282460e-04 2.6535350037e+00 -4.5960574461e+00 2.6535350037e+00 4.5960574461e+00 
41200 4.8021179646e+00 8.4355480043e-04 2.6535194284e+00 -4.5960304689e+00 2.6535194284e+00 4.5960304689e+00 
41300 4.8021175772e+00 8.6038922163e-04 2.6535035334e+00 -4.5960029379e+00 2.6535035334e+00 4.5960029379e+00 
41400 4.8021171888e+00 8.7709733323e-04 2.6534873211e+00 -4.5959748574e+00 2.6534873211e+00 4.5959748574e+00 
41500 4.8021167995e+00 8.9368037187e-04 2.6534707939e+00 -4.5959462313e+00 2.6534707939e+00 4.5959462313e+00 
41600 4.8021164093e+00 9.1013956583e-04 2.6534539540e+00 -4.5959170639e+00 2.6534539540e+00 4.5959170639e+00 
41700 4.8021160182e+00 9.2647613502e-04 2.6534368040e+00 -4.5958873591e+00 2.6534368040e+00 4.5958873591e+00 
41800 4.8021156261e+00 9.4269129099e-04 2.6534193459e+00 -4.5958571209e+00 2.6534193459e+00 4.5958571209e+00 
41900 4.8021152330e+00 9.5878623696e-04 2.6534015822e+00 -4.5958263533e+00 2.6534015822e+00 4.5958263533e+00 
42000 4.8021148389e+00 9.7476216779e-04 2.6533835152e+00 -4.5957950602e+00 2.6533835152e+00 4.5957950602e+00 
42100 4.8021144438e+00 9.9062027001e-04 2.6533651469e+00 -4.5957632454e+00 2.6533651469e+00 4.5957632454e+00 
42200 4.8021140476e+00 1.0063617218e-03 2.6533464797e+00 -4.5957309129e+00 2.6533464797e+00 4.5957309129e+00 
42300 4.8021136504e+00 1.0219876931e-03 2.6533275157e+00 -4.5956980663e+00 2.6533275157e+00 4.5956980663e+00 
42400 4.8021132521e+00 1.0374993454e-03 2.6533082571e+00 -4.5956647094e+00 2.6533082571e+00 4.5956647094e+00 
42500 4.8021128527e+00 1.0528978321e-03 2.6532887061e+00 -4.5956308461e+00 2.6532887061e+00 4.5956308461e+00 
42600 4.8021124522e+00 1.0681842981e-03 2.6532688647e+00 -4.5955964798e+00 2.6532688647e+00 4.5955964798e+00 
42700 4.8021120506e+00 1.0833598802e-03 2.6532487352e+00 -4.5955616144e+00 2.6532487352e+00 4.5955616144e+00 
42800 4.8021116479e+00 1.0984257069e-03 2.6532283195e+00 -4.5955262534e+00 2.6532283195e+00 4.5955262534e+00 
42900 4.8021112440e+00 1.1133828984e-03 2.6532076197e+00 -4.5954904003e+00 2.6532076197e+00 4.5954904003e+00 
43000 4.8021108389e+00 1.1282325668e-03 2.6531866379e+00 -4.5954540588e+00 2.6531866379e+00 4.5954540588e+00 
43100 4.8021104326e+00 1.1429758159e-03 2.6531653761e+00 -4.5954172323e+00 2.6531653761e+00 4.5954172323e+00 
43200 4.8021100251e+00 1.1576137414e-03 2.6531438363e+00 -4.5953799242e+00 2.6531438363e+00 4.5953799242e+00 
43300 4.8021096165e+00 1.1721474308e-03 2.6531220204e+00 -4.5953421380e+00 2.6531220204e+00 4.5953421380e+00 
43400 4.8021092066e+00 1.1865779634e-03 2.6530999305e+00 -4.5953038771e+00 2.6530999305e+00 4.5953038771e+00 
43500 4.8021087954e+00 1.2009064104e-03 2.6530775684e+00 -4.5952651449e+00 2.6530775684e+00 4.5952651449e+00 
43600 4.8021083830e+00 1.2151338351e-03 2.6530549361e+00 -4.5952259446e+00 2.6530549361e+00 4.5952259446e+00 
43700 4.8021079693e+00 1.2292612924e-03 2.6530320355e+00 -4.5951862796e+00 2.6530320355e+00 4.5951862796e+00 
43800 4.8021075544e+00 1.2432898294e-03 2.6530088684e+00 -4.5951461530e+00 2.6530088684e+00 4.5951461530e+00 
43900 4.8021071382e+00 1.2572204850e-03 2.6529854367e+00 -4.5951055682e+00 2.6529854367e+00 4.5951055682e+00 
44000 4.8021067206e+00 1.2710542903e-03 2.6529617423e+00 -4.5950645283e+00 2.6529617423e+00 4.5950645283e+00 
44100 4.8021063018e+00 1.2847922681e-03 2.6529377870e+00 -4.5950230364e+00 2.6529377870e+00 4.5950230364e+00 
44200 4.8021058816e+00 1.2984354337e-03 2.6529135725e+00 -4.5949810957e+00 2.6529135725e+00 4.5949810957e+00 
44300 4.8021054601e+00 1.3119847940e-03 2.6528891007e+00 -4.5949387092e+00 2.6528891007e+00 4.5949387092e+00 
44400 4.8021050372e+00 1.3254413483e-03 2.6528643732e+00 -4.5948958800e+00 2.6528643732e+00 4.5948958800e+00 
44500 4.8021046129e+00 1.3388060880e-03 2.6528393919e+00 -4.5948526112e+00 2.6528393919e+00 4.5948526112e+00 
44600 4.8021041873e+00 1.3520799966e-03 2.6528141585e+00 -4.5948089056e+00 2.6528141585e+00 4.5948089056e+00 
44700 4.8021037603e+00 1.3652640498e-03 2.6527886747e+00 -4.5947647663e+00 2.6527886747e+00 4.5947647663e+00 
44800 4.8021033319e+00 1.3783592155e-03 2.6527629421e+00 -4.5947201962e+00 2.6527629421e+00 4.5947201962e+00 
44900 4.8021029021e+00 1.3913664539e-03 2.6527369625e+00 -4.5946751981e+00 2.6527369625e+00 4.5946751981e+00 
45000 4.8021024709e+00 1.4042867174e-03 2.6527107374e+00 -4.5946297750e+00 2.6527107374e+00 4.5946297750e+00 
45100 4.8021020383e+00 1.4171209509e-03 2.6526842685e+00 -4.5945839296e+00 2.6526842685e+00 4.5945839296e+00 
45200 4.8021016042e+00 1.4298700914e-03 2.6526575575e+00 -4.5945376647e+00 2.6526575575e+00 4.5945376647e+00 
45300 4.8021011687e+00 1.4425350685e-03 2.6526306059e+00 -4.5944909831e+00 2.6526306059e+00 4.5944909831e+00 
45400 4.8021007317e+00 1.4551168040e-03 2.6526034153e+00 -4.5944438876e+00 2.6526034153e+00 4.5944438876e+00 
45500 4.8021002932e+00 1.4676162124e-03 2.6525759873e+00 -4.5943963809e+00 2.6525759873e+00 4.5943963809e+00 
45600 4.8020998533e+00 1.4800342004e-03 2.6525483233e+00 -4.5943484655e+00 2.6525483233e+00 4.5943484655e+00 
45700 4.8020994119e+00 1.4923716674e-03 2.6525204250e+00 -4.5943001443e+00 2.6525204250e+00 4.5943001443e+00 
45800 4.8020989690e+00 1.5046295053e-03 2.6524922939e+00 -4.5942514197e+00 2.6524922939e+00 4.5942514197e+00 
45900 4.8020985246e+00 1.5168085987e-03 2.6524639314e+00 -4.5942022944e+00 2.6524639314e+00 4.5942022944e+00 
46000 4.8020980787e+00 1.5289098246e-03 2.6524353390e+00 -4.5941527709e+00 2.6524353390e+00 4.5941527709e+00 
46100 4.8020976312e+00 1.5409340528e-03 2.6524065182e+00 -4.5941028518e+00 2.6524065182e+00 4.5941028518e+00 
46200 4.8020971822e+00 1.5528821458e-03 2.6523774704e+00 -4.5940525395e+00 2.6523774704e+00 4.5940525395e+00 
46300 4.8020967317e+00 1.5647549588e-03 2.6523481970e+00 -4.5940018366e+00 2.6523481970e+00 4.5940018366e+00 
46400 4.8020962796e+00 1.5765533398e-03 2.6523186995e+00 -4.5939507455e+00 2.6523186995e+00 4.5939507455e+00 
46500 4.8020958260e+00 1.5882781295e-03 2.6522889793e+00 -4.5938992685e+00 2.6522889793e+00 4.5938992685e+00 
46600 4.8020953708e+00 1.5999301617e-03 2.6522590377e+00 -4.5938474081e+00 2.6522590377e+00 4.5938474081e+00 
46700 4.8020949140e+00 1.6115102628e-03 2.6522288761e+00 -4.5937951667e+00 2.6522288761e+00 4.5937951667e+00 
46800 4.8020944557e+00 1.6230192523e-03 2.6521984959e+00 -4.5937425466e+00 2.6521984959e+00 4.5937425466e+00 
46900 4.8020939957e+00 1.6344579426e-03 2.6521678983e+00 -4.5936895501e+00 2.6521678983e+00 4.5936895501e+00 
47000 4.8020935341e+00 1.6458271391e-03 2.6521370848e+00 -4.5936361794e+00 2.6521370848e+00 4.5936361794e+00 
47100 4.8020930710e+00 1.6571276403e-03 2.6521060565e+00 -4.5935824369e+00 2.6521060565e+00 4.5935824369e+00 
47200 4.8020926062e+00 1.6683602378e-03 2.6520748148e+00 -4.5935283247e+00 2.6520748148e+00 4.5935283247e+00 
47300 4.8020921398e+00 1.6795257162e-03 2.6520433610e+00 -4.5934738452e+00 2.6520433610e+00 4.5934738452e+00 
47400 4.8020916717e+00 1.6906248534e-03 2.6520116963e+00 -4.5934190003e+00 2.6520116963e+00 4.5934190003e+00 
47500 4.8020912020e+00 1.7016584204e-03 2.6519798220e+00 -4.5933637924e+00 2.6519798220e+00 4.5933637924e+00 
47600 4.8020907307e+00 1.7126271816e-03 2.6519477393e+00 -4.5933082235e+00 2.6519477393e+00 4.5933082235e+00 
47700 4.8020902577e+00 1.7235318945e-03 2.6519154494e+00 -4.5932522957e+00 2.6519154494e+00 4.5932522957e+00 
47800 4.8020897830e+00 1.7343733101e-03 2.6518829534e+00 -4.5931960111e+00 2.6518829534e+00 4.5931960111e+00 
47900 4.8020893067e+00 1.7451521726e-03 2.6518502527e+00 -4.5931393718e+00 2.6518502527e+00 4.5931393718e+00 
48000 4.8020888287e+00 1.7558692198e-03 2.6518173484e+00 -4.5930823798e+00 2.6518173484e+00 4.5930823798e+00 
48100 4.8020883490e+00 1.7665251828e-03 2.6517842415e+00 -4.5930250370e+00 2.6517842415e+00 4.5930250370e+00 
48200 4.8020878676e+00 1.7771207863e-03 2.6517509334e+00 -4.5929673456e+00 2.6517509334e+00 4.5929673456e+00 
48300 4.8020873844e+00 1.7876567486e-03 2.6517174250e+00 -4.5929093074e+00 2.6517174250e+00 4.5929093074e+00 
48400 4.8020868996e+00 1.7981337813e-03 2.6516837175e+00 -4.5928509244e+00 2.6516837175e+00 4.5928509244e+00 
48500 4.8020864130e+00 1.8085525899e-03 2.6516498121e+00 -4.5927921984e+00 2.6516498121e+00 4.5927921984e+00 
48600 4.8020859248e+00 1.8189138736e-03 2.6516157098e+00 -4.5927331315e+00 2.6516157098e+00 4.5927331315e+00 
48700 4.8020854347e+00 1.8292183251e-03 2.6515814116e+00 -4.5926737253e+00 2.6515814116e+00 4.5926737253e+00 
48800 4.8020849430e+00 1.8394666309e-03 2.6515469187e+00 -4.5926139819e+00 2.6515469187e+00 4.5926139819e+00 
48900 4.8020844495e+00 1.8496594714e-03 2.6515122321e+00 -4.5925539030e+00 2.6515122321e+00 4.5925539030e+00 
49000 4.8020839542e+00 1.8597975208e-03 2.6514773529e+00 -4.5924934903e+00 2.6514773529e+00 4.5924934903e+00 
49100 4.8020834571e+00 1.8698814471e-03 2.6514422820e+00 -4.5924327457e+00 2.6514422820e+00 4.5924327457e+00 
49200 4.8020829583e+00 1.8799119124e-03 2.6514070205e+00 -4.5923716710e+00 2.6514070205e+00 4.5923716710e+00 
49300 4.8020824577e+00 1.8898895727e-03 2.6513715693e+00 -4.5923102678e+00 2.6513715693e+00 4.5923102678e+00 
49400 4.8020819553e+00 1.8998150778e-03 2.6513359296e+00 -4.5922485380e+00 2.6513359296e+00 4.5922485380e+00 
49500 4.8020814511e+00 1.9096890719e-03 2.6513001022e+00 -4.5921864830e+00 2.6513001022e+00 4.5921864830e+00 
49600 4.8020809451e+00 1.9195121930e-03 2.6512640880e+00 -4.5921241048e+00 2.6512640880e+00 4.5921241048e+00 
49700 4.8020804373e+00 1.9292850734e-03 2.6512278882e+00 -4.5920614048e+00 2.6512278882e+00 4.5920614048e+00 
49800 4.8020799276e+00 1.9390083397e-03 2.6511915035e+00 -4.5919983847e+00 2.6511915035e+00 4.5919983847e+00 
49900 4.8020794161e+00 1.9486826124e-03 2.6511549350e+00 -4.5919350461e+00 2.6511549350e+00 4.5919350461e+00 
50000 4.8020789028e+00 1.9583085066e-03 2.6511181835e+00 -4.5918713907e+00 2.6511181835e+00 4.5918713907e+00 
50100 4.8020783877e+00 1.9678866314e-03 2.6510812499e+00 -4.5918074199e+00 2.6510812499e+00 4.5918074199e+00 
50200 4.8020778707e+00 1.9774175906e-03 2.6510441352e+00 -4.5917431353e+00 2.6510441352e+00 4.5917431353e+00 
50300 4.8020773518e+00 1.9869019822e-03 2.6510068402e+00 -4.5916785385e+00 2.6510068402e+00 4.5916785385e+00 
50400 4.8020768311e+00 1.9963403985e-03 2.6509693659e+00 -4.5916136310e+00 2.6509693659e+00 4.5916136310e+00 
50500 4.8020763085e+00 2.0057334266e-03 2.6509317129e+00 -4.5915484142e+00 2.6509317129e+00 4.5915484142e+00 
50600 4.8020757840e+00 2.0150816480e-03 2.6508938823e+00 -4.5914828896e+00 2.6508938823e+00 4.5914828896e+00 
50700 4.8020752576e+00 2.0243856387e-03 2.6508558748e+00 -4.5914170587e+00 2.6508558748e+00 4.5914170587e+00 
50800 4.8020747293e+00 2.0336459693e-03 2.6508176912e+00 -4.5913509228e+00 2.6508176912e+00 4.5913509228e+00 
50900 4.8020741992e+00 2.0428632053e-03 2.6507793325e+00 -4.5912844835e+00 2.6507793325e+00 4.5912844835e+00 
51000 4.8020736671e+00 2.0520379065e-03 2.6507407993e+00 -4.5912177421e+00 2.6507407993e+00 4.5912177421e+00 
51100 4.8020731330e+00 2.0611706278e-03 2.6507020926e+00 -4.5911507000e+00 2.6507020926e+00 4.5911507000e+00 
51200 4.8020725971e+00 2.0702619188e-03 2.6506632129e+00 -4.5910833586e+00 2.6506632129e+00 4.5910833586e+00 
51300 4.8020720592e+00 2.0793123237e-03 2.6506241613e+00 -4.5910157191e+00 2.6506241613e+00 4.5910157191e+00 
51400 4.8020715194e+00 2.0883223819e-03 2.6505849383e+00 -4.5909477829e+00 2.6505849383e+00 4.5909477829e+00 
51500 4.8020709776e+00 2.0972926275e-03 2.6505455448e+00 -4.5908795513e+00 2.6505455448e+00 4.5908795513e+00 
51600 4.8020704339e+00 2.1062235896e-03 2.6505059815e+00 -4.5908110256e+00 2.6505059815e+00 4.5908110256e+00 
51700 4.8020698882e+00 2.1151157922e-03 2.6504662491e+00 -4.5907422071e+00 2.6504662491e+00 4.5907422071e+00 
51800 4.8020693405e+00 2.1239697546e-03 2.6504263483e+00 -4.5906730971e+00 2.6504263483e+00 4.5906730971e+00 
51900 4.8020687909e+00 2.1327859909e-03 2.6503862800e+00 -4.5906036966e+00 2.6503862800e+00 4.5906036966e+00 
52000 4.8020682392e+00 2.1415650105e-03 2.6503460447e+00 -4.5905340071e+00 2.6503460447e+00 4.5905340071e+00 
52100 4.8020676856e+00 2.1503073177e-03 2.6503056432e+00 -4.5904640296e+00 2.6503056432e+00 4.5904640296e+00 
52200 4.8020671299e+00 2.1590134124e-03 2.6502650762e+00 -4.5903937654e+00 2.6502650762e+00 4.5903937654e+00 
52300 4.8020665722e+00 2.1676837895e-03 2.6502243442e+00 -4.5903232157e+00 2.6502243442e+00 4.5903232157e+00 
52400 4.8020660126e+00 2.1763189390e-03 2.6501834481e+00 -4.5902523815e+00 2.6501834481e+00 4.5902523815e+00 
52500 4.8020654508e+00 2.1849193467e-03 2.6501423884e+00 -4.5901812641e+00 2.6501423884e+00 4.5901812641e+00 
52600 4.8020648871e+00 2.1934854934e-03 2.6501011659e+00 -4.5901098645e+00 2.6501011659e+00 4.5901098645e+00 
52700 4.8020643213e+00 2.2020178553e-03 2.6500597810e+00 -4.5900381838e+00 2.6500597810e+00 4.5900381838e+00 
52800 4.8020637534e+00 2.2105169042e-03 2.6500182346e+00 -4.5899662233e+00 2.6500182346e+00 4.5899662233e+00 
52900 4.8020631835e+00 2.2189831073e-03 2.6499765271e+00 -4.5898939838e+00 2.6499765271e+00 4.5898939838e+00 
53000 4.8020626115e+00 2.2274169274e-03 2.6499346592e+00 -4.5898214665e+00 2.6499346592e+00 4.5898214665e+00 
53100 4.8020620375e+00 2.2358188228e-03 2.6498926316e+00 -4.5897486725e+00 2.6498926316e+00 4.5897486725e+00 
53200 4.8020614613e+00 2.2441892474e-03 2.6498504447e+00 -4.5896756027e+00 2.6498504447e+00 4.5896756027e+00 
53300 4.8020608831e+00 2.2525286507e-03 2.6498080992e+00 -4.5896022582e+00 2.6498080992e+00 4.5896022582e+00 
53400 4.8020603027e+00 2.2608374780e-03 2.6497655957e+00 -4.5895286400e+00 2.6497655957e+00 4.5895286400e+00 
53500 4.8020597203e+00 2.2691161702e-03 2.6497229348e+00 -4.5894547490e+00 2.6497229348e+00 4.5894547490e+00 
53600 4.8020591357e+00 2.2773651640e-03 2.6496801169e+00 -4.5893805863e+00 2.6496801169e+00 4.5893805863e+00 
53700 4.8020585490e+00 2.2855848919e-03 2.6496371427e+00 -4.5893061527e+00 2.6496371427e+00 4.5893061527e+00 
53800 4.8020579602e+00 2.2937757822e-03 2.6495940126e+00 -4.5892314493e+00 2.6495940126e+00 4.5892314493e+00 
53900 4.8020573692e+00 2.3019382592e-03 2.6495507273e+00 -4.5891564770e+00 2.6495507273e+00 4.5891564770e+00 
54000 4.8020567761e+00 2.3100727430e-03 2.6495072873e+00 -4.5890812366e+00 2.6495072873e+00 4.5890812366e+00 
54100 4.8020561808e+00 2.3181796496e-03 2.6494636930e+00 -4.5890057291e+00 2.6494636930e+00 4.5890057291e+00 
54200 4.8020555833e+00 2.3262593910e-03 2.6494199451e+00 -4.5889299554e+00 2.6494199451e+00 4.5889299554e+00 
54300 4.8020549837e+00 2.3343123754e-03 2.6493760439e+00 -4.5888539164e+00 2.6493760439e+00 4.5888539164e+00 
54400 4.8020543819e+00 2.3423390068e-03 2.6493319900e+00 -4.5887776128e+00 2.6493319900e+00 4.5887776128e+00 
54500 4.8020537779e+00 2.3503396855e-03 2.6492877839e+00 -4.5887010456e+00 2.6492877839e+00 4.5887010456e+00 
54600 4.8020531716e+00 2.3583148078e-03 2.6492434261e+00 -4.5886242156e+00 2.6492434261e+00 4.5886242156e+00 
54700 4.8020525632e+00 2.3662647662e-03 2.6491989170e+00 -4.5885471236e+00 2.6491989170e+00 4.5885471236e+00 
54800 4.8020519526e+00 2.3741899495e-03 2.6491542571e+00 -4.5884697704e+00 2.6491542571e+00 4.5884697704e+00 
54900 4.8020513397e+00 2.3820907426e-03 2.6491094469e+00 -4.5883921568e+00 2.6491094469e+00 4.5883921568e+00 
55000 4.8020507246e+00 2.3899675267e-03 2.6490644868e+00 -4.5883142837e+00 2.6490644868e+00 4.5883142837e+00 
55100 4.8020501072e+00 2.3978206795e-03 2.6490193773e+00 -4.5882361517e+00 2.6490193773e+00 4.5882361517e+00 
55200 4.8020494876e+00 2.4056505747e-03 2.6489741188e+00 -4.5881577616e+00 2.6489741188e+00 4.5881577616e+00 
55300 4.8020488658e+00 2.4134575827e-03 2.6489287117e+00 -4.5880791143e+00 2.6489287117e+00 4.5880791143e+00 
55400 4.8020482416e+00 2.4212420702e-03 2.6488831565e+00 -4.5880002103e+00 2.6488831565e+00 4.5880002103e+00 
55500 4.8020476152e+00 2.4290044002e-03 2.6488374535e+00 -4.5879210505e+00 2.6488374535e+00 4.5879210505e+00 
55600 4.8020469865e+00 2.4367449324e-03 2.6487916033e+00 -4.5878416355e+00 2.6487916033e+00 4.5878416355e+00 
55700 4.8020463555e+00 2.4444640230e-03 2.6487456061e+00 -4.5877619661e+00 2.6487456061e+00 4.5877619661e+00 
55800 4.8020457222e+00 2.4521620246e-03 2.6486994624e+00 -4.5876820429e+00 2.6486994624e+00 4.5876820429e+00 
55900 4.8020450865e+00 2.4598392865e-03 2.6486531726e+00 -4.5876018666e+00 2.6486531726e+00 4.5876018666e+00 
56000 4.8020444486e+00 2.4674961546e-03 2.6486067371e+00 -4.5875214379e+00 2.6486067371e+00 4.5875214379e+00 
56100 4.8020438083e+00 2.4751329714e-03 2.6485601562e+00 -4.5874407575e+00 2.6485601562e+00 4.5874407575e+00 
56200 4.8020431657e+00 2.4827500763e-03 2.6485134304e+00 -4.5873598259e+00 2.6485134304e+00 4.5873598259e+00 
56300 4.8020425207e+00 2.4903478050e-03 2.6484665599e+00 -4.5872786438e+00 2.6484665599e+00 4.5872786438e+00 
56400 4.8020418733e+00 2.4979264904e-03 2.6484195451e+00 -4.5871972119e+00 2.6484195451e+00 4.5871972119e+00 
56500 4.8020412236e+00 2.5054864618e-03 2.6483723864e+00 -4.5871155306e+00 2.6483723864e+00 4.5871155306e+00 
56600 4.8020405715e+00 2.5130280457e-03 2.6483250842e+00 -4.5870336008e+00 2.6483250842e+00 4.5870336008e+00 
56700 4.8020399170e+00 2.5205515650e-03 2.6482776387e+00 -4.5869514228e+00 2.6482776387e+00 4.5869514228e+00 
56800 4.8020392602e+00 2.5280573400e-03 2.6482300503e+00 -4.5868689973e+00 2.6482300503e+00 4.5868689973e+00 
56900 4.8020386009e+00 2.5355456873e-03 2.6481823194e+00 -4.5867863249e+00 2.6481823194e+00 4.5867863249e+00 
57000 4.8020379392e+00 2.5430169210e-03 2.6481344462e+00 -4.5867034062e+00 2.6481344462e+00 4.5867034062e+00 
57100 4.8020372750e+00 2.5504713518e-03 2.6480864311e+00 -4.5866202416e+00 2.6480864311e+00 4.5866202416e+00 
57200 4.8020366084e+00 2.5579092876e-03 2.6480382744e+00 -4.5865368317e+00 2.6480382744e+00 4.5865368317e+00 
57300 4.8020359394e+00 2.5653310333e-03 2.6479899764e+00 -4.5864531770e+00 2.6479899764e+00 4.5864531770e+00 
57400 4.8020352679e+00 2.5727368906e-03 2.6479415373e+00 -4.5863692781e+00 2.6479415373e+00 4.5863692781e+00 
57500 4.8020345940e+00 2.5801271588e-03 2.6478929575e+00 -4.5862851354e+00 2.6478929575e+00 4.5862851354e+00 
57600 4.8020339176e+00 2.5875021338e-03 2.6478442373e+00 -4.5862007495e+00 2.6478442373e+00 4.5862007495e+00 
57700 4.8020332387e+00 2.5948621090e-03 2.6477953769e+00 -4.5861161208e+00 2.6477953769e+00 4.5861161208e+00 
57800 4.8020325573e+00 2.6022073748e-03 2.6477463766e+00 -4.5860312498e+00 2.6477463766e+00 4.5860312498e+00 
57900 4.8020318734e+00 2.6095382189e-03 2.6476972367e+00 -4.5859461370e+00 2.6476972367e+00 4.5859461370e+00 
58000 4.8020311870e+00 2.6168549262e-03 2.6476479575e+00 -4.5858607829e+00 2.6476479575e+00 4.5858607829e+00 
58100 4.8020304980e+00 2.6241577789e-03 2.6475985391e+00 -4.5857751878e+00 2.6475985391e+00 4.5857751878e+00 
58200 4.8020298066e+00 2.6314470563e-03 2.6475489820e+00 -4.5856893523e+00 2.6475489820e+00 4.5856893523e+00 
58300 4.8020291126e+00 2.6387230353e-03 2.6474992862e+00 -4.5856032767e+00 2.6474992862e+00 4.5856032767e+00 
58400 4.8020284160e+00 2.6459859900e-03 2.6474494521e+00 -4.5855169615e+00 2.6474494521e+00 4.5855169615e+00 
58500 4.8020277169e+00 2.6532361919e-03 2.6473994799e+00 -4.5854304071e+00 2.6473994799e+00 4.5854304071e+00 
58600 4.8020270152e+00 2.6604739099e-03 2.6473493698e+00 -4.5853436139e+00 2.6473493698e+00 4.5853436139e+00 
58700 4.8020263109e+00 2.6676994103e-03 2.6472991221e+00 -4.5852565823e+00 2.6472991221e+00 4.5852565823e+00 
58800 4.8020256040e+00 2.6749129568e-03 2.6472487370e+00 -4.5851693127e+00 2.6472487370e+00 4.5851693127e+00 
58900 4.8020248945e+00 2.6821148109e-03 2.6471982146e+00 -4.5850818054e+00 2.6471982146e+00 4.5850818054e+00 
59000 4.8020241824e+00 2.6893052312e-03 2.6471475553e+00 -4.5849940609e+00 2.6471475553e+00 4.5849940609e+00 
59100 4.8020234676e+00 2.6964844740e-03 2.6470967592e+00 -4.5849060794e+00 2.6470967592e+00 4.5849060794e+00 
59200 4.8020227503e+00 2.7036527933e-03 2.6470458265e+00 -4.5848178614e+00 2.6470458265e+00 4.5848178614e+00 
59300 4.8020220303e+00 2.7108104405e-03 2.6469947574e+00 -4.5847294071e+00 2.6469947574e+00 4.5847294071e+00 
59400 4.8020213076e+00 2.7179576646e-03 2.6469435521e+00 -4.5846407170e+00 2.6469435521e+00 4.5846407170e+00 
59500 4.8020205822e+00 2.7250947124e-03 2.6468922108e+00 -4.5845517913e+00 2.6468922108e+00 4.5845517913e+00 
59600 4.8020198542e+00 2.7322218282e-03 2.6468407338e+00 -4.5844626304e+00 2.6468407338e+00 4.5844626304e+00 
59700 4.8020191235e+00 2.7393392541e-03 2.6467891210e+00 -4.5843732345e+00 2.6467891210e+00 4.5843732345e+00 
59800 4.8020183901e+00 2.7464472298e-03 2.6467373729e+00 -4.5842836041e+00 2.6467373729e+00 4.5842836041e+00 
59900 4.8020176540e+00 2.7535459930e-03 2.6466854894e+00 -4.5841937393e+00 2.6466854894e+00 4.5841937393e+00 
60000 4.8020169151e+00 2.7606357787e-03 2.6466334708e+00 -4.5841036404e+00 2.6466334708e+00 4.5841036404e+00 
60100 4.8020161736e+00 2.7677168202e-03 2.6465813172e+00 -4.5840133078e+00 2.6465813172e+00 4.5840133078e+00 
60200 4.8020154292e+00 2.7747893481e-03 2.6465290289e+00 -4.5839227417e+00 2.6465290289e+00 4.5839227417e+00 
60300 4.8020146822e+00 2.7818535913e-03 2.6464766059e+00 -4.5838319424e+00 2.6464766059e+00 4.5838319424e+00 
60400 4.8020139323e+00 2.7889097762e-03 2.6464240484e+00 -4.5837409102e+00 2.6464240484e+00 4.5837409102e+00 
60500 4.8020131797e+00 2.7959581274e-03 2.6463713565e+00 -4.5836496452e+00 2.6463713565e+00 4.5836496452e+00 
60600 4.8020124243e+00 2.8029988670e-03 2.6463185304e+00 -4.5835581477e+00 2.6463185304e+00 4.5835581477e+00 
60700 4.8020116661e+00 2.8100322154e-03 2.6462655702e+00 -4.5834664180e+00 2.6462655702e+00 4.5834664180e+00 
60800 4.8020109051e+00 2.8170583907e-03 2.6462124761e+00 -4.5833744563e+00 2.6462124761e+00 4.5833744563e+00 
60900 4.8020101413e+00 2.8240776091e-03 2.6461592482e+00 -4.5832822628e+00 2.6461592482e+00 4.5832822628e+00 
61000 4.8020093746e+00 2.8310900847e-03 2.6461058865e+00 -4.5831898377e+00 2.6461058865e+00 4.5831898377e+00 
61100 4.8020086051e+00 2.8380960297e-03 2.6460523913e+00 -4.5830971813e+00 2.6460523913e+00 4.5830971813e+00 
61200 4.8020078327e+00 2.8450956543e-03 2.6459987626e+00 -4.5830042936e+00 2.6459987626e+00 4.5830042936e+00 
61300 4.8020070575e+00 2.8520891667e-03 2.6459450006e+00 -4.5829111750e+00 2.6459450006e+00 4.5829111750e+00 
61400 4.8020062794e+00 2.8590767733e-03 2.6458911053e+00 -4.5828178257e+00 2.6458911053e+00 4.5828178257e+00 
61500 4.8020054984e+00 2.8660586784e-03 2.6458370769e+00 -4.5827242457e+00 2.6458370769e+00 4.5827242457e+00 
61600 4.8020047145e+00 2.8730350846e-03 2.6457829154e+00 -4.5826304352e+00 2.6457829154e+00 4.5826304352e+00 
61700 4.8020039277e+00 2.8800061926e-03 2.6457286210e+00 -4.5825363945e+00 2.6457286210e+00 4.5825363945e+00 
61800 4.8020031379e+00 2.8869722011e-03 2.6456741937e+00 -4.5824421237e+00 2.6456741937e+00 4.5824421237e+00 
61900 4.8020023453e+00 2.8939333072e-03 2.6456196336e+00 -4.5823476229e+00 2.6456196336e+00 4.5823476229e+00 
62000 4.8020015496e+00 2.9008897062e-03 2.6455649409e+00 -4.5822528924e+00 2.6455649409e+00 4.5822528924e+00 
62100 4.8020007510e+00 2.9078415913e-03 2.6455101156e+00 -4.5821579321e+00 2.6455101156e+00 4.5821579321e+00 
62200 4.8019999495e+00 2.9147891544e-03 2.6454551577e+00 -4.5820627423e+00 2.6454551577e+00 4.5820627423e+00 
62300 4.8019991449e+00 2.9217325852e-03 2.6454000674e+00 -4.5819673231e+00 2.6454000674e+00 4.5819673231e+00 
62400 4.8019983374e+00 2.9286720721e-03 2.6453448447e+00 -4.5818716745e+00 2.6453448447e+00 4.5818716745e+00 
62500 4.8019975268e+00 2.9356078014e-03 2.6452894897e+00 -4.5817757969e+00 2.6452894897e+00 4.5817757969e+00 
62600 4.8019967132e+00 2.9425399581e-03 2.6452340024e+00 -4.5816796901e+00 2.6452340024e+00 4.5816796901e+00 
62700 4.8019958966e+00 2.9494687252e-03 2.6451783830e+00 -4.5815833544e+00 2.6451783830e+00 4.5815833544e+00 
62800 4.8019950770e+00 2.9563942842e-03 2.6451226314e+00 -4.5814867898e+00 2.6451226314e+00 4.5814867898e+00 
62900 4.8019942542e+00 2.9633168150e-03 2.6450667477e+00 -4.5813899964e+00 2.6450667477e+00 4.5813899964e+00 
63000 4.8019934285e+00 2.9702364958e-03 2.6450107320e+00 -4.5812929743e+00 2.6450107320e+00 4.5812929743e+00 
63100 4.8019925996e+00 2.9771535033e-03 2.6449545842e+00 -4.5811957236e+00 2.6449545842e+00 4.5811957236e+00 
63200 4.8019917676e+00 2.9840680127e-03 2.6448983046e+00 -4.5810982444e+00 2.6448983046e+00 4.5810982444e+00 
63300 4.8019909325e+00 2.9909801973e-03 2.6448418930e+00 -4.5810005367e+00 2.6448418930e+00 4.5810005367e+00 
63400 4.8019900943e+00 2.9978902291e-03 2.6447853496e+00 -4.5809026006e+00 2.6447853496e+00 4.5809026006e+00 
63500 4.8019892530e+00 3.0047982788e-03 2.6447286743e+00 -4.5808044361e+00 2.6447286743e+00 4.5808044361e+00 
63600 4.8019884085e+00 3.0117045150e-03 2.6446718672e+00 -4.5807060433e+00 2.6446718672e+00 4.5807060433e+00 
63700 4.8019875609e+00 3.0186091055e-03 2.6446149283e+00 -4.5806074222e+00 2.6446149283e+00 4.5806074222e+00 
63800 4.8019867100e+00 3.0255122161e-03 2.6445578576e+00 -4.5805085730e+00 2.6445578576e+00 4.5805085730e+00 
63900 4.8019858560e+00 3.0324140113e-03 2.6445006552e+00 -4.5804094955e+00 2.6445006552e+00 4.5804094955e+00 
64000 4.8019849988e+00 3.0393146543e-03 2.6444433211e+00 -4.5803101899e+00 2.6444433211e+00 4.5803101899e+00 
64100 4.8019841384e+00 3.0462143067e-03 2.6443858552e+00 -4.5802106561e+00 2.6443858552e+00 4.5802106561e+00 
64200 4.8019832748e+00 3.0531131287e-03 2.6443282577e+00 -4.5801108942e+00 2.6443282577e+00 4.5801108942e+00 
64300 4.8019824079e+00 3.0600112794e-03 2.6442705284e+00 -4.5800109042e+00 2.6442705284e+00 4.5800109042e+00 
64400 4.8019815377e+00 3.0669089160e-03 2.6442126675e+00 -4.5799106861e+00 2.6442126675e+00 4.5799106861e+00 
64500 4.8019806643e+00 3.0738061948e-03 2.6441546748e+00 -4.5798102399e+00 2.6441546748e+00 4.5798102399e+00 
64600 4.8019797876e+00 3.0807032706e-03 2.6440965505e+00 -4.5797095656e+00 2.6440965505e+00 4.5797095656e+00 
64700 4.8019789077e+00 3.0876002968e-03 2.6440382945e+00 -4.5796086631e+00 2.6440382945e+00 4.5796086631e+00 
64800 4.8019780244e+00 3.0944974255e-03 2.6439799067e+00 -4.5795075326e+00 2.6439799067e+00 4.5795075326e+00 
64900 4.8019771378e+00 3.1013948076e-03 2.6439213872e+00 -4.5794061739e+00 2.6439213872e+00 4.5794061739e+00 
65000 4.8019762478e+00 3.1082925927e-03 2.6438627360e+00 -4.5793045870e+00 2.6438627360e+00 4.5793045870e+00 
65100 4.8019753546e+00 3.1151909290e-03 2.6438039531e+00 -4.5792027720e+00 2.6438039531e+00 4.5792027720e+00 
65200 4.8019744579e+00 3.1220899636e-03 2.6437450384e+00 -4.5791007287e+00 2.6437450384e+00 4.5791007287e+00 
65300 4.8019735579e+00 3.1289898422e-03 2.6436859919e+00 -4.5789984571e+00 2.6436859919e+00 4.5789984571e+00 
65400 4.8019726545e+00 3.1358907095e-03 2.6436268135e+00 -4.5788959573e+00 2.6436268135e+00 4.5788959573e+00 
65500 4.8019717476e+00 3.1427927087e-03 2.6435675034e+00 -4.5787932291e+00 2.6435675034e+00 4.5787932291e+00 
65600 4.8019708374e+00 3.1496959820e-03 2.6435080613e+00 -4.5786902724e+00 2.6435080613e+00 4.5786902724e+00 
65700 4.8019699237e+00 3.1566006704e-03 2.6434484874e+00 -4.5785870873e+00 2.6434484874e+00 4.5785870873e+00 
65800 4.8019690066e+00 3.1635069137e-03 2.6433887815e+00 -4.5784836737e+00 2.6433887815e+00 4.5784836737e+00 
65900 4.8019680861e+00 3.1704148505e-03 2.6433289436e+00 -4.5783800315e+00 2.6433289436e+00 4.5783800315e+00 
66000 4.8019671620e+00 3.1773246183e-03 2.6432689737e+00 -4.5782761606e+00 2.6432689737e+00 4.5782761606e+00 
66100 4.8019662345e+00 3.1842363534e-03 2.6432088718e+00 -4.5781720609e+00 2.6432088718e+00 4.5781720609e+00 
66200 4.8019653034e+00 3.1911501911e-03 2.6431486377e+00 -4.5780677325e+00 2.6431486377e+00 4.5780677325e+00 
66300 4.8019643689e+00 3.1980662655e-03 2.6430882715e+00 -4.5779631751e+00 2.6430882715e+00 4.5779631751e+00 
66400 4.8019634308e+00 3.2049847097e-03 2.6430277731e+00 -4.5778583887e+00 2.6430277731e+00 4.5778583887e+00 
66500 4.8019624891e+00 3.2119056556e-03 2.6429671424e+00 -4.5777533733e+00 2.6429671424e+00 4.5777533733e+00 
66600 4.8019615439e+00 3.2188292342e-03 2.6429063793e+00 -4.5776481286e+00 2.6429063793e+00 4.5776481286e+00 
66700 4.8019605951e+00 3.2257555751e-03 2.6428454839e+00 -4.5775426547e+00 2.6428454839e+00 4.5775426547e+00 
66800 4.8019596427e+00 3.2326848073e-03 2.6427844561e+00 -4.5774369514e+00 2.6427844561e+00 4.5774369514e+00 
66900 4.8019586867e+00 3.2396170584e-03 2.6427232957e+00 -4.5773310186e+00 2.6427232957e+00 4.5773310186e+00 
67000 4.8019577271e+00 3.2465524553e-03 2.6426620028e+00 -4.5772248561e+00 2.6426620028e+00 4.5772248561e+00 
67100 4.8019567639e+00 3.2534911236e-03 2.6426005773e+00 -4.5771184639e+00 2.6426005773e+00 4.5771184639e+00 
67200 4.8019557970e+00 3.2604331882e-03 2.6425390190e+00 -4.5770118419e+00 2.6425390190e+00 4.5770118419e+00 
67300 4.8019548264e+00 3.2673787726e-03 2.6424773279e+00 -4.5769049898e+00 2.6424773279e+00 4.5769049898e+00 
67400 4.8019538522e+00 3.2743279998e-03 2.6424155040e+00 -4.5767979077e+00 2.6424155040e+00 4.5767979077e+00 
67500 4.8019528742e+00 3.2812809915e-03 2.6423535472e+00 -4.5766905952e+00 2.6423535472e+00 4.5766905952e+00 
67600 4.8019518925e+00 3.2882378686e-03 2.6422914573e+00 -4.5765830524e+00 2.6422914573e+00 4.5765830524e+00 
67700 4.8019509071e+00 3.2951987511e-03 2.6422292343e+00 -4.5764752790e+00 2.6422292343e+00 4.5764752790e+00 
67800 4.8019499180e+00 3.3021637578e-03 2.6421668781e+00 -4.5763672750e+00 2.6421668781e+00 4.5763672750e+00 
67900 4.8019489251e+00 3.3091330070e-03 2.6421043887e+00 -4.5762590401e+00 2.6421043887e+00 4.5762590401e+00 
68000 4.8019479284e+00 3.3161066157e-03 2.6420417659e+00 -4.5761505742e+00 2.6420417659e+00 4.5761505742e+00 
68100 4.8019469279e+00 3.3230847002e-03 2.6419790096e+00 -4.5760418772e+00 2.6419790096e+00 4.5760418772e+00 
68200 4.8019459236e+00 3.3300673760e-03 2.6419161198e+00 -4.5759329488e+00 2.6419161198e+00 4.5759329488e+00 
68300 4.8019449155e+00 3.3370547576e-03 2.6418530963e+00 -4.5758237890e+00 2.6418530963e+00 4.5758237890e+00 
68400 4.8019439035e+00 3.3440469585e-03 2.6417899391e+00 -4.5757143975e+00 2.6417899391e+00 4.5757143975e+00 
68500 4.8019428877e+00 3.3510440917e-03 2.6417266481e+00 -4.5756047742e+00 2.6417266481e+00 4.5756047742e+00 
68600 4.8019418680e+00 3.3580462690e-03 2.6416632231e+00 -4.5754949188e+00 2.6416632231e+00 4.5754949188e+00 
68700 4.8019408444e+00 3.3650536015e-03 2.6415996640e+00 -4.5753848313e+00 2.6415996640e+00 4.5753848313e+00 
68800 4.8019398169e+00 3.3720661996e-03 2.6415359708e+00 -4.5752745114e+00 2.6415359708e+00 4.5752745114e+00 
68900 4.8019387855e+00 3.3790841728e-03 2.6414721433e+00 -4.5751639589e+00 2.6414721433e+00 4.5751639589e+00 
69000 4.8019377502e+00 3.3861076296e-03 2.6414081814e+00 -4.5750531737e+00 2.6414081814e+00 4.5750531737e+00 
69100 4.8019367108e+00 3.3931366779e-03 2.6413440850e+00 -4.5749421555e+00 2.6413440850e+00 4.5749421555e+00 
69200 4.8019356675e+00 3.4001714250e-03 2.6412798540e+00 -4.5748309042e+00 2.6412798540e+00 4.5748309042e+00 
69300 4.8019346203e+00 3.4072119769e-03 2.6412154883e+00 -4.5747194195e+00 2.6412154883e+00 4.5747194195e+00 
69400 4.8019335690e+00 3.4142584394e-03 2.6411509877e+00 -4.5746077012e+00 2.6411509877e+00 4.5746077012e+00 
69500 4.8019325137e+00 3.4213109170e-03 2.6410863522e+00 -4.5744957492e+00 2.6410863522e+00 4.5744957492e+00 
69600 4.8019314543e+00 3.4283695140e-03 2.6410215815e+00 -4.5743835631e+00 2.6410215815e+00 4.5743835631e+00 
69700 4.8019303909e+00 3.4354343336e-03 2.6409566757e+00 -4.5742711429e+00 2.6409566757e+00 4.5742711429e+00 
69800 4.8019293234e+00 3.4425054782e-03 2.6408916345e+00 -4.5741584882e+00 2.6408916345e+00 4.5741584882e+00 
69900 4.8019282518e+00 3.4495830499e-03 2.6408264578e+00 -4.5740455989e+00 2.6408264578e+00 4.5740455989e+00 
70000 4.8019271761e+00 3.4566671495e-03 2.6407611455e+00 -4.5739324747e+00 2.6407611455e+00 4.5739324747e+00 
70100 4.8019260963e+00 3.4637578776e-03 2.6406956975e+00 -4.5738191153e+00 2.6406956975e+00 4.5738191153e+00 
70200 4.8019250123e+00 3.4708553339e-03 2.6406301135e+00 -4.5737055206e+00 2.6406301135e+00 4.5737055206e+00 
70300 4.8019239241e+00 3.4779596174e-03 2.6405643936e+00 -4.5735916904e+00 2.6405643936e+00 4.5735916904e+00 
70400 4.8019228318e+00 3.4850708263e-03 2.6404985375e+00 -4.5734776243e+00 2.6404985375e+00 4.5734776243e+00 
70500 4.8019217353e+00 3.4921890584e-03 2.6404325451e+00 -4.5733633221e+00 2.6404325451e+00 4.5733633221e+00 
70600 4.8019206346e+00 3.4993144106e-03 2.6403664163e+00 -4.5732487836e+00 2.6403664163e+00 4.5732487836e+00 
70700 4.8019195296e+00 3.5064469793e-03 2.6403001509e+00 -4.5731340085e+00 2.6403001509e+00 4.5731340085e+00 
70800 4.8019184203e+00 3.5135868602e-03 2.6402337487e+00 -4.5730189966e+00 2.6402337487e+00 4.5730189966e+00 
70900 4.8019173068e+00 3.5207341482e-03 2.6401672097e+00 -4.5729037476e+00 2.6401672097e+00 4.5729037476e+00 
71000 4.8019161890e+00 3.5278889378e-03 2.6401005336e+00 -4.5727882613e+00 2.6401005336e+00 4.5727882613e+00 
71100 4.8019150669e+00 3.5350513227e-03 2.6400337204e+00 -4.5726725373e+00 2.6400337204e+00 4.5726725373e+00 
71200 4.8019139405e+00 3.5422213961e-03 2.6399667698e+00 -4.5725565755e+00 2.6399667698e+00 4.5725565755e+00 
71300 4.8019128097e+00 3.5493992506e-03 2.6398996817e+00 -4.5724403755e+00 2.6398996817e+00 4.5724403755e+00 
71400 4.8019116746e+00 3.5565849780e-03 2.6398324559e+00 -4.5723239371e+00 2.6398324559e+00 4.5723239371e+00 
71500 4.8019105351e+00 3.5637786697e-03 2.6397650924e+00 -4.5722072601e+00 2.6397650924e+00 4.5722072601e+00 
71600 4.8019093911e+00 3.5709804164e-03 2.6396975909e+00 -4.5720903440e+00 2.6396975909e+00 4.5720903440e+00 
71700 4.8019082428e+00 3.5781903083e-03 2.6396299512e+00 -4.5719731886e+00 2.6396299512e+00 4.5719731886e+00 
71800 4.8019070900e+00 3.5854084350e-03 2.6395621732e+00 -4.5718557938e+00 2.6395621732e+00 4.5718557938e+00 
71900 4.8019059327e+00 3.5926348854e-03 2.6394942568e+00 -4.5717381590e+00 2.6394942568e+00 4.5717381590e+00 
72000 4.8019047710e+00 3.5998697479e-03 2.6394262017e+00 -4.5716202842e+00 2.6394262017e+00 4.5716202842e+00 
72100 4.8019036048e+00 3.6071131106e-03 2.6393580078e+00 -4.5715021689e+00 2.6393580078e+00 4.5715021689e+00 
72200 4.8019024340e+00 3.6143650607e-03 2.6392896750e+00 -4.5713838130e+00 2.6392896750e+00 4.5713838130e+00 
72300 4.8019012587e+00 3.6216256849e-03 2.6392212030e+00 -4.5712652160e+00 2.6392212030e+00 4.5712652160e+00 
72400 4.8019000789e+00 3.6288950696e-03 2.6391525916e+00 -4.5711463776e+00 2.6391525916e+00 4.5711463776e+00 
72500 4.8018988945e+00 3.6361733004e-03 2.6390838408e+00 -4.5710272977e+00 2.6390838408e+00 4.5710272977e+00 
72600 4.8018977055e+00 3.6434604625e-03 2.6390149503e+00 -4.5709079758e+00 2.6390149503e+00 4.5709079758e+00 
72700 4.8018965118e+00 3.6507566407e-03 2.6389459199e+00 -4.5707884116e+00 2.6389459199e+00 4.5707884116e+00 
72800 4.8018953136e+00 3.6580619190e-03 2.6388767494e+00 -4.5706686049e+00 2.6388767494e+00 4.5706686049e+00 
72900 4.8018941107e+00 3.6653763811e-03 2.6388074388e+00 -4.5705485554e+00 2.6388074388e+00 4.5705485554e+00 
73000 4.8018929031e+00 3.6727001102e-03 2.6387379877e+00 -4.5704282626e+00 2.6387379877e+00 4.5704282626e+00 
73100 4.8018916908e+00 3.6800331888e-03 2.6386683960e+00 -4.5703077262e+00 2.6386683960e+00 4.5703077262e+00 
73200 4.8018904738e+00 3.6873756993e-03 2.6385986636e+00 -4.5701869461e+00 2.6385986636e+00 4.5701869461e+00 
73300 4.8018892520e+00 3.6947277231e-03 2.6385287901e+00 -4.5700659217e+00 2.6385287901e+00 4.5700659217e+00 
73400 4.8018880255e+00 3.7020893416e-03 2.6384587755e+00 -4.5699446529e+00 2.6384587755e+00 4.5699446529e+00 
73500 4.8018867942e+00 3.7094606355e-03 2.6383886195e+00 -4.5698231391e+00 2.6383886195e+00 4.5698231391e+00 
73600 4.8018855581e+00 3.7168416850e-03 2.6383183220e+00 -4.5697013802e+00 2.6383183220e+00 4.5697013802e+00 
73700 4.8018843172e+00 3.7242325699e-03 2.6382478827e+00 -4.5695793758e+00 2.6382478827e+00 4.5695793758e+00 
73800 4.8018830715e+00 3.7316333696e-03 2.6381773015e+00 -4.5694571255e+00 2.6381773015e+00 4.5694571255e+00 
73900 4.8018818209e+00 3.7390441629e-03 2.6381065781e+00 -4.5693346290e+00 2.6381065781e+00 4.5693346290e+00 
74000 4.8018805654e+00 3.7464650283e-03 2.6380357124e+00 -4.5692118860e+00 2.6380357124e+00 4.5692118860e+00 
74100 4.8018793050e+00 3.7538960439e-03 2.6379647041e+00 -4.5690888960e+00 2.6379647041e+00 4.5690888960e+00 
74200 4.8018780397e+00 3.7613372871e-03 2.6378935530e+00 -4.5689656588e+00 2.6378935530e+00 4.5689656588e+00 
74300 4.8018767694e+00 3.7687888351e-03 2.6378222590e+00 -4.5688421739e+00 2.6378222590e+00 4.5688421739e+00 
74400 4.8018754942e+00 3.7762507646e-03 2.6377508218e+00 -4.5687184411e+00 2.6377508218e+00 4.5687184411e+00 
74500 4.8018742139e+00 3.7837231520e-03 2.6376792413e+00 -4.5685944599e+00 2.6376792413e+00 4.5685944599e+00 
74600 4.8018729287e+00 3.7912060731e-03 2.6376075171e+00 -4.5684702300e+00 2.6376075171e+00 4.5684702300e+00 
74700 4.8018716384e+00 3.7986996033e-03 2.6375356492e+00 -4.5683457511e+00 2.6375356492e+00 4.5683457511e+00 
74800 4.8018703431e+00 3.8062038177e-03 2.6374636372e+00 -4.5682210227e+00 2.6374636372e+00 4.5682210227e+00 
74900 4.8018690427e+00 3.8137187911e-03 2.6373914810e+00 -4.5680960445e+00 2.6373914810e+00 4.5680960445e+00 
75000 4.8018677372e+00 3.8212445975e-03 2.6373191804e+00 -4.5679708162e+00 2.6373191804e+00 4.5679708162e+00 
75100 4.8018664265e+00 3.8287813110e-03 2.6372467351e+00 -4.5678453373e+00 2.6372467351e+00 4.5678453373e+00 
75200 4.8018651107e+00 3.8363290050e-03 2.6371741449e+00 -4.5677196074e+00 2.6371741449e+00 4.5677196074e+00 
75300 4.8018637898e+00 3.8438877527e-03 2.6371014096e+00 -4.5675936262e+00 2.6371014096e+00 4.5675936262e+00 
75400 4.8018624637e+00 3.8514576266e-03 2.6370285291e+00 -4.5674673933e+00 2.6370285291e+00 4.5674673933e+00 
75500 4.8018611323e+00 3.8590386992e-03 2.6369555029e+00 -4.5673409084e+00 2.6369555029e+00 4.5673409084e+00 
75600 4.8018597957e+00 3.8666310424e-03 2.6368823310e+00 -4.5672141709e+00 2.6368823310e+00 4.5672141709e+00 
75700 4.8018584539e+00 3.8742347280e-03 2.6368090131e+00 -4.5670871806e+00 2.6368090131e+00 4.5670871806e+00 
75800 4.8018571067e+00 3.8818498270e-03 2.6367355490e+00 -4.5669599370e+00 2.6367355490e+00 4.5669599370e+00 
75900 4.8018557543e+00 3.8894764104e-03 2.6366619385e+00 -4.5668324398e+00 2.6366619385e+00 4.5668324398e+00 
76000 4.8018543965e+00 3.8971145488e-03 2.6365881812e+00 -4.5667046885e+00 2.6365881812e+00 4.5667046885e+00 
76100 4.8018530334e+00 3.9047643123e-03 2.6365142771e+00 -4.5665766827e+00 2.6365142771e+00 4.5665766827e+00 
76200 4.8018516649e+00 3.9124257708e-03 2.6364402258e+00 -4.5664484221e+00 2.6364402258e+00 4.5664484221e+00 
76300 4.8018502910e+00 3.9200989937e-03 2.6363660271e+00 -4.5663199063e+00 2.6363660271e+00 4.5663199063e+00 
76400 4.8018489117e+00 3.9277840503e-03 2.6362916808e+00 -4.5661911347e+00 2.6362916808e+00 4.5661911347e+00 
76500 4.8018475269e+00 3.9354810093e-03 2.6362171867e+00 -4.5660621071e+00 2.6362171867e+00 4.5660621071e+00 
76600 4.8018461367e+00 3.9431899393e-03 2.6361425444e+00 -4.5659328230e+00 2.6361425444e+00 4.5659328230e+00 
76700 4.8018447409e+00 3.9509109084e-03 2.6360677539e+00 -4.5658032819e+00 2.6360677539e+00 4.5658032819e+00 
76800 4.8018433397e+00 3.9586439845e-03 2.6359928148e+00 -4.5656734835e+00 2.6359928148e+00 4.5656734835e+00 
76900 4.8018419329e+00 3.9663892350e-03 2.6359177268e+00 -4.5655434274e+00 2.6359177268e+00 4.5655434274e+00 
77000 4.8018405205e+00 3.9741467273e-03 2.6358424898e+00 -4.5654131131e+00 2.6358424898e+00 4.5654131131e+00 
77100 4.8018391025e+00 3.9819165282e-03 2.6357671035e+00 -4.5652825402e+00 2.6357671035e+00 4.5652825402e+00 
77200 4.8018376790e+00 3.9896987042e-03 2.6356915677e+00 -4.5651517083e+00 2.6356915677e+00 4.5651517083e+00 
77300 4.8018362497e+00 3.9974933218e-03 2.6356158821e+00 -4.5650206170e+00 2.6356158821e+00 4.5650206170e+00 
77400 4.8018348148e+00 4.0053004468e-03 2.6355400464e+00 -4.5648892657e+00 2.6355400464e+00 4.5648892657e+00 
77500 4.8018333743e+00 4.0131201449e-03 2.6354640604e+00 -4.5647576542e+00 2.6354640604e+00 4.5647576542e+00 
77600 4.8018319279e+00 4.0209524815e-03 2.6353879239e+00 -4.5646257819e+00 2.6353879239e+00 4.5646257819e+00 
77700 4.8018304759e+00 4.0287975216e-03 2.6353116366e+00 -4.5644936484e+00 2.6353116366e+00 4.5644936484e+00 
77800 4.8018290181e+00 4.0366553302e-03 2.6352351982e+00 -4.5643612533e+00 2.6352351982e+00 4.5643612533e+00 
77900 4.8018275545e+00 4.0445259717e-03 2.6351586086e+00 -4.5642285961e+00 2.6351586086e+00 4.5642285961e+00 
78000 4.8018260850e+00 4.0524095102e-03 2.6350818673e+00 -4.5640956763e+00 2.6350818673e+00 4.5640956763e+00 
78100 4.8018246097e+00 4.0603060099e-03 2.6350049743e+00 -4.5639624937e+00 2.6350049743e+00 4.5639624937e+00 
78200 4.8018231286e+00 4.0682155342e-03 2.6349279292e+00 -4.5638290476e+00 2.6349279292e+00 4.5638290476e+00 
78300 4.8018216415e+00 4.0761381467e-03 2.6348507317e+00 -4.5636953376e+00 2.6348507317e+00 4.5636953376e+00 
78400 4.8018201485e+00 4.0840739103e-03 2.6347733816e+00 -4.5635613634e+00 2.6347733816e+00 4.5635613634e+00 
78500 4.8018186496e+00 4.0920228881e-03 2.6346958787e+00 -4.5634271243e+00 2.6346958787e+00 4.5634271243e+00 
78600 4.8018171447e+00 4.0999851425e-03 2.6346182226e+00 -4.5632926201e+00 2.6346182226e+00 4.5632926201e+00 
78700 4.8018156338e+00 4.1079607358e-03 2.6345404131e+00 -4.5631578501e+00 2.6345404131e+00 4.5631578501e+00 
78800 4.8018141168e+00 4.1159497301e-03 2.6344624500e+00 -4.5630228140e+00 2.6344624500e+00 4.5630228140e+00 
78900 4.8018125938e+00 4.1239521873e-03 2.6343843329e+00 -4.5628875113e+00 2.6343843329e+00 4.5628875113e+00 
79000 4.8018110647e+00 4.1319681687e-03 2.6343060617e+00 -4.5627519415e+00 2.6343060617e+00 4.5627519415e+00 
79100 4.8018095295e+00 4.1399977358e-03 2.6342276359e+00 -4.5626161041e+00 2.6342276359e+00 4.5626161041e+00 
79200 4.8018079882e+00 4.1480409495e-03 2.6341490554e+00 -4.5624799987e+00 2.6341490554e+00 4.5624799987e+00 
79300 4.8018064407e+00 4.1560978705e-03 2.6340703200e+00 -4.5623436249e+00 2.6340703200e+00 4.5623436249e+00 
79400 4.8018048870e+00 4.1641685595e-03 2.6339914292e+00 -4.5622069820e+00 2.6339914292e+00 4.5622069820e+00 
79500 4.8018033270e+00 4.1722530767e-03 2.6339123828e+00 -4.5620700698e+00 2.6339123828e+00 4.5620700698e+00 
79600 4.8018017608e+00 4.1803514822e-03 2.6338331807e+00 -4.5619328876e+00 2.6338331807e+00 4.5619328876e+00 
79700 4.8018001884e+00 4.1884638357e-03 2.6337538224e+00 -4.5617954350e+00 2.6337538224e+00 4.5617954350e+00 
79800 4.8017986096e+00 4.1965901968e-03 2.6336743077e+00 -4.5616577115e+00 2.6336743077e+00 4.5616577115e+00 
79900 4.8017970245e+00 4.2047306248e-03 2.6335946363e+00 -4.5615197166e+00 2.6335946363e+00 4.5615197166e+00 
80000 4.8017954330e+00 4.2128851789e-03 2.6335148080e+00 -4.5613814499e+00 2.6335148080e+00 4.5613814499e+00 
80100 4.8017938352e+00 4.2210539178e-03 2.6334348224e+00 -4.5612429108e+00 2.6334348224e+00 4.5612429108e+00 
80200 4.8017922309e+00 4.2292369002e-03 2.6333546793e+00 -4.5611040989e+00 2.6333546793e+00 4.5611040989e+00 
80300 4.8017906202e+00 4.2374341844e-03 2.6332743784e+00 -4.5609650136e+00 2.6332743784e+00 4.5609650136e+00 
80400 4.8017890030e+00 4.2456458288e-03 2.6331939194e+00 -4.5608256545e+00 2.6331939194e+00 4.5608256545e+00 
80500 4.8017873792e+00 4.2538718911e-03 2.6331133020e+00 -4.5606860211e+00 2.6331133020e+00 4.5606860211e+00 
80600 4.8017857490e+00 4.2621124292e-03 2.6330325259e+00 -4.5605461129e+00 2.6330325259e+00 4.5605461129e+00 
80700 4.8017841122e+00 4.2703675004e-03 2.6329515909e+00 -4.5604059293e+00 2.6329515909e+00 4.5604059293e+00 
80800 4.8017824688e+00 4.2786371622e-03 2.6328704966e+00 -4.5602654699e+00 2.6328704966e+00 4.5602654699e+00 
80900 4.8017808187e+00 4.2869214715e-03 2.6327892428e+00 -4.5601247342e+00 2.6327892428e+00 4.5601247342e+00 
81000 4.8017791620e+00 4.2952204853e-03 2.6327078292e+00 -4.5599837216e+00 2.6327078292e+00 4.5599837216e+00 
81100 4.8017774986e+00 4.3035342601e-03 2.6326262554e+00 -4.5598424317e+00 2.6326262554e+00 4.5598424317e+00 
81200 4.8017758285e+00 4.3118628523e-03 2.6325445212e+00 -4.5597008639e+00 2.6325445212e+00 4.5597008639e+00 
81300 4.8017741517e+00 4.3202063183e-03 2.6324626263e+00 -4.5595590178e+00 2.6324626263e+00 4.5595590178e+00 
81400 4.8017724680e+00 4.3285647139e-03 2.6323805704e+00 -4.5594168927e+00 2.6323805704e+00 4.5594168927e+00 
81500 4.8017707776e+00 4.3369380950e-03 2.6322983531e+00 -4.5592744883e+00 2.6322983531e+00 4.5592744883e+00 
81600 4.8017690803e+00 4.3453265171e-03 2.6322159742e+00 -4.5591318039e+00 2.6322159742e+00 4.5591318039e+00 
81700 4.8017673762e+00 4.3537300356e-03 2.6321334334e+00 -4.5589888390e+00 2.6321334334e+00 4.5589888390e+00 
81800 4.8017656652e+00 4.3621487058e-03 2.6320507304e+00 -4.5588455932e+00 2.6320507304e+00 4.5588455932e+00 
81900 4.8017639472e+00 4.3705825825e-03 2.6319678649e+00 -4.5587020659e+00 2.6319678649e+00 4.5587020659e+00 
82000 4.8017622222e+00 4.3790317206e-03 2.6318848365e+00 -4.5585582565e+00 2.6318848365e+00 4.5585582565e+00 
82100 4.8017604903e+00 4.3874961746e-03 2.6318016450e+00 -4.5584141646e+00 2.6318016450e+00 4.5584141646e+00 
82200 4.8017587514e+00 4.3959759989e-03 2.6317182901e+00 -4.5582697897e+00 2.6317182901e+00 4.5582697897e+00 
82300 4.8017570053e+00 4.4044712476e-03 2.6316347714e+00 -4.5581251311e+00 2.6316347714e+00 4.5581251311e+00 
82400 4.8017552522e+00 4.4129819748e-03 2.6315510887e+00 -4.5579801883e+00 2.6315510887e+00 4.5579801883e+00 
82500 4.8017534920e+00 4.4215082342e-03 2.6314672416e+00 -4.5578349609e+00 2.6314672416e+00 4.5578349609e+00 
82600 4.8017517246e+00 4.4300500795e-03 2.6313832298e+00 -4.5576894482e+00 2.6313832298e+00 4.5576894482e+00 
82700 4.8017499501e+00 4.4386075639e-03 2.6312990530e+00 -4.5575436498e+00 2.6312990530e+00 4.5575436498e+00 
82800 4.8017481683e+00 4.4471807408e-03 2.6312147110e+00 -4.5573975650e+00 2.6312147110e+00 4.5573975650e+00 
82900 4.8017463792e+00 4.4557696631e-03 2.6311302033e+00 -4.5572511935e+00 2.6311302033e+00 4.5572511935e+00 
83000 4.8017445829e+00 4.4643743836e-03 2.6310455297e+00 -4.5571045345e+00 2.6310455297e+00 4.5571045345e+00 
83100 4.8017427793e+00 4.4729949550e-03 2.6309606898e+00 -4.5569575875e+00 2.6309606898e+00 4.5569575875e+00 
83200 4.8017409683e+00 4.4816314298e-03 2.6308756834e+00 -4.5568103521e+00 2.6308756834e+00 4.5568103521e+00 
83300 4.8017391499e+00 4.4902838601e-03 2.6307905101e+00 -4.5566628276e+00 2.6307905101e+00 4.5566628276e+00 
83400 4.8017373241e+00 4.4989522980e-03 2.6307051696e+00 -4.5565150135e+00 2.6307051696e+00 4.5565150135e+00 
83500 4.8017354908e+00 4.5076367955e-03 2.6306196616e+00 -4.5563669093e+00 2.6306196616e+00 4.5563669093e+00 
83600 4.8017336501e+00 4.5163374042e-03 2.6305339857e+00 -4.5562185143e+00 2.6305339857e+00 4.5562185143e+00 
83700 4.8017318018e+00 4.5250541757e-03 2.6304481417e+00 -4.5560698281e+00 2.6304481417e+00 4.5560698281e+00 
83800 4.8017299460e+00 4.5337871612e-03 2.6303621292e+00 -4.5559208501e+00 2.6303621292e+00 4.5559208501e+00 
83900 4.8017280826e+00 4.5425364119e-03 2.6302759479e+00 -4.5557715796e+00 2.6302759479e+00 4.5557715796e+00 
84000 4.8017262115e+00 4.5513019787e-03 2.6301895974e+00 -4.5556220162e+00 2.6301895974e+00 4.5556220162e+00 
84100 4.8017243328e+00 4.5600839125e-03 2.6301030774e+00 -4.5554721593e+00 2.6301030774e+00 4.5554721593e+00 
84200 4.8017224464e+00 4.5688822639e-03 2.6300163877e+00 -4.5553220082e+00 2.6300163877e+00 4.5553220082e+00 
84300 4.8017205523e+00 4.5776970832e-03 2.6299295278e+00 -4.5551715625e+00 2.6299295278e+00 4.5551715625e+00 
84400 4.8017186504e+00 4.5865284207e-03 2.6298424975e+00 -4.5550208216e+00 2.6298424975e+00 4.5550208216e+00 
84500 4.8017167407e+00 4.5953763264e-03 2.6297552964e+00 -4.5548697849e+00 2.6297552964e+00 4.5548697849e+00 
84600 4.8017148232e+00 4.6042408502e-03 2.6296679242e+00 -4.5547184518e+00 2.6296679242e+00 4.5547184518e+00 
84700 4.8017128978e+00 4.6131220419e-03 2.6295803805e+00 -4.5545668217e+00 2.6295803805e+00 4.5545668217e+00 
84800 4.8017109645e+00 4.6220199508e-03 2.6294926651e+00 -4.5544148941e+00 2.6294926651e+00 4.5544148941e+00 
84900 4.8017090233e+00 4.6309346264e-03 2.6294047775e+00 -4.5542626684e+00 2.6294047775e+00 4.5542626684e+00 
85000 4.8017070740e+00 4.6398661178e-03 2.6293167175e+00 -4.5541101439e+00 2.6293167175e+00 4.5541101439e+00 
85100 4.8017051168e+00 4.6488144740e-03 2.6292284847e+00 -4.5539573202e+00 2.6292284847e+00 4.5539573202e+00 
85200 4.8017031515e+00 4.6577797437e-03 2.6291400788e+00 -4.5538041966e+00 2.6291400788e+00 4.5538041966e+00 
85300 4.8017011781e+00 4.6667619756e-03 2.6290514993e+00 -4.5536507726e+00 2.6290514993e+00 4.5536507726e+00 
85400 4.8016991966e+00 4.6757612182e-03 2.6289627461e+00 -4.5534970475e+00 2.6289627461e+00 4.5534970475e+00 
85500 4.8016972069e+00 4.6847775196e-03 2.6288738188e+00 -4.5533430208e+00 2.6288738188e+00 4.5533430208e+00 
85600 4.8016952090e+00 4.6938109280e-03 2.6287847169e+00 -4.5531886918e+00 2.6287847169e+00 4.5531886918e+00 
85700 4.8016932028e+00 4.7028614913e-03 2.6286954402e+00 -4.5530340600e+00 2.6286954402e+00 4.5530340600e+00 
85800 4.8016911884e+00 4.7119292571e-03 2.6286059883e+00 -4.5528791249e+00 2.6286059883e+00 4.5528791249e+00 
85900 4.8016891657e+00 4.7210142731e-03 2.6285163609e+00 -4.5527238856e+00 2.6285163609e+00 4.5527238856e+00 
86000 4.8016871346e+00 4.7301165866e-03 2.6284265576e+00 -4.5525683418e+00 2.6284265576e+00 4.5525683418e+00 
86100 4.8016850951e+00 4.7392362447e-03 2.6283365782e+00 -4.5524124928e+00 2.6283365782e+00 4.5524124928e+00 
86200 4.8016830472e+00 4.7483732946e-03 2.6282464221e+00 -4.5522563379e+00 2.6282464221e+00 4.5522563379e+00 
86300 4.8016809908e+00 4.7575277830e-03 2.6281560891e+00 -4.5520998766e+00 2.6281560891e+00 4.5520998766e+00 
86400 4.8016789259e+00 4.7666997566e-03 2.6280655789e+00 -4.5519431083e+00 2.6280655789e+00 4.5519431083e+00 
86500 4.8016768524e+00 4.7758892618e-03 2.6279748910e+00 -4.5517860323e+00 2.6279748910e+00 4.5517860323e+00 
86600 4.8016747704e+00 4.7850963449e-03 2.6278840252e+00 -4.5516286481e+00 2.6278840252e+00 4.5516286481e+00 
86700 4.8016726797e+00 4.7943210520e-03 2.6277929811e+00 -4.5514709550e+00 2.6277929811e+00 4.5514709550e+00 
86800 4.8016705803e+00 4.8035634292e-03 2.6277017583e+00 -4.5513129525e+00 2.6277017583e+00 4.5513129525e+00 
86900 4.8016684723e+00 4.8128235220e-03 2.6276103564e+00 -4.5511546398e+00 2.6276103564e+00 4.5511546398e+00 
87000 4.8016663555e+00 4.8221013761e-03 2.6275187752e+00 -4.5509960165e+00 2.6275187752e+00 4.5509960165e+00 
87100 4.8016642299e+00 4.8313970369e-03 2.6274270142e+00 -4.5508370819e+00 2.6274270142e+00 4.5508370819e+00 
87200 4.8016620954e+00 4.8407105495e-03 2.6273350732e+00 -4.5506778353e+00 2.6273350732e+00 4.5506778353e+00 
87300 4.8016599521e+00 4.8500419590e-03 2.6272429517e+00 -4.5505182761e+00 2.6272429517e+00 4.5505182761e+00 
87400 4.8016577999e+00 4.8593913102e-03 2.6271506493e+00 -4.5503584037e+00 2.6271506493e+00 4.5503584037e+00 
87500 4.8016556387e+00 4.8687586478e-03 2.6270581658e+00 -4.5501982176e+00 2.6270581658e+00 4.5501982176e+00 
87600 4.8016534686e+00 4.8781440161e-03 2.6269655007e+00 -4.5500377170e+00 2.6269655007e+00 4.5500377170e+00 
87700 4.8016512894e+00 4.8875474595e-03 2.6268726538e+00 -4.5498769013e+00 2.6268726538e+00 4.5498769013e+00 
87800 4.8016491011e+00 4.8969690222e-03 2.6267796245e+00 -4.5497157700e+00 2.6267796245e+00 4.5497157700e+00 
87900 4.8016469037e+00 4.9064087479e-03 2.6266864127e+00 -4.5495543223e+00 2.6266864127e+00 4.5495543223e+00 
88000 4.8016446971e+00 4.9158666803e-03 2.6265930178e+00 -4.5493925577e+00 2.6265930178e+00 4.5493925577e+00 
88100 4.8016424813e+00 4.9253428631e-03 2.6264994396e+00 -4.5492304755e+00 2.6264994396e+00 4.5492304755e+00 
88200 4.8016402563e+00 4.9348373396e-03 2.6264056777e+00 -4.5490680750e+00 2.6264056777e+00 4.5490680750e+00 
88300 4.8016380220e+00 4.9443501528e-03 2.6263117317e+00 -4.5489053557e+00 2.6263117317e+00 4.5489053557e+00 
88400 4.8016357783e+00 4.9538813458e-03 2.6262176012e+00 -4.5487423169e+00 2.6262176012e+00 4.5487423169e+00 
88500 4.8016335252e+00 4.9634309613e-03 2.6261232858e+00 -4.5485789580e+00 2.6261232858e+00 4.5485789580e+00 
88600 4.8016312628e+00 4.9729990419e-03 2.6260287853e+00 -4.5484152783e+00 2.6260287853e+00 4.5484152783e+00 
88700 4.8016289908e+00 4.9825856299e-03 2.6259340992e+00 -4.5482512771e+00 2.6259340992e+00 4.5482512771e+00 
88800 4.8016267094e+00 4.9921907675e-03 2.6258392271e+00 -4.5480869539e+00 2.6258392271e+00 4.5480869539e+00 
88900 4.8016244184e+00 5.0018144967e-03 2.6257441687e+00 -4.5479223079e+00 2.6257441687e+00 4.5479223079e+00 
89000 4.8016221178e+00 5.0114568593e-03 2.6256489237e+00 -4.5477573386e+00 2.6256489237e+00 4.5477573386e+00 
89100 4.8016198075e+00 5.0211178969e-03 2.6255534915e+00 -4.5475920453e+00 2.6255534915e+00 4.5475920453e+00 
89200 4.8016174876e+00 5.0307976508e-03 2.6254578719e+00 -4.5474264273e+00 2.6254578719e+00 4.5474264273e+00 
89300 4.8016151579e+00 5.0404961622e-03 2.6253620645e+00 -4.5472604839e+00 2.6253620645e+00 4.5472604839e+00 
89400 4.8016128185e+00 5.0502134721e-03 2.6252660689e+00 -4.5470942146e+00 2.6252660689e+00 4.5470942146e+00 
89500 4.8016104692e+00 5.0599496213e-03 2.6251698847e+00 -4.5469276187e+00 2.6251698847e+00 4.5469276187e+00 
89600 4.8016081100e+00 5.0697046504e-03 2.6250735115e+00 -4.5467606955e+00 2.6250735115e+00 4.5467606955e+00 
89700 4.8016057410e+00 5.0794785996e-03 2.6249769490e+00 -4.5465934443e+00 2.6249769490e+00 4.5465934443e+00 
89800 4.8016033619e+00 5.0892715092e-03 2.6248801967e+00 -4.5464258646e+00 2.6248801967e+00 4.5464258646e+00 
89900 4.8016009729e+00 5.0990834190e-03 2.6247832544e+00 -4.5462579555e+00 2.6247832544e+00 4.5462579555e+00 
90000 4.8015985738e+00 5.1089143689e-03 2.6246861216e+00 -4.5460897165e+00 2.6246861216e+00 4.5460897165e+00 
90100 4.8015961646e+00 5.1187643984e-03 2.6245887979e+00 -4.5459211470e+00 2.6245887979e+00 4.5459211470e+00 
90200 4.8015937452e+00 5.1286335466e-03 2.6244912830e+00 -4.5457522461e+00 2.6244912830e+00 4.5457522461e+00 
90300 4.8015913156e+00 5.1385218529e-03 2.6243935764e+00 -4.5455830133e+00 2.6243935764e+00 4.5455830133e+00 
90400 4.8015888758e+00 5.1484293559e-03 2.6242956778e+00 -4.5454134480e+00 2.6242956778e+00 4.5454134480e+00 
90500 4.8015864257e+00 5.1583560943e-03 2.6241975867e+00 -4.5452435493e+00 2.6241975867e+00 4.5452435493e+00 
90600 4.8015839652e+00 5.1683021067e-03 2.6240993029e+00 -4.5450733167e+00 2.6240993029e+00 4.5450733167e+00 
90700 4.8015814944e+00 5.1782674311e-03 2.6240008259e+00 -4.5449027495e+00 2.6240008259e+00 4.5449027495e+00 
90800 4.8015790131e+00 5.1882521056e-03 2.6239021553e+00 -4.5447318470e+00 2.6239021553e+00 4.5447318470e+00 
90900 4.8015765213e+00 5.1982561680e-03 2.6238032907e+00 -4.5445606085e+00 2.6238032907e+00 4.5445606085e+00 
91000 4.8015740190e+00 5.2082796557e-03 2.6237042318e+00 -4.5443890334e+00 2.6237042318e+00 4.5443890334e+00 
91100 4.8015715061e+00 5.2183226061e-03 2.6236049781e+00 -4.5442171210e+00 2.6236049781e+00 4.5442171210e+00 
91200 4.8015689825e+00 5.2283850561e-03 2.6235055292e+00 -4.5440448705e+00 2.6235055292e+00 4.5440448705e+00 
91300 4.8015664483e+00 5.2384670428e-03 2.6234058848e+00 -4.5438722814e+00 2.6234058848e+00 4.5438722814e+00 
91400 4.8015639033e+00 5.2485686026e-03 2.6233060445e+00 -4.5436993529e+00 2.6233060445e+00 4.5436993529e+00 
91500 4.8015613475e+00 5.2586897719e-03 2.6232060078e+00 -4.5435260843e+00 2.6232060078e+00 4.5435260843e+00 
91600 4.8015587809e+00 5.2688305868e-03 2.6231057745e+00 -4.5433524750e+00 2.6231057745e+00 4.5433524750e+00 
91700 4.8015562034e+00 5.2789910832e-03 2.6230053440e+00 -4.5431785243e+00 2.6230053440e+00 4.5431785243e+00 
91800 4.8015536149e+00 5.2891712968e-03 2.6229047159e+00 -4.5430042314e+00 2.6229047159e+00 4.5430042314e+00 
91900 4.8015510155e+00 5.2993712629e-03 2.6228038900e+00 -4.5428295957e+00 2.6228038900e+00 4.5428295957e+00 
92000 4.8015484050e+00 5.3095910166e-03 2.6227028657e+00 -4.5426546165e+00 2.6227028657e+00 4.5426546165e+00 
92100 4.8015457834e+00 5.3198305929e-03 2.6226016427e+00 -4.5424792932e+00 2.6226016427e+00 4.5424792932e+00 
92200 4.8015431507e+00 5.3300900264e-03 2.6225002206e+00 -4.5423036249e+00 2.6225002206e+00 4.5423036249e+00 
92300 4.8015405067e+00 5.3403693514e-03 2.6223985989e+00 -4.5421276111e+00 2.6223985989e+00 4.5421276111e+00 
92400 4.8015378515e+00 5.3506686021e-03 2.6222967774e+00 -4.5419512509e+00 2.6222967774e+00 4.5419512509e+00 
92500 4.8015351850e+00 5.3609878122e-03 2.6221947555e+00 -4.5417745438e+00 2.6221947555e+00 4.5417745438e+00 
92600 4.8015325071e+00 5.3713270156e-03 2.6220925328e+00 -4.5415974890e+00 2.6220925328e+00 4.5415974890e+00 
92700 4.8015298178e+00 5.3816862453e-03 2.6219901091e+00 -4.5414200858e+00 2.6219901091e+00 4.5414200858e+00 
92800 4.8015271171e+00 5.3920655346e-03 2.6218874838e+00 -4.5412423336e+00 2.6218874838e+00 4.5412423336e+00 
92900 4.8015244048e+00 5.4024649162e-03 2.6217846565e+00 -4.5410642315e+00 2.6217846565e+00 4.5410642315e+00 
93000 4.8015216809e+00 5.4128844225e-03 2.6216816269e+00 -4.5408857790e+00 2.6216816269e+00 4.5408857790e+00 
93100 4.8015189454e+00 5.4233240860e-03 2.6215783945e+00 -4.5407069753e+00 2.6215783945e+00 4.5407069753e+00 
93200 4.8015161982e+00 5.4337839384e-03 2.6214749589e+00 -4.5405278196e+00 2.6214749589e+00 4.5405278196e+00 
93300 4.8015134393e+00 5.4442640115e-03 2.6213713198e+00 -4.5403483114e+00 2.6213713198e+00 4.5403483114e+00 
93400 4.8015106686e+00 5.4547643368e-03 2.6212674767e+00 -4.5401684498e+00 2.6212674767e+00 4.5401684498e+00 
93500 4.8015078860e+00 5.4652849452e-03 2.6211634291e+00 -4.5399882342e+00 2.6211634291e+00 4.5399882342e+00 
93600 4.8015050915e+00 5.4758258676e-03 2.6210591768e+00 -4.5398076638e+00 2.6210591768e+00 4.5398076638e+00 
93700 4.8015022850e+00 5.4863871346e-03 2.6209547192e+00 -4.5396267380e+00 2.6209547192e+00 4.5396267380e+00 
93800 4.8014994665e+00 5.4969687763e-03 2.6208500560e+00 -4.5394454560e+00 2.6208500560e+00 4.5394454560e+00 
93900 4.8014966360e+00 5.5075708228e-03 2.6207451867e+00 -4.5392638171e+00 2.6207451867e+00 4.5392638171e+00 
94000 4.8014937932e+00 5.5181933036e-03 2.6206401110e+00 -4.5390818206e+00 2.6206401110e+00 4.5390818206e+00 
94100 4.8014909383e+00 5.5288362480e-03 2.6205348284e+00 -4.5388994658e+00 2.6205348284e+00 4.5388994658e+00 
94200 4.8014880712e+00 5.5394996851e-03 2.6204293385e+00 -4.5387167519e+00 2.6204293385e+00 4.5387167519e+00 
94300 4.8014851917e+00 5.5501836436e-03 2.6203236409e+00 -4.5385336783e+00 2.6203236409e+00 4.5385336783e+00 
94400 4.8014822999e+00 5.5608881518e-03 2.6202177352e+00 -4.5383502442e+00 2.6202177352e+00 4.5383502442e+00 
94500 4.8014793956e+00 5.5716132379e-03 2.6201116209e+00 -4.5381664489e+00 2.6201116209e+00 4.5381664489e+00 
94600 4.8014764788e+00 5.5823589295e-03 2.6200052976e+00 -4.5379822916e+00 2.6200052976e+00 4.5379822916e+00 
94700 4.8014735495e+00 5.5931252542e-03 2.6198987650e+00 -4.5377977717e+00 2.6198987650e+00 4.5377977717e+00 
94800 4.8014706076e+00 5.6039122389e-03 2.6197920226e+00 -4.5376128884e+00 2.6197920226e+00 4.5376128884e+00 
94900 4.8014676530e+00 5.6147199105e-03 2.6196850699e+00 -4.5374276409e+00 2.6196850699e+00 4.5374276409e+00 
95000 4.8014646857e+00 5.6255482954e-03 2.6195779066e+00 -4.5372420287e+00 2.6195779066e+00 4.5372420287e+00 
95100 4.8014617056e+00 5.6363974197e-03 2.6194705323e+00 -4.5370560508e+00 2.6194705323e+00 4.5370560508e+00 
95200 4.8014587127e+00 5.6472673092e-03 2.6193629464e+00 -4.5368697067e+00 2.6193629464e+00 4.5368697067e+00 
95300 4.8014557068e+00 5.6581579891e-03 2.6192551487e+00 -4.5366829955e+00 2.6192551487e+00 4.5366829955e+00 
95400 4.8014526880e+00 5.6690694847e-03 2.6191471386e+00 -4.5364959165e+00 2.6191471386e+00 4.5364959165e+00 
95500 4.8014496562e+00 5.6800018206e-03 2.6190389158e+00 -4.5363084691e+00 2.6190389158e+00 4.5363084691e+00 
95600 4.8014466112e+00 5.6909550211e-03 2.6189304798e+00 -4.5361206524e+00 2.6189304798e+00 4.5361206524e+00 
95700 4.8014435531e+00 5.7019291102e-03 2.6188218301e+00 -4.5359324658e+00 2.6188218301e+00 4.5359324658e+00 
95800 4.8014404818e+00 5.7129241116e-03 2.6187129665e+00 -4.5357439084e+00 2.6187129665e+00 4.5357439084e+00 
95900 4.8014373972e+00 5.7239400484e-03 2.6186038884e+00 -4.5355549796e+00 2.6186038884e+00 4.5355549796e+00 
96000 4.8014342993e+00 5.7349769437e-03 2.6184945954e+00 -4.5353656786e+00 2.6184945954e+00 4.5353656786e+00 
96100 4.8014311879e+00 5.7460348198e-03 2.6183850871e+00 -4.5351760047e+00 2.6183850871e+00 4.5351760047e+00 
96200 4.8014280631e+00 5.7571136989e-03 2.6182753631e+00 -4.5349859571e+00 2.6182753631e+00 4.5349859571e+00 
96300 4.8014249247e+00 5.7682136027e-03 2.6181654229e+00 -4.5347955352e+00 2.6181654229e+00 4.5347955352e+00 
96400 4.8014217728e+00 5.7793345525e-03 2.6180552662e+00 -4.5346047380e+00 2.6180552662e+00 4.5346047380e+00 
96500 4.8014186071e+00 5.7904765694e-03 2.6179448924e+00 -4.5344135650e+00 2.6179448924e+00 4.5344135650e+00 
96600 4.8014154278e+00 5.8016396739e-03 2.6178343011e+00 -4.5342220153e+00 2.6178343011e+00 4.5342220153e+00 
96700 4.8014122346e+00 5.8128238861e-03 2.6177234920e+00 -4.5340300883e+00 2.6177234920e+00 4.5340300883e+00 
96800 4.8014090276e+00 5.8240292258e-03 2.6176124646e+00 -4.5338377831e+00 2.6176124646e+00 4.5338377831e+00 
96900 4.8014058067e+00 5.8352557122e-03 2.6175012184e+00 -4.5336450991e+00 2.6175012184e+00 4.5336450991e+00 
97000 4.8014025718e+00 5.8465033645e-03 2.6173897530e+00 -4.5334520354e+00 2.6173897530e+00 4.5334520354e+00 
97100 4.8013993228e+00 5.8577722009e-03 2.6172780680e+00 -4.5332585914e+00 2.6172780680e+00 4.5332585914e+00 
97200 4.8013960596e+00 5.8690622397e-03 2.6171661630e+00 -4.5330647662e+00 2.6171661630e+00 4.5330647662e+00 
97300 4.8013927823e+00 5.8803734984e-03 2.6170540376e+00 -4.5328705592e+00 2.6170540376e+00 4.5328705592e+00 
97400 4.8013894908e+00 5.8917059943e-03 2.6169416912e+00 -4.5326759695e+00 2.6169416912e+00 4.5326759695e+00 
97500 4.8013861848e+00 5.9030597442e-03 2.6168291234e+00 -4.5324809965e+00 2.6168291234e+00 4.5324809965e+00 
97600 4.8013828645e+00 5.9144347643e-03 2.6167163339e+00 -4.5322856394e+00 2.6167163339e+00 4.5322856394e+00 
97700 4.8013795298e+00 5.9258310706e-03 2.6166033222e+00 -4.5320898973e+00 2.6166033222e+00 4.5320898973e+00 
97800 4.8013761805e+00 5.9372486785e-03 2.6164900878e+00 -4.5318937697e+00 2.6164900878e+00 4.5318937697e+00 
97900 4.8013728165e+00 5.9486876031e-03 2.6163766304e+00 -4.5316972556e+00 2.6163766304e+00 4.5316972556e+00 
98000 4.8013694380e+00 5.9601478587e-03 2.6162629494e+00 -4.5315003544e+00 2.6162629494e+00 4.5315003544e+00 
98100 4.8013660446e+00 5.9716294594e-03 2.6161490445e+00 -4.5313030653e+00 2.6161490445e+00 4.5313030653e+00 
98200 4.8013626365e+00 5.9831324189e-03 2.6160349152e+00 -4.5311053875e+00 2.6160349152e+00 4.5311053875e+00 
98300 4.8013592134e+00 5.9946567501e-03 2.6159205610e+00 -4.5309073203e+00 2.6159205610e+00 4.5309073203e+00 
98400 4.8013557754e+00 6.0062024658e-03 2.6158059816e+00 -4.5307088629e+00 2.6158059816e+00 4.5307088629e+00 
98500 4.8013523224e+00 6.0177695780e-03 2.6156911765e+00 -4.5305100146e+00 2.6156911765e+00 4.5305100146e+00 
98600 4.8013488543e+00 6.0293580984e-03 2.6155761452e+00 -4.5303107746e+00 2.6155761452e+00 4.5303107746e+00 
98700 4.8013453710e+00 6.0409680381e-03 2.6154608874e+00 -4.5301111422e+00 2.6154608874e+00 4.5301111422e+00 
98800 4.8013418724e+00 6.0525994077e-03 2.6153454025e+00 -4.5299111165e+00 2.6153454025e+00 4.5299111165e+00 
98900 4.8013383586e+00 6.0642522173e-03 2.6152296902e+00 -4.5297106968e+00 2.6152296902e+00 4.5297106968e+00 
99000 4.8013348293e+00 6.0759264766e-03 2.6151137499e+00 -4.5295098824e+00 2.6151137499e+00 4.5295098824e+00 
99100 4.8013312846e+00 6.0876221946e-03 2.6149975813e+00 -4.5293086725e+00 2.6149975813e+00 4.5293086725e+00 
99200 4.8013277244e+00 6.0993393798e-03 2.6148811840e+00 -4.5291070664e+00 2.6148811840e+00 4.5291070664e+00 
99300 4.8013241485e+00 6.1110780403e-03 2.6147645574e+00 -4.5289050632e+00 2.6147645574e+00 4.5289050632e+00 
99400 4.8013205570e+00 6.1228381836e-03 2.6146477011e+00 -4.5287026622e+00 2.6146477011e+00 4.5287026622e+00 
99500 4.8013169496e+00 6.1346198165e-03 2.6145306147e+00 -4.5284998626e+00 2.6145306147e+00 4.5284998626e+00 
99600 4.8013133265e+00 6.1464229455e-03 2.6144132978e+00 -4.5282966638e+00 2.6144132978e+00 4.5282966638e+00 
99700 4.8013096874e+00 6.1582475764e-03 2.6142957499e+00 -4.5280930648e+00 2.6142957499e+00 4.5280930648e+00 
99800 4.8013060324e+00 6.1700937145e-03 2.6141779705e+00 -4.5278890650e+00 2.6141779705e+00 4.5278890650e+00 
99900 4.8013023612e+00 6.1819613644e-03 2.6140599593e+00 -4.5276846635e+00 2.6140599593e+00 4.5276846635e+00 
100000 4.8012986740e+00 6.1938505303e-03 2.6139417157e+00 -4.5274798597e+00 2.6139417157e+00 4.5274798597e+00 
100100 4.8012949705e+00 6.2057612156e-03 2.6138232394e+00 -4.5272746527e+00 2.6138232394e+00 4.5272746527e+00 
100200 4.8012912507e+00 6.2176934235e-03 2.6137045299e+00 -4.5270690417e+00 2.6137045299e+00 4.5270690417e+00 
100300 4.8012875146e+00 6.2296471561e-03 2.6135855867e+00 -4.5268630261e+00 2.6135855867e+00 4.5268630261e+00 
100400 4.8012837620e+00 6.2416224154e-03 2.6134664094e+00 -4.5266566050e+00 2.6134664094e+00 4.5266566050e+00 
100500 4.8012799928e+00 6.2536192023e-03 2.6133469976e+00 -4.5264497777e+00 2.6133469976e+00 4.5264497777e+00 
100600 4.8012762071e+00 6.2656375175e-03 2.6132273509e+00 -4.5262425434e+00 2.6132273509e+00 4.5262425434e+00 
100700 4.8012724047e+00 6.2776773609e-03 2.6131074686e+00 -4.5260349013e+00 2.6131074686e+00 4.5260349013e+00 
100800 4.8012685855e+00 6.2897387317e-03 2.6129873506e+00 -4.5258268507e+00 2.6129873506e+00 4.5258268507e+00 
100900 4.8012647494e+00 6.3018216287e-03 2.6128669962e+00 -4.5256183908e+00 2.6128669962e+00 4.5256183908e+00 
101000 4.8012608964e+00 6.3139260498e-03 2.6127464050e+00 -4.5254095207e+00 2.6127464050e+00 4.5254095207e+00 
101100 4.8012570264e+00 6.3260519924e-03 2.6126255766e+00 -4.5252002399e+00 2.6126255766e+00 4.5252002399e+00 
101200 4.8012531393e+00 6.3381994532e-03 2.6125045106e+00 -4.5249905474e+00 2.6125045106e+00 4.5249905474e+00 
101300 4.8012492351e+00 6.3503684283e-03 2.6123832065e+00 -4.5247804425e+00 2.6123832065e+00 4.5247804425e+00 
101400 4.8012453136e+00 6.3625589131e-03 2.6122616639e+00 -4.5245699245e+00 2.6122616639e+00 4.5245699245e+00 
101500 4.8012413747e+00 6.3747709022e-03 2.6121398822e+00 -4.5243589925e+00 2.6121398822e+00 4.5243589925e+00 
101600 4.8012374184e+00 6.3870043898e-03 2.6120178612e+00 -4.5241476459e+00 2.6120178612e+00 4.5241476459e+00 
101700 4.8012334447e+00 6.3992593691e-03 2.6118956003e+00 -4.5239358837e+00 2.6118956003e+00 4.5239358837e+00 
101800 4.8012294533e+00 6.4115358327e-03 2.6117730990e+00 -4.5237237053e+00 2.6117730990e+00 4.5237237053e+00 
101900 4.8012254443e+00 6.4238337727e-03 2.6116503570e+00 -4.5235111099e+00 2.6116503570e+00 4.5235111099e+00 
102000 4.8012214175e+00 6.4361531802e-03 2.6115273738e+00 -4.5232980968e+00 2.6115273738e+00 4.5232980968e+00 
102100 4.8012173728e+00 6.4484940458e-03 2.6114041489e+00 -4.5230846650e+00 2.6114041489e+00 4.5230846650e+00 
102200 4.8012133103e+00 6.4608563592e-03 2.6112806819e+00 -4.5228708140e+00 2.6112806819e+00 4.5228708140e+00 
102300 4.8012092297e+00 6.4732401094e-03 2.6111569724e+00 -4.5226565428e+00 2.6111569724e+00 4.5226565428e+00 
102400 4.8012051310e+00 6.4856452848e-03 2.6110330199e+00 -4.5224418508e+00 2.6110330199e+00 4.5224418508e+00 
102500 4.8012010142e+00 6.4980718730e-03 2.6109088240e+00 -4.5222267371e+00 2.6109088240e+00 4.5222267371e+00 
102600 4.8011968791e+00 6.5105198606e-03 2.6107843842e+00 -4.5220112010e+00 2.6107843842e+00 4.5220112010e+00 
102700 4.8011927256e+00 6.5229892338e-03 2.6106597000e+00 -4.5217952417e+00 2.6106597000e+00 4.5217952417e+00 
102800 4.8011885537e+00 6.5354799777e-03 2.6105347711e+00 -4.5215788585e+00 2.6105347711e+00 4.5215788585e+00 
102900 4.8011843632e+00 6.5479920769e-03 2.6104095970e+00 -4.5213620506e+00 2.6104095970e+00 4.5213620506e+00 
103000 4.8011801541e+00 6.5605255150e-03 2.6102841772e+00 -4.5211448172e+00 2.6102841772e+00 4.5211448172e+00 
103100 4.8011759263e+00 6.5730802749e-03 2.6101585114e+00 -4.5209271575e+00 2.6101585114e+00 4.5209271575e+00 
103200 4.8011716798e+00 6.5856563387e-03 2.6100325989e+00 -4.5207090708e+00 2.6100325989e+00 4.5207090708e+00 
103300 4.8011674143e+00 6.5982536875e-03 2.6099064395e+00 -4.5204905563e+00 2.6099064395e+00 4.5204905563e+00 
103400 4.8011631298e+00 6.6108723019e-03 2.6097800327e+00 -4.5202716132e+00 2.6097800327e+00 4.5202716132e+00 
103500 4.8011588263e+00 6.6235121615e-03 2.6096533780e+00 -4.5200522408e+00 2.6096533780e+00 4.5200522408e+00 
103600 4.8011545036e+00 6.6361732449e-03 2.6095264750e+00 -4.5198324383e+00 2.6095264750e+00 4.5198324383e+00 
103700 4.8011501617e+00 6.6488555302e-03 2.6093993232e+00 -4.5196122050e+00 2.6093993232e+00 4.5196122050e+00 
103800 4.8011458004e+00 6.6615589942e-03 2.6092719222e+00 -4.5193915400e+00 2.6092719222e+00 4.5193915400e+00 
103900 4.8011414197e+00 6.6742836133e-03 2.6091442715e+00 -4.5191704426e+00 2.6091442715e+00 4.5191704426e+00 
104000 4.8011370194e+00 6.6870293626e-03 2.6090163708e+00 -4.5189489120e+00 2.6090163708e+00 4.5189489120e+00 
104100 4.8011325996e+00 6.6997962167e-03 2.6088882195e+00 -4.5187269475e+00 2.6088882195e+00 4.5187269475e+00 
104200 4.8011281600e+00 6.7125841489e-03 2.6087598173e+00 -4.5185045483e+00 2.6087598173e+00 4.5185045483e+00 
104300 4.8011237006e+00 6.7253931320e-03 2.6086311637e+00 -4.5182817137e+00 2.6086311637e+00 4.5182817137e+00 
104400 4.8011192213e+00 6.7382231377e-03 2.6085022582e+00 -4.5180584428e+00 2.6085022582e+00 4.5180584428e+00 
104500 4.8011147221e+00 6.7510741366e-03 2.6083731004e+00 -4.5178347350e+00 2.6083731004e+00 4.5178347350e+00 
104600 4.8011102027e+00 6.7639460986e-03 2.6082436899e+00 -4.5176105894e+00 2.6082436899e+00 4.5176105894e+00 
104700 4.8011056631e+00 6.7768389927e-03 2.6081140262e+00 -4.5173860053e+00 2.6081140262e+00 4.5173860053e+00 
104800 4.8011011033e+00 6.7897527867e-03 2.6079841089e+00 -4.5171609819e+00 2.6079841089e+00 4.5171609819e+00 
104900 4.8010965231e+00 6.8026874477e-03 2.6078539375e+00 -4.5169355185e+00 2.6078539375e+00 4.5169355185e+00 
105000 4.8010919224e+00 6.8156429416e-03 2.6077235117e+00 -4.5167096143e+00 2.6077235117e+00 4.5167096143e+00 
105100 4.8010873011e+00 6.8286192336e-03 2.6075928309e+00 -4.5164832686e+00 2.6075928309e+00 4.5164832686e+00 
105200 4.8010826592e+00 6.8416162875e-03 2.6074618948e+00 -4.5162564806e+00 2.6074618948e+00 4.5162564806e+00 
105300 4.8010779965e+00 6.8546340665e-03 2.6073307029e+00 -4.5160292495e+00 2.6073307029e+00 4.5160292495e+00 
105400 4.8010733129e+00 6.8676725326e-03 2.6071992547e+00 -4.5158015746e+00 2.6071992547e+00 4.5158015746e+00 
105500 4.8010686084e+00 6.8807316467e-03 2.6070675499e+00 -4.5155734552e+00 2.6070675499e+00 4.5155734552e+00 
105600 4.8010638827e+00 6.8938113689e-03 2.6069355879e+00 -4.5153448904e+00 2.6069355879e+00 4.5153448904e+00 
105700 4.8010591360e+00 6.9069116581e-03 2.6068033685e+00 -4.5151158795e+00 2.6068033685e+00 4.5151158795e+00 
105800 4.8010543679e+00 6.9200324721e-03 2.6066708910e+00 -4.5148864219e+00 2.6066708910e+00 4.5148864219e+00 
105900 4.8010495785e+00 6.9331737678e-03 2.6065381552e+00 -4.5146565166e+00 2.6065381552e+00 4.5146565166e+00 
106000 4.8010447677e+00 6.9463355008e-03 2.6064051605e+00 -4.5144261631e+00 2.6064051605e+00 4.5144261631e+00 
106100 4.8010399352e+00 6.9595176259e-03 2.6062719065e+00 -4.5141953604e+00 2.6062719065e+00 4.5141953604e+00 
106200 4.8010350811e+00 6.9727200966e-03 2.6061383929e+00 -4.5139641080e+00 2.6061383929e+00 4.5139641080e+00 
106300 4.8010302053e+00 6.9859428654e-03 2.6060046191e+00 -4.5137324050e+00 2.6060046191e+00 4.5137324050e+00 
106400 4.8010253075e+00 6.9991858835e-03 2.6058705847e+00 -4.5135002507e+00 2.6058705847e+00 4.5135002507e+00 
106500 4.8010203878e+00 7.0124491012e-03 2.6057362894e+00 -4.5132676443e+00 2.6057362894e+00 4.5132676443e+00 
106600 4.8010154460e+00 7.0257324675e-03 2.6056017326e+00 -4.5130345851e+00 2.6056017326e+00 4.5130345851e+00 
106700 4.8010104820e+00 7.0390359304e-03 2.6054669140e+00 -4.5128010725e+00 2.6054669140e+00 4.5128010725e+00 
106800 4.8010054957e+00 7.0523594365e-03 2.6053318331e+00 -4.5125671055e+00 2.6053318331e+00 4.5125671055e+00 
106900 4.8010004870e+00 7.0657029316e-03 2.6051964895e+00 -4.5123326836e+00 2.6051964895e+00 4.5123326836e+00 
107000 4.8009954558e+00 7.0790663599e-03 2.6050608828e+00 -4.5120978059e+00 2.6050608828e+00 4.5120978059e+00 
107100 4.8009904020e+00 7.0924496646e-03 2.6049250126e+00 -4.5118624717e+00 2.6049250126e+00 4.5118624717e+00 
107200 4.8009853255e+00 7.1058527879e-03 2.6047888784e+00 -4.5116266804e+00 2.6047888784e+00 4.5116266804e+00 
107300 4.8009802262e+00 7.1192756703e-03 2.6046524798e+00 -4.5113904311e+00 2.6046524798e+00 4.5113904311e+00 
107400 4.8009751039e+00 7.1327182514e-03 2.6045158164e+00 -4.5111537231e+00 2.6045158164e+00 4.5111537231e+00 
107500 4.8009699586e+00 7.1461804696e-03 2.6043788878e+00 -4.5109165558e+00 2.6043788878e+00 4.5109165558e+00 
107600 4.8009647902e+00 7.1596622618e-03 2.6042416935e+00 -4.5106789283e+00 2.6042416935e+00 4.5106789283e+00 
107700 4.8009595985e+00 7.1731635639e-03 2.6041042332e+00 -4.5104408400e+00 2.6041042332e+00 4.5104408400e+00 
107800 4.8009543835e+00 7.1866843102e-03 2.6039665063e+00 -4.5102022902e+00 2.6039665063e+00 4.5102022902e+00 
107900 4.8009491449e+00 7.2002244341e-03 2.6038285126e+00 -4.5099632780e+00 2.6038285126e+00 4.5099632780e+00 
108000 4.8009438828e+00 7.2137838673e-03 2.6036902516e+00 -4.5097238029e+00 2.6036902516e+00 4.5097238029e+00 
108100 4.8009385970e+00 7.2273625405e-03 2.6035517228e+00 -4.5094838640e+00 2.6035517228e+00 4.5094838640e+00 
108200 4.8009332874e+00 7.2409603828e-03 2.6034129259e+00 -4.5092434607e+00 2.6034129259e+00 4.5092434607e+00 
108300 4.8009279539e+00 7.2545773223e-03 2.6032738604e+00 -4.5090025923e+00 2.6032738604e+00 4.5090025923e+00 
108400 4.8009225964e+00 7.2682132853e-03 2.6031345260e+00 -4.5087612580e+00 2.6031345260e+00 4.5087612580e+00 
108500 4.8009172147e+00 7.2818681972e-03 2.6029949223e+00 -4.5085194572e+00 2.6029949223e+00 4.5085194572e+00 
108600 4.8009118088e+00 7.2955419816e-03 2.6028550487e+00 -4.5082771891e+00 2.6028550487e+00 4.5082771891e+00 
108700 4.8009063785e+00 7.3092345610e-03 2.6027149050e+00 -4.5080344530e+00 2.6027149050e+00 4.5080344530e+00 
108800 4.8009009237e+00 7.3229458563e-03 2.6025744906e+00 -4.5077912483e+00 2.6025744906e+00 4.5077912483e+00 
108900 4.8008954444e+00 7.3366757872e-03 2.6024338053e+00 -4.5075475742e+00 2.6024338053e+00 4.5075475742e+00 
109000 4.8008899403e+00 7.3504242717e-03 2.6022928486e+00 -4.5073034300e+00 2.6022928486e+00 4.5073034300e+00 
109100 4.8008844114e+00 7.3641912266e-03 2.6021516201e+00 -4.5070588151e+00 2.6021516201e+00 4.5070588151e+00 
109200 4.8008788576e+00 7.3779765670e-03 2.6020101195e+00 -4.5068137287e+00 2.6020101195e+00 4.5068137287e+00 
109300 4.8008732788e+00 7.3917802067e-03 2.6018683462e+00 -4.5065681702e+00 2.6018683462e+00 4.5065681702e+00 
109400 4.8008676747e+00 7.4056020579e-03 2.6017262999e+00 -4.5063221389e+00 2.6017262999e+00 4.5063221389e+00 
109500 4.8008620454e+00 7.4194420315e-03 2.6015839803e+00 -4.5060756341e+00 2.6015839803e+00 4.5060756341e+00 
109600 4.8008563907e+00 7.4333000367e-03 2.6014413869e+00 -4.5058286550e+00 2.6014413869e+00 4.5058286550e+00 
109700 4.8008507104e+00 7.4471759811e-03 2.6012985193e+00 -4.5055812012e+00 2.6012985193e+00 4.5055812012e+00 
109800 4.8008450045e+00 7.4610697709e-03 2.6011553772e+00 -4.5053332717e+00 2.6011553772e+00 4.5053332717e+00 
109900 4.8008392729e+00 7.4749813108e-03 2.6010119602e+00 -4.5050848661e+00 2.6010119602e+00 4.5050848661e+00 
110000 4.8008335154e+00 7.4889105037e-03 2.6008682678e+00 -4.5048359836e+00 2.6008682678e+00 4.5048359836e+00 
110100 4.8008277319e+00 7.5028572512e-03 2.6007242997e+00 -4.5045866235e+00 2.6007242997e+00 4.5045866235e+00 
110200 4.8008219223e+00 7.5168214530e-03 2.6005800555e+00 -4.5043367852e+00 2.6005800555e+00 4.5043367852e+00 
110300 4.8008160864e+00 7.5308030074e-03 2.6004355348e+00 -4.5040864681e+00 2.6004355348e+00 4.5040864681e+00 
110400 4.8008102242e+00 7.5448018110e-03 2.6002907373e+00 -4.5038356714e+00 2.6002907373e+00 4.5038356714e+00 
110500 4.8008043355e+00 7.5588177587e-03 2.6001456625e+00 -4.5035843945e+00 2.6001456625e+00 4.5035843945e+00 
110600 4.8007984202e+00 7.5728507439e-03 2.6000003101e+00 -4.5033326368e+00 2.6000003101e+00 4.5033326368e+00 
110700 4.8007924782e+00 7.5869006581e-03 2.5998546797e+00 -4.5030803976e+00 2.5998546797e+00 4.5030803976e+00 
110800 4.8007865093e+00 7.6009673913e-03 2.5997087710e+00 -4.5028276763e+00 2.5997087710e+00 4.5028276763e+00 
110900 4.8007805135e+00 7.6150508316e-03 2.5995625836e+00 -4.5025744722e+00 2.5995625836e+00 4.5025744722e+00 
111000 4.8007744906e+00 7.6291508657e-03 2.5994161170e+00 -4.5023207847e+00 2.5994161170e+00 4.5023207847e+00 
111100 4.8007684405e+00 7.6432673782e-03 2.5992693710e+00 -4.5020666131e+00 2.5992693710e+00 4.5020666131e+00 
111200 4.8007623630e+00 7.6574002522e-03 2.5991223452e+00 -4.5018119569e+00 2.5991223452e+00 4.5018119569e+00 
111300 4.8007562581e+00 7.6715493689e-03 2.5989750391e+00 -4.5015568154e+00 2.5989750391e+00 4.5015568154e+00 
111400 4.8007501256e+00 7.6857146077e-03 2.5988274525e+00 -4.5013011879e+00 2.5988274525e+00 4.5013011879e+00 
111500 4.8007439653e+00 7.6998958465e-03 2.5986795851e+00 -4.5010450739e+00 2.5986795851e+00 4.5010450739e+00 
111600 4.8007377772e+00 7.7140929608e-03 2.5985314363e+00 -4.5007884727e+00 2.5985314363e+00 4.5007884727e+00 
111700 4.8007315612e+00 7.7283058249e-03 2.5983830059e+00 -4.5005313838e+00 2.5983830059e+00 4.5005313838e+00 
111800 4.8007253171e+00 7.7425343109e-03 2.5982342936e+00 -4.5002738065e+00 2.5982342936e+00 4.5002738065e+00 
111900 4.8007190447e+00 7.7567782891e-03 2.5980852989e+00 -4.5000157402e+00 2.5980852989e+00 4.5000157402e+00 
112000 4.8007127440e+00 7.7710376279e-03 2.5979360216e+00 -4.4997571843e+00 2.5979360216e+00 4.4997571843e+00 
112100 4.8007064148e+00 7.7853121939e-03 2.5977864613e+00 -4.4994981382e+00 2.5977864613e+00 4.4994981382e+00 
112200 4.8007000570e+00 7.7996018517e-03 2.5976366176e+00 -4.4992386013e+00 2.5976366176e+00 4.4992386013e+00 
112300 4.8006936705e+00 7.8139064639e-03 2.5974864903e+00 -4.4989785731e+00 2.5974864903e+00 4.4989785731e+00 
112400 4.8006872551e+00 7.8282258915e-03 2.5973360789e+00 -4.4987180530e+00 2.5973360789e+00 4.4987180530e+00 
112500 4.8006808107e+00 7.8425599931e-03 2.5971853831e+00 -4.4984570403e+00 2.5971853831e+00 4.4984570403e+00 
112600 4.8006743372e+00 7.8569086256e-03 2.5970344027e+00 -4.4981955345e+00 2.5970344027e+00 4.4981955345e+00 
112700 4.8006678344e+00 7.8712716438e-03 2.5968831372e+00 -4.4979335350e+00 2.5968831372e+00 4.4979335350e+00 
112800 4.8006613022e+00 7.8856489005e-03 2.5967315864e+00 -4.4976710413e+00 2.5967315864e+00 4.4976710413e+00 
112900 4.8006547405e+00 7.9000402465e-03 2.5965797499e+00 -4.4974080528e+00 2.5965797499e+00 4.4974080528e+00 
113000 4.8006481492e+00 7.9144455307e-03 2.5964276274e+00 -4.4971445689e+00 2.5964276274e+00 4.4971445689e+00 
113100 4.8006415281e+00 7.9288645995e-03 2.5962752186e+00 -4.4968805891e+00 2.5962752186e+00 4.4968805891e+00 
113200 4.8006348770e+00 7.9432972978e-03 2.5961225232e+00 -4.4966161129e+00 2.5961225232e+00 4.4966161129e+00 
113300 4.8006281959e+00 7.9577434679e-03 2.5959695409e+00 -4.4963511397e+00 2.5959695409e+00 4.4963511397e+00 
113400 4.8006214846e+00 7.9722029502e-03 2.5958162712e+00 -4.4960856689e+00 2.5958162712e+00 4.4960856689e+00 
113500 4.8006147430e+00 7.9866755831e-03 2.5956627141e+00 -4.4958197001e+00 2.5956627141e+00 4.4958197001e+00 
113600 4.8006079709e+00 8.0011612026e-03 2.5955088690e+00 -4.4955532326e+00 2.5955088690e+00 4.4955532326e+00 
113700 4.8006011683e+00 8.0156596428e-03 2.5953547358e+00 -4.4952862661e+00 2.5953547358e+00 4.4952862661e+00 
113800 4.8005943349e+00 8.0301707352e-03 2.5952003142e+00 -4.4950187999e+00 2.5952003142e+00 4.4950187999e+00 
113900 4.8005874707e+00 8.0446943096e-03 2.5950456037e+00 -4.4947508336e+00 2.5950456037e+00 4.4947508336e+00 
114000 4.8005805754e+00 8.0592301933e-03 2.5948906042e+00 -4.4944823666e+00 2.5948906042e+00 4.4944823666e+00 
114100 4.8005736491e+00 8.0737782114e-03 2.5947353154e+00 -4.4942133985e+00 2.5947353154e+00 4.4942133985e+00 
114200 4.8005666914e+00 8.0883381867e-03 2.5945797370e+00 -4.4939439288e+00 2.5945797370e+00 4.4939439288e+00 
114300 4.8005597024e+00 8.1029099398e-03 2.5944238686e+00 -4.4936739569e+00 2.5944238686e+00 4.4936739569e+00 
114400 4.8005526818e+00 8.1174932890e-03 2.5942677101e+00 -4.4934034823e+00 2.5942677101e+00 4.4934034823e+00 
114500 4.8005456295e+00 8.1320880502e-03 2.5941112611e+00 -4.4931325047e+00 2.5941112611e+00 4.4931325047e+00 
114600 4.8005385453e+00 8.1466940372e-03 2.5939545214e+00 -4.4928610235e+00 2.5939545214e+00 4.4928610235e+00 
114700 4.8005314293e+00 8.1613110612e-03 2.5937974906e+00 -4.4925890383e+00 2.5937974906e+00 4.4925890383e+00 
114800 4.8005242811e+00 8.1759389312e-03 2.5936401686e+00 -4.4923165486e+00 2.5936401686e+00 4.4923165486e+00 
114900 4.8005171007e+00 8.1905774536e-03 2.5934825551e+00 -4.4920435540e+00 2.5934825551e+00 4.4920435540e+00 
115000 4.8005098878e+00 8.2052264327e-03 2.5933246498e+00 -4.4917700539e+00 2.5933246498e+00 4.4917700539e+00 
115100 4.8005026425e+00 8.2198856701e-03 2.5931664524e+00 -4.4914960480e+00 2.5931664524e+00 4.4914960480e+00 
115200 4.8004953645e+00 8.2345549652e-03 2.5930079627e+00 -4.4912215359e+00 2.5930079627e+00 4.4912215359e+00 
115300 4.8004880537e+00 8.2492341148e-03 2.5928491805e+00 -4.4909465170e+00 2.5928491805e+00 4.4909465170e+00 
115400 4.8004807100e+00 8.2639229133e-03 2.5926901055e+00 -4.4906709910e+00 2.5926901055e+00 4.4906709910e+00 
115500 4.8004733331e+00 8.2786211524e-03 2.5925307375e+00 -4.4903949575e+00 2.5925307375e+00 4.4903949575e+00 
115600 4.8004659231e+00 8.2933286215e-03 2.5923710762e+00 -4.4901184160e+00 2.5923710762e+00 4.4901184160e+00 
115700 4.8004584796e+00 8.3080451074e-03 2.5922111214e+00 -4.4898413662e+00 2.5922111214e+00 4.4898413662e+00 
115800 4.8004510026e+00 8.3227703944e-03 2.5920508729e+00 -4.4895638076e+00 2.5920508729e+00 4.4895638076e+00 
115900 4.8004434920e+00 8.3375042641e-03 2.5918903304e+00 -4.4892857399e+00 2.5918903304e+00 4.4892857399e+00 
116000 4.8004359476e+00 8.3522464956e-03 2.5917294938e+00 -4.4890071627e+00 2.5917294938e+00 4.4890071627e+00 
116100 4.8004283692e+00 8.3669968654e-03 2.5915683628e+00 -4.4887280756e+00 2.5915683628e+00 4.4887280756e+00 
116200 4.8004207567e+00 8.3817551473e-03 2.5914069372e+00 -4.4884484783e+00 2.5914069372e+00 4.4884484783e+00 
116300 4.8004131100e+00 8.3965211124e-03 2.5912452168e+00 -4.4881683703e+00 2.5912452168e+00 4.4881683703e+00 
116400 4.8004054289e+00 8.4112945294e-03 2.5910832013e+00 -4.4878877514e+00 2.5910832013e+00 4.4878877514e+00 
116500 4.8003977133e+00 8.4260751639e-03 2.5909208907e+00 -4.4876066211e+00 2.5909208907e+00 4.4876066211e+00 
116600 4.8003899630e+00 8.4408627792e-03 2.5907582847e+00 -4.4873249792e+00 2.5907582847e+00 4.4873249792e+00 
116700 4.8003821779e+00 8.4556571356e-03 2.5905953831e+00 -4.4870428253e+00 2.5905953831e+00 4.4870428253e+00 
116800 4.8003743578e+00 8.4704579907e-03 2.5904321857e+00 -4.4867601591e+00 2.5904321857e+00 4.4867601591e+00 
116900 4.8003665026e+00 8.4852650994e-03 2.5902686923e+00 -4.4864769804e+00 2.5902686923e+00 4.4864769804e+00 
117000 4.8003586122e+00 8.5000782137e-03 2.5901049028e+00 -4.4861932886e+00 2.5901049028e+00 4.4861932886e+00 
117100 4.8003506863e+00 8.5148970830e-03 2.5899408170e+00 -4.4859090837e+00 2.5899408170e+00 4.4859090837e+00 
117200 4.8003427249e+00 8.5297214536e-03 2.5897764348e+00 -4.4856243653e+00 2.5897764348e+00 4.4856243653e+00 
117300 4.8003347278e+00 8.5445510691e-03 2.5896117559e+00 -4.4853391330e+00 2.5896117559e+00 4.4853391330e+00 
117400 4.8003266948e+00 8.5593856703e-03 2.5894467802e+00 -4.4850533867e+00 2.5894467802e+00 4.4850533867e+00 
117500 4.8003186259e+00 8.5742249950e-03 2.5892815075e+00 -4.4847671261e+00 2.5892815075e+00 4.4847671261e+00 
117600 4.8003105208e+00 8.5890687781e-03 2.5891159378e+00 -4.4844803509e+00 2.5891159378e+00 4.4844803509e+00 
117700 4.8003023794e+00 8.6039167515e-03 2.5889500708e+00 -4.4841930608e+00 2.5889500708e+00 4.4841930608e+00 
117800 4.8002942015e+00 8.6187686444e-03 2.5887839064e+00 -4.4839052557e+00 2.5887839064e+00 4.4839052557e+00 
117900 4.8002859871e+00 8.6336241828e-03 2.5886174445e+00 -4.4836169353e+00 2.5886174445e+00 4.4836169353e+00 
118000 4.8002777359e+00 8.6484830898e-03 2.5884506850e+00 -4.4833280994e+00 2.5884506850e+00 4.4833280994e+00 
118100 4.8002694478e+00 8.6633450854e-03 2.5882836278e+00 -4.4830387477e+00 2.5882836278e+00 4.4830387477e+00 
118200 4.8002611227e+00 8.6782098867e-03 2.5881162726e+00 -4.4827488801e+00 2.5881162726e+00 4.4827488801e+00 
118300 4.8002527604e+00 8.6930772076e-03 2.5879486195e+00 -4.4824584963e+00 2.5879486195e+00 4.4824584963e+00 
118400 4.8002443608e+00 8.7079467592e-03 2.5877806683e+00 -4.4821675963e+00 2.5877806683e+00 4.4821675963e+00 
118500 4.8002359237e+00 8.7228182492e-03 2.5876124188e+00 -4.4818761797e+00 2.5876124188e+00 4.4818761797e+00 
118600 4.8002274489e+00 8.7376913824e-03 2.5874438711e+00 -4.4815842465e+00 2.5874438711e+00 4.4815842465e+00 
118700 4.8002189363e+00 8.7525658603e-03 2.5872750250e+00 -4.4812917964e+00 2.5872750250e+00 4.4812917964e+00 
118800 4.8002103858e+00 8.7674413815e-03 2.5871058804e+00 -4.4809988295e+00 2.5871058804e+00 4.4809988295e+00 
118900 4.8002017972e+00 8.7823176411e-03 2.5869364373e+00 -4.4807053454e+00 2.5869364373e+00 4.4807053454e+00 
119000 4.8001931704e+00 8.7971943312e-03 2.5867666956e+00 -4.4804113441e+00 2.5867666956e+00 4.4804113441e+00 
119100 4.8001845051e+00 8.8120711408e-03 2.5865966552e+00 -4.4801168254e+00 2.5865966552e+00 4.4801168254e+00 
119200 4.8001758013e+00 8.8269477554e-03 2.5864263160e+00 -4.4798217893e+00 2.5864263160e+00 4.4798217893e+00 
119300 4.8001670588e+00 8.8418238574e-03 2.5862556780e+00 -4.4795262357e+00 2.5862556780e+00 4.4795262357e+00 
119400 4.8001582775e+00 8.8566991260e-03 2.5860847412e+00 -4.4792301644e+00 2.5860847412e+00 4.4792301644e+00 
119500 4.8001494571e+00 8.8715732370e-03 2.5859135055e+00 -4.4789335755e+00 2.5859135055e+00 4.4789335755e+00 
119600 4.8001405976e+00 8.8864458628e-03 2.5857419708e+00 -4.4786364688e+00 2.5857419708e+00 4.4786364688e+00 
119700 4.8001316988e+00 8.9013166727e-03 2.5855701372e+00 -4.4783388442e+00 2.5855701372e+00 4.4783388442e+00 
119800 4.8001227605e+00 8.9161853325e-03 2.5853980046e+00 -4.4780407018e+00 2.5853980046e+00 4.4780407018e+00 
119900 4.8001137826e+00 8.9310515047e-03 2.5852255730e+00 -4.4777420415e+00 2.5852255730e+00 4.4777420415e+00 
120000 4.8001047650e+00 8.9459148483e-03 2.5850528424e+00 -4.4774428633e+00 2.5850528424e+00 4.4774428633e+00 
120100 4.8000957074e+00 8.9607750189e-03 2.5848798128e+00 -4.4771431672e+00 2.5848798128e+00 4.4771431672e+00 
120200 4.8000866098e+00 8.9756316688e-03 2.5847064841e+00 -4.4768429532e+00 2.5847064841e+00 4.4768429532e+00 
120300 4.8000774719e+00 8.9904844468e-03 2.5845328565e+00 -4.4765422212e+00 2.5845328565e+00 4.4765422212e+00 
120400 4.8000682937e+00 9.0053329981e-03 2.5843589298e+00 -4.4762409714e+00 2.5843589298e+00 4.4762409714e+00 
120500 4.8000590749e+00 9.0201769646e-03 2.5841847042e+00 -4.4759392037e+00 2.5841847042e+00 4.4759392037e+00 
120600 4.8000498155e+00 9.0350159845e-03 2.5840101796e+00 -4.4756369183e+00 2.5840101796e+00 4.4756369183e+00 
120700 4.8000405152e+00 9.0498496927e-03 2.5838353561e+00 -4.4753341151e+00 2.5838353561e+00 4.4753341151e+00 
120800 4.8000311740e+00 9.0646777203e-03 2.5836602337e+00 -4.4750307943e+00 2.5836602337e+00 4.4750307943e+00 
120900 4.8000217916e+00 9.0794996950e-03 2.5834848125e+00 -4.4747269558e+00 2.5834848125e+00 4.4747269558e+00 
121000 4.8000123679e+00 9.0943152408e-03 2.5833090925e+00 -4.4744225999e+00 2.5833090925e+00 4.4744225999e+00 
121100 4.8000029028e+00 9.1091239783e-03 2.5831330739e+00 -4.4741177267e+00 2.5831330739e+00 4.4741177267e+00 
121200 4.7999933961e+00 9.1239255242e-03 2.5829567566e+00 -4.4738123362e+00 2.5829567566e+00 4.4738123362e+00 
121300 4.7999838476e+00 9.1387194918e-03 2.5827801408e+00 -4.4735064286e+00 2.5827801408e+00 4.4735064286e+00 
121400 4.7999742572e+00 9.1535054905e-03 2.5826032265e+00 -4.4732000040e+00 2.5826032265e+00 4.4732000040e+00 
121500 4.7999646248e+00 9.1682831261e-03 2.5824260138e+00 -4.4728930626e+00 2.5824260138e+00 4.4728930626e+00 
121600 4.7999549502e+00 9.1830520009e-03 2.5822485028e+00 -4.4725856047e+00 2.5822485028e+00 4.4725856047e+00 
121700 4.7999452332e+00 9.1978117132e-03 2.5820706937e+00 -4.4722776302e+00 2.5820706937e+00 4.4722776302e+00 
121800 4.7999354738e+00 9.2125618577e-03 2.5818925865e+00 -4.4719691396e+00 2.5818925865e+00 4.4719691396e+00 
121900 4.7999256716e+00 9.2273020253e-03 2.5817141814e+00 -4.4716601329e+00 2.5817141814e+00 4.4716601329e+00 
122000 4.7999158267e+00 9.2420318032e-03 2.5815354786e+00 -4.4713506104e+00 2.5815354786e+00 4.4713506104e+00 
122100 4.7999059388e+00 9.2567507747e-03 2.5813564780e+00 -4.4710405724e+00 2.5813564780e+00 4.4710405724e+00 
122200 4.7998960078e+00 9.2714585193e-03 2.5811771800e+00 -4.4707300190e+00 2.5811771800e+00 4.4707300190e+00 
122300 4.7998860335e+00 9.2861546128e-03 2.5809975846e+00 -4.4704189507e+00 2.5809975846e+00 4.4704189507e+00 
122400 4.7998760158e+00 9.3008386270e-03 2.5808176920e+00 -4.4701073676e+00 2.5808176920e+00 4.4701073676e+00 
122500 4.7998659546e+00 9.3155101298e-03 2.5806375024e+00 -4.4697952700e+00 2.5806375024e+00 4.4697952700e+00 
122600 4.7998558496e+00 9.3301686855e-03 2.5804570159e+00 -4.4694826583e+00 2.5804570159e+00 4.4694826583e+00 
122700 4.7998457007e+00 9.3448138543e-03 2.5802762328e+00 -4.4691695328e+00 2.5802762328e+00 4.4691695328e+00 
122800 4.7998355079e+00 9.3594451923e-03 2.5800951533e+00 -4.4688558939e+00 2.5800951533e+00 4.4688558939e+00 
122900 4.7998252709e+00 9.3740622521e-03 2.5799137775e+00 -4.4685417418e+00 2.5799137775e+00 4.4685417418e+00 
123000 4.7998149895e+00 9.3886645819e-03 2.5797321057e+00 -4.4682270770e+00 2.5797321057e+00 4.4682270770e+00 
123100 4.7998046638e+00 9.4032517263e-03 2.5795501381e+00 -4.4679118998e+00 2.5795501381e+00 4.4679118998e+00 
123200 4.7997942934e+00 9.4178232257e-03 2.5793678749e+00 -4.4675962107e+00 2.5793678749e+00 4.4675962107e+00 
123300 4.7997838782e+00 9.4323786165e-03 2.5791853164e+00 -4.4672800101e+00 2.5791853164e+00 4.4672800101e+00 
123400 4.7997734181e+00 9.4469174313e-03 2.5790024628e+00 -4.4669632983e+00 2.5790024628e+00 4.4669632983e+00 
123500 4.7997629130e+00 9.4614391985e-03 2.5788193143e+00 -4.4666460759e+00 2.5788193143e+00 4.4666460759e+00 
123600 4.7997523627e+00 9.4759434424e-03 2.5786358713e+00 -4.4663283433e+00 2.5786358713e+00 4.4663283433e+00 
123700 4.7997417670e+00 9.4904296833e-03 2.5784521340e+00 -4.4660101010e+00 2.5784521340e+00 4.4660101010e+00 
123800 4.7997311258e+00 9.5048974375e-03 2.5782681028e+00 -4.4656913495e+00 2.5782681028e+00 4.4656913495e+00 
123900 4.7997204390e+00 9.5193462171e-03 2.5780837778e+00 -4.4653720893e+00 2.5780837778e+00 4.4653720893e+00 
124000 4.7997097064e+00 9.5337755302e-03 2.5778991594e+00 -4.4650523209e+00 2.5778991594e+00 4.4650523209e+00 
124100 4.7996989279e+00 9.5481848806e-03 2.5777142480e+00 -4.4647320448e+00 2.5777142480e+00 4.4647320448e+00 
124200 4.7996881033e+00 9.5625737683e-03 2.5775290437e+00 -4.4644112618e+00 2.5775290437e+00 4.4644112618e+00 
124300 4.7996772324e+00 9.5769416888e-03 2.5773435471e+00 -4.4640899722e+00 2.5773435471e+00 4.4640899722e+00 
124400 4.7996663152e+00 9.5912881336e-03 2.5771577584e+00 -4.4637681767e+00 2.5771577584e+00 4.4637681767e+00 
124500 4.7996553515e+00 9.6056125900e-03 2.5769716780e+00 -4.4634458759e+00 2.5769716780e+00 4.4634458759e+00 
124600 4.7996443412e+00 9.6199145412e-03 2.5767853062e+00 -4.4631230705e+00 2.5767853062e+00 4.4631230705e+00 
124700 4.7996332840e+00 9.6341934660e-03 2.5765986434e+00 -4.4627997611e+00 2.5765986434e+00 4.4627997611e+00 
124800 4.7996221799e+00 9.6484488393e-03 2.5764116900e+00 -4.4624759483e+00 2.5764116900e+00 4.4624759483e+00 
124900 4.7996110288e+00 9.6626801314e-03 2.5762244464e+00 -4.4621516329e+00 2.5762244464e+00 4.4621516329e+00 
125000 4.7995998304e+00 9.6768868086e-03 2.5760369130e+00 -4.4618268155e+00 2.5760369130e+00 4.4618268155e+00 
125100 4.7995885847e+00 9.6910683330e-03 2.5758490902e+00 -4.4615014969e+00 2.5758490902e+00 4.4615014969e+00 
125200 4.7995772915e+00 9.7052241624e-03 2.5756609784e+00 -4.4611756777e+00 2.5756609784e+00 4.4611756777e+00 
125300 4.7995659506e+00 9.7193537501e-03 2.5754725781e+00 -4.4608493588e+00 2.5754725781e+00 4.4608493588e+00 
125400 4.7995545620e+00 9.7334565454e-03 2.5752838898e+00 -4.4605225410e+00 2.5752838898e+00 4.4605225410e+00 
125500 4.7995431255e+00 9.7475319933e-03 2.5750949137e+00 -4.4601952249e+00 2.5750949137e+00 4.4601952249e+00 
125600 4.7995316409e+00 9.7615795344e-03 2.5749056506e+00 -4.4598674115e+00 2.5749056506e+00 4.4598674115e+00 
125700 4.7995201082e+00 9.7755986049e-03 2.5747161007e+00 -4.4595391015e+00 2.5747161007e+00 4.4595391015e+00 
125800 4.7995085271e+00 9.7895886370e-03 2.5745262647e+00 -4.4592102958e+00 2.5745262647e+00 4.4592102958e+00 
125900 4.7994968976e+00 9.8035490582e-03 2.5743361429e+00 -4.4588809953e+00 2.5743361429e+00 4.4588809953e+00 
126000 4.7994852195e+00 9.8174792920e-03 2.5741457360e+00 -4.4585512009e+00 2.5741457360e+00 4.4585512009e+00 
126100 4.7994734927e+00 9.8313787574e-03 2.5739550444e+00 -4.4582209134e+00 2.5739550444e+00 4.4582209134e+00 
126200 4.7994617171e+00 9.8452468690e-03 2.5737640687e+00 -4.4578901338e+00 2.5737640687e+00 4.4578901338e+00 
126300 4.7994498925e+00 9.8590830372e-03 2.5735728095e+00 -4.4575588630e+00 2.5735728095e+00 4.4575588630e+00 
126400 4.7994380188e+00 9.8728866679e-03 2.5733812672e+00 -4.4572271020e+00 2.5733812672e+00 4.4572271020e+00 
126500 4.7994260958e+00 9.8866571627e-03 2.5731894424e+00 -4.4568948518e+00 2.5731894424e+00 4.4568948518e+00 
126600 4.7994141235e+00 9.9003939190e-03 2.5729973358e+00 -4.4565621134e+00 2.5729973358e+00 4.4565621134e+00 
126700 4.7994021018e+00 9.9140963294e-03 2.5728049479e+00 -4.4562288878e+00 2.5728049479e+00 4.4562288878e+00 
126800 4.7993900304e+00 9.9277637826e-03 2.5726122794e+00 -4.4558951761e+00 2.5726122794e+00 4.4558951761e+00 
126900 4.7993779093e+00 9.9413956626e-03 2.5724193308e+00 -4.4555609792e+00 2.5724193308e+00 4.4555609792e+00 
127000 4.7993657383e+00 9.9549913491e-03 2.5722261027e+00 -4.4552262985e+00 2.5722261027e+00 4.4552262985e+00 
127100 4.7993535173e+00 9.9685502175e-03 2.5720325959e+00 -4.4548911348e+00 2.5720325959e+00 4.4548911348e+00 
127200 4.7993412463e+00 9.9820716388e-03 2.5718388109e+00 -4.4545554894e+00 2.5718388109e+00 4.4545554894e+00 
127300 4.7993289250e+00 9.9955549793e-03 2.5716447485e+00 -4.4542193634e+00 2.5716447485e+00 4.4542193634e+00 
127400 4.7993165534e+00 1.0008999601e-02 2.5714504093e+00 -4.4538827580e+00 2.5714504093e+00 4.4538827580e+00 
127500 4.7993041313e+00 1.0022404863e-02 2.5712557939e+00 -4.4535456743e+00 2.5712557939e+00 4.4535456743e+00 
127600 4.7992916586e+00 1.0035770117e-02 2.5710609032e+00 -4.4532081137e+00 2.5710609032e+00 4.4532081137e+00 
127700 4.7992791353e+00 1.0049094713e-02 2.5708657378e+00 -4.4528700773e+00 2.5708657378e+00 4.4528700773e+00 
127800 4.7992665611e+00 1.0062377994e-02 2.5706702984e+00 -4.4525315664e+00 2.5706702984e+00 4.4525315664e+00 
127900 4.7992539361e+00 1.0075619303e-02 2.5704745858e+00 -4.4521925822e+00 2.5704745858e+00 4.4521925822e+00 
128000 4.7992412600e+00 1.0088817973e-02 2.5702786008e+00 -4.4518531262e+00 2.5702786008e+00 4.4518531262e+00 
128100 4.7992285327e+00 1.0101973338e-02 2.5700823441e+00 -4.4515131996e+00 2.5700823441e+00 4.4515131996e+00 
128200 4.7992157542e+00 1.0115084722e-02 2.5698858164e+00 -4.4511728037e+00 2.5698858164e+00 4.4511728037e+00 
128300 4.7992029244e+00 1.0128151451e-02 2.5696890187e+00 -4.4508319400e+00 2.5696890187e+00 4.4508319400e+00 
128400 4.7991900431e+00 1.0141172841e-02 2.5694919516e+00 -4.4504906098e+00 2.5694919516e+00 4.4504906098e+00 
128500 4.7991771102e+00 1.0154148206e-02 2.5692946160e+00 -4.4501488146e+00 2.5692946160e+00 4.4501488146e+00 
128600 4.7991641257e+00 1.0167076857e-02 2.5690970128e+00 -4.4498065557e+00 2.5690970128e+00 4.4498065557e+00 
128700 4.7991510894e+00 1.0179958098e-02 2.5688991428e+00 -4.4494638348e+00 2.5688991428e+00 4.4494638348e+00 
128800 4.7991380012e+00 1.0192791230e-02 2.5687010068e+00 -4.4491206532e+00 2.5687010068e+00 4.4491206532e+00 
128900 4.7991248610e+00 1.0205575550e-02 2.5685026057e+00 -4.4487770125e+00 2.5685026057e+00 4.4487770125e+00 
129000 4.7991116688e+00 1.0218310350e-02 2.5683039405e+00 -4.4484329142e+00 2.5683039405e+00 4.4484329142e+00 
129100 4.7990984244e+00 1.0230994917e-02 2.5681050119e+00 -4.4480883599e+00 2.5681050119e+00 4.4480883599e+00 
129200 4.7990851278e+00 1.0243628536e-02 2.5679058210e+00 -4.4477433511e+00 2.5679058210e+00 4.4477433511e+00 
129300 4.7990717788e+00 1.0256210486e-02 2.5677063687e+00 -4.4473978895e+00 2.5677063687e+00 4.4473978895e+00 
129400 4.7990583773e+00 1.0268740042e-02 2.5675066559e+00 -4.4470519768e+00 2.5675066559e+00 4.4470519768e+00 
129500 4.7990449234e+00 1.0281216473e-02 2.5673066836e+00 -4.4467056145e+00 2.5673066836e+00 4.4467056145e+00 
129600 4.7990314168e+00 1.0293639048e-02 2.5671064526e+00 -4.4463588044e+00 2.5671064526e+00 4.4463588044e+00 
129700 4.7990178575e+00 1.0306007027e-02 2.5669059642e+00 -4.4460115482e+00 2.5669059642e+00 4.4460115482e+00 
129800 4.7990042454e+00 1.0318319669e-02 2.5667052191e+00 -4.4456638476e+00 2.5667052191e+00 4.4456638476e+00 
129900 4.7989905804e+00 1.0330576228e-02 2.5665042186e+00 -4.4453157044e+00 2.5665042186e+00 4.4453157044e+00 
130000 4.7989768625e+00 1.0342775954e-02 2.5663029635e+00 -4.4449671203e+00 2.5663029635e+00 4.4449671203e+00 
130100 4.7989630916e+00 1.0354918090e-02 2.5661014549e+00 -4.4446180972e+00 2.5661014549e+00 4.4446180972e+00 
130200 4.7989492676e+00 1.0367001880e-02 2.5658996939e+00 -4.4442686370e+00 2.5658996939e+00 4.4442686370e+00 
130300 4.7989353904e+00 1.0379026560e-02 2.5656976816e+00 -4.4439187414e+00 2.5656976816e+00 4.4439187414e+00 
130400 4.7989214599e+00 1.0390991362e-02 2.5654954191e+00 -4.4435684124e+00 2.5654954191e+00 4.4435684124e+00 
130500 4.7989074761e+00 1.0402895516e-02 2.5652929074e+00 -4.4432176520e+00 2.5652929074e+00 4.4432176520e+00 
130600 4.7988934390e+00 1.0414738246e-02 2.5650901478e+00 -4.4428664619e+00 2.5650901478e+00 4.4428664619e+00 
130700 4.7988793484e+00 1.0426518773e-02 2.5648871412e+00 -4.4425148443e+00 2.5648871412e+00 4.4425148443e+00 
130800 4.7988652042e+00 1.0438236314e-02 2.5646838890e+00 -4.4421628011e+00 2.5646838890e+00 4.4421628011e+00 
130900 4.7988510065e+00 1.0449890081e-02 2.5644803922e+00 -4.4418103343e+00 2.5644803922e+00 4.4418103343e+00 
131000 4.7988367552e+00 1.0461479284e-02 2.5642766521e+00 -4.4414574461e+00 2.5642766521e+00 4.4414574461e+00 
131100 4.7988224501e+00 1.0473003125e-02 2.5640726698e+00 -4.4411041384e+00 2.5640726698e+00 4.4411041384e+00 
131200 4.7988080913e+00 1.0484460808e-02 2.5638684466e+00 -4.4407504134e+00 2.5638684466e+00 4.4407504134e+00 
131300 4.7987936787e+00 1.0495851527e-02 2.5636639836e+00 -4.4403962732e+00 2.5636639836e+00 4.4403962732e+00 
131400 4.7987792122e+00 1.0507174477e-02 2.5634592822e+00 -4.4400417200e+00 2.5634592822e+00 4.4400417200e+00 
131500 4.7987646919e+00 1.0518428846e-02 2.5632543436e+00 -4.4396867559e+00 2.5632543436e+00 4.4396867559e+00 
131600 4.7987501175e+00 1.0529613820e-02 2.5630491691e+00 -4.4393313833e+00 2.5630491691e+00 4.4393313833e+00 
131700 4.7987354892e+00 1.0540728580e-02 2.5628437600e+00 -4.4389756042e+00 2.5628437600e+00 4.4389756042e+00 
131800 4.7987208069e+00 1.0551772304e-02 2.5626381176e+00 -4.4386194211e+00 2.5626381176e+00 4.4386194211e+00 
131900 4.7987060704e+00 1.0562744166e-02 2.5624322432e+00 -4.4382628362e+00 2.5624322432e+00 4.4382628362e+00 
132000 4.7986912799e+00 1.0573643337e-02 2.5622261382e+00 -4.4379058519e+00 2.5622261382e+00 4.4379058519e+00 
132100 4.7986764352e+00 1.0584468983e-02 2.5620198039e+00 -4.4375484704e+00 2.5620198039e+00 4.4375484704e+00 
132200 4.7986615364e+00 1.0595220267e-02 2.5618132418e+00 -4.4371906943e+00 2.5618132418e+00 4.4371906943e+00 
132300 4.7986465833e+00 1.0605896350e-02 2.5616064531e+00 -4.4368325258e+00 2.5616064531e+00 4.4368325258e+00 
132400 4.7986315761e+00 1.0616496386e-02 2.5613994394e+00 -4.4364739676e+00 2.5613994394e+00 4.4364739676e+00 
132500 4.7986165145e+00 1.0627019529e-02 2.5611922021e+00 -4.4361150219e+00 2.5611922021e+00 4.4361150219e+00 
132600 4.7986013987e+00 1.0637464928e-02 2.5609847425e+00 -4.4357556914e+00 2.5609847425e+00 4.4357556914e+00 
132700 4.7985862287e+00 1.0647831728e-02 2.5607770622e+00 -4.4353959786e+00 2.5607770622e+00 4.4353959786e+00 
132800 4.7985710043e+00 1.0658119072e-02 2.5605691627e+00 -4.4350358860e+00 2.5605691627e+00 4.4350358860e+00 
132900 4.7985557256e+00 1.0668326099e-02 2.5603610454e+00 -4.4346754163e+00 2.5603610454e+00 4.4346754163e+00 
133000 4.7985403925e+00 1.0678451945e-02 2.5601527118e+00 -4.4343145720e+00 2.5601527118e+00 4.4343145720e+00 
133100 4.7985250052e+00 1.0688495742e-02 2.5599441636e+00 -4.4339533559e+00 2.5599441636e+00 4.4339533559e+00 
133200 4.7985095635e+00 1.0698456620e-02 2.5597354022e+00 -4.4335917705e+00 2.5597354022e+00 4.4335917705e+00 
133300 4.7984940674e+00 1.0708333705e-02 2.5595264292e+00 -4.4332298187e+00 2.5595264292e+00 4.4332298187e+00 
133400 4.7984785171e+00 1.0718126120e-02 2.5593172462e+00 -4.4328675031e+00 2.5593172462e+00 4.4328675031e+00 
133500 4.7984629124e+00 1.0727832986e-02 2.5591078548e+00 -4.4325048266e+00 2.5591078548e+00 4.4325048266e+00 
133600 4.7984472534e+00 1.0737453420e-02 2.5588982567e+00 -4.4321417919e+00 2.5588982567e+00 4.4321417919e+00 
133700 4.7984315401e+00 1.0746986535e-02 2.5586884533e+00 -4.4317784019e+00 2.5586884533e+00 4.4317784019e+00 
133800 4.7984157725e+00 1.0756431445e-02 2.5584784465e+00 -4.4314146595e+00 2.5584784465e+00 4.4314146595e+00 
133900 4.7983999506e+00 1.0765787257e-02 2.5582682379e+00 -4.4310505675e+00 2.5582682379e+00 4.4310505675e+00 
134000 4.7983840745e+00 1.0775053077e-02 2.5580578292e+00 -4.4306861289e+00 2.5580578292e+00 4.4306861289e+00 
134100 4.7983681442e+00 1.0784228009e-02 2.5578472220e+00 -4.4303213466e+00 2.5578472220e+00 4.4303213466e+00 
134200 4.7983521597e+00 1.0793311153e-02 2.5576364182e+00 -4.4299562236e+00 2.5576364182e+00 4.4299562236e+00 
134300 4.7983361210e+00 1.0802301608e-02 2.5574254194e+00 -4.4295907631e+00 2.5574254194e+00 4.4295907631e+00 
134400 4.7983200281e+00 1.0811198469e-02 2.5572142275e+00 -4.4292249679e+00 2.5572142275e+00 4.4292249679e+00 
134500 4.7983038812e+00 1.0820000830e-02 2.5570028442e+00 -4.4288588412e+00 2.5570028442e+00 4.4288588412e+00 
134600 4.7982876802e+00 1.0828707781e-02 2.5567912712e+00 -4.4284923861e+00 2.5567912712e+00 4.4284923861e+00 
134700 4.7982714253e+00 1.0837318412e-02 2.5565795105e+00 -4.4281256058e+00 2.5565795105e+00 4.4281256058e+00 
134800 4.7982551163e+00 1.0845831807e-02 2.5563675639e+00 -4.4277585035e+00 2.5563675639e+00 4.4277585035e+00 
134900 4.7982387535e+00 1.0854247053e-02 2.5561554332e+00 -4.4273910823e+00 2.5561554332e+00 4.4273910823e+00 
135000 4.7982223368e+00 1.0862563231e-02 2.5559431203e+00 -4.4270233455e+00 2.5559431203e+00 4.4270233455e+00 
135100 4.7982058664e+00 1.0870779420e-02 2.5557306270e+00 -4.4266552964e+00 2.5557306270e+00 4.4266552964e+00 
135200 4.7981893422e+00 1.0878894700e-02 2.5555179554e+00 -4.4262869384e+00 2.5555179554e+00 4.4262869384e+00 
135300 4.7981727643e+00 1.0886908147e-02 2.5553051073e+00 -4.4259182746e+00 2.5553051073e+00 4.4259182746e+00 
135400 4.7981561329e+00 1.0894818836e-02 2.5550920846e+00 -4.4255493086e+00 2.5550920846e+00 4.4255493086e+00 
135500 4.7981394479e+00 1.0902625839e-02 2.5548788894e+00 -4.4251800437e+00 2.5548788894e+00 4.4251800437e+00 
135600 4.7981227095e+00 1.0910328228e-02 2.5546655236e+00 -4.4248104833e+00 2.5546655236e+00 4.4248104833e+00 
135700 4.7981059178e+00 1.0917925072e-02 2.5544519893e+00 -4.4244406310e+00 2.5544519893e+00 4.4244406310e+00 
135800 4.7980890727e+00 1.0925415440e-02 2.5542382884e+00 -4.4240704902e+00 2.5542382884e+00 4.4240704902e+00 
135900 4.7980721745e+00 1.0932798399e-02 2.5540244230e+00 -4.4237000645e+00 2.5540244230e+00 4.4237000645e+00 
136000 4.7980552233e+00 1.0940073015e-02 2.5538103952e+00 -4.4233293574e+00 2.5538103952e+00 4.4233293574e+00 
136100 4.7980382190e+00 1.0947238353e-02 2.5535962070e+00 -4.4229583726e+00 2.5535962070e+00 4.4229583726e+00 
136200 4.7980211619e+00 1.0954293474e-02 2.5533818606e+00 -4.4225871137e+00 2.5533818606e+00 4.4225871137e+00 
136300 4.7980040519e+00 1.0961237443e-02 2.5531673580e+00 -4.4222155843e+00 2.5531673580e+00 4.4222155843e+00 
136400 4.7979868893e+00 1.0968069321e-02 2.5529527014e+00 -4.4218437882e+00 2.5529527014e+00 4.4218437882e+00 
136500 4.7979696742e+00 1.0974788167e-02 2.5527378930e+00 -4.4214717291e+00 2.5527378930e+00 4.4214717291e+00 
136600 4.7979524066e+00 1.0981393043e-02 2.5525229349e+00 -4.4210994107e+00 2.5525229349e+00 4.4210994107e+00 
136700 4.7979350867e+00 1.0987883007e-02 2.5523078293e+00 -4.4207268369e+00 2.5523078293e+00 4.4207268369e+00 
136800 4.7979177146e+00 1.0994257118e-02 2.5520925785e+00 -4.4203540115e+00 2.5520925785e+00 4.4203540115e+00 
136900 4.7979002904e+00 1.1000514435e-02 2.5518771846e+00 -4.4199809384e+00 2.5518771846e+00 4.4199809384e+00 
137000 4.7978828143e+00 1.1006654015e-02 2.5516616499e+00 -4.4196076214e+00 2.5516616499e+00 4.4196076214e+00 
137100 4.7978652865e+00 1.1012674916e-02 2.5514459767e+00 -4.4192340645e+00 2.5514459767e+00 4.4192340645e+00 
137200 4.7978477070e+00 1.1018576196e-02 2.5512301674e+00 -4.4188602717e+00 2.5512301674e+00 4.4188602717e+00 
137300 4.7978300760e+00 1.1024356912e-02 2.5510142241e+00 -4.4184862469e+00 2.5510142241e+00 4.4184862469e+00 
137400 4.7978123937e+00 1.1030016121e-02 2.5507981492e+00 -4.4181119943e+00 2.5507981492e+00 4.4181119943e+00 
137500 4.7977946601e+00 1.1035552882e-02 2.5505819451e+00 -4.4177375178e+00 2.5505819451e+00 4.4177375178e+00 
137600 4.7977768756e+00 1.1040966253e-02 2.5503656141e+00 -4.4173628216e+00 2.5503656141e+00 4.4173628216e+00 
137700 4.7977590402e+00 1.1046255291e-02 2.5501491587e+00 -4.4169879098e+00 2.5501491587e+00 4.4169879098e+00 
137800 4.7977411542e+00 1.1051419057e-02 2.5499325812e+00 -4.4166127865e+00 2.5499325812e+00 4.4166127865e+00 
137900 4.7977232176e+00 1.1056456609e-02 2.5497158840e+00 -4.4162374560e+00 2.5497158840e+00 4.4162374560e+00 
138000 4.7977052307e+00 1.1061367008e-02 2.5494990697e+00 -4.4158619226e+00 2.5494990697e+00 4.4158619226e+00 
138100 4.7976871936e+00 1.1066149314e-02 2.5492821406e+00 -4.4154861904e+00 2.5492821406e+00 4.4154861904e+00 
138200 4.7976691066e+00 1.1070802591e-02 2.5490650993e+00 -4.4151102637e+00 2.5490650993e+00 4.4151102637e+00 
138300 4.7976509699e+00 1.1075325901e-02 2.5488479482e+00 -4.4147341470e+00 2.5488479482e+00 4.4147341470e+00 
138400 4.7976327835e+00 1.1079718309e-02 2.5486306899e+00 -4.4143578446e+00 2.5486306899e+00 4.4143578446e+00 
138500 4.7976145479e+00 1.1083978879e-02 2.5484133268e+00 -4.4139813608e+00 2.5484133268e+00 4.4139813608e+00 
138600 4.7975962630e+00 1.1088106681e-02 2.5481958617e+00 -4.4136047001e+00 2.5481958617e+00 4.4136047001e+00 
138700 4.7975779293e+00 1.1092100781e-02 2.5479782970e+00 -4.4132278670e+00 2.5479782970e+00 4.4132278670e+00 
138800 4.7975595468e+00 1.1095960251e-02 2.5477606354e+00 -4.4128508660e+00 2.5477606354e+00 4.4128508660e+00 
138900 4.7975411158e+00 1.1099684162e-02 2.5475428794e+00 -4.4124737016e+00 2.5475428794e+00 4.4124737016e+00 
139000 4.7975226365e+00 1.1103271590e-02 2.5473250317e+00 -4.4120963783e+00 2.5473250317e+00 4.4120963783e+00 
139100 4.7975041092e+00 1.1106721609e-02 2.5471070950e+00 -4.4117189009e+00 2.5471070950e+00 4.4117189009e+00 
139200 4.7974855342e+00 1.1110033300e-02 2.5468890719e+00 -4.4113412738e+00 2.5468890719e+00 4.4113412738e+00 
139300 4.7974669115e+00 1.1113205741e-02 2.5466709651e+00 -4.4109635018e+00 2.5466709651e+00 4.4109635018e+00 
139400 4.7974482416e+00 1.1116238017e-02 2.5464527774e+00 -4.4105855896e+00 2.5464527774e+00 4.4105855896e+00 
139500 4.7974295246e+00 1.1119129214e-02 2.5462345115e+00 -4.4102075418e+00 2.5462345115e+00 4.4102075418e+00 
139600 4.7974107608e+00 1.1121878420e-02 2.5460161700e+00 -4.4098293634e+00 2.5460161700e+00 4.4098293634e+00 
139700 4.7973919504e+00 1.1124484726e-02 2.5457977559e+00 -4.4094510589e+00 2.5457977559e+00 4.4094510589e+00 
139800 4.7973730938e+00 1.1126947227e-02 2.5455792718e+00 -4.4090726334e+00 2.5455792718e+00 4.4090726334e+00 
139900 4.7973541912e+00 1.1129265021e-02 2.5453607206e+00 -4.4086940916e+00 2.5453607206e+00 4.4086940916e+00 
140000 4.7973352429e+00 1.1131437208e-02 2.5451421051e+00 -4.4083154385e+00 2.5451421051e+00 4.4083154385e+00 
140100 4.7973162492e+00 1.1133462894e-02 2.5449234281e+00 -4.4079366789e+00 2.5449234281e+00 4.4079366789e+00 
140200 4.7972972103e+00 1.1135341185e-02 2.5447046926e+00 -4.4075578179e+00 2.5447046926e+00 4.4075578179e+00 
140300 4.7972781265e+00 1.1137071194e-02 2.5444859014e+00 -4.4071788603e+00 2.5444859014e+00 4.4071788603e+00 
140400 4.7972589982e+00 1.1138652036e-02 2.5442670573e+00 -4.4067998113e+00 2.5442670573e+00 4.4067998113e+00 
140500 4.7972398257e+00 1.1140082830e-02 2.5440481634e+00 -4.4064206759e+00 2.5440481634e+00 4.4064206759e+00 
140600 4.7972206092e+00 1.1141362701e-02 2.5438292225e+00 -4.4060414592e+00 2.5438292225e+00 4.4060414592e+00 
140700 4.7972013491e+00 1.1142490776e-02 2.5436102377e+00 -4.4056621663e+00 2.5436102377e+00 4.4056621663e+00 
140800 4.7971820457e+00 1.1143466189e-02 2.5433912117e+00 -4.4052828023e+00 2.5433912117e+00 4.4052828023e+00 
140900 4.7971626993e+00 1.1144288074e-02 2.5431721478e+00 -4.4049033724e+00 2.5431721478e+00 4.4049033724e+00 
141000 4.7971433103e+00 1.1144955576e-02 2.5429530488e+00 -4.4045238818e+00 2.5429530488e+00 4.4045238818e+00 
141100 4.7971238789e+00 1.1145467840e-02 2.5427339179e+00 -4.4041443359e+00 2.5427339179e+00 4.4041443359e+00 
141200 4.7971044056e+00 1.1145824019e-02 2.5425147579e+00 -4.4037647397e+00 2.5425147579e+00 4.4037647397e+00 
141300 4.7970848907e+00 1.1146023269e-02 2.5422955721e+00 -4.4033850987e+00 2.5422955721e+00 4.4033850987e+00 
141400 4.7970653345e+00 1.1146064752e-02 2.5420763635e+00 -4.4030054182e+00 2.5420763635e+00 4.4030054182e+00 
141500 4.7970457373e+00 1.1145947638e-02 2.5418571351e+00 -4.4026257036e+00 2.5418571351e+00 4.4026257036e+00 
141600 4.7970260997e+00 1.1145671099e-02 2.5416378901e+00 -4.4022459602e+00 2.5416378901e+00 4.4022459602e+00 
141700 4.7970064218e+00 1.1145234314e-02 2.5414186317e+00 -4.4018661934e+00 2.5414186317e+00 4.4018661934e+00 
141800 4.7969867041e+00 1.1144636470e-02 2.5411993630e+00 -4.4014864088e+00 2.5411993630e+00 4.4014864088e+00 
141900 4.7969669470e+00 1.1143876758e-02 2.5409800870e+00 -4.4011066118e+00 2.5409800870e+00 4.4011066118e+00 
142000 4.7969471509e+00 1.1142954377e-02 2.5407608072e+00 -4.4007268079e+00 2.5407608072e+00 4.4007268079e+00 
142100 4.7969273161e+00 1.1141868529e-02 2.5405415265e+00 -4.4003470026e+00 2.5405415265e+00 4.4003470026e+00 
142200 4.7969074430e+00 1.1140618428e-02 2.5403222483e+00 -4.3999672016e+00 2.5403222483e+00 4.3999672016e+00 
142300 4.7968875321e+00 1.1139203290e-02 2.5401029757e+00 -4.3995874104e+00 2.5401029757e+00 4.3995874104e+00 
142400 4.7968675837e+00 1.1137622340e-02 2.5398837121e+00 -4.3992076347e+00 2.5398837121e+00 4.3992076347e+00 
142500 4.7968475983e+00 1.1135874811e-02 2.5396644607e+00 -4.3988278801e+00 2.5396644607e+00 4.3988278801e+00 
142600 4.7968275762e+00 1.1133959943e-02 2.5394452248e+00 -4.3984481523e+00 2.5394452248e+00 4.3984481523e+00 
142700 4.7968075180e+00 1.1131876981e-02 2.5392260076e+00 -4.3980684571e+00 2.5392260076e+00 4.3980684571e+00 
142800 4.7967874240e+00 1.1129625180e-02 2.5390068125e+00 -4.3976888001e+00 2.5390068125e+00 4.3976888001e+00 
142900 4.7967672946e+00 1.1127203803e-02 2.5387876429e+00 -4.3973091871e+00 2.5387876429e+00 4.3973091871e+00 
143000 4.7967471303e+00 1.1124612119e-02 2.5385685020e+00 -4.3969296239e+00 2.5385685020e+00 4.3969296239e+00 
143100 4.7967269316e+00 1.1121849408e-02 2.5383493932e+00 -4.3965501164e+00 2.5383493932e+00 4.3965501164e+00 
143200 4.7967066988e+00 1.1118914956e-02 2.5381303200e+00 -4.3961706704e+00 2.5381303200e+00 4.3961706704e+00 
143300 4.7966864325e+00 1.1115808058e-02 2.5379112856e+00 -4.3957912918e+00 2.5379112856e+00 4.3957912918e+00 
143400 4.7966661331e+00 1.1112528017e-02 2.5376922935e+00 -4.3954119864e+00 2.5376922935e+00 4.3954119864e+00 
143500 4.7966458010e+00 1.1109074147e-02 2.5374733472e+00 -4.3950327602e+00 2.5374733472e+00 4.3950327602e+00 
143600 4.7966254368e+00 1.1105445769e-02 2.5372544501e+00 -4.3946536192e+00 2.5372544501e+00 4.3946536192e+00 
143700 4.7966050409e+00 1.1101642214e-02 2.5370356055e+00 -4.3942745693e+00 2.5370356055e+00 4.3942745693e+00 
143800 4.7965846139e+00 1.1097662822e-02 2.5368168170e+00 -4.3938956166e+00 2.5368168170e+00 4.3938956166e+00 
143900 4.7965641560e+00 1.1093506941e-02 2.5365980881e+00 -4.3935167670e+00 2.5365980881e+00 4.3935167670e+00 
144000 4.7965436680e+00 1.1089173932e-02 2.5363794223e+00 -4.3931380267e+00 2.5363794223e+00 4.3931380267e+00 
144100 4.7965231503e+00 1.1084663163e-02 2.5361608230e+00 -4.3927594016e+00 2.5361608230e+00 4.3927594016e+00 
144200 4.7965026033e+00 1.1079974013e-02 2.5359422938e+00 -4.3923808979e+00 2.5359422938e+00 4.3923808979e+00 
144300 4.7964820276e+00 1.1075105872e-02 2.5357238382e+00 -4.3920025217e+00 2.5357238382e+00 4.3920025217e+00 
144400 4.7964614237e+00 1.1070058138e-02 2.5355054598e+00 -4.3916242792e+00 2.5355054598e+00 4.3916242792e+00 
144500 4.7964407921e+00 1.1064830222e-02 2.5352871621e+00 -4.3912461766e+00 2.5352871621e+00 4.3912461766e+00 
144600 4.7964201333e+00 1.1059421545e-02 2.5350689487e+00 -4.3908682199e+00 2.5350689487e+00 4.3908682199e+00 
144700 4.7963994479e+00 1.1053831536e-02 2.5348508233e+00 -4.3904904155e+00 2.5348508233e+00 4.3904904155e+00 
144800 4.7963787365e+00 1.1048059640e-02 2.5346327893e+00 -4.3901127695e+00 2.5346327893e+00 4.3901127695e+00 
144900 4.7963579994e+00 1.1042105309e-02 2.5344148504e+00 -4.3897352883e+00 2.5344148504e+00 4.3897352883e+00 
145000 4.7963372374e+00 1.1035968009e-02 2.5341970102e+00 -4.3893579781e+00 2.5341970102e+00 4.3893579781e+00 
145100 4.7963164508e+00 1.1029647215e-02 2.5339792724e+00 -4.3889808451e+00 2.5339792724e+00 4.3889808451e+00 
145200 4.7962956404e+00 1.1023142415e-02 2.5337616406e+00 -4.3886038958e+00 2.5337616406e+00 4.3886038958e+00 
145300 4.7962748066e+00 1.1016453110e-02 2.5335441185e+00 -4.3882271364e+00 2.5335441185e+00 4.3882271364e+00 
145400 4.7962539500e+00 1.1009578812e-02 2.5333267097e+00 -4.3878505733e+00 2.5333267097e+00 4.3878505733e+00 
145500 4.7962330712e+00 1.1002519044e-02 2.5331094179e+00 -4.3874742129e+00 2.5331094179e+00 4.3874742129e+00 
145600 4.7962121707e+00 1.0995273342e-02 2.5328922468e+00 -4.3870980616e+00 2.5328922468e+00 4.3870980616e+00 
145700 4.7961912492e+00 1.0987841255e-02 2.5326752001e+00 -4.3867221257e+00 2.5326752001e+00 4.3867221257e+00 
145800 4.7961703072e+00 1.0980222346e-02 2.5324582816e+00 -4.3863464118e+00 2.5324582816e+00 4.3863464118e+00 
145900 4.7961493453e+00 1.0972416186e-02 2.5322414949e+00 -4.3859709262e+00 2.5322414949e+00 4.3859709262e+00 
146000 4.7961283641e+00 1.0964422365e-02 2.5320248438e+00 -4.3855956754e+00 2.5320248438e+00 4.3855956754e+00 
146100 4.7961073641e+00 1.0956240482e-02 2.5318083320e+00 -4.3852206660e+00 2.5318083320e+00 4.3852206660e+00 
146200 4.7960863461e+00 1.0947870151e-02 2.5315919632e+00 -4.3848459043e+00 2.5315919632e+00 4.3848459043e+00 
146300 4.7960653106e+00 1.0939310998e-02 2.5313757413e+00 -4.3844713969e+00 2.5313757413e+00 4.3844713969e+00 
146400 4.7960442582e+00 1.0930562665e-02 2.5311596699e+00 -4.3840971504e+00 2.5311596699e+00 4.3840971504e+00 
146500 4.7960231895e+00 1.0921624805e-02 2.5309437529e+00 -4.3837231712e+00 2.5309437529e+00 4.3837231712e+00 
146600 4.7960021051e+00 1.0912497086e-02 2.5307279941e+00 -4.3833494659e+00 2.5307279941e+00 4.3833494659e+00 
146700 4.7959810057e+00 1.0903179191e-02 2.5305123972e+00 -4.3829760411e+00 2.5305123972e+00 4.3829760411e+00 
146800 4.7959598920e+00 1.0893670817e-02 2.5302969660e+00 -4.3826029034e+00 2.5302969660e+00 4.3826029034e+00 
146900 4.7959387644e+00 1.0883971673e-02 2.5300817044e+00 -4.3822300593e+00 2.5300817044e+00 4.3822300593e+00 
147000 4.7959176238e+00 1.0874081485e-02 2.5298666162e+00 -4.3818575155e+00 2.5298666162e+00 4.3818575155e+00 
147100 4.7958964706e+00 1.0863999993e-02 2.5296517051e+00 -4.3814852786e+00 2.5296517051e+00 4.3814852786e+00 
147200 4.7958753056e+00 1.0853726951e-02 2.5294369750e+00 -4.3811133552e+00 2.5294369750e+00 4.3811133552e+00 
147300 4.7958541294e+00 1.0843262129e-02 2.5292224297e+00 -4.3807417520e+00 2.5292224297e+00 4.3807417520e+00 
147400 4.7958329427e+00 1.0832605312e-02 2.5290080732e+00 -4.3803704755e+00 2.5290080732e+00 4.3803704755e+00 
147500 4.7958117461e+00 1.0821756299e-02 2.5287939091e+00 -4.3799995325e+00 2.5287939091e+00 4.3799995325e+00 
147600 4.7957905402e+00 1.0810714905e-02 2.5285799414e+00 -4.3796289296e+00 2.5285799414e+00 4.3796289296e+00 
147700 4.7957693259e+00 1.0799480962e-02 2.5283661740e+00 -4.3792586734e+00 2.5283661740e+00 4.3792586734e+00 
147800 4.7957481036e+00 1.0788054314e-02 2.5281526106e+00 -4.3788887708e+00 2.5281526106e+00 4.3788887708e+00 
147900 4.7957268741e+00 1.0776434824e-02 2.5279392551e+00 -4.3785192283e+00 2.5279392551e+00 4.3785192283e+00 
148000 4.7957056381e+00 1.0764622371e-02 2.5277261115e+00 -4.3781500527e+00 2.5277261115e+00 4.3781500527e+00 
148100 4.7956843962e+00 1.0752616846e-02 2.5275131835e+00 -4.3777812507e+00 2.5275131835e+00 4.3777812507e+00 
148200 4.7956631491e+00 1.0740418161e-02 2.5273004751e+00 -4.3774128289e+00 2.5273004751e+00 4.3774128289e+00 
148300 4.7956418976e+00 1.0728026242e-02 2.5270879902e+00 -4.3770447941e+00 2.5270879902e+00 4.3770447941e+00 
148400 4.7956206423e+00 1.0715441030e-02 2.5268757325e+00 -4.3766771531e+00 2.5268757325e+00 4.3766771531e+00 
148500 4.7955993838e+00 1.0702662485e-02 2.5266637060e+00 -4.3763099124e+00 2.5266637060e+00 4.3763099124e+00 
148600 4.7955781230e+00 1.0689690583e-02 2.5264519146e+00 -4.3759430790e+00 2.5264519146e+00 4.3759430790e+00 
148700 4.7955568604e+00 1.0676525315e-02 2.5262403622e+00 -4.3755766594e+00 2.5262403622e+00 4.3755766594e+00 
148800 4.7955355968e+00 1.0663166690e-02 2.5260290526e+00 -4.3752106605e+00 2.5260290526e+00 4.3752106605e+00 
148900 4.7955143330e+00 1.0649614735e-02 2.5258179897e+00 -4.3748450889e+00 2.5258179897e+00 4.3748450889e+00 
149000 4.7954930695e+00 1.0635869492e-02 2.5256071775e+00 -4.3744799514e+00 2.5256071775e+00 4.3744799514e+00 
149100 4.7954718071e+00 1.0621931022e-02 2.5253966198e+00 -4.3741152547e+00 2.5253966198e+00 4.3741152547e+00 
149200 4.7954505466e+00 1.0607799401e-02 2.5251863204e+00 -4.3737510056e+00 2.5251863204e+00 4.3737510056e+00 
149300 4.7954292887e+00 1.0593474724e-02 2.5249762834e+00 -4.3733872108e+00 2.5249762834e+00 4.3733872108e+00 
149400 4.7954080339e+00 1.0578957104e-02 2.5247665126e+00 -4.3730238770e+00 2.5247665126e+00 4.3730238770e+00 
149500 4.7953867832e+00 1.0564246670e-02 2.5245570118e+00 -4.3726610111e+00 2.5245570118e+00 4.3726610111e+00 
149600 4.7953655372e+00 1.0549343569e-02 2.5243477850e+00 -4.3722986196e+00 2.5243477850e+00 4.3722986196e+00 
149700 4.7953442966e+00 1.0534247966e-02 2.5241388360e+00 -4.3719367093e+00 2.5241388360e+00 4.3719367093e+00 
149800 4.7953230622e+00 1.0518960043e-02 2.5239301687e+00 -4.3715752870e+00 2.5239301687e+00 4.3715752870e+00 
149900 4.7953018347e+00 1.0503480001e-02 2.5237217871e+00 -4.3712143594e+00 2.5237217871e+00 4.3712143594e+00 
150000 4.7952806148e+00 1.0487808058e-02 2.5235136949e+00 -4.3708539332e+00 2.5235136949e+00 4.3708539332e+00 
150100 4.7952594032e+00 1.0471944451e-02 2.5233058961e+00 -4.3704940150e+00 2.5233058961e+00 4.3704940150e+00 
150200 4.7952382008e+00 1.0455889434e-02 2.5230983944e+00 -4.3701346117e+00 2.5230983944e+00 4.3701346117e+00 
150300 4.7952170081e+00 1.0439643279e-02 2.5228911939e+00 -4.3697757298e+00 2.5228911939e+00 4.3697757298e+00 
150400 4.7951958261e+00 1.0423206277e-02 2.5226842983e+00 -4.3694173762e+00 2.5226842983e+00 4.3694173762e+00 
150500 4.7951746553e+00 1.0406578738e-02 2.5224777116e+00 -4.3690595574e+00 2.5224777116e+00 4.3690595574e+00 
150600 4.7951534966e+00 1.0389760988e-02 2.5222714375e+00 -4.3687022802e+00 2.5222714375e+00 4.3687022802e+00 
150700 4.7951323507e+00 1.0372753373e-02 2.5220654799e+00 -4.3683455511e+00 2.5220654799e+00 4.3683455511e+00 
150800 4.7951112183e+00 1.0355556257e-02 2.5218598426e+00 -4.3679893770e+00 2.5218598426e+00 4.3679893770e+00 
150900 4.7950901002e+00 1.0338170022e-02 2.5216545295e+00 -4.3676337643e+00 2.5216545295e+00 4.3676337643e+00 
151000 4.7950689972e+00 1.0320595070e-02 2.5214495445e+00 -4.3672787198e+00 2.5214495445e+00 4.3672787198e+00 
151100 4.7950479099e+00 1.0302831820e-02 2.5212448913e+00 -4.3669242500e+00 2.5212448913e+00 4.3669242500e+00 
151200 4.7950268391e+00 1.0284880710e-02 2.5210405737e+00 -4.3665703616e+00 2.5210405737e+00 4.3665703616e+00 
151300 4.7950057856e+00 1.0266742197e-02 2.5208365956e+00 -4.3662170611e+00 2.5208365956e+00 4.3662170611e+00 
151400 4.7949847501e+00 1.0248416756e-02 2.5206329607e+00 -4.3658643552e+00 2.5206329607e+00 4.3658643552e+00 
151500 4.7949637333e+00 1.0229904882e-02 2.5204296729e+00 -4.3655122504e+00 2.5204296729e+00 4.3655122504e+00 
151600 4.7949427361e+00 1.0211207086e-02 2.5202267359e+00 -4.3651607532e+00 2.5202267359e+00 4.3651607532e+00 
151700 4.7949217592e+00 1.0192323900e-02 2.5200241536e+00 -4.3648098703e+00 2.5200241536e+00 4.3648098703e+00 
151800 4.7949008032e+00 1.0173255875e-02 2.5198219296e+00 -4.3644596080e+00 2.5198219296e+00 4.3644596080e+00 
151900 4.7948798691e+00 1.0154003578e-02 2.5196200677e+00 -4.3641099730e+00 2.5196200677e+00 4.3641099730e+00 
152000 4.7948589574e+00 1.0134567598e-02 2.5194185717e+00 -4.3637609716e+00 2.5194185717e+00 4.3637609716e+00 
152100 4.7948380690e+00 1.0114948540e-02 2.5192174452e+00 -4.3634126105e+00 2.5192174452e+00 4.3634126105e+00 
152200 4.7948172046e+00 1.0095147029e-02 2.5190166921e+00 -4.3630648959e+00 2.5190166921e+00 4.3630648959e+00 
152300 4.7947963650e+00 1.0075163710e-02 2.5188163161e+00 -4.3627178344e+00 2.5188163161e+00 4.3627178344e+00 
152400 4.7947755509e+00 1.0054999244e-02 2.5186163207e+00 -4.3623714323e+00 2.5186163207e+00 4.3623714323e+00 
152500 4.7947547630e+00 1.0034654312e-02 2.5184167098e+00 -4.3620256960e+00 2.5184167098e+00 4.3620256960e+00 
152600 4.7947340022e+00 1.0014129614e-02 2.5182174870e+00 -4.3616806320e+00 2.5182174870e+00 4.3616806320e+00 
152700 4.7947132691e+00 9.9934258678e-03 2.5180186559e+00 -4.3613362464e+00 2.5180186559e+00 4.3613362464e+00 
152800 4.7946925645e+00 9.9725438105e-03 2.5178202202e+00 -4.3609925458e+00 2.5178202202e+00 4.3609925458e+00 
152900 4.7946718891e+00 9.9514841975e-03 2.5176221836e+00 -4.3606495362e+00 2.5176221836e+00 4.3606495362e+00 
153000 4.7946512437e+00 9.9302478028e-03 2.5174245496e+00 -4.3603072241e+00 2.5174245496e+00 4.3603072241e+00 
153100 4.7946306291e+00 9.9088354186e-03 2.5172273219e+00 -4.3599656157e+00 2.5172273219e+00 4.3599656157e+00 
153200 4.7946100459e+00 9.8872478560e-03 2.5170305040e+00 -4.3596247172e+00 2.5170305040e+00 4.3596247172e+00 
153300 4.7945894949e+00 9.8654859441e-03 2.5168340996e+00 -4.3592845347e+00 2.5168340996e+00 4.3592845347e+00 
153400 4.7945689768e+00 9.8435505306e-03 2.5166381121e+00 -4.3589450745e+00 2.5166381121e+00 4.3589450745e+00 
153500 4.7945484924e+00 9.8214424815e-03 2.5164425452e+00 -4.3586063426e+00 2.5164425452e+00 4.3586063426e+00 
153600 4.7945280425e+00 9.7991626808e-03 2.5162474024e+00 -4.3582683453e+00 2.5162474024e+00 4.3582683453e+00 
153700 4.7945076276e+00 9.7767120308e-03 2.5160526871e+00 -4.3579310886e+00 2.5160526871e+00 4.3579310886e+00 
153800 4.7944872486e+00 9.7540914520e-03 2.5158584029e+00 -4.3575945784e+00 2.5158584029e+00 4.3575945784e+00 
153900 4.7944669062e+00 9.7313018828e-03 2.5156645532e+00 -4.3572588210e+00 2.5156645532e+00 4.3572588210e+00 
154000 4.7944466012e+00 9.7083442794e-03 2.5154711416e+00 -4.3569238221e+00 2.5154711416e+00 4.3569238221e+00 
154100 4.7944263341e+00 9.6852196162e-03 2.5152781713e+00 -4.3565895879e+00 2.5152781713e+00 4.3565895879e+00 
154200 4.7944061059e+00 9.6619288850e-03 2.5150856460e+00 -4.3562561242e+00 2.5150856460e+00 4.3562561242e+00 
154300 4.7943859171e+00 9.6384730955e-03 2.5148935689e+00 -4.3559234370e+00 2.5148935689e+00 4.3559234370e+00 
154400 4.7943657685e+00 9.6148532750e-03 2.5147019435e+00 -4.3555915320e+00 2.5147019435e+00 4.3555915320e+00 
154500 4.7943456607e+00 9.5910704682e-03 2.5145107731e+00 -4.3552604152e+00 2.5145107731e+00 4.3552604152e+00 
154600 4.7943255946e+00 9.5671257371e-03 2.5143200611e+00 -4.3549300923e+00 2.5143200611e+00 4.3549300923e+00 
154700 4.7943055708e+00 9.5430201611e-03 2.5141298107e+00 -4.3546005690e+00 2.5141298107e+00 4.3546005690e+00 
154800 4.7942855900e+00 9.5187548367e-03 2.5139400254e+00 -4.3542718511e+00 2.5139400254e+00 4.3542718511e+00 
154900 4.7942656530e+00 9.4943308776e-03 2.5137507083e+00 -4.3539439443e+00 2.5137507083e+00 4.3539439443e+00 
155000 4.7942457603e+00 9.4697494141e-03 2.5135618628e+00 -4.3536168543e+00 2.5135618628e+00 4.3536168543e+00 
155100 4.7942259127e+00 9.4450115936e-03 2.5133734920e+00 -4.3532905865e+00 2.5133734920e+00 4.3532905865e+00 
155200 4.7942061109e+00 9.4201185800e-03 2.5131855992e+00 -4.3529651467e+00 2.5131855992e+00 4.3529651467e+00 
155300 4.7941863556e+00 9.3950715539e-03 2.5129981877e+00 -4.3526405404e+00 2.5129981877e+00 4.3526405404e+00 
155400 4.7941666474e+00 9.3698717120e-03 2.5128112604e+00 -4.3523167729e+00 2.5128112604e+00 4.3523167729e+00 
155500 4.7941469870e+00 9.3445202675e-03 2.5126248207e+00 -4.3519938499e+00 2.5126248207e+00 4.3519938499e+00 
155600 4.7941273752e+00 9.3190184497e-03 2.5124388717e+00 -4.3516717766e+00 2.5124388717e+00 4.3516717766e+00 
155700 4.7941078125e+00 9.2933675039e-03 2.5122534163e+00 -4.3513505586e+00 2.5122534163e+00 4.3513505586e+00 
155800 4.7940882996e+00 9.2675686910e-03 2.5120684578e+00 -4.3510302010e+00 2.5120684578e+00 4.3510302010e+00 
155900 4.7940688371e+00 9.2416232877e-03 2.5118839992e+00 -4.3507107093e+00 2.5118839992e+00 4.3507107093e+00 
156000 4.7940494259e+00 9.2155325862e-03 2.5117000434e+00 -4.3503920886e+00 2.5117000434e+00 4.3503920886e+00 
156100 4.7940300664e+00 9.1892978940e-03 2.5115165935e+00 -4.3500743441e+00 2.5115165935e+00 4.3500743441e+00 
156200 4.7940107593e+00 9.1629205339e-03 2.5113336526e+00 -4.3497574810e+00 2.5113336526e+00 4.3497574810e+00 
156300 4.7939915053e+00 9.1364018433e-03 2.5111512234e+00 -4.3494415044e+00 2.5111512234e+00 4.3494415044e+00 
156400 4.7939723050e+00 9.1097431749e-03 2.5109693090e+00 -4.3491264194e+00 2.5109693090e+00 4.3491264194e+00 
156500 4.7939531590e+00 9.0829458958e-03 2.5107879123e+00 -4.3488122311e+00 2.5107879123e+00 4.3488122311e+00 
156600 4.7939340680e+00 9.0560113874e-03 2.5106070360e+00 -4.3484989442e+00 2.5106070360e+00 4.3484989442e+00 
156700 4.7939150325e+00 9.0289410457e-03 2.5104266832e+00 -4.3481865639e+00 2.5104266832e+00 4.3481865639e+00 
156800 4.7938960533e+00 9.0017362805e-03 2.5102468565e+00 -4.3478750950e+00 2.5102468565e+00 4.3478750950e+00 
156900 4.7938771308e+00 8.9743985156e-03 2.5100675588e+00 -4.3475645423e+00 2.5100675588e+00 4.3475645423e+00 
157000 4.7938582657e+00 8.9469291885e-03 2.5098887929e+00 -4.3472549106e+00 2.5098887929e+00 4.3472549106e+00 
157100 4.7938394586e+00 8.9193297501e-03 2.5097105614e+00 -4.3469462046e+00 2.5097105614e+00 4.3469462046e+00 
157200 4.7938207101e+00 8.8916016646e-03 2.5095328671e+00 -4.3466384291e+00 2.5095328671e+00 4.3466384291e+00 
157300 4.7938020208e+00 8.8637464093e-03 2.5093557127e+00 -4.3463315887e+00 2.5093557127e+00 4.3463315887e+00 
157400 4.7937833912e+00 8.8357654745e-03 2.5091791008e+00 -4.3460256878e+00 2.5091791008e+00 4.3460256878e+00 
157500 4.7937648220e+00 8.8076603629e-03 2.5090030340e+00 -4.3457207312e+00 2.5090030340e+00 4.3457207312e+00 
157600 4.7937463136e+00 8.7794325897e-03 2.5088275149e+00 -4.3454167233e+00 2.5088275149e+00 4.3454167233e+00 
157700 4.7937278667e+00 8.7510836824e-03 2.5086525461e+00 -4.3451136684e+00 2.5086525461e+00 4.3451136684e+00 
157800 4.7937094818e+00 8.7226151804e-03 2.5084781301e+00 -4.3448115711e+00 2.5084781301e+00 4.3448115711e+00 
157900 4.7936911594e+00 8.6940286349e-03 2.5083042695e+00 -4.3445104355e+00 2.5083042695e+00 4.3445104355e+00 
158000 4.7936729002e+00 8.6653256087e-03 2.5081309665e+00 -4.3442102661e+00 2.5081309665e+00 4.3442102661e+00 
158100 4.7936547046e+00 8.6365076758e-03 2.5079582238e+00 -4.3439110670e+00 2.5079582238e+00 4.3439110670e+00 
158200 4.7936365731e+00 8.6075764212e-03 2.5077860438e+00 -4.3436128423e+00 2.5077860438e+00 4.3436128423e+00 
158300 4.7936185063e+00 8.5785334410e-03 2.5076144287e+00 -4.3433155963e+00 2.5076144287e+00 4.3433155963e+00 
158400 4.7936005047e+00 8.5493803416e-03 2.5074433809e+00 -4.3430193329e+00 2.5074433809e+00 4.3430193329e+00 
158500 4.7935825689e+00 8.5201187399e-03 2.5072729028e+00 -4.3427240562e+00 2.5072729028e+00 4.3427240562e+00 
158600 4.7935646992e+00 8.4907502629e-03 2.5071029967e+00 -4.3424297701e+00 2.5071029967e+00 4.3424297701e+00 
158700 4.7935468963e+00 8.4612765474e-03 2.5069336647e+00 -4.3421364784e+00 2.5069336647e+00 4.3421364784e+00 
158800 4.7935291605e+00 8.4316992399e-03 2.5067649091e+00 -4.3418441852e+00 2.5067649091e+00 4.3418441852e+00 
158900 4.7935114924e+00 8.4020199961e-03 2.5065967321e+00 -4.3415528940e+00 2.5065967321e+00 4.3415528940e+00 
159000 4.7934938925e+00 8.3722404810e-03 2.5064291358e+00 -4.3412626088e+00 2.5064291358e+00 4.3412626088e+00 
159100 4.7934763611e+00 8.3423623683e-03 2.5062621223e+00 -4.3409733330e+00 2.5062621223e+00 4.3409733330e+00 
159200 4.7934588989e+00 8.3123873404e-03 2.5060956938e+00 -4.3406850703e+00 2.5060956938e+00 4.3406850703e+00 
159300 4.7934415062e+00 8.2823170878e-03 2.5059298523e+00 -4.3403978243e+00 2.5059298523e+00 4.3403978243e+00 
159400 4.7934241834e+00 8.2521533094e-03 2.5057645997e+00 -4.3401115985e+00 2.5057645997e+00 4.3401115985e+00 
159500 4.7934069311e+00 8.2218977117e-03 2.5055999381e+00 -4.3398263963e+00 2.5055999381e+00 4.3398263963e+00 
159600 4.7933897496e+00 8.1915520087e-03 2.5054358695e+00 -4.3395422211e+00 2.5054358695e+00 4.3395422211e+00 
159700 4.7933726393e+00 8.1611179218e-03 2.5052723957e+00 -4.3392590761e+00 2.5052723957e+00 4.3392590761e+00 
159800 4.7933556007e+00 8.1305971793e-03 2.5051095186e+00 -4.3389769647e+00 2.5051095186e+00 4.3389769647e+00 
159900 4.7933386343e+00 8.0999915164e-03 2.5049472401e+00 -4.3386958901e+00 2.5049472401e+00 4.3386958901e+00 
160000 4.7933217403e+00 8.0693026746e-03 2.5047855619e+00 -4.3384158553e+00 2.5047855619e+00 4.3384158553e+00 
160100 4.7933049191e+00 8.0385324016e-03 2.5046244859e+00 -4.3381368635e+00 2.5046244859e+00 4.3381368635e+00 
160200 4.7932881713e+00 8.0076824511e-03 2.5044640139e+00 -4.3378589177e+00 2.5044640139e+00 4.3378589177e+00 
160300 4.7932714970e+00 7.9767545823e-03 2.5043041474e+00 -4.3375820208e+00 2.5043041474e+00 4.3375820208e+00 
160400 4.7932548968e+00 7.9457505600e-03 2.5041448882e+00 -4.3373061758e+00 2.5041448882e+00 4.3373061758e+00 
160500 4.7932383709e+00 7.9146721538e-03 2.5039862379e+00 -4.3370313854e+00 2.5039862379e+00 4.3370313854e+00 
160600 4.7932219197e+00 7.8835211383e-03 2.5038281981e+00 -4.3367576525e+00 2.5038281981e+00 4.3367576525e+00 
160700 4.7932055436e+00 7.8522992927e-03 2.5036707704e+00 -4.3364849797e+00 2.5036707704e+00 4.3364849797e+00 
160800 4.7931892429e+00 7.8210084002e-03 2.5035139563e+00 -4.3362133697e+00 2.5035139563e+00 4.3362133697e+00 
160900 4.7931730180e+00 7.7896502481e-03 2.5033577573e+00 -4.3359428251e+00 2.5033577573e+00 4.3359428251e+00 
161000 4.7931568690e+00 7.7582266275e-03 2.5032021749e+00 -4.3356733485e+00 2.5032021749e+00 4.3356733485e+00 
161100 4.7931407964e+00 7.7267393328e-03 2.5030472104e+00 -4.3354049422e+00 2.5030472104e+00 4.3354049422e+00 
161200 4.7931248005e+00 7.6951901615e-03 2.5028928653e+00 -4.3351376087e+00 2.5028928653e+00 4.3351376087e+00 
161300 4.7931088816e+00 7.6635809140e-03 2.5027391410e+00 -4.3348713503e+00 2.5027391410e+00 4.3348713503e+00 
161400 4.7930930398e+00 7.6319133933e-03 2.5025860387e+00 -4.3346061693e+00 2.5025860387e+00 4.3346061693e+00 
161500 4.7930772757e+00 7.6001894045e-03 2.5024335597e+00 -4.3343420680e+00 2.5024335597e+00 4.3343420680e+00 
161600 4.7930615893e+00 7.5684107550e-03 2.5022817053e+00 -4.3340790484e+00 2.5022817053e+00 4.3340790484e+00 
161700 4.7930459809e+00 7.5365792536e-03 2.5021304766e+00 -4.3338171126e+00 2.5021304766e+00 4.3338171126e+00 
161800 4.7930304509e+00 7.5046967109e-03 2.5019798749e+00 -4.3335562628e+00 2.5019798749e+00 4.3335562628e+00 
161900 4.7930149995e+00 7.4727649382e-03 2.5018299012e+00 -4.3332965008e+00 2.5018299012e+00 4.3332965008e+00 
162000 4.7929996269e+00 7.4407857481e-03 2.5016805567e+00 -4.3330378285e+00 2.5016805567e+00 4.3330378285e+00 
162100 4.7929843333e+00 7.4087609535e-03 2.5015318424e+00 -4.3327802478e+00 2.5015318424e+00 4.3327802478e+00 
162200 4.7929691189e+00 7.3766923679e-03 2.5013837594e+00 -4.3325237605e+00 2.5013837594e+00 4.3325237605e+00 
162300 4.7929539840e+00 7.3445818044e-03 2.5012363086e+00 -4.3322683683e+00 2.5012363086e+00 4.3322683683e+00 
162400 4.7929389288e+00 7.3124310764e-03 2.5010894910e+00 -4.3320140727e+00 2.5010894910e+00 4.3320140727e+00 
162500 4.7929239535e+00 7.2802419963e-03 2.5009433075e+00 -4.3317608755e+00 2.5009433075e+00 4.3317608755e+00 
162600 4.7929090583e+00 7.2480163759e-03 2.5007977590e+00 -4.3315087781e+00 2.5007977590e+00 4.3315087781e+00 
162700 4.7928942433e+00 7.2157560259e-03 2.5006528464e+00 -4.3312577820e+00 2.5006528464e+00 4.3312577820e+00 
162800 4.7928795087e+00 7.1834627558e-03 2.5005085703e+00 -4.3310078885e+00 2.5005085703e+00 4.3310078885e+00 
162900 4.7928648547e+00 7.1511383732e-03 2.5003649316e+00 -4.3307590991e+00 2.5003649316e+00 4.3307590991e+00 
163000 4.7928502814e+00 7.1187846838e-03 2.5002219311e+00 -4.3305114149e+00 2.5002219311e+00 4.3305114149e+00 
163100 4.7928357891e+00 7.0864034915e-03 2.5000795694e+00 -4.3302648372e+00 2.5000795694e+00 4.3302648372e+00 
163200 4.7928213778e+00 7.0539965973e-03 2.4999378472e+00 -4.3300193671e+00 2.4999378472e+00 4.3300193671e+00 
163300 4.7928070476e+00 7.0215657997e-03 2.4997967651e+00 -4.3297750057e+00 2.4997967651e+00 4.3297750057e+00 
163400 4.7927927988e+00 6.9891128942e-03 2.4996563236e+00 -4.3295317540e+00 2.4996563236e+00 4.3295317540e+00 
163500 4.7927786313e+00 6.9566396730e-03 2.4995165235e+00 -4.3292896130e+00 2.4995165235e+00 4.3292896130e+00 
163600 4.7927645454e+00 6.9241479249e-03 2.4993773651e+00 -4.3290485836e+00 2.4993773651e+00 4.3290485836e+00 
163700 4.7927505411e+00 6.8916394347e-03 2.4992388489e+00 -4.3288086665e+00 2.4992388489e+00 4.3288086665e+00 
163800 4.7927366185e+00 6.8591159834e-03 2.4991009754e+00 -4.3285698626e+00 2.4991009754e+00 4.3285698626e+00 
163900 4.7927227777e+00 6.8265793475e-03 2.4989637450e+00 -4.3283321726e+00 2.4989637450e+00 4.3283321726e+00 
164000 4.7927090188e+00 6.7940312991e-03 2.4988271580e+00 -4.3280955970e+00 2.4988271580e+00 4.3280955970e+00 
164100 4.7926953418e+00 6.7614736053e-03 2.4986912148e+00 -4.3278601365e+00 2.4986912148e+00 4.3278601365e+00 
164200 4.7926817469e+00 6.7289080282e-03 2.4985559158e+00 -4.3276257917e+00 2.4985559158e+00 4.3276257917e+00 
164300 4.7926682340e+00 6.6963363247e-03 2.4984212610e+00 -4.3273925628e+00 2.4984212610e+00 4.3273925628e+00 
164400 4.7926548032e+00 6.6637602460e-03 2.4982872509e+00 -4.3271604504e+00 2.4982872509e+00 4.3271604504e+00 
164500 4.7926414545e+00 6.6311815375e-03 2.4981538855e+00 -4.3269294548e+00 2.4981538855e+00 4.3269294548e+00 
164600 4.7926281880e+00 6.5986019384e-03 2.4980211650e+00 -4.3266995762e+00 2.4980211650e+00 4.3266995762e+00 
164700 4.7926150038e+00 6.5660231819e-03 2.4978890896e+00 -4.3264708149e+00 2.4978890896e+00 4.3264708149e+00 
164800 4.7926019017e+00 6.5334469943e-03 2.4977576593e+00 -4.3262431709e+00 2.4977576593e+00 4.3262431709e+00 
164900 4.7925888818e+00 6.5008750953e-03 2.4976268742e+00 -4.3260166445e+00 2.4976268742e+00 4.3260166445e+00 
165000 4.7925759442e+00 6.4683091977e-03 2.4974967343e+00 -4.3257912356e+00 2.4974967343e+00 4.3257912356e+00 
165100 4.7925630888e+00 6.4357510066e-03 2.4973672396e+00 -4.3255669441e+00 2.4973672396e+00 4.3255669441e+00 
165200 4.7925503155e+00 6.4032022201e-03 2.4972383900e+00 -4.3253437700e+00 2.4972383900e+00 4.3253437700e+00 
165300 4.7925376245e+00 6.3706645283e-03 2.4971101854e+00 -4.3251217132e+00 2.4971101854e+00 4.3251217132e+00 
165400 4.7925250155e+00 6.3381396134e-03 2.4969826257e+00 -4.3249007734e+00 2.4969826257e+00 4.3249007734e+00 
165500 4.7925124887e+00 6.3056291494e-03 2.4968557108e+00 -4.3246809504e+00 2.4968557108e+00 4.3246809504e+00 
165600 4.7925000440e+00 6.2731348021e-03 2.4967294405e+00 -4.3244622437e+00 2.4967294405e+00 4.3244622437e+00 
165700 4.7924876812e+00 6.2406582284e-03 2.4966038145e+00 -4.3242446531e+00 2.4966038145e+00 4.3242446531e+00 
165800 4.7924754005e+00 6.2082010767e-03 2.4964788326e+00 -4.3240281781e+00 2.4964788326e+00 4.3240281781e+00 
165900 4.7924632016e+00 6.1757649861e-03 2.4963544945e+00 -4.3238128182e+00 2.4963544945e+00 4.3238128182e+00 
166000 4.7924510845e+00 6.1433515866e-03 2.4962307998e+00 -4.3235985728e+00 2.4962307998e+00 4.3235985728e+00 
166100 4.7924390491e+00 6.1109624988e-03 2.4961077483e+00 -4.3233854412e+00 2.4961077483e+00 4.3233854412e+00 
166200 4.7924270954e+00 6.0785993336e-03 2.4959853395e+00 -4.3231734229e+00 2.4959853395e+00 4.3231734229e+00 
166300 4.7924152233e+00 6.0462636919e-03 2.4958635729e+00 -4.3229625171e+00 2.4958635729e+00 4.3229625171e+00 
166400 4.7924034326e+00 6.0139571648e-03 2.4957424482e+00 -4.3227527229e+00 2.4957424482e+00 4.3227527229e+00 
166500 4.7923917232e+00 5.9816813332e-03 2.4956219649e+00 -4.3225440396e+00 2.4956219649e+00 4.3225440396e+00 
166600 4.7923800951e+00 5.9494377674e-03 2.4955021223e+00 -4.3223364663e+00 2.4955021223e+00 4.3223364663e+00 
166700 4.7923685482e+00 5.9172280271e-03 2.4953829201e+00 -4.3221300019e+00 2.4953829201e+00 4.3221300019e+00 
166800 4.7923570822e+00 5.8850536614e-03 2.4952643575e+00 -4.3219246455e+00 2.4952643575e+00 4.3219246455e+00 
166900 4.7923456970e+00 5.8529162082e-03 2.4951464339e+00 -4.3217203959e+00 2.4951464339e+00 4.3217203959e+00 
167000 4.7923343926e+00 5.8208171946e-03 2.4950291488e+00 -4.3215172522e+00 2.4950291488e+00 4.3215172522e+00 
167100 4.7923231688e+00 5.7887581360e-03 2.4949125015e+00 -4.3213152130e+00 2.4949125015e+00 4.3213152130e+00 
167200 4.7923120253e+00 5.7567405366e-03 2.4947964911e+00 -4.3211142772e+00 2.4947964911e+00 4.3211142772e+00 
167300 4.7923009622e+00 5.7247658888e-03 2.4946811171e+00 -4.3209144434e+00 2.4946811171e+00 4.3209144434e+00 
167400 4.7922899791e+00 5.6928356733e-03 2.4945663785e+00 -4.3207157104e+00 2.4945663785e+00 4.3207157104e+00 
167500 4.7922790760e+00 5.6609513588e-03 2.4944522747e+00 -4.3205180768e+00 2.4944522747e+00 4.3205180768e+00 
167600 4.7922682526e+00 5.6291144020e-03 2.4943388047e+00 -4.3203215410e+00 2.4943388047e+00 4.3203215410e+00 
167700 4.7922575088e+00 5.5973262470e-03 2.4942259677e+00 -4.3201261017e+00 2.4942259677e+00 4.3201261017e+00 
167800 4.7922468445e+00 5.5655883259e-03 2.4941137629e+00 -4.3199317572e+00 2.4941137629e+00 4.3199317572e+00 
167900 4.7922362593e+00 5.5339020580e-03 2.4940021893e+00 -4.3197385060e+00 2.4940021893e+00 4.3197385060e+00 
168000 4.7922257531e+00 5.5022688500e-03 2.4938912459e+00 -4.3195463464e+00 2.4938912459e+00 4.3195463464e+00 
168100 4.7922153257e+00 5.4706900957e-03 2.4937809318e+00 -4.3193552768e+00 2.4937809318e+00 4.3193552768e+00 
168200 4.7922049768e+00 5.4391671759e-03 2.4936712459e+00 -4.3191652953e+00 2.4936712459e+00 4.3191652953e+00 
168300 4.7921947064e+00 5.4077014585e-03 2.4935621873e+00 -4.3189764002e+00 2.4935621873e+00 4.3189764002e+00 
168400 4.7921845141e+00 5.3762942981e-03 2.4934537548e+00 -4.3187885896e+00 2.4934537548e+00 4.3187885896e+00 
168500 4.7921743998e+00 5.3449470358e-03 2.4933459474e+00 -4.3186018617e+00 2.4933459474e+00 4.3186018617e+00 
168600 4.7921643631e+00 5.3136609994e-03 2.4932387639e+00 -4.3184162145e+00 2.4932387639e+00 4.3184162145e+00 
168700 4.7921544039e+00 5.2824375032e-03 2.4931322033e+00 -4.3182316461e+00 2.4931322033e+00 4.3182316461e+00 
168800 4.7921445220e+00 5.2512778476e-03 2.4930262643e+00 -4.3180481543e+00 2.4930262643e+00 4.3180481543e+00 
168900 4.7921347170e+00 5.2201833195e-03 2.4929209456e+00 -4.3178657371e+00 2.4929209456e+00 4.3178657371e+00 
169000 4.7921249887e+00 5.1891551916e-03 2.4928162462e+00 -4.3176843924e+00 2.4928162462e+00 4.3176843924e+00 
169100 4.7921153370e+00 5.1581947228e-03 2.4927121648e+00 -4.3175041180e+00 2.4927121648e+00 4.3175041180e+00 
169200 4.7921057614e+00 5.1273031579e-03 2.4926087000e+00 -4.3173249118e+00 2.4926087000e+00 4.3173249118e+00 
169300 4.7920962618e+00 5.0964817276e-03 2.4925058506e+00 -4.3171467713e+00 2.4925058506e+00 4.3171467713e+00 
169400 4.7920868379e+00 5.0657316481e-03 2.4924036151e+00 -4.3169696944e+00 2.4924036151e+00 4.3169696944e+00 
169500 4.7920774894e+00 5.0350541215e-03 2.4923019924e+00 -4.3167936787e+00 2.4923019924e+00 4.3167936787e+00 
169600 4.7920682161e+00 5.0044503353e-03 2.4922009810e+00 -4.3166187217e+00 2.4922009810e+00 4.3166187217e+00 
169700 4.7920590176e+00 4.9739214626e-03 2.4921005794e+00 -4.3164448212e+00 2.4921005794e+00 4.3164448212e+00 
169800 4.7920498937e+00 4.9434686620e-03 2.4920007863e+00 -4.3162719745e+00 2.4920007863e+00 4.3162719745e+00 
169900 4.7920408440e+00 4.9130930772e-03 2.4919016003e+00 -4.3161001791e+00 2.4919016003e+00 4.3161001791e+00 
170000 4.7920318684e+00 4.8827958374e-03 2.4918030197e+00 -4.3159294326e+00 2.4918030197e+00 4.3159294326e+00 
170100 4.7920229665e+00 4.8525780569e-03 2.4917050432e+00 -4.3157597323e+00 2.4917050432e+00 4.3157597323e+00 
170200 4.7920141380e+00 4.8224408353e-03 2.4916076692e+00 -4.3155910755e+00 2.4916076692e+00 4.3155910755e+00 
170300 4.7920053825e+00 4.7923852572e-03 2.4915108961e+00 -4.3154234597e+00 2.4915108961e+00 4.3154234597e+00 
170400 4.7919966999e+00 4.7624123923e-03 2.4914147225e+00 -4.3152568820e+00 2.4914147225e+00 4.3152568820e+00 
170500 4.7919880897e+00 4.7325232954e-03 2.4913191466e+00 -4.3150913398e+00 2.4913191466e+00 4.3150913398e+00 
170600 4.7919795517e+00 4.7027190060e-03 2.4912241669e+00 -4.3149268302e+00 2.4912241669e+00 4.3149268302e+00 
170700 4.7919710856e+00 4.6730005489e-03 2.4911297818e+00 -4.3147633504e+00 2.4911297818e+00 4.3147633504e+00 
170800 4.7919626910e+00 4.6433689334e-03 2.4910359896e+00 -4.3146008975e+00 2.4910359896e+00 4.3146008975e+00 
170900 4.7919543675e+00 4.6138251540e-03 2.4909427886e+00 -4.3144394687e+00 2.4909427886e+00 4.3144394687e+00 
171000 4.7919461150e+00 4.5843701898e-03 2.4908501772e+00 -4.3142790609e+00 2.4908501772e+00 4.3142790609e+00 
171100 4.7919379330e+00 4.5550050048e-03 2.4907581536e+00 -4.3141196713e+00 2.4907581536e+00 4.3141196713e+00 
171200 4.7919298212e+00 4.5257305477e-03 2.4906667160e+00 -4.3139612968e+00 2.4906667160e+00 4.3139612968e+00 
171300 4.7919217793e+00 4.4965477521e-03 2.4905758627e+00 -4.3138039344e+00 2.4905758627e+00 4.3138039344e+00 
171400 4.7919138069e+00 4.4674575362e-03 2.4904855920e+00 -4.3136475809e+00 2.4904855920e+00 4.3136475809e+00 
171500 4.7919059037e+00 4.4384608029e-03 2.4903959021e+00 -4.3134922334e+00 2.4903959021e+00 4.3134922334e+00 
171600 4.7918980694e+00 4.4095584400e-03 2.4903067911e+00 -4.3133378886e+00 2.4903067911e+00 4.3133378886e+00 
171700 4.7918903036e+00 4.3807513198e-03 2.4902182572e+00 -4.3131845433e+00 2.4902182572e+00 4.3131845433e+00 
171800 4.7918826059e+00 4.3520402993e-03 2.4901302985e+00 -4.3130321944e+00 2.4901302985e+00 4.3130321944e+00 
171900 4.7918749760e+00 4.3234262204e-03 2.4900429132e+00 -4.3128808387e+00 2.4900429132e+00 4.3128808387e+00 
172000 4.7918674136e+00 4.2949099096e-03 2.4899560994e+00 -4.3127304728e+00 2.4899560994e+00 4.3127304728e+00 
172100 4.7918599183e+00 4.2664921781e-03 2.4898698552e+00 -4.3125810935e+00 2.4898698552e+00 4.3125810935e+00 
172200 4.7918524897e+00 4.2381738218e-03 2.4897841787e+00 -4.3124326974e+00 2.4897841787e+00 4.3124326974e+00 
172300 4.7918451275e+00 4.2099556214e-03 2.4896990679e+00 -4.3122852812e+00 2.4896990679e+00 4.3122852812e+00 
172400 4.7918378313e+00 4.1818383422e-03 2.4896145209e+00 -4.3121388415e+00 2.4896145209e+00 4.3121388415e+00 
172500 4.7918306008e+00 4.1538227344e-03 2.4895305357e+00 -4.3119933749e+00 2.4895305357e+00 4.3119933749e+00 
172600 4.7918234356e+00 4.1259095330e-03 2.4894471104e+00 -4.3118488779e+00 2.4894471104e+00 4.3118488779e+00 
172700 4.7918163353e+00 4.0980994578e-03 2.4893642428e+00 -4.3117053471e+00 2.4893642428e+00 4.3117053471e+00 
172800 4.7918092995e+00 4.0703932132e-03 2.4892819311e+00 -4.3115627791e+00 2.4892819311e+00 4.3115627791e+00 
172900 4.7918023279e+00 4.0427914889e-03 2.4892001732e+00 -4.3114211702e+00 2.4892001732e+00 4.3114211702e+00 
173000 4.7917954201e+00 4.0152949591e-03 2.4891189670e+00 -4.3112805169e+00 2.4891189670e+00 4.3112805169e+00 
173100 4.7917885757e+00 3.9879042832e-03 2.4890383105e+00 -4.3111408157e+00 2.4890383105e+00 4.3111408157e+00 
173200 4.7917817944e+00 3.9606201053e-03 2.4889582016e+00 -4.3110020630e+00 2.4889582016e+00 4.3110020630e+00 
173300 4.7917750758e+00 3.9334430548e-03 2.4888786382e+00 -4.3108642552e+00 2.4888786382e+00 4.3108642552e+00 
173400 4.7917684195e+00 3.9063737461e-03 2.4887996182e+00 -4.3107273886e+00 2.4887996182e+00 4.3107273886e+00 
173500 4.7917618251e+00 3.8794127784e-03 2.4887211396e+00 -4.3105914596e+00 2.4887211396e+00 4.3105914596e+00 
173600 4.7917552923e+00 3.8525607364e-03 2.4886432001e+00 -4.3104564644e+00 2.4886432001e+00 4.3104564644e+00 
173700 4.7917488206e+00 3.8258181899e-03 2.4885657976e+00 -4.3103223995e+00 2.4885657976e+00 4.3103223995e+00 
173800 4.7917424097e+00 3.7991856939e-03 2.4884889301e+00 -4.3101892610e+00 2.4884889301e+00 4.3101892610e+00 
173900 4.7917360592e+00 3.7726637887e-03 2.4884125953e+00 -4.3100570453e+00 2.4884125953e+00 4.3100570453e+00 
174000 4.7917297687e+00 3.7462530001e-03 2.4883367911e+00 -4.3099257485e+00 2.4883367911e+00 4.3099257485e+00 
174100 4.7917235379e+00 3.7199538391e-03 2.4882615152e+00 -4.3097953668e+00 2.4882615152e+00 4.3097953668e+00 
174200 4.7917173663e+00 3.6937668023e-03 2.4881867655e+00 -4.3096658966e+00 2.4881867655e+00 4.3096658966e+00 
174300 4.7917112535e+00 3.6676923720e-03 2.4881125398e+00 -4.3095373339e+00 2.4881125398e+00 4.3095373339e+00 
174400 4.7917051993e+00 3.6417310159e-03 2.4880388359e+00 -4.3094096749e+00 2.4880388359e+00 4.3094096749e+00 
174500 4.7916992031e+00 3.6158831875e-03 2.4879656514e+00 -4.3092829158e+00 2.4879656514e+00 4.3092829158e+00 
174600 4.7916932646e+00 3.5901493261e-03 2.4878929843e+00 -4.3091570527e+00 2.4878929843e+00 4.3091570527e+00 
174700 4.7916873834e+00 3.5645298567e-03 2.4878208323e+00 -4.3090320816e+00 2.4878208323e+00 4.3090320816e+00 
174800 4.7916815592e+00 3.5390251903e-03 2.4877491930e+00 -4.3089079988e+00 2.4877491930e+00 4.3089079988e+00 
174900 4.7916757915e+00 3.5136357239e-03 2.4876780643e+00 -4.3087848002e+00 2.4876780643e+00 4.3087848002e+00 
175000 4.7916700799e+00 3.4883618406e-03 2.4876074438e+00 -4.3086624820e+00 2.4876074438e+00 4.3086624820e+00 
175100 4.7916644241e+00 3.4632039096e-03 2.4875373294e+00 -4.3085410402e+00 2.4875373294e+00 4.3085410402e+00 
175200 4.7916588237e+00 3.4381622862e-03 2.4874677186e+00 -4.3084204708e+00 2.4874677186e+00 4.3084204708e+00 
175300 4.7916532782e+00 3.4132373123e-03 2.4873986092e+00 -4.3083007699e+00 2.4873986092e+00 4.3083007699e+00 
175400 4.7916477873e+00 3.3884293161e-03 2.4873299990e+00 -4.3081819334e+00 2.4873299990e+00 4.3081819334e+00 
175500 4.7916423507e+00 3.3637386121e-03 2.4872618855e+00 -4.3080639574e+00 2.4872618855e+00 4.3080639574e+00 
175600 4.7916369678e+00 3.3391655016e-03 2.4871942665e+00 -4.3079468379e+00 2.4871942665e+00 4.3079468379e+00 
175700 4.7916316384e+00 3.3147102725e-03 2.4871271396e+00 -4.3078305707e+00 2.4871271396e+00 4.3078305707e+00 
175800 4.7916263620e+00 3.2903731996e-03 2.4870605026e+00 -4.3077151520e+00 2.4870605026e+00 4.3077151520e+00 
175900 4.7916211383e+00 3.2661545443e-03 2.4869943531e+00 -4.3076005776e+00 2.4869943531e+00 4.3076005776e+00 
176000 4.7916159668e+00 3.2420545553e-03 2.4869286887e+00 -4.3074868435e+00 2.4869286887e+00 4.3074868435e+00 
176100 4.7916108472e+00 3.2180734680e-03 2.4868635070e+00 -4.3073739457e+00 2.4868635070e+00 4.3073739457e+00 
176200 4.7916057791e+00 3.1942115052e-03 2.4867988059e+00 -4.3072618800e+00 2.4867988059e+00 4.3072618800e+00 
176300 4.7916007620e+00 3.1704688770e-03 2.4867345828e+00 -4.3071506423e+00 2.4867345828e+00 4.3071506423e+00 
176400 4.7915957957e+00 3.1468457806e-03 2.4866708354e+00 -4.3070402287e+00 2.4866708354e+00 4.3070402287e+00 
176500 4.7915908798e+00 3.1233424010e-03 2.4866075614e+00 -4.3069306349e+00 2.4866075614e+00 4.3069306349e+00 
176600 4.7915860138e+00 3.0999589105e-03 2.4865447584e+00 -4.3068218568e+00 2.4865447584e+00 4.3068218568e+00 
176700 4.7915811973e+00 3.0766954691e-03 2.4864824240e+00 -4.3067138905e+00 2.4864824240e+00 4.3067138905e+00 
176800 4.7915764300e+00 3.0535522249e-03 2.4864205558e+00 -4.3066067317e+00 2.4864205558e+00 4.3066067317e+00 
176900 4.7915717115e+00 3.0305293134e-03 2.4863591515e+00 -4.3065003762e+00 2.4863591515e+00 4.3065003762e+00 
177000 4.7915670415e+00 3.0076268585e-03 2.4862982086e+00 -4.3063948201e+00 2.4862982086e+00 4.3063948201e+00 
177100 4.7915624194e+00 2.9848449720e-03 2.4862377248e+00 -4.3062900591e+00 2.4862377248e+00 4.3062900591e+00 
177200 4.7915578451e+00 2.9621837540e-03 2.4861776977e+00 -4.3061860891e+00 2.4861776977e+00 4.3061860891e+00 
177300 4.7915533180e+00 2.9396432930e-03 2.4861181249e+00 -4.3060829060e+00 2.4861181249e+00 4.3060829060e+00 
177400 4.7915488378e+00 2.9172236658e-03 2.4860590040e+00 -4.3059805056e+00 2.4860590040e+00 4.3059805056e+00 
177500 4.7915444041e+00 2.8949249379e-03 2.4860003326e+00 -4.3058788837e+00 2.4860003326e+00 4.3058788837e+00 
177600 4.7915400165e+00 2.8727471633e-03 2.4859421083e+00 -4.3057780362e+00 2.4859421083e+00 4.3057780362e+00 
177700 4.7915356748e+00 2.8506903850e-03 2.4858843286e+00 -4.3056779589e+00 2.4858843286e+00 4.3056779589e+00 
177800 4.7915313784e+00 2.8287546347e-03 2.4858269913e+00 -4.3055786478e+00 2.4858269913e+00 4.3055786478e+00 
177900 4.7915271270e+00 2.8069399334e-03 2.4857700939e+00 -4.3054800985e+00 2.4857700939e+00 4.3054800985e+00 
178000 4.7915229203e+00 2.7852462910e-03 2.4857136339e+00 -4.3053823070e+00 2.4857136339e+00 4.3053823070e+00 
178100 4.7915187579e+00 2.7636737068e-03 2.4856576090e+00 -4.3052852691e+00 2.4856576090e+00 4.3052852691e+00 
178200 4.7915146394e+00 2.7422221692e-03 2.4856020168e+00 -4.3051889806e+00 2.4856020168e+00 4.3051889806e+00 
178300 4.7915105645e+00 2.7208916566e-03 2.4855468549e+00 -4.3050934373e+00 2.4855468549e+00 4.3050934373e+00 
178400 4.7915065327e+00 2.6996821366e-03 2.4854921209e+00 -4.3049986351e+00 2.4854921209e+00 4.3049986351e+00 
178500 4.7915025437e+00 2.6785935666e-03 2.4854378122e+00 -4.3049045699e+00 2.4854378122e+00 4.3049045699e+00 
178600 4.7914985972e+00 2.6576258941e-03 2.4853839267e+00 -4.3048112373e+00 2.4853839267e+00 4.3048112373e+00 
178700 4.7914946928e+00 2.6367790563e-03 2.4853304618e+00 -4.3047186334e+00 2.4853304618e+00 4.3047186334e+00 
178800 4.7914908301e+00 2.6160529807e-03 2.4852774151e+00 -4.3046267539e+00 2.4852774151e+00 4.3046267539e+00 
178900 4.7914870087e+00 2.5954475849e-03 2.4852247843e+00 -4.3045355946e+00 2.4852247843e+00 4.3045355946e+00 
179000 4.7914832284e+00 2.5749627768e-03 2.4851725669e+00 -4.3044451515e+00 2.4851725669e+00 4.3044451515e+00 
179100 4.7914794887e+00 2.5545984551e-03 2.4851207606e+00 -4.3043554203e+00 2.4851207606e+00 4.3043554203e+00 
179200 4.7914757893e+00 2.5343545086e-03 2.4850693629e+00 -4.3042663969e+00 2.4850693629e+00 4.3042663969e+00 
179300 4.7914721299e+00 2.5142308171e-03 2.4850183714e+00 -4.3041780771e+00 2.4850183714e+00 4.3041780771e+00 
179400 4.7914685101e+00 2.4942272513e-03 2.4849677838e+00 -4.3040904568e+00 2.4849677838e+00 4.3040904568e+00 
179500 4.7914649295e+00 2.4743436727e-03 2.4849175977e+00 -4.3040035318e+00 2.4849175977e+00 4.3040035318e+00 
179600 4.7914613878e+00 2.4545799339e-03 2.4848678106e+00 -4.3039172981e+00 2.4848678106e+00 4.3039172981e+00 
179700 4.7914578846e+00 2.4349358788e-03 2.4848184202e+00 -4.3038317514e+00 2.4848184202e+00 4.3038317514e+00 
179800 4.7914544197e+00 2.4154113425e-03 2.4847694241e+00 -4.3037468877e+00 2.4847694241e+00 4.3037468877e+00 
179900 4.7914509926e+00 2.3960061517e-03 2.4847208200e+00 -4.3036627028e+00 2.4847208200e+00 4.3036627028e+00 
180000 4.7914476030e+00 2.3767201246e-03 2.4846726053e+00 -4.3035791926e+00 2.4846726053e+00 4.3035791926e+00 
180100 4.7914442506e+00 2.3575530710e-03 2.4846247778e+00 -4.3034963530e+00 2.4846247778e+00 4.3034963530e+00 
180200 4.7914409350e+00 2.3385047927e-03 2.4845773352e+00 -4.3034141798e+00 2.4845773352e+00 4.3034141798e+00 
180300 4.7914376559e+00 2.3195750833e-03 2.4845302749e+00 -4.3033326691e+00 2.4845302749e+00 4.3033326691e+00 
180400 4.7914344130e+00 2.3007637285e-03 2.4844835947e+00 -4.3032518166e+00 2.4844835947e+00 4.3032518166e+00 
180500 4.7914312060e+00 2.2820705063e-03 2.4844372922e+00 -4.3031716183e+00 2.4844372922e+00 4.3031716183e+00 
180600 4.7914280344e+00 2.2634951869e-03 2.4843913650e+00 -4.3030920701e+00 2.4843913650e+00 4.3030920701e+00 
180700 4.7914248980e+00 2.2450375329e-03 2.4843458108e+00 -4.3030131679e+00 2.4843458108e+00 4.3030131679e+00 
180800 4.7914217965e+00 2.2266972995e-03 2.4843006273e+00 -4.3029349077e+00 2.4843006273e+00 4.3029349077e+00 
180900 4.7914187294e+00 2.2084742346e-03 2.4842558120e+00 -4.3028572855e+00 2.4842558120e+00 4.3028572855e+00 
181000 4.7914156966e+00 2.1903680789e-03 2.4842113628e+00 -4.3027802970e+00 2.4842113628e+00 4.3027802970e+00 
181100 4.7914126977e+00 2.1723785660e-03 2.4841672771e+00 -4.3027039385e+00 2.4841672771e+00 4.3027039385e+00 
181200 4.7914097323e+00 2.1545054225e-03 2.4841235528e+00 -4.3026282057e+00 2.4841235528e+00 4.3026282057e+00 
181300 4.7914068001e+00 2.1367483682e-03 2.4840801874e+00 -4.3025530946e+00 2.4840801874e+00 4.3025530946e+00 
181400 4.7914039008e+00 2.1191071162e-03 2.4840371787e+00 -4.3024786013e+00 2.4840371787e+00 4.3024786013e+00 
181500 4.7914010342e+00 2.1015813729e-03 2.4839945243e+00 -4.3024047218e+00 2.4839945243e+00 4.3024047218e+00 
181600 4.7913981999e+00 2.0841708383e-03 2.4839522219e+00 -4.3023314520e+00 2.4839522219e+00 4.3023314520e+00 
181700 4.7913953975e+00 2.0668752061e-03 2.4839102693e+00 -4.3022587880e+00 2.4839102693e+00 4.3022587880e+00 
181800 4.7913926268e+00 2.0496941635e-03 2.4838686642e+00 -4.3021867257e+00 2.4838686642e+00 4.3021867257e+00 
181900 4.7913898875e+00 2.0326273919e-03 2.4838274042e+00 -4.3021152613e+00 2.4838274042e+00 4.3021152613e+00 
182000 4.7913871792e+00 2.0156745664e-03 2.4837864871e+00 -4.3020443907e+00 2.4837864871e+00 4.3020443907e+00 
182100 4.7913845017e+00 1.9988353564e-03 2.4837459105e+00 -4.3019741101e+00 2.4837459105e+00 4.3019741101e+00 
182200 4.7913818547e+00 1.9821094254e-03 2.4837056723e+00 -4.3019044155e+00 2.4837056723e+00 4.3019044155e+00 
182300 4.7913792378e+00 1.9654964312e-03 2.4836657702e+00 -4.3018353029e+00 2.4836657702e+00 4.3018353029e+00 
182400 4.7913766508e+00 1.9489960263e-03 2.4836262018e+00 -4.3017667685e+00 2.4836262018e+00 4.3017667685e+00 
182500 4.7913740933e+00 1.9326078574e-03 2.4835869650e+00 -4.3016988084e+00 2.4835869650e+00 4.3016988084e+00 
182600 4.7913715651e+00 1.9163315661e-03 2.4835480575e+00 -4.3016314187e+00 2.4835480575e+00 4.3016314187e+00 
182700 4.7913690660e+00 1.9001667888e-03 2.4835094771e+00 -4.3015645954e+00 2.4835094771e+00 4.3015645954e+00 
182800 4.7913665955e+00 1.8841131567e-03 2.4834712215e+00 -4.3014983348e+00 2.4834712215e+00 4.3014983348e+00 
182900 4.7913641534e+00 1.8681702960e-03 2.4834332886e+00 -4.3014326330e+00 2.4834332886e+00 4.3014326330e+00 
183000 4.7913617394e+00 1.8523378281e-03 2.4833956760e+00 -4.3013674861e+00 2.4833956760e+00 4.3013674861e+00 
183100 4.7913593533e+00 1.8366153696e-03 2.4833583816e+00 -4.3013028904e+00 2.4833583816e+00 4.3013028904e+00 
183200 4.7913569948e+00 1.8210025324e-03 2.4833214033e+00 -4.3012388420e+00 2.4833214033e+00 4.3012388420e+00 
183300 4.7913546635e+00 1.8054989239e-03 2.4832847387e+00 -4.3011753371e+00 2.4832847387e+00 4.3011753371e+00 
183400 4.7913523593e+00 1.7901041470e-03 2.4832483857e+00 -4.3011123719e+00 2.4832483857e+00 4.3011123719e+00 
183500 4.7913500818e+00 1.7748178004e-03 2.4832123422e+00 -4.3010499427e+00 2.4832123422e+00 4.3010499427e+00 
183600 4.7913478307e+00 1.7596394783e-03 2.4831766060e+00 -4.3009880457e+00 2.4831766060e+00 4.3009880457e+00 
183700 4.7913456059e+00 1.7445687711e-03 2.4831411749e+00 -4.3009266772e+00 2.4831411749e+00 4.3009266772e+00 
183800 4.7913434070e+00 1.7296052648e-03 2.4831060467e+00 -4.3008658334e+00 2.4831060467e+00 4.3008658334e+00 
183900 4.7913412337e+00 1.7147485419e-03 2.4830712193e+00 -4.3008055106e+00 2.4830712193e+00 4.3008055106e+00 
184000 4.7913390858e+00 1.6999981807e-03 2.4830366906e+00 -4.3007457052e+00 2.4830366906e+00 4.3007457052e+00 
184100 4.7913369631e+00 1.6853537560e-03 2.4830024584e+00 -4.3006864133e+00 2.4830024584e+00 4.3006864133e+00 
184200 4.7913348652e+00 1.6708148390e-03 2.4829685207e+00 -4.3006276314e+00 2.4829685207e+00 4.3006276314e+00 
184300 4.7913327919e+00 1.6563809972e-03 2.4829348753e+00 -4.3005693558e+00 2.4829348753e+00 4.3005693558e+00 
184400 4.7913307430e+00 1.6420517950e-03 2.4829015200e+00 -4.3005115829e+00 2.4829015200e+00 4.3005115829e+00 
184500 4.7913287182e+00 1.6278267930e-03 2.4828684529e+00 -4.3004543090e+00 2.4828684529e+00 4.3004543090e+00 
184600 4.7913267173e+00 1.6137055492e-03 2.4828356718e+00 -4.3003975304e+00 2.4828356718e+00 4.3003975304e+00 
184700 4.7913247399e+00 1.5996876178e-03 2.4828031747e+00 -4.3003412437e+00 2.4828031747e+00 4.3003412437e+00 
184800 4.7913227859e+00 1.5857725506e-03 2.4827709594e+00 -4.3002854452e+00 2.4827709594e+00 4.3002854452e+00 
184900 4.7913208550e+00 1.5719598960e-03 2.4827390239e+00 -4.3002301313e+00 2.4827390239e+00 4.3002301313e+00 
185000 4.7913189470e+00 1.5582491999e-03 2.4827073662e+00 -4.3001752986e+00 2.4827073662e+00 4.3001752986e+00 
185100 4.7913170616e+00 1.5446400051e-03 2.4826759842e+00 -4.3001209434e+00 2.4826759842e+00 4.3001209434e+00 
185200 4.7913151985e+00 1.5311318521e-03 2.4826448759e+00 -4.3000670622e+00 2.4826448759e+00 4.3000670622e+00 
185300 4.7913133576e+00 1.5177242786e-03 2.4826140393e+00 -4.3000136516e+00 2.4826140393e+00 4.3000136516e+00 
185400 4.7913115387e+00 1.5044168200e-03 2.4825834723e+00 -4.2999607080e+00 2.4825834723e+00 4.2999607080e+00 
185500 4.7913097413e+00 1.4912090091e-03 2.4825531729e+00 -4.2999082280e+00 2.4825531729e+00 4.2999082280e+00 
185600 4.7913079655e+00 1.4781003766e-03 2.4825231392e+00 -4.2998562080e+00 2.4825231392e+00 4.2998562080e+00 
185700 4.7913062108e+00 1.4650904509e-03 2.4824933691e+00 -4.2998046448e+00 2.4824933691e+00 4.2998046448e+00 
185800 4.7913044771e+00 1.4521787583e-03 2.4824638607e+00 -4.2997535347e+00 2.4824638607e+00 4.2997535347e+00 
185900 4.7913027642e+00 1.4393648230e-03 2.4824346120e+00 -4.2997028745e+00 2.4824346120e+00 4.2997028745e+00 
186000 4.7913010718e+00 1.4266481675e-03 2.4824056211e+00 -4.2996526608e+00 2.4824056211e+00 4.2996526608e+00 
186100 4.7912993997e+00 1.4140283120e-03 2.4823768860e+00 -4.2996028900e+00 2.4823768860e+00 4.2996028900e+00 
186200 4.7912977477e+00 1.4015047753e-03 2.4823484047e+00 -4.2995535590e+00 2.4823484047e+00 4.2995535590e+00 
186300 4.7912961156e+00 1.3890770744e-03 2.4823201753e+00 -4.2995046643e+00 2.4823201753e+00 4.2995046643e+00 
186400 4.7912945031e+00 1.3767447245e-03 2.4822921960e+00 -4.2994562027e+00 2.4822921960e+00 4.2994562027e+00 
186500 4.7912929101e+00 1.3645072394e-03 2.4822644647e+00 -4.2994081707e+00 2.4822644647e+00 4.2994081707e+00 
186600 4.7912913363e+00 1.3523641315e-03 2.4822369796e+00 -4.2993605651e+00 2.4822369796e+00 4.2993605651e+00 
186700 4.7912897815e+00 1.3403149117e-03 2.4822097388e+00 -4.2993133827e+00 2.4822097388e+00 4.2993133827e+00 
186800 4.7912882455e+00 1.3283590895e-03 2.4821827405e+00 -4.2992666202e+00 2.4821827405e+00 4.2992666202e+00 
186900 4.7912867281e+00 1.3164961735e-03 2.4821559826e+00 -4.2992202742e+00 2.4821559826e+00 4.2992202742e+00 
187000 4.7912852291e+00 1.3047256708e-03 2.4821294635e+00 -4.2991743417e+00 2.4821294635e+00 4.2991743417e+00 
187100 4.7912837483e+00 1.2930470876e-03 2.4821031811e+00 -4.2991288194e+00 2.4821031811e+00 4.2991288194e+00 
187200 4.7912822855e+00 1.2814599290e-03 2.4820771338e+00 -4.2990837040e+00 2.4820771338e+00 4.2990837040e+00 
187300 4.7912808404e+00 1.2699636992e-03 2.4820513196e+00 -4.2990389925e+00 2.4820513196e+00 4.2990389925e+00 
187400 4.7912794130e+00 1.2585579015e-03 2.4820257367e+00 -4.2989946816e+00 2.4820257367e+00 4.2989946816e+00 
187500 4.7912780029e+00 1.2472420384e-03 2.4820003833e+00 -4.2989507682e+00 2.4820003833e+00 4.2989507682e+00 
187600 4.7912766101e+00 1.2360156117e-03 2.4819752576e+00 -4.2989072492e+00 2.4819752576e+00 4.2989072492e+00 
187700 4.7912752342e+00 1.2248781226e-03 2.4819503578e+00 -4.2988641215e+00 2.4819503578e+00 4.2988641215e+00 
187800 4.7912738752e+00 1.2138290715e-03 2.4819256821e+00 -4.2988213820e+00 2.4819256821e+00 4.2988213820e+00 
187900 4.7912725328e+00 1.2028679585e-03 2.4819012287e+00 -4.2987790276e+00 2.4819012287e+00 4.2987790276e+00 
188000 4.7912712069e+00 1.1919942831e-03 2.4818769960e+00 -4.2987370552e+00 2.4818769960e+00 4.2987370552e+00 
188100 4.7912698972e+00 1.1812075445e-03 2.4818529821e+00 -4.2986954619e+00 2.4818529821e+00 4.2986954619e+00 
188200 4.7912686036e+00 1.1705072414e-03 2.4818291852e+00 -4.2986542445e+00 2.4818291852e+00 4.2986542445e+00 
188300 4.7912673258e+00 1.1598928724e-03 2.4818056037e+00 -4.2986134001e+00 2.4818056037e+00 4.2986134001e+00 
188400 4.7912660638e+00 1.1493639357e-03 2.4817822358e+00 -4.2985729258e+00 2.4817822358e+00 4.2985729258e+00 
188500 4.7912648173e+00 1.1389199297e-03 2.4817590798e+00 -4.2985328184e+00 2.4817590798e+00 4.2985328184e+00 
188600 4.7912635862e+00 1.1285603522e-03 2.4817361341e+00 -4.2984930752e+00 2.4817361341e+00 4.2984930752e+00 
188700 4.7912623703e+00 1.1182847014e-03 2.4817133968e+00 -4.2984536930e+00 2.4817133968e+00 4.2984536930e+00 
188800 4.7912611693e+00 1.1080924753e-03 2.4816908663e+00 -4.2984146691e+00 2.4816908663e+00 4.2984146691e+00 
188900 4.7912599832e+00 1.0979831721e-03 2.4816685410e+00 -4.2983760005e+00 2.4816685410e+00 4.2983760005e+00 
189000 4.7912588118e+00 1.0879562900e-03 2.4816464192e+00 -4.2983376844e+00 2.4816464192e+00 4.2983376844e+00 
189100 4.7912576549e+00 1.0780113275e-03 2.4816244991e+00 -4.2982997178e+00 2.4816244991e+00 4.2982997178e+00 
189200 4.7912565123e+00 1.0681477834e-03 2.4816027793e+00 -4.2982620979e+00 2.4816027793e+00 4.2982620979e+00 
189300 4.7912553838e+00 1.0583651566e-03 2.4815812580e+00 -4.2982248220e+00 2.4815812580e+00 4.2982248220e+00 
189400 4.7912542694e+00 1.0486629465e-03 2.4815599336e+00 -4.2981878870e+00 2.4815599336e+00 4.2981878870e+00 
189500 4.7912531688e+00 1.0390406528e-03 2.4815388045e+00 -4.2981512904e+00 2.4815388045e+00 4.2981512904e+00 
189600 4.7912520819e+00 1.0294977759e-03 2.4815178692e+00 -4.2981150293e+00 2.4815178692e+00 4.2981150293e+00 
189700 4.7912510085e+00 1.0200338164e-03 2.4814971259e+00 -4.2980791009e+00 2.4814971259e+00 4.2980791009e+00 
189800 4.7912499485e+00 1.0106482756e-03 2.4814765731e+00 -4.2980435024e+00 2.4814765731e+00 4.2980435024e+00 
189900 4.7912489017e+00 1.0013406554e-03 2.4814562093e+00 -4.2980082313e+00 2.4814562093e+00 4.2980082313e+00 
190000 4.7912478680e+00 9.9211045830e-04 2.4814360328e+00 -4.2979732846e+00 2.4814360328e+00 4.2979732846e+00 
190100 4.7912468472e+00 9.8295718752e-04 2.4814160422e+00 -4.2979386599e+00 2.4814160422e+00 4.2979386599e+00 
190200 4.7912458391e+00 9.7388034704e-04 2.4813962359e+00 -4.2979043542e+00 2.4813962359e+00 4.2979043542e+00 
190300 4.7912448437e+00 9.6487944157e-04 2.4813766123e+00 -4.2978703652e+00 2.4813766123e+00 4.2978703652e+00 
190400 4.7912438607e+00 9.5595397670e-04 2.4813571699e+00 -4.2978366899e+00 2.4813571699e+00 4.2978366899e+00 
190500 4.7912428900e+00 9.4710345885e-04 2.4813379072e+00 -4.2978033260e+00 2.4813379072e+00 4.2978033260e+00 
190600 4.7912419315e+00 9.3832739537e-04 2.4813188227e+00 -4.2977702706e+00 2.4813188227e+00 4.2977702706e+00 
190700 4.7912409850e+00 9.2962529457e-04 2.4812999148e+00 -4.2977375213e+00 2.4812999148e+00 4.2977375213e+00 
190800 4.7912400504e+00 9.2099666572e-04 2.4812811822e+00 -4.2977050755e+00 2.4812811822e+00 4.2977050755e+00 
190900 4.7912391275e+00 9.1244101916e-04 2.4812626234e+00 -4.2976729306e+00 2.4812626234e+00 4.2976729306e+00 
191000 4.7912382163e+00 9.0395786628e-04 2.4812442368e+00 -4.2976410841e+00 2.4812442368e+00 4.2976410841e+00 
191100 4.7912373165e+00 8.9554671958e-04 2.4812260210e+00 -4.2976095334e+00 2.4812260210e+00 4.2976095334e+00 
191200 4.7912364281e+00 8.8720709272e-04 2.4812079745e+00 -4.2975782761e+00 2.4812079745e+00 4.2975782761e+00 
191300 4.7912355508e+00 8.7893850052e-04 2.4811900960e+00 -4.2975473096e+00 2.4811900960e+00 4.2975473096e+00 
191400 4.7912346846e+00 8.7074045904e-04 2.4811723840e+00 -4.2975166315e+00 2.4811723840e+00 4.2975166315e+00 
191500 4.7912338294e+00 8.6261248557e-04 2.4811548371e+00 -4.2974862393e+00 2.4811548371e+00 4.2974862393e+00 
191600 4.7912329850e+00 8.5455409872e-04 2.4811374538e+00 -4.2974561306e+00 2.4811374538e+00 4.2974561306e+00 
191700 4.7912321512e+00 8.4656481838e-04 2.4811202328e+00 -4.2974263029e+00 2.4811202328e+00 4.2974263029e+00 
191800 4.7912313280e+00 8.3864416583e-04 2.4811031727e+00 -4.2973967540e+00 2.4811031727e+00 4.2973967540e+00 
191900 4.7912305153e+00 8.3079166371e-04 2.4810862721e+00 -4.2973674812e+00 2.4810862721e+00 4.2973674812e+00 
192000 4.7912297128e+00 8.2300683607e-04 2.4810695296e+00 -4.2973384824e+00 2.4810695296e+00 4.2973384824e+00 
192100 4.7912289205e+00 8.1528920845e-04 2.4810529439e+00 -4.2973097551e+00 2.4810529439e+00 4.2973097551e+00 
192200 4.7912281383e+00 8.0763830780e-04 2.4810365136e+00 -4.2972812970e+00 2.4810365136e+00 4.2972812970e+00 
192300 4.7912273659e+00 8.0005366264e-04 2.4810202374e+00 -4.2972531058e+00 2.4810202374e+00 4.2972531058e+00 
192400 4.7912266035e+00 7.9253480298e-04 2.4810041139e+00 -4.2972251791e+00 2.4810041139e+00 4.2972251791e+00 
192500 4.7912258507e+00 7.8508126040e-04 2.4809881419e+00 -4.2971975148e+00 2.4809881419e+00 4.2971975148e+00 
192600 4.7912251074e+00 7.7769256807e-04 2.4809723200e+00 -4.2971701104e+00 2.4809723200e+00 4.2971701104e+00 
192700 4.7912243737e+00 7.7036826079e-04 2.4809566469e+00 -4.2971429637e+00 2.4809566469e+00 4.2971429637e+00 
192800 4.7912236493e+00 7.6310787496e-04 2.4809411212e+00 -4.2971160726e+00 2.4809411212e+00 4.2971160726e+00 
192900 4.7912229341e+00 7.5591094868e-04 2.4809257419e+00 -4.2970894347e+00 2.4809257419e+00 4.2970894347e+00 
193000 4.7912222281e+00 7.4877702173e-04 2.4809105074e+00 -4.2970630479e+00 2.4809105074e+00 4.2970630479e+00 
193100 4.7912215311e+00 7.4170563558e-04 2.4808954167e+00 -4.2970369099e+00 2.4808954167e+00 4.2970369099e+00 
193200 4.7912208430e+00 7.3469633346e-04 2.4808804683e+00 -4.2970110186e+00 2.4808804683e+00 4.2970110186e+00 
193300 4.7912201637e+00 7.2774866035e-04 2.4808656612e+00 -4.2969853719e+00 2.4808656612e+00 4.2969853719e+00 
193400 4.7912194931e+00 7.2086216301e-04 2.4808509940e+00 -4.2969599675e+00 2.4808509940e+00 4.2969599675e+00 
193500 4.7912188310e+00 7.1403638998e-04 2.4808364654e+00 -4.2969348034e+00 2.4808364654e+00 4.2969348034e+00 
193600 4.7912181775e+00 7.0727089164e-04 2.4808220744e+00 -4.2969098774e+00 2.4808220744e+00 4.2969098774e+00 
193700 4.7912175323e+00 7.0056522021e-04 2.4808078197e+00 -4.2968851875e+00 2.4808078197e+00 4.2968851875e+00 
193800 4.7912168954e+00 6.9391892976e-04 2.4807937000e+00 -4.2968607315e+00 2.4807937000e+00 4.2968607315e+00 
193900 4.7912162667e+00 6.8733157624e-04 2.4807797142e+00 -4.2968365073e+00 2.4807797142e+00 4.2968365073e+00 
194000 4.7912156461e+00 6.8080271749e-04 2.4807658610e+00 -4.2968125130e+00 2.4807658610e+00 4.2968125130e+00 
194100 4.7912150334e+00 6.7433191328e-04 2.4807521394e+00 -4.2967887465e+00 2.4807521394e+00 4.2967887465e+00 
194200 4.7912144286e+00 6.6791872528e-04 2.4807385482e+00 -4.2967652057e+00 2.4807385482e+00 4.2967652057e+00 
194300 4.7912138316e+00 6.6156271714e-04 2.4807250861e+00 -4.2967418887e+00 2.4807250861e+00 4.2967418887e+00 
194400 4.7912132423e+00 6.5526345445e-04 2.4807117520e+00 -4.2967187935e+00 2.4807117520e+00 4.2967187935e+00 
194500 4.7912126605e+00 6.4902050477e-04 2.4806985449e+00 -4.2966959180e+00 2.4806985449e+00 4.2966959180e+00 
194600 4.7912120863e+00 6.4283343767e-04 2.4806854635e+00 -4.2966732604e+00 2.4806854635e+00 4.2966732604e+00 
194700 4.7912115195e+00 6.3670182472e-04 2.4806725067e+00 -4.2966508186e+00 2.4806725067e+00 4.2966508186e+00 
194800 4.7912109600e+00 6.3062523951e-04 2.4806596735e+00 -4.2966285908e+00 2.4806596735e+00 4.2966285908e+00 
194900 4.7912104077e+00 6.2460325766e-04 2.4806469627e+00 -4.2966065750e+00 2.4806469627e+00 4.2966065750e+00 
195000 4.7912098626e+00 6.1863545683e-04 2.4806343731e+00 -4.2965847693e+00 2.4806343731e+00 4.2965847693e+00 
195100 4.7912093245e+00 6.1272141674e-04 2.4806219039e+00 -4.2965631718e+00 2.4806219039e+00 4.2965631718e+00 
195200 4.7912087933e+00 6.0686071918e-04 2.4806095537e+00 -4.2965417808e+00 2.4806095537e+00 4.2965417808e+00 
195300 4.7912082690e+00 6.0105294803e-04 2.4805973216e+00 -4.2965205942e+00 2.4805973216e+00 4.2965205942e+00 
195400 4.7912077516e+00 5.9529768923e-04 2.4805852066e+00 -4.2964996103e+00 2.4805852066e+00 4.2964996103e+00 
195500 4.7912072408e+00 5.8959453086e-04 2.4805732074e+00 -4.2964788272e+00 2.4805732074e+00 4.2964788272e+00 
195600 4.7912067366e+00 5.8394306308e-04 2.4805613232e+00 -4.2964582431e+00 2.4805613232e+00 4.2964582431e+00 
195700 4.7912062390e+00 5.7834287818e-04 2.4805495528e+00 -4.2964378562e+00 2.4805495528e+00 4.2964378562e+00 
195800 4.7912057479e+00 5.7279357058e-04 2.4805378953e+00 -4.2964176647e+00 2.4805378953e+00 4.2964176647e+00 
195900 4.7912052631e+00 5.6729473682e-04 2.4805263495e+00 -4.2963976669e+00 2.4805263495e+00 4.2963976669e+00 
196000 4.7912047846e+00 5.6184597562e-04 2.4805149146e+00 -4.2963778610e+00 2.4805149146e+00 4.2963778610e+00 
196100 4.7912043124e+00 5.5644688781e-04 2.4805035894e+00 -4.2963582452e+00 2.4805035894e+00 4.2963582452e+00 
196200 4.7912038463e+00 5.5109707640e-04 2.4804923730e+00 -4.2963388178e+00 2.4804923730e+00 4.2963388178e+00 
196300 4.7912033862e+00 5.4579614658e-04 2.4804812644e+00 -4.2963195771e+00 2.4804812644e+00 4.2963195771e+00 
196400 4.7912029321e+00 5.4054370567e-04 2.4804702626e+00 -4.2963005214e+00 2.4804702626e+00 4.2963005214e+00 
196500 4.7912024840e+00 5.3533936320e-04 2.4804593666e+00 -4.2962816490e+00 2.4804593666e+00 4.2962816490e+00 
196600 4.7912020417e+00 5.3018273088e-04 2.4804485755e+00 -4.2962629583e+00 2.4804485755e+00 4.2962629583e+00 
196700 4.7912016051e+00 5.2507342259e-04 2.4804378882e+00 -4.2962444474e+00 2.4804378882e+00 4.2962444474e+00 
196800 4.7912011743e+00 5.2001105442e-04 2.4804273040e+00 -4.2962261149e+00 2.4804273040e+00 4.2962261149e+00 
196900 4.7912007491e+00 5.1499524464e-04 2.4804168217e+00 -4.2962079591e+00 2.4804168217e+00 4.2962079591e+00 
197000 4.7912003294e+00 5.1002561375e-04 2.4804064405e+00 -4.2961899783e+00 2.4804064405e+00 4.2961899783e+00 
197100 4.7911999152e+00 5.0510178441e-04 2.4803961594e+00 -4.2961721709e+00 2.4803961594e+00 4.2961721709e+00 
197200 4.7911995064e+00 5.0022338152e-04 2.4803859775e+00 -4.2961545354e+00 2.4803859775e+00 4.2961545354e+00 
197300 4.7911991030e+00 4.9539003217e-04 2.4803758939e+00 -4.2961370702e+00 2.4803758939e+00 4.2961370702e+00 
197400 4.7911987048e+00 4.9060136569e-04 2.4803659077e+00 -4.2961197736e+00 2.4803659077e+00 4.2961197736e+00 
197500 4.7911983119e+00 4.8585701359e-04 2.4803560181e+00 -4.2961026441e+00 2.4803560181e+00 4.2961026441e+00 
197600 4.7911979241e+00 4.8115660961e-04 2.4803462240e+00 -4.2960856803e+00 2.4803462240e+00 4.2960856803e+00 
197700 4.7911975414e+00 4.7649978971e-04 2.4803365246e+00 -4.2960688805e+00 2.4803365246e+00 4.2960688805e+00 
197800 4.7911971637e+00 4.7188619206e-04 2.4803269190e+00 -4.2960522432e+00 2.4803269190e+00 4.2960522432e+00 
197900 4.7911967909e+00 4.6731545707e-04 2.4803174065e+00 -4.2960357669e+00 2.4803174065e+00 4.2960357669e+00 
198000 4.7911964231e+00 4.6278722734e-04 2.4803079860e+00 -4.2960194502e+00 2.4803079860e+00 4.2960194502e+00 
198100 4.7911960601e+00 4.5830114771e-04 2.4802986568e+00 -4.2960032915e+00 2.4802986568e+00 4.2960032915e+00 
198200 4.7911957018e+00 4.5385686523e-04 2.4802894180e+00 -4.2959872894e+00 2.4802894180e+00 4.2959872894e+00 
198300 4.7911953482e+00 4.4945402918e-04 2.4802802687e+00 -4.2959714424e+00 2.4802802687e+00 4.2959714424e+00 
198400 4.7911949993e+00 4.4509229103e-04 2.4802712081e+00 -4.2959557491e+00 2.4802712081e+00 4.2959557491e+00 
198500 4.7911946550e+00 4.4077130451e-04 2.4802622355e+00 -4.2959402080e+00 2.4802622355e+00 4.2959402080e+00 
198600 4.7911943152e+00 4.3649072553e-04 2.4802533499e+00 -4.2959248177e+00 2.4802533499e+00 4.2959248177e+00 
198700 4.7911939799e+00 4.3225021223e-04 2.4802445506e+00 -4.2959095768e+00 2.4802445506e+00 4.2959095768e+00 
198800 4.7911936490e+00 4.2804942497e-04 2.4802358368e+00 -4.2958944840e+00 2.4802358368e+00 4.2958944840e+00 
198900 4.7911933225e+00 4.2388802629e-04 2.4802272075e+00 -4.2958795378e+00 2.4802272075e+00 4.2958795378e+00 
199000 4.7911930002e+00 4.1976568098e-04 2.4802186622e+00 -4.2958647368e+00 2.4802186622e+00 4.2958647368e+00 
199100 4.7911926822e+00 4.1568205600e-04 2.4802101999e+00 -4.2958500797e+00 2.4802101999e+00 4.2958500797e+00 
199200 4.7911923684e+00 4.1163682053e-04 2.4802018200e+00 -4.2958355652e+00 2.4802018200e+00 4.2958355652e+00 
199300 4.7911920587e+00 4.0762964595e-04 2.4801935215e+00 -4.2958211919e+00 2.4801935215e+00 4.2958211919e+00 
199400 4.7911917532e+00 4.0366020583e-04 2.4801853038e+00 -4.2958069584e+00 2.4801853038e+00 4.2958069584e+00 
199500 4.7911914516e+00 3.9972817593e-04 2.4801771661e+00 -4.2957928635e+00 2.4801771661e+00 4.2957928635e+00 
199600 4.7911911541e+00 3.9583323422e-04 2.4801691077e+00 -4.2957789058e+00 2.4801691077e+00 4.2957789058e+00 
199700 4.7911908604e+00 3.9197506083e-04 2.4801611277e+00 -4.2957650842e+00 2.4801611277e+00 4.2957650842e+00 
199800 4.7911905707e+00 3.8815333808e-04 2.4801532255e+00 -4.2957513971e+00 2.4801532255e+00 4.2957513971e+00 
199900 4.7911902848e+00 3.8436775046e-04 2.4801454003e+00 -4.2957378435e+00 2.4801454003e+00 4.2957378435e+00 
200000 4.7911900027e+00 3.8061798465e-04 2.4801376514e+00 -4.2957244220e+00 2.4801376514e+00 4.2957244220e+00 
200100 4.7911897243e+00 3.7690372948e-04 2.4801299781e+00 -4.2957111315e+00 2.4801299781e+00 4.2957111315e+00 
200200 4.7911894495e+00 3.7322467594e-04 2.4801223796e+00 -4.2956979705e+00 2.4801223796e+00 4.2956979705e+00 
200300 4.7911891785e+00 3.6958051720e-04 2.4801148553e+00 -4.2956849380e+00 2.4801148553e+00 4.2956849380e+00 
200400 4.7911889110e+00 3.6597094856e-04 2.4801074045e+00 -4.2956720327e+00 2.4801074045e+00 4.2956720327e+00 
200500 4.7911886471e+00 3.6239566746e-04 2.4801000263e+00 -4.2956592535e+00 2.4801000263e+00 4.2956592535e+00 
200600 4.7911883866e+00 3.5885437351e-04 2.4800927203e+00 -4.2956465990e+00 2.4800927203e+00 4.2956465990e+00 
200700 4.7911881296e+00 3.5534676841e-04 2.4800854856e+00 -4.2956340681e+00 2.4800854856e+00 4.2956340681e+00 
200800 4.7911878761e+00 3.5187255604e-04 2.4800783216e+00 -4.2956216597e+00 2.4800783216e+00 4.2956216597e+00 
200900 4.7911876259e+00 3.4843144235e-04 2.4800712276e+00 -4.2956093726e+00 2.4800712276e+00 4.2956093726e+00 
201000 4.7911873790e+00 3.4502313545e-04 2.4800642030e+00 -4.2955972056e+00 2.4800642030e+00 4.2955972056e+00 
201100 4.7911871354e+00 3.4164734554e-04 2.4800572470e+00 -4.2955851576e+00 2.4800572470e+00 4.2955851576e+00 
201200 4.7911868950e+00 3.3830378490e-04 2.4800503592e+00 -4.2955732274e+00 2.4800503592e+00 4.2955732274e+00 
201300 4.7911866578e+00 3.3499216795e-04 2.4800435387e+00 -4.2955614139e+00 2.4800435387e+00 4.2955614139e+00 
201400 4.7911864238e+00 3.3171221116e-04 2.4800367849e+00 -4.2955497161e+00 2.4800367849e+00 4.2955497161e+00 
201500 4.7911861929e+00 3.2846363309e-04 2.4800300973e+00 -4.2955381328e+00 2.4800300973e+00 4.2955381328e+00 
201600 4.7911859651e+00 3.2524615440e-04 2.4800234751e+00 -4.2955266628e+00 2.4800234751e+00 4.2955266628e+00 
201700 4.7911857403e+00 3.2205949778e-04 2.4800169178e+00 -4.2955153052e+00 2.4800169178e+00 4.2955153052e+00 
201800 4.7911855185e+00 3.1890338801e-04 2.4800104247e+00 -4.2955040589e+00 2.4800104247e+00 4.2955040589e+00 
201900 4.7911852996e+00 3.1577755188e-04 2.4800039952e+00 -4.2954929227e+00 2.4800039952e+00 4.2954929227e+00 
202000 4.7911850837e+00 3.1268171827e-04 2.4799976287e+00 -4.2954818956e+00 2.4799976287e+00 4.2954818956e+00 
202100 4.7911848706e+00 3.0961561807e-04 2.4799913247e+00 -4.2954709767e+00 2.4799913247e+00 4.2954709767e+00 
202200 4.7911846604e+00 3.0657898420e-04 2.4799850824e+00 -4.2954601647e+00 2.4799850824e+00 4.2954601647e+00 
202300 4.7911844530e+00 3.0357155160e-04 2.4799789013e+00 -4.2954494588e+00 2.4799789013e+00 4.2954494588e+00 
202400 4.7911842484e+00 3.0059305722e-04 2.4799727809e+00 -4.2954388579e+00 2.4799727809e+00 4.2954388579e+00 
202500 4.7911840464e+00 2.9764324001e-04 2.4799667205e+00 -4.2954283610e+00 2.4799667205e+00 4.2954283610e+00 
202600 4.7911838472e+00 2.9472184094e-04 2.4799607195e+00 -4.2954179670e+00 2.4799607195e+00 4.2954179670e+00 
202700 4.7911836507e+00 2.9182860292e-04 2.4799547775e+00 -4.2954076751e+00 2.4799547775e+00 4.2954076751e+00 
202800 4.7911834567e+00 2.8896327087e-04 2.4799488937e+00 -4.2953974841e+00 2.4799488937e+00 4.2953974841e+00 
202900 4.7911832654e+00 2.8612559167e-04 2.4799430677e+00 -4.2953873932e+00 2.4799430677e+00 4.2953873932e+00 
203000 4.7911830766e+00 2.8331531416e-04 2.4799372990e+00 -4.2953774014e+00 2.4799372990e+00 4.2953774014e+00 
203100 4.7911828904e+00 2.8053218912e-04 2.4799315868e+00 -4.2953675076e+00 2.4799315868e+00 4.2953675076e+00 
203200 4.7911827066e+00 2.7777596930e-04 2.4799259308e+00 -4.2953577111e+00 2.4799259308e+00 4.2953577111e+00 
203300 4.7911825253e+00 2.7504640935e-04 2.4799203303e+00 -4.2953480108e+00 2.4799203303e+00 4.2953480108e+00 
203400 4.7911823464e+00 2.7234326586e-04 2.4799147848e+00 -4.2953384057e+00 2.4799147848e+00 4.2953384057e+00 
203500 4.7911821699e+00 2.6966629733e-04 2.4799092938e+00 -4.2953288951e+00 2.4799092938e+00 4.2953288951e+00 
203600 4.7911819958e+00 2.6701526417e-04 2.4799038568e+00 -4.2953194779e+00 2.4799038568e+00 4.2953194779e+00 
203700 4.7911818240e+00 2.6438992868e-04 2.4798984732e+00 -4.2953101533e+00 2.4798984732e+00 4.2953101533e+00 
203800 4.7911816545e+00 2.6179005504e-04 2.4798931426e+00 -4.2953009203e+00 2.4798931426e+00 4.2953009203e+00 
203900 4.7911814873e+00 2.5921540933e-04 2.4798878643e+00 -4.2952917781e+00 2.4798878643e+00 4.2952917781e+00 
204000 4.7911813223e+00 2.5666575946e-04 2.4798826380e+00 -4.2952827258e+00 2.4798826380e+00 4.2952827258e+00 
204100 4.7911811596e+00 2.5414087524e-04 2.4798774630e+00 -4.2952737625e+00 2.4798774630e+00 4.2952737625e+00 
204200 4.7911809990e+00 2.5164052830e-04 2.4798723390e+00 -4.2952648874e+00 2.4798723390e+00 4.2952648874e+00 
204300 4.7911808406e+00 2.4916449211e-04 2.4798672653e+00 -4.2952560995e+00 2.4798672653e+00 4.2952560995e+00 
204400 4.7911806843e+00 2.4671254198e-04 2.4798622416e+00 -4.2952473981e+00 2.4798622416e+00 4.2952473981e+00 
204500 4.7911805301e+00 2.4428445503e-04 2.4798572672e+00 -4.2952387824e+00 2.4798572672e+00 4.2952387824e+00 
204600 4.7911803779e+00 2.4188001019e-04 2.4798523419e+00 -4.2952302514e+00 2.4798523419e+00 4.2952302514e+00 
204700 4.7911802278e+00 2.3949898820e-04 2.4798474650e+00 -4.2952218043e+00 2.4798474650e+00 4.2952218043e+00 
204800 4.7911800798e+00 2.3714117157e-04 2.4798426361e+00 -4.2952134404e+00 2.4798426361e+00 4.2952134404e+00 
204900 4.7911799337e+00 2.3480634459e-04 2.4798378547e+00 -4.2952051588e+00 2.4798378547e+00 4.2952051588e+00 
205000 4.7911797896e+00 2.3249429335e-04 2.4798331204e+00 -4.2951969588e+00 2.4798331204e+00 4.2951969588e+00 
205100 4.7911796474e+00 2.3020480567e-04 2.4798284327e+00 -4.2951888395e+00 2.4798284327e+00 4.2951888395e+00 
205200 4.7911795072e+00 2.2793767111e-04 2.4798237911e+00 -4.2951808001e+00 2.4798237911e+00 4.2951808001e+00 
205300 4.7911793688e+00 2.2569268101e-04 2.4798191953e+00 -4.2951728398e+00 2.4798191953e+00 4.2951728398e+00 
205400 4.7911792323e+00 2.2346962841e-04 2.4798146447e+00 -4.2951649580e+00 2.4798146447e+00 4.2951649580e+00 
205500 4.7911790976e+00 2.2126830806e-04 2.4798101389e+00 -4.2951571538e+00 2.4798101389e+00 4.2951571538e+00 
205600 4.7911789647e+00 2.1908851644e-04 2.4798056775e+00 -4.2951494264e+00 2.4798056775e+00 4.2951494264e+00 
205700 4.7911788337e+00 2.1693005172e-04 2.4798012601e+00 -4.2951417751e+00 2.4798012601e+00 4.2951417751e+00 
205800 4.7911787043e+00 2.1479271377e-04 2.4797968861e+00 -4.2951341993e+00 2.4797968861e+00 4.2951341993e+00 
205900 4.7911785768e+00 2.1267630412e-04 2.4797925553e+00 -4.2951266980e+00 2.4797925553e+00 4.2951266980e+00 
206000 4.7911784509e+00 2.1058062597e-04 2.4797882671e+00 -4.2951192706e+00 2.4797882671e+00 4.2951192706e+00 
206100 4.7911783268e+00 2.0850548419e-04 2.4797840212e+00 -4.2951119165e+00 2.4797840212e+00 4.2951119165e+00 
206200 4.7911782043e+00 2.0645068530e-04 2.4797798171e+00 -4.2951046347e+00 2.4797798171e+00 4.2951046347e+00 
206300 4.7911780835e+00 2.0441603744e-04 2.4797756544e+00 -4.2950974248e+00 2.4797756544e+00 4.2950974248e+00 
206400 4.7911779643e+00 2.0240135039e-04 2.4797715327e+00 -4.2950902858e+00 2.4797715327e+00 4.2950902858e+00 
206500 4.7911778467e+00 2.0040643554e-04 2.4797674517e+00 -4.2950832173e+00 2.4797674517e+00 4.2950832173e+00 
206600 4.7911777307e+00 1.9843110589e-04 2.4797634108e+00 -4.2950762183e+00 2.4797634108e+00 4.2950762183e+00 
206700 4.7911776163e+00 1.9647517605e-04 2.4797594098e+00 -4.2950692884e+00 2.4797594098e+00 4.2950692884e+00 
206800 4.7911775034e+00 1.9453846218e-04 2.4797554483e+00 -4.2950624267e+00 2.4797554483e+00 4.2950624267e+00 
206900 4.7911773921e+00 1.9262078206e-04 2.4797515257e+00 -4.2950556327e+00 2.4797515257e+00 4.2950556327e+00 
207000 4.7911772822e+00 1.9072195500e-04 2.4797476419e+00 -4.2950489056e+00 2.4797476419e+00 4.2950489056e+00 
207100 4.7911771738e+00 1.8884180189e-04 2.4797437963e+00 -4.2950422449e+00 2.4797437963e+00 4.2950422449e+00 
207200 4.7911770669e+00 1.8698014516e-04 2.4797399886e+00 -4.2950356498e+00 2.4797399886e+00 4.2950356498e+00 
207300 4.7911769615e+00 1.8513680876e-04 2.4797362184e+00 -4.2950291197e+00 2.4797362184e+00 4.2950291197e+00 
207400 4.7911768574e+00 1.8331161817e-04 2.4797324854e+00 -4.2950226539e+00 2.4797324854e+00 4.2950226539e+00 
207500 4.7911767548e+00 1.8150440041e-04 2.4797287892e+00 -4.2950162519e+00 2.4797287892e+00 4.2950162519e+00 
207600 4.7911766536e+00 1.7971498397e-04 2.4797251295e+00 -4.2950099131e+00 2.4797251295e+00 4.2950099131e+00 
207700 4.7911765537e+00 1.7794319886e-04 2.4797215058e+00 -4.2950036366e+00 2.4797215058e+00 4.2950036366e+00 
207800 4.7911764552e+00 1.7618887655e-04 2.4797179178e+00 -4.2949974221e+00 2.4797179178e+00 4.2949974221e+00 
207900 4.7911763580e+00 1.7445185001e-04 2.4797143652e+00 -4.2949912688e+00 2.4797143652e+00 4.2949912688e+00 
208000 4.7911762621e+00 1.7273195365e-04 2.4797108476e+00 -4.2949851762e+00 2.4797108476e+00 4.2949851762e+00 
208100 4.7911761676e+00 1.7102902335e-04 2.4797073647e+00 -4.2949791436e+00 2.4797073647e+00 4.2949791436e+00 
208200 4.7911760743e+00 1.6934289643e-04 2.4797039162e+00 -4.2949731705e+00 2.4797039162e+00 4.2949731705e+00 
208300 4.7911759823e+00 1.6767341164e-04 2.4797005016e+00 -4.2949672563e+00 2.4797005016e+00 4.2949672563e+00 
208400 4.7911758915e+00 1.6602040916e-04 2.4796971207e+00 -4.2949614004e+00 2.4796971207e+00 4.2949614004e+00 
208500 4.7911758019e+00 1.6438373056e-04 2.4796937731e+00 -4.2949556022e+00 2.4796937731e+00 4.2949556022e+00 
208600 4.7911757136e+00 1.6276321886e-04 2.4796904585e+00 -4.2949498611e+00 2.4796904585e+00 4.2949498611e+00 
208700 4.7911756265e+00 1.6115871842e-04 2.4796871766e+00 -4.2949441767e+00 2.4796871766e+00 4.2949441767e+00 
208800 4.7911755405e+00 1.5957007502e-04 2.4796839270e+00 -4.2949385482e+00 2.4796839270e+00 4.2949385482e+00 
208900 4.7911754557e+00 1.5799713581e-04 2.4796807094e+00 -4.2949329753e+00 2.4796807094e+00 4.2949329753e+00 
209000 4.7911753721e+00 1.5643974928e-04 2.4796775236e+00 -4.2949274572e+00 2.4796775236e+00 4.2949274572e+00 
209100 4.7911752896e+00 1.5489776530e-04 2.4796743692e+00 -4.2949219936e+00 2.4796743692e+00 4.2949219936e+00 
209200 4.7911752082e+00 1.5337103507e-04 2.4796712458e+00 -4.2949165838e+00 2.4796712458e+00 4.2949165838e+00 
209300 4.7911751280e+00 1.5185941112e-04 2.4796681532e+00 -4.2949112273e+00 2.4796681532e+00 4.2949112273e+00 
209400 4.7911750488e+00 1.5036274733e-04 2.4796650911e+00 -4.2949059236e+00 2.4796650911e+00 4.2949059236e+00 
209500 4.7911749707e+00 1.4888089885e-04 2.4796620592e+00 -4.2949006722e+00 2.4796620592e+00 4.2949006722e+00 
209600 4.7911748936e+00 1.4741372219e-04 2.4796590572e+00 -4.2948954725e+00 2.4796590572e+00 4.2948954725e+00 
209700 4.7911748176e+00 1.4596107510e-04 2.4796560847e+00 -4.2948903241e+00 2.4796560847e+00 4.2948903241e+00 
209800 4.7911747426e+00 1.4452281665e-04 2.4796531416e+00 -4.2948852263e+00 2.4796531416e+00 4.2948852263e+00 
209900 4.7911746687e+00 1.4309880718e-04 2.4796502274e+00 -4.2948801788e+00 2.4796502274e+00 4.2948801788e+00 
210000 4.7911745958e+00 1.4168890828e-04 2.4796473419e+00 -4.2948751811e+00 2.4796473419e+00 4.2948751811e+00 
210100 4.7911745238e+00 1.4029298283e-04 2.4796444849e+00 -4.2948702325e+00 2.4796444849e+00 4.2948702325e+00 
210200 4.7911744528e+00 1.3891089491e-04 2.4796416560e+00 -4.2948653328e+00 2.4796416560e+00 4.2948653328e+00 
210300 4.7911743828e+00 1.3754250988e-04 2.4796388550e+00 -4.2948604812e+00 2.4796388550e+00 4.2948604812e+00 
210400 4.7911743138e+00 1.3618769431e-04 2.4796360815e+00 -4.2948556775e+00 2.4796360815e+00 4.2948556775e+00 
210500 4.7911742457e+00 1.3484631598e-04 2.4796333354e+00 -4.2948509211e+00 2.4796333354e+00 4.2948509211e+00 
210600 4.7911741785e+00 1.3351824389e-04 2.4796306163e+00 -4.2948462115e+00 2.4796306163e+00 4.2948462115e+00 
210700 4.7911741122e+00 1.3220334825e-04 2.4796279240e+00 -4.2948415483e+00 2.4796279240e+00 4.2948415483e+00 
210800 4.7911740468e+00 1.3090150043e-04 2.4796252582e+00 -4.2948369310e+00 2.4796252582e+00 4.2948369310e+00 
210900 4.7911739823e+00 1.2961257301e-04 2.4796226187e+00 -4.2948323592e+00 2.4796226187e+00 4.2948323592e+00 
211000 4.7911739187e+00 1.2833643974e-04 2.4796200051e+00 -4.2948278324e+00 2.4796200051e+00 4.2948278324e+00 
211100 4.7911738560e+00 1.2707297550e-04 2.4796174173e+00 -4.2948233501e+00 2.4796174173e+00 4.2948233501e+00 
211200 4.7911737941e+00 1.2582205637e-04 2.4796148550e+00 -4.2948189120e+00 2.4796148550e+00 4.2948189120e+00 
211300 4.7911737331e+00 1.2458355955e-04 2.4796123178e+00 -4.2948145176e+00 2.4796123178e+00 4.2948145176e+00 
211400 4.7911736729e+00 1.2335736337e-04 2.4796098057e+00 -4.2948101664e+00 2.4796098057e+00 4.2948101664e+00 
211500 4.7911736135e+00 1.2214334729e-04 2.4796073183e+00 -4.2948058580e+00 2.4796073183e+00 4.2948058580e+00 
211600 4.7911735549e+00 1.2094139190e-04 2.4796048553e+00 -4.2948015921e+00 2.4796048553e+00 4.2948015921e+00 
211700 4.7911734971e+00 1.1975137889e-04 2.4796024166e+00 -4.2947973681e+00 2.4796024166e+00 4.2947973681e+00 
211800 4.7911734401e+00 1.1857319105e-04 2.4796000018e+00 -4.2947931856e+00 2.4796000018e+00 4.2947931856e+00 
211900 4.7911733839e+00 1.1740671225e-04 2.4795976109e+00 -4.2947890444e+00 2.4795976109e+00 4.2947890444e+00 
212000 4.7911733285e+00 1.1625182747e-04 2.4795952434e+00 -4.2947849438e+00 2.4795952434e+00 4.2947849438e+00 
212100 4.7911732738e+00 1.1510842273e-04 2.4795928992e+00 -4.2947808836e+00 2.4795928992e+00 4.2947808836e+00 
212200 4.7911732198e+00 1.1397638513e-04 2.4795905781e+00 -4.2947768633e+00 2.4795905781e+00 4.2947768633e+00 
212300 4.7911731666e+00 1.1285560284e-04 2.4795882798e+00 -4.2947728825e+00 2.4795882798e+00 4.2947728825e+00 
212400 4.7911731142e+00 1.1174596505e-04 2.4795860042e+00 -4.2947689409e+00 2.4795860042e+00 4.2947689409e+00 
212500 4.7911730624e+00 1.1064736200e-04 2.4795837508e+00 -4.2947650381e+00 2.4795837508e+00 4.2947650381e+00 
212600 4.7911730113e+00 1.0955968497e-04 2.4795815197e+00 -4.2947611736e+00 2.4795815197e+00 4.2947611736e+00 
212700 4.7911729610e+00 1.0848282625e-04 2.4795793104e+00 -4.2947573471e+00 2.4795793104e+00 4.2947573471e+00 
212800 4.7911729113e+00 1.0741667914e-04 2.4795771229e+00 -4.2947535582e+00 2.4795771229e+00 4.2947535582e+00 
212900 4.7911728623e+00 1.0636113796e-04 2.4795749569e+00 -4.2947498065e+00 2.4795749569e+00 4.2947498065e+00 
213000 4.7911728140e+00 1.0531609802e-04 2.4795728121e+00 -4.2947460917e+00 2.4795728121e+00 4.2947460917e+00 
213100 4.7911727663e+00 1.0428145560e-04 2.4795706885e+00 -4.2947424134e+00 2.4795706885e+00 4.2947424134e+00 
213200 4.7911727193e+00 1.0325710798e-04 2.4795685856e+00 -4.2947387712e+00 2.4795685856e+00 4.2947387712e+00 
213300 4.7911726729e+00 1.0224295342e-04 2.4795665035e+00 -4.2947351648e+00 2.4795665035e+00 4.2947351648e+00 
213400 4.7911726272e+00 1.0123889111e-04 2.4795644418e+00 -4.2947315938e+00 2.4795644418e+00 4.2947315938e+00 
213500 4.7911725821e+00 1.0024482123e-04 2.4795624003e+00 -4.2947280579e+00 2.4795624003e+00 4.2947280579e+00 
213600 4.7911725376e+00 9.9260644889e-05 2.4795603789e+00 -4.2947245567e+00 2.4795603789e+00 4.2947245567e+00 
213700 4.7911724937e+00 9.8286264138e-05 2.4795583773e+00 -4.2947210898e+00 2.4795583773e+00 4.2947210898e+00 
213800 4.7911724504e+00 9.7321581960e-05 2.4795563954e+00 -4.2947176570e+00 2.4795563954e+00 4.2947176570e+00 
213900 4.7911724077e+00 9.6366502263e-05 2.4795544329e+00 -4.2947142579e+00 2.4795544329e+00 4.2947142579e+00 
214000 4.7911723656e+00 9.5420929869e-05 2.4795524897e+00 -4.2947108922e+00 2.4795524897e+00 4.2947108922e+00 
214100 4.7911723241e+00 9.4484770509e-05 2.4795505655e+00 -4.2947075594e+00 2.4795505655e+00 4.2947075594e+00 
214200 4.7911722831e+00 9.3557930810e-05 2.4795486602e+00 -4.2947042594e+00 2.4795486602e+00 4.2947042594e+00 
214300 4.7911722427e+00 9.2640318297e-05 2.4795467737e+00 -4.2947009917e+00 2.4795467737e+00 4.2947009917e+00 
214400 4.7911722029e+00 9.1731841377e-05 2.4795449056e+00 -4.2946977561e+00 2.4795449056e+00 4.2946977561e+00 
214500 4.7911721636e+00 9.0832409332e-05 2.4795430558e+00 -4.2946945522e+00 2.4795430558e+00 4.2946945522e+00 
214600 4.7911721248e+00 8.9941932316e-05 2.4795412242e+00 -4.2946913797e+00 2.4795412242e+00 4.2946913797e+00 
214700 4.7911720866e+00 8.9060321344e-05 2.4795394105e+00 -4.2946882383e+00 2.4795394105e+00 4.2946882383e+00 
214800 4.7911720489e+00 8.8187488284e-05 2.4795376146e+00 -4.2946851277e+00 2.4795376146e+00 4.2946851277e+00 
214900 4.7911720117e+00 8.7323345854e-05 2.4795358363e+00 -4.2946820476e+00 2.4795358363e+00 4.2946820476e+00 
215000 4.7911719750e+00 8.6467807608e-05 2.4795340754e+00 -4.2946789977e+00 2.4795340754e+00 4.2946789977e+00 
215100 4.7911719388e+00 8.5620787936e-05 2.4795323318e+00 -4.2946759776e+00 2.4795323318e+00 4.2946759776e+00 
215200 4.7911719031e+00 8.4782202049e-05 2.4795306052e+00 -4.2946729871e+00 2.4795306052e+00 4.2946729871e+00 
215300 4.7911718679e+00 8.3951965978e-05 2.4795288956e+00 -4.2946700259e+00 2.4795288956e+00 4.2946700259e+00 
215400 4.7911718332e+00 8.3129996565e-05 2.4795272027e+00 -4.2946670938e+00 2.4795272027e+00 4.2946670938e+00 
215500 4.7911717990e+00 8.2316211453e-05 2.4795255263e+00 -4.2946641903e+00 2.4795255263e+00 4.2946641903e+00 
215600 4.7911717652e+00 8.1510529084e-05 2.4795238664e+00 -4.2946613152e+00 2.4795238664e+00 4.2946613152e+00 
215700 4.7911717319e+00 8.0712868686e-05 2.4795222227e+00 -4.2946584683e+00 2.4795222227e+00 4.2946584683e+00 
215800 4.7911716991e+00 7.9923150274e-05 2.4795205952e+00 -4.2946556492e+00 2.4795205952e+00 4.2946556492e+00 
215900 4.7911716667e+00 7.9141294633e-05 2.4795189835e+00 -4.2946528577e+00 2.4795189835e+00 4.2946528577e+00 
216000 4.7911716347e+00 7.8367223320e-05 2.4795173876e+00 -4.2946500936e+00 2.4795173876e+00 4.2946500936e+00 
216100 4.7911716032e+00 7.7600858652e-05 2.4795158073e+00 -4.2946473564e+00 2.4795158073e+00 4.2946473564e+00 
216200 4.7911715721e+00 7.6842123702e-05 2.4795142425e+00 -4.2946446460e+00 2.4795142425e+00 4.2946446460e+00 
216300 4.7911715414e+00 7.6090942290e-05 2.4795126929e+00 -4.2946419621e+00 2.4795126929e+00 4.2946419621e+00 
216400 4.7911715112e+00 7.5347238977e-05 2.4795111585e+00 -4.2946393045e+00 2.4795111585e+00 4.2946393045e+00 
216500 4.7911714814e+00 7.4610939059e-05 2.4795096391e+00 -4.2946366728e+00 2.4795096391e+00 4.2946366728e+00 
216600 4.7911714520e+00 7.3881968562e-05 2.4795081346e+00 -4.2946340669e+00 2.4795081346e+00 4.2946340669e+00 
216700 4.7911714230e+00 7.3160254230e-05 2.4795066447e+00 -4.2946314864e+00 2.4795066447e+00 4.2946314864e+00 
216800 4.7911713944e+00 7.2445723526e-05 2.4795051694e+00 -4.2946289311e+00 2.4795051694e+00 4.2946289311e+00 
216900 4.7911713661e+00 7.1738304616e-05 2.4795037085e+00 -4.2946264007e+00 2.4795037085e+00 4.2946264007e+00 
217000 4.7911713383e+00 7.1037926374e-05 2.4795022619e+00 -4.2946238951e+00 2.4795022619e+00 4.2946238951e+00 
217100 4.7911713109e+00 7.0344518367e-05 2.4795008294e+00 -4.2946214139e+00 2.4795008294e+00 4.2946214139e+00 
217200 4.7911712839e+00 7.0267583142e-05 2.4795008294e+00 -4.2946214139e+00 2.4795008294e+00 4.2946214139e+00 
217300 4.7911712573e+00 7.0194884553e-05 2.4795008294e+00 -4.2946214139e+00 2.4795008294e+00 4.2946214139e+00 
217400 4.7911712310e+00 7.0126269060e-05 2.4795008294e+00 -4.2946214139e+00 2.4795008294e+00 4.2946214139e+00 
217500 4.7911712051e+00 7.0061587356e-05 2.4795008294e+00 -4.2946214139e+00 2.4795008294e+00 4.2946214139e+00 
217600 4.7911711796e+00 7.0000694277e-05 2.4795008294e+00 -4.2946214139e+00 2.4795008294e+00 4.2946214139e+00 
217700 4.7911711544e+00 6.9943448706e-05 2.4795008294e+00 -4.2946214139e+00 2.4795008294e+00 4.2946214139e+00 
217800 4.7911711295e+00 6.9889713497e-05 2.4795008294e+00 -4.2946214139e+00 2.4795008294e+00 4.2946214139e+00 
217900 4.7911711050e+00 6.9839355388e-05 2.4795008294e+00 -4.2946214139e+00 2.4795008294e+00 4.2946214139e+00 
218000 4.7911710809e+00 6.9792244917e-05 2.4795008294e+00 -4.2946214139e+00 2.4795008294e+00 4.2946214139e+00 
218100 4.7911710570e+00 6.9748256349e-05 2.4795008294e+00 -4.2946214139e+00 2.4795008294e+00 4.2946214139e+00 
218200 4.7911710335e+00 6.9707267594e-05 2.4795008294e+00 -4.2946214139e+00 2.4795008294e+00 4.2946214139e+00 
218300 4.7911710103e+00 6.9669160135e-05 2.4795008294e+00 -4.2946214139e+00 2.4795008294e+00 4.2946214139e+00 
218400 4.7911709875e+00 6.9633818948e-05 2.4795008294e+00 -4.2946214139e+00 2.4795008294e+00 4.2946214139e+00 
218500 4.7911709649e+00 6.9601132432e-05 2.4795008294e+00 -4.2946214139e+00 2.4795008294e+00 4.2946214139e+00 
218600 4.7911709427e+00 6.9570992333e-05 2.4795008294e+00 -4.2946214139e+00 2.4795008294e+00 4.2946214139e+00 
218700 4.7911709208e+00 6.9543293676e-05 2.4795008294e+00 -4.2946214139e+00 2.4795008294e+00 4.2946214139e+00 
218800 4.7911708991e+00 6.9517934689e-05 2.4795008294e+00 -4.2946214139e+00 2.4795008294e+00 4.2946214139e+00 
218900 4.7911708778e+00 6.9494816735e-05 2.4795008294e+00 -4.2946214139e+00 2.4795008294e+00 4.2946214139e+00 
219000 4.7911708567e+00 6.9473844244e-05 2.4795008294e+00 -4.2946214139e+00 2.4795008294e+00 4.2946214139e+00 
219100 4.7911708360e+00 6.9454924640e-05 2.4795008294e+00 -4.2946214139e+00 2.4795008294e+00 4.2946214139e+00 
219200 4.7911708155e+00 6.9437968278e-05 2.4795008294e+00 -4.2946214139e+00 2.4795008294e+00 4.2946214139e+00 
219300 4.7911707953e+00 6.9422888374e-05 2.4795008294e+00 -4.2946214139e+00 2.4795008294e+00 4.2946214139e+00 
219400 4.7911707754e+00 6.9409600937e-05 2.4795008294e+00 -4.2946214139e+00 2.4795008294e+00 4.2946214139e+00 
219500 4.7911707558e+00 6.9398024710e-05 2.4795008294e+00 -4.2946214139e+00 2.4795008294e+00 4.2946214139e+00 
219600 4.7911707364e+00 6.9388081096e-05 2.4795008294e+00 -4.2946214139e+00 2.4795008294e+00 4.2946214139e+00 
219700 4.7911707173e+00 6.9379694104e-05 2.4795008294e+00 -4.2946214139e+00 2.4795008294e+00 4.2946214139e+00 
219800 4.7911706985e+00 6.9372790278e-05 2.4795008294e+00 -4.2946214139e+00 2.4795008294e+00 4.2946214139e+00 
219900 4.7911706799e+00 6.9367298639e-05 2.4795008294e+00 -4.2946214139e+00 2.4795008294e+00 4.2946214139e+00 
220000 4.7911706616e+00 6.9363150620e-05 2.4795008294e+00 -4.2946214139e+00 2.4795008294e+00 4.2946214139e+00 
220100 4.7911706435e+00 6.9360280011e-05 2.4795008294e+00 -4.2946214139e+00 2.4795008294e+00 4.2946214139e+00 
220200 4.7911706257e+00 6.9358622894e-05 2.4795008294e+00 -4.2946214139e+00 2.4795008294e+00 4.2946214139e+00 
220300 4.7911706081e+00 6.9358117585e-05 2.4795008294e+00 -4.2946214139e+00 2.4795008294e+00 4.2946214139e+00 
220400 4.7911705908e+00 6.9358704580e-05 2.4795008294e+00 -4.2946214139e+00 2.4795008294e+00 4.2946214139e+00 
220500 4.7911705737e+00 6.9360326491e-05 2.4795008294e+00 -4.2946214139e+00 2.4795008294e+00 4.2946214139e+00 
220600 4.7911705569e+00 6.9362927997e-05 2.4795008294e+00 -4.2946214139e+00 2.4795008294e+00 4.2946214139e+00 
220700 4.7911705402e+00 6.9366455784e-05 2.4795008294e+00 -4.2946214139e+00 2.4795008294e+00 4.2946214139e+00 
220800 4.7911705238e+00 6.9370858490e-05 2.4795008294e+00 -4.2946214139e+00 2.4795008294e+00 4.2946214139e+00 
220900 4.7911705077e+00 6.9376086654e-05 2.4795008294e+00 -4.2946214139e+00 2.4795008294e+00 4.2946214139e+00 
221000 4.7911704917e+00 6.9382092663e-05 2.4795008294e+00 -4.2946214139e+00 2.4795008294e+00 4.2946214139e+00 
221100 4.7911704760e+00 6.9388830700e-05 2.4795008294e+00 -4.2946214139e+00 2.4795008294e+00 4.2946214139e+00 
221200 4.7911704605e+00 6.9396256691e-05 2.4795008294e+00 -4.2946214139e+00 2.4795008294e+00 4.2946214139e+00 
221300 4.7911704452e+00 6.9404328259e-05 2.4795008294e+00 -4.2946214139e+00 2.4795008294e+00 4.2946214139e+00 
221400 4.7911704301e+00 6.9413004671e-05 2.4795008294e+00 -4.2946214139e+00 2.4795008294e+00 4.2946214139e+00 
221500 4.7911704152e+00 6.9422246792e-05 2.4795008294e+00 -4.2946214139e+00 2.4795008294e+00 4.2946214139e+00 
221600 4.7911704005e+00 6.9432017041e-05 2.4795008294e+00 -4.2946214139e+00 2.4795008294e+00 4.2946214139e+00 
221700 4.7911703861e+00 6.9442279337e-05 2.4795008294e+00 -4.2946214139e+00 2.4795008294e+00 4.2946214139e+00 
221800 4.7911703718e+00 6.9452999061e-05 2.4795008294e+00 -4.2946214139e+00 2.4795008294e+00 4.2946214139e+00 
221900 4.7911703577e+00 6.9464143007e-05 2.4795008294e+00 -4.2946214139e+00 2.4795008294e+00 4.2946214139e+00 
222000 4.7911703438e+00 6.9475679344e-05 2.4795008294e+00 -4.2946214139e+00 2.4795008294e+00 4.2946214139e+00 
222100 4.7911703301e+00 6.9487577567e-05 2.4795008294e+00 -4.2946214139e+00 2.4795008294e+00 4.2946214139e+00 
222200 4.7911703166e+00 6.9499808460e-05 2.4795008294e+00 -4.2946214139e+00 2.4795008294e+00 4.2946214139e+00 
222300 4.7911703033e+00 6.9512344053e-05 2.4795008294e+00 -4.2946214139e+00 2.4795008294e+00 4.2946214139e+00 
222400 4.7911702902e+00 6.9525157584e-05 2.4795008294e+00 -4.2946214139e+00 2.4795008294e+00 4.2946214139e+00 
222500 4.7911702772e+00 6.9538223459e-05 2.4795008294e+00 -4.2946214139e+00 2.4795008294e+00 4.2946214139e+00 
222600 4.7911702645e+00 6.9551517213e-05 2.4795008294e+00 -4.2946214139e+00 2.4795008294e+00 4.2946214139e+00 
222700 4.7911702519e+00 6.9565015477e-05 2.4795008294e+00 -4.2946214139e+00 2.4795008294e+00 4.2946214139e+00 
222800 4.7911702395e+00 6.9578695938e-05 2.4795008294e+00 -4.2946214139e+00 2.4795008294e+00 4.2946214139e+00 
222900 4.7911702272e+00 6.9592537304e-05 2.4795008294e+00 -4.2946214139e+00 2.4795008294e+00 4.2946214139e+00 
223000 4.7911702151e+00 6.9606519271e-05 2.4795008294e+00 -4.2946214139e+00 2.4795008294e+00 4.2946214139e+00 
223100 4.7911702032e+00 6.9620622489e-05 2.4795008294e+00 -4.2946214139e+00 2.4795008294e+00 4.2946214139e+00 
223200 4.7911701915e+00 6.9634828530e-05 2.4795008294e+00 -4.2946214139e+00 2.4795008294e+00 4.2946214139e+00 
223300 4.7911701799e+00 6.9649119853e-05 2.4795008294e+00 -4.2946214139e+00 2.4795008294e+00 4.2946214139e+00 
223400 4.7911701685e+00 6.9663479776e-05 2.4795008294e+00 -4.2946214139e+00 2.4795008294e+00 4.2946214139e+00 
223500 4.7911701572e+00 6.9677892447e-05 2.4795008294e+00 -4.2946214139e+00 2.4795008294e+00 4.2946214139e+00 
223600 4.7911701461e+00 6.9692342809e-05 2.4795008294e+00 -4.2946214139e+00 2.4795008294e+00 4.2946214139e+00 
223700 4.7911701351e+00 6.9706816577e-05 2.4795008294e+00 -4.2946214139e+00 2.4795008294e+00 4.2946214139e+00 
223800 4.7911701243e+00 6.9721300206e-05 2.4795008294e+00 -4.2946214139e+00 2.4795008294e+00 4.2946214139e+00 
223900 4.7911701136e+00 6.9735780867e-05 2.4795008294e+00 -4.2946214139e+00 2.4795008294e+00 4.2946214139e+00 
224000 4.7911701031e+00 6.9750246419e-05 2.4795008294e+00 -4.2946214139e+00 2.4795008294e+00 4.2946214139e+00 
224100 4.7911700928e+00 6.9764685383e-05 2.4795008294e+00 -4.2946214139e+00 2.4795008294e+00 4.2946214139e+00 
224200 4.7911700825e+00 6.9779086918e-05 2.4795008294e+00 -4.2946214139e+00 2.4795008294e+00 4.2946214139e+00 
224300 4.7911700725e+00 6.9793440797e-05 2.4795008294e+00 -4.2946214139e+00 2.4795008294e+00 4.2946214139e+00 
224400 4.7911700625e+00 6.9807737382e-05 2.4795008294e+00 -4.2946214139e+00 2.4795008294e+00 4.2946214139e+00 
224500 4.7911700527e+00 6.9821967602e-05 2.4795008294e+00 -4.2946214139e+00 2.4795008294e+00 4.2946214139e+00 
224600 4.7911700430e+00 6.9836122931e-05 2.4795008294e+00 -4.2946214139e+00 2.4795008294e+00 4.2946214139e+00 
224700 4.7911700335e+00 6.9850195367e-05 2.4795008294e+00 -4.2946214139e+00 2.4795008294e+00 4.2946214139e+00 
224800 4.7911700241e+00 6.9864177411e-05 2.4795008294e+00 -4.2946214139e+00 2.4795008294e+00 4.2946214139e+00 
224900 4.7911700148e+00 6.9878062046e-05 2.4795008294e+00 -4.2946214139e+00 2.4795008294e+00 4.2946214139e+00 
225000 4.7911700057e+00 6.9891842716e-05 2.4795008294e+00 -4.2946214139e+00 2.4795008294e+00 4.2946214139e+00 
225100 4.7911699966e+00 6.9905513311e-05 2.4795008294e+00 -4.2946214139e+00 2.4795008294e+00 4.2946214139e+00 
225200 4.7911699878e+00 6.9919068146e-05 2.4795008294e+00 -4.2946214139e+00 2.4795008294e+00 4.2946214139e+00 
225300 4.7911699790e+00 6.9932501944e-05 2.4795008294e+00 -4.2946214139e+00 2.4795008294e+00 4.2946214139e+00 
225400 4.7911699703e+00 6.9945809816e-05 2.4795008294e+00 -4.2946214139e+00 2.4795008294e+00 4.2946214139e+00 
225500 4.7911699618e+00 6.9958987250e-05 2.4795008294e+00 -4.2946214139e+00 2.4795008294e+00 4.2946214139e+00 
225600 4.7911699534e+00 6.9972030090e-05 2.4795008294e+00 -4.2946214139e+00 2.4795008294e+00 4.2946214139e+00 
225700 4.7911699451e+00 6.9984934521e-05 2.4795008294e+00 -4.2946214139e+00 2.4795008294e+00 4.2946214139e+00 
225800 4.7911699369e+00 6.9997697057e-05 2.4795008294e+00 -4.2946214139e+00 2.4795008294e+00 4.2946214139e+00 
225900 4.7911699288e+00 7.0010314522e-05 2.4795008294e+00 -4.2946214139e+00 2.4795008294e+00 4.2946214139e+00 
226000 4.7911699209e+00 7.0022784041e-05 2.4795008294e+00 -4.2946214139e+00 2.4795008294e+00 4.2946214139e+00 
226100 4.7911699130e+00 7.0035103020e-05 2.4795008294e+00 -4.2946214139e+00 2.4795008294e+00 4.2946214139e+00 
226200 4.7911699053e+00 7.0047269141e-05 2.4795008294e+00 -4.2946214139e+00 2.4795008294e+00 4.2946214139e+00 
226300 4.7911698976e+00 7.0059280340e-05 2.4795008294e+00 -4.2946214139e+00 2.4795008294e+00 4.2946214139e+00 
226400 4.7911698901e+00 7.0071134803e-05 2.4795008294e+00 -4.2946214139e+00 2.4795008294e+00 4.2946214139e+00 
226500 4.7911698827e+00 7.0082830948e-05 2.4795008294e+00 -4.2946214139e+00 2.4795008294e+00 4.2946214139e+00 
226600 4.7911698754e+00 7.0094367420e-05 2.4795008294e+00 -4.2946214139e+00 2.4795008294e+00 4.2946214139e+00 
226700 4.7911698682e+00 7.0105743072e-05 2.4795008294e+00 -4.2946214139e+00 2.4795008294e+00 4.2946214139e+00 
226800 4.7911698610e+00 7.0116956962e-05 2.4795008294e+00 -4.2946214139e+00 2.4795008294e+00 4.2946214139e+00 
226900 4.7911698540e+00 7.0128008337e-05 2.4795008294e+00 -4.2946214139e+00 2.4795008294e+00 4.2946214139e+00 
227000 4.7911698471e+00 7.0138896629e-05 2.4795008294e+00 -4.2946214139e+00 2.4795008294e+00 4.2946214139e+00 
227100 4.7911698403e+00 7.0149621438e-05 2.4795008294e+00 -4.2946214139e+00 2.4795008294e+00 4.2946214139e+00 
227200 4.7911698335e+00 7.0160182532e-05 2.4795008294e+00 -4.2946214139e+00 2.4795008294e+00 4.2946214139e+00 
227300 4.7911698269e+00 7.0170579829e-05 2.4795008294e+00 -4.2946214139e+00 2.4795008294e+00 4.2946214139e+00 
227400 4.7911698203e+00 7.0180813395e-05 2.4795008294e+00 -4.2946214139e+00 2.4795008294e+00 4.2946214139e+00 
227500 4.7911698139e+00 7.0190883435e-05 2.4795008294e+00 -4.2946214139e+00 2.4795008294e+00 4.2946214139e+00 
227600 4.7911698075e+00 7.0200790282e-05 2.4795008294e+00 -4.2946214139e+00 2.4795008294e+00 4.2946214139e+00 
227700 4.7911698012e+00 7.0210534391e-05 2.4795008294e+00 -4.2946214139e+00 2.4795008294e+00 4.2946214139e+00 
227800 4.7911697950e+00 7.0220116337e-05 2.4795008294e+00 -4.2946214139e+00 2.4795008294e+00 4.2946214139e+00 
227900 4.7911697889e+00 7.0229536797e-05 2.4795008294e+00 -4.2946214139e+00 2.4795008294e+00 4.2946214139e+00 
228000 4.7911697829e+00 7.0238796557e-05 2.4795008294e+00 -4.2946214139e+00 2.4795008294e+00 4.2946214139e+00 
228100 4.7911697770e+00 7.0247896491e-05 2.4795008294e+00 -4.2946214139e+00 2.4795008294e+00 4.2946214139e+00 
228200 4.7911697711e+00 7.0256837569e-05 2.4795008294e+00 -4.2946214139e+00 2.4795008294e+00 4.2946214139e+00 
228300 4.7911697653e+00 7.0265620842e-05 2.4795008294e+00 -4.2946214139e+00 2.4795008294e+00 4.2946214139e+00 
228400 4.7911697596e+00 7.0274247438e-05 2.4795008294e+00 -4.2946214139e+00 2.4795008294e+00 4.2946214139e+00 
228500 4.7911697540e+00 7.0282718559e-05 2.4795008294e+00 -4.2946214139e+00 2.4795008294e+00 4.2946214139e+00 
228600 4.7911697485e+00 7.0291035475e-05 2.4795008294e+00 -4.2946214139e+00 2.4795008294e+00 4.2946214139e+00 
228700 4.7911697430e+00 7.0299199518e-05 2.4795008294e+00 -4.2946214139e+00 2.4795008294e+00 4.2946214139e+00 
228800 4.7911697376e+00 7.0307212078e-05 2.4795008294e+00 -4.2946214139e+00 2.4795008294e+00 4.2946214139e+00 
228900 4.7911697323e+00 7.0315074598e-05 2.4795008294e+00 -4.2946214139e+00 2.4795008294e+00 4.2946214139e+00 
229000 4.7911697271e+00 7.0322788572e-05 2.4795008294e+00 -4.2946214139e+00 2.4795008294e+00 4.2946214139e+00 
229100 4.7911697219e+00 7.0330355538e-05 2.4795008294e+00 -4.2946214139e+00 2.4795008294e+00 4.2946214139e+00 
229200 4.7911697168e+00 7.0337777074e-05 2.4795008294e+00 -4.2946214139e+00 2.4795008294e+00 4.2946214139e+00 
229300 4.7911697118e+00 7.0345054797e-05 2.4795008294e+00 -4.2946214139e+00 2.4795008294e+00 4.2946214139e+00 
229400 4.7911697068e+00 7.0352190359e-05 2.4795008294e+00 -4.2946214139e+00 2.4795008294e+00 4.2946214139e+00 
229500 4.7911697020e+00 7.0359185441e-05 2.4795008294e+00 -4.2946214139e+00 2.4795008294e+00 4.2946214139e+00 
229600 4.7911696971e+00 7.0366041751e-05 2.4795008294e+00 -4.2946214139e+00 2.4795008294e+00 4.2946214139e+00 
229700 4.7911696924e+00 7.0372761022e-05 2.4795008294e+00 -4.2946214139e+00 2.4795008294e+00 4.2946214139e+00 
229800 4.7911696877e+00 7.0379345008e-05 2.4795008294e+00 -4.2946214139e+00 2.4795008294e+00 4.2946214139e+00 
229900 4.7911696831e+00 7.0385795483e-05 2.4795008294e+00 -4.2946214139e+00 2.4795008294e+00 4.2946214139e+00 
230000 4.7911696785e+00 7.0392114235e-05 2.4795008294e+00 -4.2946214139e+00 2.4795008294e+00 4.2946214139e+00 
230100 4.7911696740e+00 7.0398303067e-05 2.4795008294e+00 -4.2946214139e+00 2.4795008294e+00 4.2946214139e+00 
230200 4.7911696696e+00 7.0404363792e-05 2.4795008294e+00 -4.2946214139e+00 2.4795008294e+00 4.2946214139e+00 
230300 4.7911696652e+00 7.0410298232e-05 2.4795008294e+00 -4.2946214139e+00 2.4795008294e+00 4.2946214139e+00 
230400 4.7911696609e+00 7.0416108217e-05 2.4795008294e+00 -4.2946214139e+00 2.4795008294e+00 4.2946214139e+00 
230500 4.7911696567e+00 7.0421795579e-05 2.4795008294e+00 -4.2946214139e+00 2.4795008294e+00 4.2946214139e+00 
230600 4.7911696525e+00 7.0427362156e-05 2.4795008294e+00 -4.2946214139e+00 2.4795008294e+00 4.2946214139e+00 
230700 4.7911696484e+00 7.0432809784e-05 2.4795008294e+00 -4.2946214139e+00 2.4795008294e+00 4.2946214139e+00 
230800 4.7911696443e+00 7.0438140301e-05 2.4795008294e+00 -4.2946214139e+00 2.4795008294e+00 4.2946214139e+00 
230900 4.7911696403e+00 7.0443355540e-05 2.4795008294e+00 -4.2946214139e+00 2.4795008294e+00 4.2946214139e+00 
231000 4.7911696363e+00 7.0448457333e-05 2.4795008294e+00 -4.2946214139e+00 2.4795008294e+00 4.2946214139e+00 
231100 4.7911696324e+00 7.0453447504e-05 2.4795008294e+00 -4.2946214139e+00 2.4795008294e+00 4.2946214139e+00 
231200 4.7911696285e+00 7.0458327873e-05 2.4795008294e+00 -4.2946214139e+00 2.4795008294e+00 4.2946214139e+00 
231300 4.7911696247e+00 7.0463100249e-05 2.4795008294e+00 -4.2946214139e+00 2.4795008294e+00 4.2946214139e+00 
231400 4.7911696210e+00 7.0467766436e-05 2.4795008294e+00 -4.2946214139e+00 2.4795008294e+00 4.2946214139e+00 
231500 4.7911696173e+00 7.0472328224e-05 2.4795008294e+00 -4.2946214139e+00 2.4795008294e+00 4.2946214139e+00 
231600 4.7911696136e+00 7.0476787394e-05 2.4795008294e+00 -4.2946214139e+00 2.4795008294e+00 4.2946214139e+00 
231700 4.7911696101e+00 7.0481145715e-05 2.4795008294e+00 -4.2946214139e+00 2.4795008294e+00 4.2946214139e+00 
231800 4.7911696065e+00 7.0485404942e-05 2.4795008294e+00 -4.2946214139e+00 2.4795008294e+00 4.2946214139e+00 
231900 4.7911696030e+00 7.0489566816e-05 2.4795008294e+00 -4.2946214139e+00 2.4795008294e+00 4.2946214139e+00 
232000 4.7911695996e+00 7.0493633066e-05 2.4795008294e+00 -4.2946214139e+00 2.4795008294e+00 4.2946214139e+00 
232100 4.7911695962e+00 7.0497605402e-05 2.4795008294e+00 -4.2946214139e+00 2.4795008294e+00 4.2946214139e+00 
232200 4.7911695928e+00 7.0501485522e-05 2.4795008294e+00 -4.2946214139e+00 2.4795008294e+00 4.2946214139e+00 
232300 4.7911695895e+00 7.0505275103e-05 2.4795008294e+00 -4.2946214139e+00 2.4795008294e+00 4.2946214139e+00 
232400 4.7911695863e+00 7.0508975809e-05 2.4795008294e+00 -4.2946214139e+00 2.4795008294e+00 4.2946214139e+00 
232500 4.7911695830e+00 7.0512589284e-05 2.4795008294e+00 -4.2946214139e+00 2.4795008294e+00 4.2946214139e+00 
232600 4.7911695799e+00 7.0516117155e-05 2.4795008294e+00 -4.2946214139e+00 2.4795008294e+00 4.2946214139e+00 
232700 4.7911695767e+00 7.0519561030e-05 2.4795008294e+00 -4.2946214139e+00 2.4795008294e+00 4.2946214139e+00 
232800 4.7911695737e+00 7.0522922498e-05 2.4795008294e+00 -4.2946214139e+00 2.4795008294e+00 4.2946214139e+00 
232900 4.7911695706e+00 7.0526203131e-05 2.4795008294e+00 -4.2946214139e+00 2.4795008294e+00 4.2946214139e+00 
233000 4.7911695676e+00 7.0529404477e-05 2.4795008294e+00 -4.2946214139e+00 2.4795008294e+00 4.2946214139e+00 
233100 4.7911695647e+00 7.0532528070e-05 2.4795008294e+00 -4.2946214139e+00 2.4795008294e+00 4.2946214139e+00 
233200 4.7911695618e+00 7.0535575419e-05 2.4795008294e+00 -4.2946214139e+00 2.4795008294e+00 4.2946214139e+00 
233300 4.7911695589e+00 7.0538548016e-05 2.4795008294e+00 -4.2946214139e+00 2.4795008294e+00 4.2946214139e+00 
233400 4.7911695560e+00 7.0541447331e-05 2.4795008294e+00 -4.2946214139e+00 2.4795008294e+00 4.2946214139e+00 
233500 4.7911695533e+00 7.0544274815e-05 2.4795008294e+00 -4.2946214139e+00 2.4795008294e+00 4.2946214139e+00 
233600 4.7911695505e+00 7.0547031897e-05 2.4795008294e+00 -4.2946214139e+00 2.4795008294e+00 4.2946214139e+00 
233700 4.7911695478e+00 7.0549719987e-05 2.4795008294e+00 -4.2946214139e+00 2.4795008294e+00 4.2946214139e+00 
233800 4.7911695451e+00 7.0552340473e-05 2.4795008294e+00 -4.2946214139e+00 2.4795008294e+00 4.2946214139e+00 
233900 4.7911695425e+00 7.0554894722e-05 2.4795008294e+00 -4.2946214139e+00 2.4795008294e+00 4.2946214139e+00 
234000 4.7911695399e+00 7.0557384082e-05 2.4795008294e+00 -4.2946214139e+00 2.4795008294e+00 4.2946214139e+00 
234100 4.7911695373e+00 7.0559809878e-05 2.4795008294e+00 -4.2946214139e+00 2.4795008294e+00 4.2946214139e+00 
234200 4.7911695347e+00 7.0562173417e-05 2.4795008294e+00 -4.2946214139e+00 2.4795008294e+00 4.2946214139e+00 
234300 4.7911695322e+00 7.0564475983e-05 2.4795008294e+00 -4.2946214139e+00 2.4795008294e+00 4.2946214139e+00 
234400 4.7911695298e+00 7.0566718840e-05 2.4795008294e+00 -4.2946214139e+00 2.4795008294e+00 4.2946214139e+00 
234500 4.7911695274e+00 7.0568903233e-05 2.4795008294e+00 -4.2946214139e+00 2.4795008294e+00 4.2946214139e+00 
234600 4.7911695250e+00 7.0571030384e-05 2.4795008294e+00 -4.2946214139e+00 2.4795008294e+00 4.2946214139e+00 
234700 4.7911695226e+00 7.0573101497e-05 2.4795008294e+00 -4.2946214139e+00 2.4795008294e+00 4.2946214139e+00 
234800 4.7911695203e+00 7.0575117753e-05 2.4795008294e+00 -4.2946214139e+00 2.4795008294e+00 4.2946214139e+00 
234900 4.7911695180e+00 7.0577080317e-05 2.4795008294e+00 -4.2946214139e+00 2.4795008294e+00 4.2946214139e+00 
235000 4.7911695157e+00 7.0578990330e-05 2.4795008294e+00 -4.2946214139e+00 2.4795008294e+00 4.2946214139e+00 
235100 4.7911695135e+00 7.0580848916e-05 2.4795008294e+00 -4.2946214139e+00 2.4795008294e+00 4.2946214139e+00 
235200 4.7911695113e+00 7.0582657179e-05 2.4795008294e+00 -4.2946214139e+00 2.4795008294e+00 4.2946214139e+00 
235300 4.7911695091e+00 7.0584416201e-05 2.4795008294e+00 -4.2946214139e+00 2.4795008294e+00 4.2946214139e+00 
235400 4.7911695069e+00 7.0586127048e-05 2.4795008294e+00 -4.2946214139e+00 2.4795008294e+00 4.2946214139e+00 
235500 4.7911695048e+00 7.0587790765e-05 2.4795008294e+00 -4.2946214139e+00 2.4795008294e+00 4.2946214139e+00 
235600 4.7911695027e+00 7.0589408378e-05 2.4795008294e+00 -4.2946214139e+00 2.4795008294e+00 4.2946214139e+00 
235700 4.7911695007e+00 7.0590980897e-05 2.4795008294e+00 -4.2946214139e+00 2.4795008294e+00 4.2946214139e+00 
235800 4.7911694987e+00 7.0592509309e-05 2.4795008294e+00 -4.2946214139e+00 2.4795008294e+00 4.2946214139e+00 
235900 4.7911694967e+00 7.0593994588e-05 2.4795008294e+00 -4.2946214139e+00 2.4795008294e+00 4.2946214139e+00 
236000 4.7911694947e+00 7.0595437684e-05 2.4795008294e+00 -4.2946214139e+00 2.4795008294e+00 4.2946214139e+00 
236100 4.7911694928e+00 7.0596839534e-05 2.4795008294e+00 -4.2946214139e+00 2.4795008294e+00 4.2946214139e+00 
236200 4.7911694908e+00 7.0598201055e-05 2.4795008294e+00 -4.2946214139e+00 2.4795008294e+00 4.2946214139e+00 
236300 4.7911694889e+00 7.0599523148e-05 2.4795008294e+00 -4.2946214139e+00 2.4795008294e+00 4.2946214139e+00 
236400 4.7911694871e+00 7.0600806696e-05 2.4795008294e+00 -4.2946214139e+00 2.4795008294e+00 4.2946214139e+00 
236500 4.7911694852e+00 7.0602052564e-05 2.4795008294e+00 -4.2946214139e+00 2.4795008294e+00 4.2946214139e+00 
236600 4.7911694834e+00 7.0603261602e-05 2.4795008294e+00 -4.2946214139e+00 2.4795008294e+00 4.2946214139e+00 
236700 4.7911694817e+00 7.0604434643e-05 2.4795008294e+00 -4.2946214139e+00 2.4795008294e+00 4.2946214139e+00 
236800 4.7911694799e+00 7.0605572504e-05 2.4795008294e+00 -4.2946214139e+00 2.4795008294e+00 4.2946214139e+00 
236900 4.7911694782e+00 7.0606675985e-05 2.4795008294e+00 -4.2946214139e+00 2.4795008294e+00 4.2946214139e+00 
237000 4.7911694764e+00 7.0607745871e-05 2.4795008294e+00 -4.2946214139e+00 2.4795008294e+00 4.2946214139e+00 
237100 4.7911694747e+00 7.0608782932e-05 2.4795008294e+00 -4.2946214139e+00 2.4795008294e+00 4.2946214139e+00 
237200 4.7911694731e+00 7.0609787921e-05 2.4795008294e+00 -4.2946214139e+00 2.4795008294e+00 4.2946214139e+00 
237300 4.7911694714e+00 7.0610761578e-05 2.4795008294e+00 -4.2946214139e+00 2.4795008294e+00 4.2946214139e+00 
237400 4.7911694698e+00 7.0611704627e-05 2.4795008294e+00 -4.2946214139e+00 2.4795008294e+00 4.2946214139e+00 
237500 4.7911694682e+00 7.0612617778e-05 2.4795008294e+00 -4.2946214139e+00 2.4795008294e+00 4.2946214139e+00 
237600 4.7911694666e+00 7.0613501725e-05 2.4795008294e+00 -4.2946214139e+00 2.4795008294e+00 4.2946214139e+00 
237700 4.7911694651e+00 7.0614357151e-05 2.4795008294e+00 -4.2946214139e+00 2.4795008294e+00 4.2946214139e+00 
237800 4.7911694636e+00 7.0615184722e-05 2.4795008294e+00 -4.2946214139e+00 2.4795008294e+00 4.2946214139e+00 
237900 4.7911694621e+00 7.0615985092e-05 2.4795008294e+00 -4.2946214139e+00 2.4795008294e+00 4.2946214139e+00 
238000 4.7911694606e+00 7.0616758902e-05 2.4795008294e+00 -4.2946214139e+00 2.4795008294e+00 4.2946214139e+00 
238100 4.7911694591e+00 7.0617506778e-05 2.4795008294e+00 -4.2946214139e+00 2.4795008294e+00 4.2946214139e+00 
238200 4.7911694576e+00 7.0618229335e-05 2.4795008294e+00 -4.2946214139e+00 2.4795008294e+00 4.2946214139e+00 
238300 4.7911694562e+00 7.0618927174e-05 2.4795008294e+00 -4.2946214139e+00 2.4795008294e+00 4.2946214139e+00 
238400 4.7911694548e+00 7.0619600885e-05 2.4795008294e+00 -4.2946214139e+00 2.4795008294e+00 4.2946214139e+00 
238500 4.7911694534e+00 7.0620251044e-05 2.4795008294e+00 -4.2946214139e+00 2.4795008294e+00 4.2946214139e+00 
238600 4.7911694521e+00 7.0620878215e-05 2.4795008294e+00 -4.2946214139e+00 2.4795008294e+00 4.2946214139e+00 
238700 4.7911694507e+00 7.0621482952e-05 2.4795008294e+00 -4.2946214139e+00 2.4795008294e+00 4.2946214139e+00 
238800 4.7911694494e+00 7.0622065797e-05 2.4795008294e+00 -4.2946214139e+00 2.4795008294e+00 4.2946214139e+00 
238900 4.7911694481e+00 7.0622627277e-05 2.4795008294e+00 -4.2946214139e+00 2.4795008294e+00 4.2946214139e+00 
239000 4.7911694468e+00 7.0623167913e-05 2.4795008294e+00 -4.2946214139e+00 2.4795008294e+00 4.2946214139e+00 
239100 4.7911694455e+00 7.0623688213e-05 2.4795008294e+00 -4.2946214139e+00 2.4795008294e+00 4.2946214139e+00 
239200 4.7911694442e+00 7.0624188672e-05 2.4795008294e+00 -4.2946214139e+00 2.4795008294e+00 4.2946214139e+00 
239300 4.7911694430e+00 7.0624669778e-05 2.4795008294e+00 -4.2946214139e+00 2.4795008294e+00 4.2946214139e+00 
239400 4.7911694418e+00 7.0625132006e-05 2.4795008294e+00 -4.2946214139e+00 2.4795008294e+00 4.2946214139e+00 
239500 4.7911694406e+00 7.0625575823e-05 2.4795008294e+00 -4.2946214139e+00 2.4795008294e+00 4.2946214139e+00 
239600 4.7911694394e+00 7.0626001683e-05 2.4795008294e+00 -4.2946214139e+00 2.4795008294e+00 4.2946214139e+00 
239700 4.7911694382e+00 7.0626410034e-05 2.4795008294e+00 -4.2946214139e+00 2.4795008294e+00 4.2946214139e+00 
239800 4.7911694370e+00 7.0626801312e-05 2.4795008294e+00 -4.2946214139e+00 2.4795008294e+00 4.2946214139e+00 
239900 4.7911694359e+00 7.0627175944e-05 2.4795008294e+00 -4.2946214139e+00 2.4795008294e+00 4.2946214139e+00 
240000 4.7911694348e+00 7.0627534347e-05 2.4795008294e+00 -4.2946214139e+00 2.4795008294e+00 4.2946214139e+00 
240100 4.7911694337e+00 7.0627876931e-05 2.4795008294e+00 -4.2946214139e+00 2.4795008294e+00 4.2946214139e+00 
240200 4.7911694326e+00 7.0628204095e-05 2.4795008294e+00 -4.2946214139e+00 2.4795008294e+00 4.2946214139e+00 
240300 4.7911694315e+00 7.0628516231e-05 2.4795008294e+00 -4.2946214139e+00 2.4795008294e+00 4.2946214139e+00 
240400 4.7911694304e+00 7.0628813723e-05 2.4795008294e+00 -4.2946214139e+00 2.4795008294e+00 4.2946214139e+00 
240500 4.7911694294e+00 7.0629096944e-05 2.4795008294e+00 -4.2946214139e+00 2.4795008294e+00 4.2946214139e+00 
240600 4.7911694283e+00 7.0629366260e-05 2.4795008294e+00 -4.2946214139e+00 2.4795008294e+00 4.2946214139e+00 
240700 4.7911694273e+00 7.0629622030e-05 2.4795008294e+00 -4.2946214139e+00 2.4795008294e+00 4.2946214139e+00 
240800 4.7911694263e+00 7.0629864605e-05 2.4795008294e+00 -4.2946214139e+00 2.4795008294e+00 4.2946214139e+00 
240900 4.7911694253e+00 7.0630094326e-05 2.4795008294e+00 -4.2946214139e+00 2.4795008294e+00 4.2946214139e+00 
241000 4.7911694243e+00 7.0630311531e-05 2.4795008294e+00 -4.2946214139e+00 2.4795008294e+00 4.2946214139e+00 
241100 4.7911694234e+00 7.0630516546e-05 2.4795008294e+00 -4.2946214139e+00 2.4795008294e+00 4.2946214139e+00 
241200 4.7911694224e+00 7.0630709692e-05 2.4795008294e+00 -4.2946214139e+00 2.4795008294e+00 4.2946214139e+00 
241300 4.7911694215e+00 7.0630891282e-05 2.4795008294e+00 -4.2946214139e+00 2.4795008294e+00 4.2946214139e+00 
241400 4.7911694206e+00 7.0631061625e-05 2.4795008294e+00 -4.2946214139e+00 2.4795008294e+00 4.2946214139e+00 
241500 4.7911694196e+00 7.0631221018e-05 2.4795008294e+00 -4.2946214139e+00 2.4795008294e+00 4.2946214139e+00 
241600 4.7911694187e+00 7.0631369757e-05 2.4795008294e+00 -4.2946214139e+00 2.4795008294e+00 4.2946214139e+00 
241700 4.7911694179e+00 7.0631508127e-05 2.4795008294e+00 -4.2946214139e+00 2.4795008294e+00 4.2946214139e+00 
241800 4.7911694170e+00 7.0631636409e-05 2.4795008294e+00 -4.2946214139e+00 2.4795008294e+00 4.2946214139e+00 
241900 4.7911694161e+00 7.0631754877e-05 2.4795008294e+00 -4.2946214139e+00 2.4795008294e+00 4.2946214139e+00 
242000 4.7911694153e+00 7.0631863798e-05 2.4795008294e+00 -4.2946214139e+00 2.4795008294e+00 4.2946214139e+00 
242100 4.7911694144e+00 7.0631963436e-05 2.4795008294e+00 -4.2946214139e+00 2.4795008294e+00 4.2946214139e+00 
242200 4.7911694136e+00 7.0632054046e-05 2.4795008294e+00 -4.2946214139e+00 2.4795008294e+00 4.2946214139e+00 
242300 4.7911694128e+00 7.0632135880e-05 2.4795008294e+00 -4.2946214139e+00 2.4795008294e+00 4.2946214139e+00 
242400 4.7911694120e+00 7.0632209181e-05 2.4795008294e+00 -4.2946214139e+00 2.4795008294e+00 4.2946214139e+00 
242500 4.7911694112e+00 7.0632274189e-05 2.4795008294e+00 -4.2946214139e+00 2.4795008294e+00 4.2946214139e+00 
242600 4.7911694104e+00 7.0632331139e-05 2.4795008294e+00 -4.2946214139e+00 2.4795008294e+00 4.2946214139e+00 
242700 4.7911694096e+00 7.0632380258e-05 2.4795008294e+00 -4.2946214139e+00 2.4795008294e+00 4.2946214139e+00 
242800 4.7911694089e+00 7.0632421771e-05 2.4795008294e+00 -4.2946214139e+00 2.4795008294e+00 4.2946214139e+00 
242900 4.7911694081e+00 7.0632455896e-05 2.4795008294e+00 -4.2946214139e+00 2.4795008294e+00 4.2946214139e+00 
243000 4.7911694074e+00 7.0632482847e-05 2.4795008294e+00 -4.2946214139e+00 2.4795008294e+00 4.2946214139e+00 
243100 4.7911694067e+00 7.0632502832e-05 2.4795008294e+00 -4.2946214139e+00 2.4795008294e+00 4.2946214139e+00 
243200 4.7911694059e+00 7.0632516055e-05 2.4795008294e+00 -4.2946214139e+00 2.4795008294e+00 4.2946214139e+00 
243300 4.7911694052e+00 7.0632522717e-05 2.4795008294e+00 -4.2946214139e+00 2.4795008294e+00 4.2946214139e+00 
243400 4.7911694045e+00 7.0632523012e-05 2.4795008294e+00 -4.2946214139e+00 2.4795008294e+00 4.2946214139e+00 
243500 4.7911694038e+00 7.0632517130e-05 2.4795008294e+00 -4.2946214139e+00 2.4795008294e+00 4.2946214139e+00 
243600 4.7911694032e+00 7.0632505257e-05 2.4795008294e+00 -4.2946214139e+00 2.4795008294e+00 4.2946214139e+00 
243700 4.7911694025e+00 7.0632487576e-05 2.4795008294e+00 -4.2946214139e+00 2.4795008294e+00 4.2946214139e+00 
243800 4.7911694018e+00 7.0632464263e-05 2.4795008294e+00 -4.2946214139e+00 2.4795008294e+00 4.2946214139e+00 
243900 4.7911694012e+00 7.0632435493e-05 2.4795008294e+00 -4.2946214139e+00 2.4795008294e+00 4.2946214139e+00 
244000 4.7911694005e+00 7.0632401435e-05 2.4795008294e+00 -4.2946214139e+00 2.4795008294e+00 4.2946214139e+00 
244100 4.7911693999e+00 7.0632362256e-05 2.4795008294e+00 -4.2946214139e+00 2.4795008294e+00 4.2946214139e+00 
244200 4.7911693993e+00 7.0632318116e-05 2.4795008294e+00 -4.2946214139e+00 2.4795008294e+00 4.2946214139e+00 
244300 4.7911693987e+00 7.0632269174e-05 2.4795008294e+00 -4.2946214139e+00 2.4795008294e+00 4.2946214139e+00 
244400 4.7911693980e+00 7.0632215585e-05 2.4795008294e+00 -4.2946214139e+00 2.4795008294e+00 4.2946214139e+00 
244500 4.7911693975e+00 7.0632157500e-05 2.4795008294e+00 -4.2946214139e+00 2.4795008294e+00 4.2946214139e+00 
244600 4.7911693969e+00 7.0632095065e-05 2.4795008294e+00 -4.2946214139e+00 2.4795008294e+00 4.2946214139e+00 
244700 4.7911693963e+00 7.0632028426e-05 2.4795008294e+00 -4.2946214139e+00 2.4795008294e+00 4.2946214139e+00 
244800 4.7911693957e+00 7.0631957722e-05 2.4795008294e+00 -4.2946214139e+00 2.4795008294e+00 4.2946214139e+00 
244900 4.7911693951e+00 7.0631883091e-05 2.4795008294e+00 -4.2946214139e+00 2.4795008294e+00 4.2946214139e+00 
245000 4.7911693946e+00 7.0631804668e-05 2.4795008294e+00 -4.2946214139e+00 2.4795008294e+00 4.2946214139e+00 
245100 4.7911693940e+00 7.0631722583e-05 2.4795008294e+00 -4.2946214139e+00 2.4795008294e+00 4.2946214139e+00 
245200 4.7911693935e+00 7.0631636964e-05 2.4795008294e+00 -4.2946214139e+00 2.4795008294e+00 4.2946214139e+00 
245300 4.7911693929e+00 7.0631547936e-05 2.4795008294e+00 -4.2946214139e+00 2.4795008294e+00 4.2946214139e+00 
245400 4.7911693924e+00 7.0631455622e-05 2.4795008294e+00 -4.2946214139e+00 2.4795008294e+00 4.2946214139e+00 
245500 4.7911693919e+00 7.0631360140e-05 2.4795008294e+00 -4.2946214139e+00 2.4795008294e+00 4.2946214139e+00 
245600 4.7911693914e+00 7.0631261607e-05 2.4795008294e+00 -4.2946214139e+00 2.4795008294e+00 4.2946214139e+00 
245700 4.7911693909e+00 7.0631160135e-05 2.4795008294e+00 -4.2946214139e+00 2.4795008294e+00 4.2946214139e+00 
245800 4.7911693904e+00 7.0631055837e-05 2.4795008294e+00 -4.2946214139e+00 2.4795008294e+00 4.2946214139e+00 
245900 4.7911693899e+00 7.0630948820e-05 2.4795008294e+00 -4.2946214139e+00 2.4795008294e+00 4.2946214139e+00 
246000 4.7911693894e+00 7.0630839189e-05 2.4795008294e+00 -4.2946214139e+00 2.4795008294e+00 4.2946214139e+00 
246100 4.7911693889e+00 7.0630727049e-05 2.4795008294e+00 -4.2946214139e+00 2.4795008294e+00 4.2946214139e+00 
246200 4.7911693884e+00 7.0630612498e-05 2.4795008294e+00 -4.2946214139e+00 2.4795008294e+00 4.2946214139e+00 
246300 4.7911693880e+00 7.0630495636e-05 2.4795008294e+00 -4.2946214139e+00 2.4795008294e+00 4.2946214139e+00 
246400 4.7911693875e+00 7.0630376558e-05 2.4795008294e+00 -4.2946214139e+00 2.4795008294e+00 4.2946214139e+00 
246500 4.7911693871e+00 7.0630255358e-05 2.4795008294e+00 -4.2946214139e+00 2.4795008294e+00 4.2946214139e+00 
246600 4.7911693866e+00 7.0630132127e-05 2.4795008294e+00 -4.2946214139e+00 2.4795008294e+00 4.2946214139e+00 
246700 4.7911693862e+00 7.0630006954e-05 2.4795008294e+00 -4.2946214139e+00 2.4795008294e+00 4.2946214139e+00 
246800 4.7911693858e+00 7.0629879925e-05 2.4795008294e+00 -4.2946214139e+00 2.4795008294e+00 4.2946214139e+00 
246900 4.7911693853e+00 7.0629751126e-05 2.4795008294e+00 -4.2946214139e+00 2.4795008294e+00 4.2946214139e+00 
247000 4.7911693849e+00 7.0629620637e-05 2.4795008294e+00 -4.2946214139e+00 2.4795008294e+00 4.2946214139e+00 
247100 4.7911693845e+00 7.0629488541e-05 2.4795008294e+00 -4.2946214139e+00 2.4795008294e+00 4.2946214139e+00 
247200 4.7911693841e+00 7.0629354916e-05 2.4795008294e+00 -4.2946214139e+00 2.4795008294e+00 4.2946214139e+00 
247300 4.7911693837e+00 7.0629219838e-05 2.4795008294e+00 -4.2946214139e+00 2.4795008294e+00 4.2946214139e+00 
247400 4.7911693833e+00 7.0629083383e-05 2.4795008294e+00 -4.2946214139e+00 2.4795008294e+00 4.2946214139e+00 
247500 4.7911693829e+00 7.0628945621e-05 2.4795008294e+00 -4.2946214139e+00 2.4795008294e+00 4.2946214139e+00 
247600 4.7911693825e+00 7.0628806626e-05 2.4795008294e+00 -4.2946214139e+00 2.4795008294e+00 4.2946214139e+00 
247700 4.7911693821e+00 7.0628666465e-05 2.4795008294e+00 -4.2946214139e+00 2.4795008294e+00 4.2946214139e+00 
247800 4.7911693817e+00 7.0628525206e-05 2.4795008294e+00 -4.2946214139e+00 2.4795008294e+00 4.2946214139e+00 
247900 4.7911693814e+00 7.0628382914e-05 2.4795008294e+00 -4.2946214139e+00 2.4795008294e+00 4.2946214139e+00 
248000 4.7911693810e+00 7.0628239655e-05 2.4795008294e+00 -4.2946214139e+00 2.4795008294e+00 4.2946214139e+00 
248100 4.7911693806e+00 7.0628095489e-05 2.4795008294e+00 -4.2946214139e+00 2.4795008294e+00 4.2946214139e+00 
248200 4.7911693803e+00 7.0627950478e-05 2.4795008294e+00 -4.2946214139e+00 2.4795008294e+00 4.2946214139e+00 
248300 4.7911693799e+00 7.0627804681e-05 2.4795008294e+00 -4.2946214139e+00 2.4795008294e+00 4.2946214139e+00 
248400 4.7911693796e+00 7.0627658155e-05 2.4795008294e+00 -4.2946214139e+00 2.4795008294e+00 4.2946214139e+00 
248500 4.7911693792e+00 7.0627510957e-05 2.4795008294e+00 -4.2946214139e+00 2.4795008294e+00 4.2946214139e+00 
248600 4.7911693789e+00 7.0627363141e-05 2.4795008294e+00 -4.2946214139e+00 2.4795008294e+00 4.2946214139e+00 
248700 4.7911693786e+00 7.0627214760e-05 2.4795008294e+00 -4.2946214139e+00 2.4795008294e+00 4.2946214139e+00 
248800 4.7911693782e+00 7.0627065866e-05 2.4795008294e+00 -4.2946214139e+00 2.4795008294e+00 4.2946214139e+00 
248900 4.7911693779e+00 7.0626916509e-05 2.4795008294e+00 -4.2946214139e+00 2.4795008294e+00 4.2946214139e+00 
249000 4.7911693776e+00 7.0626766739e-05 2.4795008294e+00 -4.2946214139e+00 2.4795008294e+00 4.2946214139e+00 
249100 4.7911693773e+00 7.0626616603e-05 2.4795008294e+00 -4.2946214139e+00 2.4795008294e+00 4.2946214139e+00 
249200 4.7911693770e+00 7.0626466147e-05 2.4795008294e+00 -4.2946214139e+00 2.4795008294e+00 4.2946214139e+00 
249300 4.7911693767e+00 7.0626315417e-05 2.4795008294e+00 -4.2946214139e+00 2.4795008294e+00 4.2946214139e+00 
249400 4.7911693764e+00 7.0626164456e-05 2.4795008294e+00 -4.2946214139e+00 2.4795008294e+00 4.2946214139e+00 
249500 4.7911693761e+00 7.0626013307e-05 2.4795008294e+00 -4.2946214139e+00 2.4795008294e+00 4.2946214139e+00 
249600 4.7911693758e+00 7.0625862012e-05 2.4795008294e+00 -4.2946214139e+00 2.4795008294e+00 4.2946214139e+00 
249700 4.7911693755e+00 7.0625710610e-05 2.4795008294e+00 -4.2946214139e+00 2.4795008294e+00 4.2946214139e+00 
249800 4.7911693752e+00 7.0625559142e-05 2.4795008294e+00 -4.2946214139e+00 2.4795008294e+00 4.2946214139e+00 
249900 4.7911693749e+00 7.0625407645e-05 2.4795008294e+00 -4.2946214139e+00 2.4795008294e+00 4.2946214139e+00 
250000 4.7911693746e+00 7.0625256155e-05 2.4795008294e+00 -4.2946214139e+00 2.4795008294e+00 4.2946214139e+00 
250100 4.7911693744e+00 7.0625104709e-05 2.4795008294e+00 -4.2946214139e+00 2.4795008294e+00 4.2946214139e+00 
250200 4.7911693741e+00 7.0624953343e-05 2.4795008294e+00 -4.2946214139e+00 2.4795008294e+00 4.2946214139e+00 
250300 4.7911693738e+00 7.0624802088e-05 2.4795008294e+00 -4.2946214139e+00 2.4795008294e+00 4.2946214139e+00 
250400 4.7911693736e+00 7.0624650979e-05 2.4795008294e+00 -4.2946214139e+00 2.4795008294e+00 4.2946214139e+00 
250500 4.7911693733e+00 7.0624500048e-05 2.4795008294e+00 -4.2946214139e+00 2.4795008294e+00 4.2946214139e+00 
250600 4.7911693731e+00 7.0624349324e-05 2.4795008294e+00 -4.2946214139e+00 2.4795008294e+00 4.2946214139e+00 
250700 4.7911693728e+00 7.0624198839e-05 2.4795008294e+00 -4.2946214139e+00 2.4795008294e+00 4.2946214139e+00 
250800 4.7911693726e+00 7.0624048621e-05 2.4795008294e+00 -4.2946214139e+00 2.4795008294e+00 4.2946214139e+00 
250900 4.7911693723e+00 7.0623898698e-05 2.4795008294e+00 -4.2946214139e+00 2.4795008294e+00 4.2946214139e+00 
251000 4.7911693721e+00 7.0623749098e-05 2.4795008294e+00 -4.2946214139e+00 2.4795008294e+00 4.2946214139e+00 
251100 4.7911693718e+00 7.0623599847e-05 2.4795008294e+00 -4.2946214139e+00 2.4795008294e+00 4.2946214139e+00 
251200 4.7911693716e+00 7.0623450971e-05 2.4795008294e+00 -4.2946214139e+00 2.4795008294e+00 4.2946214139e+00 
251300 4.7911693714e+00 7.0623302494e-05 2.4795008294e+00 -4.2946214139e+00 2.4795008294e+00 4.2946214139e+00 
251400 4.7911693711e+00 7.0623154440e-05 2.4795008294e+00 -4.2946214139e+00 2.4795008294e+00 4.2946214139e+00 
251500 4.7911693709e+00 7.0623006834e-05 2.4795008294e+00 -4.2946214139e+00 2.4795008294e+00 4.2946214139e+00 
251600 4.7911693707e+00 7.0622859696e-05 2.4795008294e+00 -4.2946214139e+00 2.4795008294e+00 4.2946214139e+00 
251700 4.7911693705e+00 7.0622713049e-05 2.4795008294e+00 -4.2946214139e+00 2.4795008294e+00 4.2946214139e+00 
251800 4.7911693703e+00 7.0622566914e-05 2.4795008294e+00 -4.2946214139e+00 2.4795008294e+00 4.2946214139e+00 
251900 4.7911693700e+00 7.0622421311e-05 2.4795008294e+00 -4.2946214139e+00 2.4795008294e+00 4.2946214139e+00 
252000 4.7911693698e+00 7.0622276260e-05 2.4795008294e+00 -4.2946214139e+00 2.4795008294e+00 4.2946214139e+00 
252100 4.7911693696e+00 7.0622131779e-05 2.4795008294e+00 -4.2946214139e+00 2.4795008294e+00 4.2946214139e+00 
252200 4.7911693694e+00 7.0621987886e-05 2.4795008294e+00 -4.2946214139e+00 2.4795008294e+00 4.2946214139e+00 
252300 4.7911693692e+00 7.0621844600e-05 2.4795008294e+00 -4.2946214139e+00 2.4795008294e+00 4.2946214139e+00 
252400 4.7911693690e+00 7.0621701937e-05 2.4795008294e+00 -4.2946214139e+00 2.4795008294e+00 4.2946214139e+00 
252500 4.7911693688e+00 7.0621559913e-05 2.4795008294e+00 -4.2946214139e+00 2.4795008294e+00 4.2946214139e+00 
252600 4.7911693686e+00 7.0621418544e-05 2.4795008294e+00 -4.2946214139e+00 2.4795008294e+00 4.2946214139e+00 
252700 4.7911693685e+00 7.0621277845e-05 2.4795008294e+00 -4.2946214139e+00 2.4795008294e+00 4.2946214139e+00 
252800 4.7911693683e+00 7.0621137832e-05 2.4795008294e+00 -4.2946214139e+00 2.4795008294e+00 4.2946214139e+00 
252900 4.7911693681e+00 7.0620998516e-05 2.4795008294e+00 -4.2946214139e+00 2.4795008294e+00 4.2946214139e+00 
253000 4.7911693679e+00 7.0620859913e-05 2.4795008294e+00 -4.2946214139e+00 2.4795008294e+00 4.2946214139e+00 
253100 4.7911693677e+00 7.0620722034e-05 2.4795008294e+00 -4.2946214139e+00 2.4795008294e+00 4.2946214139e+00 
253200 4.7911693675e+00 7.0620584893e-05 2.4795008294e+00 -4.2946214139e+00 2.4795008294e+00 4.2946214139e+00 
253300 4.7911693674e+00 7.0620448500e-05 2.4795008294e+00 -4.2946214139e+00 2.4795008294e+00 4.2946214139e+00 
253400 4.7911693672e+00 7.0620312868e-05 2.4795008294e+00 -4.2946214139e+00 2.4795008294e+00 4.2946214139e+00 
253500 4.7911693670e+00 7.0620178006e-05 2.4795008294e+00 -4.2946214139e+00 2.4795008294e+00 4.2946214139e+00 
253600 4.7911693669e+00 7.0620043926e-05 2.4795008294e+00 -4.2946214139e+00 2.4795008294e+00 4.2946214139e+00 
253700 4.7911693667e+00 7.0619910637e-05 2.4795008294e+00 -4.2946214139e+00 2.4795008294e+00 4.2946214139e+00 
253800 4.7911693665e+00 7.0619778149e-05 2.4795008294e+00 -4.2946214139e+00 2.4795008294e+00 4.2946214139e+00 
253900 4.7911693664e+00 7.0619646470e-05 2.4795008294e+00 -4.2946214139e+00 2.4795008294e+00 4.2946214139e+00 
254000 4.7911693662e+00 7.0619515610e-05 2.4795008294e+00 -4.2946214139e+00 2.4795008294e+00 4.2946214139e+00 
254100 4.7911693661e+00 7.0619385575e-05 2.4795008294e+00 -4.2946214139e+00 2.4795008294e+00 4.2946214139e+00 
254200 4.7911693659e+00 7.0619256373e-05 2.4795008294e+00 -4.2946214139e+00 2.4795008294e+00 4.2946214139e+00 
254300 4.7911693658e+00 7.0619128014e-05 2.4795008294e+00 -4.2946214139e+00 2.4795008294e+00 4.2946214139e+00 
254400 4.7911693656e+00 7.0619000502e-05 2.4795008294e+00 -4.2946214139e+00 2.4795008294e+00 4.2946214139e+00 
254500 4.7911693655e+00 7.0618873844e-05 2.4795008294e+00 -4.2946214139e+00 2.4795008294e+00 4.2946214139e+00 
254600 4.7911693653e+00 7.0618748047e-05 2.4795008294e+00 -4.2946214139e+00 2.4795008294e+00 4.2946214139e+00 
254700 4.7911693652e+00 7.0618623116e-05 2.4795008294e+00 -4.2946214139e+00 2.4795008294e+00 4.2946214139e+00 
254800 4.7911693650e+00 7.0618499056e-05 2.4795008294e+00 -4.2946214139e+00 2.4795008294e+00 4.2946214139e+00 
254900 4.7911693649e+00 7.0618375873e-05 2.4795008294e+00 -4.2946214139e+00 2.4795008294e+00 4.2946214139e+00 
255000 4.7911693648e+00 7.0618253571e-05 2.4795008294e+00 -4.2946214139e+00 2.4795008294e+00 4.2946214139e+00 
255100 4.7911693646e+00 7.0618132155e-05 2.4795008294e+00 -4.2946214139e+00 2.4795008294e+00 4.2946214139e+00 
255200 4.7911693645e+00 7.0618011628e-05 2.4795008294e+00 -4.2946214139e+00 2.4795008294e+00 4.2946214139e+00 
255300 4.7911693643e+00 7.0617891995e-05 2.4795008294e+00 -4.2946214139e+00 2.4795008294e+00 4.2946214139e+00 
255400 4.7911693642e+00 7.0617773258e-05 2.4795008294e+00 -4.2946214139e+00 2.4795008294e+00 4.2946214139e+00 
255500 4.7911693641e+00 7.0617655421e-05 2.4795008294e+00 -4.2946214139e+00 2.4795008294e+00 4.2946214139e+00 
255600 4.7911693640e+00 7.0617538487e-05 2.4795008294e+00 -4.2946214139e+00 2.4795008294e+00 4.2946214139e+00 
255700 4.7911693638e+00 7.0617422458e-05 2.4795008294e+00 -4.2946214139e+00 2.4795008294e+00 4.2946214139e+00 
255800 4.7911693637e+00 7.0617307336e-05 2.4795008294e+00 -4.2946214139e+00 2.4795008294e+00 4.2946214139e+00 
255900 4.7911693636e+00 7.0617193123e-05 2.4795008294e+00 -4.2946214139e+00 2.4795008294e+00 4.2946214139e+00 
256000 4.7911693635e+00 7.0617079821e-05 2.4795008294e+00 -4.2946214139e+00 2.4795008294e+00 4.2946214139e+00 
256100 4.7911693634e+00 7.0616967432e-05 2.4795008294e+00 -4.2946214139e+00 2.4795008294e+00 4.2946214139e+00 
256200 4.7911693632e+00 7.0616855957e-05 2.4795008294e+00 -4.2946214139e+00 2.4795008294e+00 4.2946214139e+00 
256300 4.7911693631e+00 7.0616745396e-05 2.4795008294e+00 -4.2946214139e+00 2.4795008294e+00 4.2946214139e+00 
256400 4.7911693630e+00 7.0616635751e-05 2.4795008294e+00 -4.2946214139e+00 2.4795008294e+00 4.2946214139e+00 
256500 4.7911693629e+00 7.0616527022e-05 2.4795008294e+00 -4.2946214139e+00 2.4795008294e+00 4.2946214139e+00 
256600 4.7911693628e+00 7.0616419208e-05 2.4795008294e+00 -4.2946214139e+00 2.4795008294e+00 4.2946214139e+00 
256700 4.7911693627e+00 7.0616312311e-05 2.4795008294e+00 -4.2946214139e+00 2.4795008294e+00 4.2946214139e+00 
256800 4.7911693626e+00 7.0616206330e-05 2.4795008294e+00 -4.2946214139e+00 2.4795008294e+00 4.2946214139e+00 
256900 4.7911693625e+00 7.0616101265e-05 2.4795008294e+00 -4.2946214139e+00 2.4795008294e+00 4.2946214139e+00 
257000 4.7911693624e+00 7.0615997115e-05 2.4795008294e+00 -4.2946214139e+00 2.4795008294e+00 4.2946214139e+00 
257100 4.7911693623e+00 7.0615893879e-05 2.4795008294e+00 -4.2946214139e+00 2.4795008294e+00 4.2946214139e+00 
257200 4.7911693622e+00 7.0615791557e-05 2.4795008294e+00 -4.2946214139e+00 2.4795008294e+00 4.2946214139e+00 
257300 4.7911693621e+00 7.0615690147e-05 2.4795008294e+00 -4.2946214139e+00 2.4795008294e+00 4.2946214139e+00 
257400 4.7911693620e+00 7.0615589648e-05 2.4795008294e+00 -4.2946214139e+00 2.4795008294e+00 4.2946214139e+00 
257500 4.7911693619e+00 7.0615490058e-05 2.4795008294e+00 -4.2946214139e+00 2.4795008294e+00 4.2946214139e+00 
257600 4.7911693618e+00 7.0615391377e-05 2.4795008294e+00 -4.2946214139e+00 2.4795008294e+00 4.2946214139e+00 
257700 4.7911693617e+00 7.0615293601e-05 2.4795008294e+00 -4.2946214139e+00 2.4795008294e+00 4.2946214139e+00 
257800 4.7911693616e+00 7.0615196730e-05 2.4795008294e+00 -4.2946214139e+00 2.4795008294e+00 4.2946214139e+00 
257900 4.7911693615e+00 7.0615100761e-05 2.4795008294e+00 -4.2946214139e+00 2.4795008294e+00 4.2946214139e+00 
258000 4.7911693614e+00 7.0615005692e-05 2.4795008294e+00 -4.2946214139e+00 2.4795008294e+00 4.2946214139e+00 
258100 4.7911693613e+00 7.0614911520e-05 2.4795008294e+00 -4.2946214139e+00 2.4795008294e+00 4.2946214139e+00 
258200 4.7911693612e+00 7.0614818243e-05 2.4795008294e+00 -4.2946214139e+00 2.4795008294e+00 4.2946214139e+00 
258300 4.7911693611e+00 7.0614725859e-05 2.4795008294e+00 -4.2946214139e+00 2.4795008294e+00 4.2946214139e+00 
258400 4.7911693611e+00 7.0614634364e-05 2.4795008294e+00 -4.2946214139e+00 2.4795008294e+00 4.2946214139e+00 
258500 4.7911693610e+00 7.0614543755e-05 2.4795008294e+00 -4.2946214139e+00 2.4795008294e+00 4.2946214139e+00 
258600 4.7911693609e+00 7.0614454030e-05 2.4795008294e+00 -4.2946214139e+00 2.4795008294e+00 4.2946214139e+00 
258700 4.7911693608e+00 7.0614365185e-05 2.4795008294e+00 -4.2946214139e+00 2.4795008294e+00 4.2946214139e+00 
258800 4.7911693607e+00 7.0614277217e-05 2.4795008294e+00 -4.2946214139e+00 2.4795008294e+00 4.2946214139e+00 
258900 4.7911693607e+00 7.0614190123e-05 2.4795008294e+00 -4.2946214139e+00 2.4795008294e+00 4.2946214139e+00 
259000 4.7911693606e+00 7.0614103899e-05 2.4795008294e+00 -4.2946214139e+00 2.4795008294e+00 4.2946214139e+00 
259100 4.7911693605e+00 7.0614018542e-05 2.4795008294e+00 -4.2946214139e+00 2.4795008294e+00 4.2946214139e+00 
259200 4.7911693604e+00 7.0613934048e-05 2.4795008294e+00 -4.2946214139e+00 2.4795008294e+00 4.2946214139e+00 
259300 4.7911693603e+00 7.0613850413e-05 2.4795008294e+00 -4.2946214139e+00 2.4795008294e+00 4.2946214139e+00 
259400 4.7911693603e+00 7.0613767632e-05 2.4795008294e+00 -4.2946214139e+00 2.4795008294e+00 4.2946214139e+00 
259500 4.7911693602e+00 7.0613685704e-05 2.4795008294e+00 -4.2946214139e+00 2.4795008294e+00 4.2946214139e+00 
259600 4.7911693601e+00 7.0613604623e-05 2.4795008294e+00 -4.2946214139e+00 2.4795008294e+00 4.2946214139e+00 
259700 4.7911693601e+00 7.0613524384e-05 2.4795008294e+00 -4.2946214139e+00 2.4795008294e+00 4.2946214139e+00 
259800 4.7911693600e+00 7.0613444985e-05 2.4795008294e+00 -4.2946214139e+00 2.4795008294e+00 4.2946214139e+00 
259900 4.7911693599e+00 7.0613366421e-05 2.4795008294e+00 -4.2946214139e+00 2.4795008294e+00 4.2946214139e+00 
260000 4.7911693598e+00 7.0613288687e-05 2.4795008294e+00 -4.2946214139e+00 2.4795008294e+00 4.2946214139e+00 
260100 4.7911693598e+00 7.0613211778e-05 2.4795008294e+00 -4.2946214139e+00 2.4795008294e+00 4.2946214139e+00 
260200 4.7911693597e+00 7.0613135691e-05 2.4795008294e+00 -4.2946214139e+00 2.4795008294e+00 4.2946214139e+00 
260300 4.7911693596e+00 7.0613060422e-05 2.4795008294e+00 -4.2946214139e+00 2.4795008294e+00 4.2946214139e+00 
260400 4.7911693596e+00 7.0612985964e-05 2.4795008294e+00 -4.2946214139e+00 2.4795008294e+00 4.2946214139e+00 
260500 4.7911693595e+00 7.0612912314e-05 2.4795008294e+00 -4.2946214139e+00 2.4795008294e+00 4.2946214139e+00 
260600 4.7911693595e+00 7.0612839467e-05 2.4795008294e+00 -4.2946214139e+00 2.4795008294e+00 4.2946214139e+00 
260700 4.7911693594e+00 7.0612767418e-05 2.4795008294e+00 -4.2946214139e+00 2.4795008294e+00 4.2946214139e+00 
260800 4.7911693593e+00 7.0612696163e-05 2.4795008294e+00 -4.2946214139e+00 2.4795008294e+00 4.2946214139e+00 
260900 4.7911693593e+00 7.0612625695e-05 2.4795008294e+00 -4.2946214139e+00 2.4795008294e+00 4.2946214139e+00 
261000 4.7911693592e+00 7.0612556012e-05 2.4795008294e+00 -4.2946214139e+00 2.4795008294e+00 4.2946214139e+00 
261100 4.7911693592e+00 7.0612487107e-05 2.4795008294e+00 -4.2946214139e+00 2.4795008294e+00 4.2946214139e+00 
261200 4.7911693591e+00 7.0612418976e-05 2.4795008294e+00 -4.2946214139e+00 2.4795008294e+00 4.2946214139e+00 
261300 4.7911693590e+00 7.0612351613e-05 2.4795008294e+00 -4.2946214139e+00 2.4795008294e+00 4.2946214139e+00 
261400 4.7911693590e+00 7.0612285014e-05 2.4795008294e+00 -4.2946214139e+00 2.4795008294e+00 4.2946214139e+00 
261500 4.7911693589e+00 7.0612219173e-05 2.4795008294e+00 -4.2946214139e+00 2.4795008294e+00 4.2946214139e+00 
261600 4.7911693589e+00 7.0612154086e-05 2.4795008294e+00 -4.2946214139e+00 2.4795008294e+00 4.2946214139e+00 
261700 4.7911693588e+00 7.0612089746e-05 2.4795008294e+00 -4.2946214139e+00 2.4795008294e+00 4.2946214139e+00 
261800 4.7911693588e+00 7.0612026150e-05 2.4795008294e+00 -4.2946214139e+00 2.4795008294e+00 4.2946214139e+00 
261900 4.7911693587e+00 7.0611963292e-05 2.4795008294e+00 -4.2946214139e+00 2.4795008294e+00 4.2946214139e+00 
262000 4.7911693587e+00 7.0611901166e-05 2.4795008294e+00 -4.2946214139e+00 2.4795008294e+00 4.2946214139e+00 
262100 4.7911693586e+00 7.0611839767e-05 2.4795008294e+00 -4.2946214139e+00 2.4795008294e+00 4.2946214139e+00 
262200 4.7911693586e+00 7.0611779090e-05 2.4795008294e+00 -4.2946214139e+00 2.4795008294e+00 4.2946214139e+00 
262300 4.7911693585e+00 7.0611719130e-05 2.4795008294e+00 -4.2946214139e+00 2.4795008294e+00 4.2946214139e+00 
262400 4.7911693585e+00 7.0611659881e-05 2.4795008294e+00 -4.2946214139e+00 2.4795008294e+00 4.2946214139e+00 
262500 4.7911693584e+00 7.0611601338e-05 2.4795008294e+00 -4.2946214139e+00 2.4795008294e+00 4.2946214139e+00 
262600 4.7911693584e+00 7.0611543496e-05 2.4795008294e+00 -4.2946214139e+00 2.4795008294e+00 4.2946214139e+00 
262700 4.7911693583e+00 7.0611486349e-05 2.4795008294e+00 -4.2946214139e+00 2.4795008294e+00 4.2946214139e+00 
262800 4.7911693583e+00 7.0611429892e-05 2.4795008294e+00 -4.2946214139e+00 2.4795008294e+00 4.2946214139e+00 
262900 4.7911693582e+00 7.0611374120e-05 2.4795008294e+00 -4.2946214139e+00 2.4795008294e+00 4.2946214139e+00 
263000 4.7911693582e+00 7.0611319027e-05 2.4795008294e+00 -4.2946214139e+00 2.4795008294e+00 4.2946214139e+00 
263100 4.7911693581e+00 7.0611264608e-05 2.4795008294e+00 -4.2946214139e+00 2.4795008294e+00 4.2946214139e+00 
263200 4.7911693581e+00 7.0611210857e-05 2.4795008294e+00 -4.2946214139e+00 2.4795008294e+00 4.2946214139e+00 
263300 4.7911693581e+00 7.0611157769e-05 2.4795008294e+00 -4.2946214139e+00 2.4795008294e+00 4.2946214139e+00 
263400 4.7911693580e+00 7.0611105338e-05 2.4795008294e+00 -4.2946214139e+00 2.4795008294e+00 4.2946214139e+00 
263500 4.7911693580e+00 7.0611053560e-05 2.4795008294e+00 -4.2946214139e+00 2.4795008294e+00 4.2946214139e+00 
263600 4.7911693579e+00 7.0611002429e-05 2.4795008294e+00 -4.2946214139e+00 2.4795008294e+00 4.2946214139e+00 
263700 4.7911693579e+00 7.0610951939e-05 2.4795008294e+00 -4.2946214139e+00 2.4795008294e+00 4.2946214139e+00 
263800 4.7911693579e+00 7.0610902085e-05 2.4795008294e+00 -4.2946214139e+00 2.4795008294e+00 4.2946214139e+00 
263900 4.7911693578e+00 7.0610852862e-05 2.4795008294e+00 -4.2946214139e+00 2.4795008294e+00 4.2946214139e+00 
264000 4.7911693578e+00 7.0610804265e-05 2.4795008294e+00 -4.2946214139e+00 2.4795008294e+00 4.2946214139e+00 
264100 4.7911693578e+00 7.0610772530e-05 2.4795008294e+00 -4.2946214139e+00 2.4795008294e+00 4.2946214139e+00 
264100 4.7911693578e+00 7.0610772530e-05 2.4795008294e+00 -4.2946214139e+00 2.4795008294e+00 4.2946214139e+00 
