# step Hamiltonian StressXX CellTensor1 CellTensor2 CellTensor3 CellTensor4 
0 5.0657067213e+00 -3.0475649428e-03 1.6570215472e+00 -2.8700455089e+00 1.6570215472e+00 2.8700455089e+00 
100 5.0471842213e+00 -4.9891179517e-03 1.6570215472e+00 -2.8700455089e+00 1.6570215472e+00 2.8700455089e+00 
200 5.0296623229e+00 -6.4422115339e-03 1.6571720942e+00 -2.8703062640e+00 1.6571720942e+00 2.8703062640e+00 
300 5.0130979002e+00 -7.5315979835e-03 1.6573664716e+00 -2.8706429356e+00 1.6573664716e+00 2.8706429356e+00 
400 4.9974489203e+00 -8.2816117055e-03 1.6575936927e+00 -2.8710364940e+00 1.6575936927e+00 2.8710364940e+00 
500 4.9826746421e+00 -8.7157073174e-03 1.6578435072e+00 -2.8714691854e+00 1.6578435072e+00 2.8714691854e+00 
600 4.9687354925e+00 -8.8565076513e-03 1.6581063769e+00 -2.8719244892e+00 1.6581063769e+00 2.8719244892e+00 
700 4.9555929714e+00 -8.7258450179e-03 1.6583734510e+00 -2.8723870751e+00 1.6583734510e+00 2.8723870751e+00 
800 4.9432095823e+00 -8.3447963540e-03 1.6586365424e+00 -2.8728427627e+00 1.6586365424e+00 2.8728427627e+00 
900 4.9315487843e+00 -7.7337128301e-03 1.6588881047e+00 -2.8732784814e+00 1.6588881047e+00 2.8732784814e+00 
1000 4.9205749625e+00 -6.9122444536e-03 1.6591212094e+00 -2.8736822306e+00 1.6591212094e+00 2.8736822306e+00 
1100 4.9102534137e+00 -5.8993601593e-03 1.6593295242e+00 -2.8740430424e+00 1.6593295242e+00 2.8740430424e+00 
1200 4.9005503441e+00 -4.7133638388e-03 1.6595072907e+00 -2.8743509431e+00 1.6595072907e+00 2.8743509431e+00 
1300 4.8914328772e+00 -3.3719067306e-03 1.6596493037e+00 -2.8745969168e+00 1.6596493037e+00 2.8745969168e+00 
1400 4.8828690692e+00 -1.8919965591e-03 1.6597508897e+00 -2.8747728688e+00 1.6597508897e+00 2.8747728688e+00 
1500 4.8748279296e+00 -2.9000379627e-04 1.6598078864e+00 -2.8748715900e+00 1.6598078864e+00 2.8748715900e+00 
1600 4.8672794452e+00 1.4183346013e-03 1.6598166225e+00 -2.8748867213e+00 1.6598166225e+00 2.8748867213e+00 
1700 4.8601946062e+00 3.2179136295e-03 1.6597738970e+00 -2.8748127187e+00 1.6597738970e+00 2.8748127187e+00 
1800 4.8535454323e+00 5.0942605039e-03 1.6596769596e+00 -2.8746448182e+00 1.6596769596e+00 2.8746448182e+00 
1900 4.8473049977e+00 7.0335364111e-03 1.6595234905e+00 -2.8743790020e+00 1.6595234905e+00 2.8743790020e+00 
2000 4.8414474547e+00 9.0225393915e-03 1.6593115807e+00 -2.8740119634e+00 1.6593115807e+00 2.8740119634e+00 
2100 4.8359480525e+00 1.1048707998e-02 1.6590397122e+00 -2.8735410732e+00 1.6590397122e+00 2.8735410732e+00 
2200 4.8307831545e+00 1.3100125369e-02 1.6587067383e+00 -2.8729643455e+00 1.6587067383e+00 2.8729643455e+00 
2300 4.8259302487e+00 1.5165523348e-02 1.6583118642e+00 -2.8722804036e+00 1.6583118642e+00 2.8722804036e+00 
2400 4.8213679549e+00 1.7234286288e-02 1.6578546273e+00 -2.8714884461e+00 1.6578546273e+00 2.8714884461e+00 
2500 4.8170760256e+00 1.9296454183e-02 1.6573348777e+00 -2.8705882134e+00 1.6573348777e+00 2.8705882134e+00 
2600 4.8130353421e+00 2.1342724776e-02 1.6567527587e+00 -2.8695799536e+00 1.6567527587e+00 2.8695799536e+00 
2700 4.8092279043e+00 2.3364454318e-02 1.6561086873e+00 -2.8684643893e+00 1.6561086873e+00 2.8684643893e+00 
2800 4.8056368158e+00 2.5353656674e-02 1.6554033352e+00 -2.8672426836e+00 1.6554033352e+00 2.8672426836e+00 
2900 4.8022462634e+00 2.7303000518e-02 1.6546376094e+00 -2.8659164076e+00 1.6546376094e+00 2.8659164076e+00 
3000 4.7990414915e+00 2.9205804374e-02 1.6538126333e+00 -2.8644875070e+00 1.6538126333e+00 2.8644875070e+00 
3100 4.7960087721e+00 3.1056029340e-02 1.6529297278e+00 -2.8629582699e+00 1.6529297278e+00 2.8629582699e+00 
3200 4.7931353702e+00 3.2848269355e-02 1.6519903931e+00 -2.8613312944e+00 1.6519903931e+00 2.8613312944e+00 
3300 4.7904095060e+00 3.4577738950e-02 1.6509962901e+00 -2.8596094575e+00 1.6509962901e+00 2.8596094575e+00 
3400 4.7878203136e+00 3.6240258446e-02 1.6499492229e+00 -2.8577958839e+00 1.6499492229e+00 2.8577958839e+00 
3500 4.7853577969e+00 3.7832236674e-02 1.6488511213e+00 -2.8558939162e+00 1.6488511213e+00 2.8558939162e+00 
3600 4.7830127840e+00 3.9350651276e-02 1.6477040242e+00 -2.8539070858e+00 1.6477040242e+00 2.8539070858e+00 
3700 4.7807768795e+00 4.0793026771e-02 1.6465100630e+00 -2.8518390843e+00 1.6465100630e+00 2.8518390843e+00 
3800 4.7786424162e+00 4.2157410546e-02 1.6452714460e+00 -2.8496937367e+00 1.6452714460e+00 2.8496937367e+00 
3900 4.7766024065e+00 4.3442347038e-02 1.6439904435e+00 -2.8474749753e+00 1.6439904435e+00 2.8474749753e+00 
4000 4.7746504939e+00 4.4646850345e-02 1.6426693737e+00 -2.8451868153e+00 1.6426693737e+00 2.8451868153e+00 
4100 4.7727809050e+00 4.5770375568e-02 1.6413105887e+00 -2.8428333307e+00 1.6413105887e+00 2.8428333307e+00 
4200 4.7709884027e+00 4.6812789182e-02 1.6399164623e+00 -2.8404186329e+00 1.6399164623e+00 2.8404186329e+00 
4300 4.7692682408e+00 4.7774338748e-02 1.6384893776e+00 -2.8379468497e+00 1.6384893776e+00 2.8379468497e+00 
4400 4.7676161201e+00 4.8655622265e-02 1.6370317164e+00 -2.8354221065e+00 1.6370317164e+00 2.8354221065e+00 
4500 4.7660281472e+00 4.9457557477e-02 1.6355458486e+00 -2.8328485079e+00 1.6355458486e+00 2.8328485079e+00 
4600 4.7645007947e+00 5.0181351392e-02 1.6340341230e+00 -2.8302301224e+00 1.6340341230e+00 2.8302301224e+00 
4700 4.7630308642e+00 5.0828470300e-02 1.6324988588e+00 -2.8275709667e+00 1.6324988588e+00 2.8275709667e+00 
4800 4.7616154520e+00 5.1400610512e-02 1.6309423375e+00 -2.8248749927e+00 1.6309423375e+00 2.8248749927e+00 
4900 4.7602519168e+00 5.1899670030e-02 1.6293667966e+00 -2.8221460759e+00 1.6293667966e+00 2.8221460759e+00 
5000 4.7589378502e+00 5.2327721337e-02 1.6277744232e+00 -2.8193880043e+00 1.6277744232e+00 2.8193880043e+00 
5100 4.7576710502e+00 5.2686985439e-02 1.6261673486e+00 -2.8166044693e+00 1.6261673486e+00 2.8166044693e+00 
5200 4.7564494962e+00 5.2979807293e-02 1.6245476435e+00 -2.8137990579e+00 1.6245476435e+00 2.8137990579e+00 
5300 4.7552713272e+00 5.3208632696e-02 1.6229173147e+00 -2.8109752456e+00 1.6229173147e+00 2.8109752456e+00 
5400 4.7541348222e+00 5.3375986709e-02 1.6212783013e+00 -2.8081363910e+00 1.6212783013e+00 2.8081363910e+00 
5500 4.7530383821e+00 5.3484453642e-02 1.6196324720e+00 -2.8052857312e+00 1.6196324720e+00 2.8052857312e+00 
5600 4.7519805146e+00 5.3536658605e-02 1.6179816235e+00 -2.8024263777e+00 1.6179816235e+00 2.8024263777e+00 
5700 4.7509598203e+00 5.3535250640e-02 1.6163274785e+00 -2.7995613144e+00 1.6163274785e+00 2.7995613144e+00 
5800 4.7499749803e+00 5.3482887381e-02 1.6146716847e+00 -2.7966933955e+00 1.6146716847e+00 2.7966933955e+00 
5900 4.7490247467e+00 5.3382221216e-02 1.6130158145e+00 -2.7938253441e+00 1.6130158145e+00 2.7938253441e+00 
6000 4.7481079328e+00 5.3235886895e-02 1.6113613644e+00 -2.7909597524e+00 1.6113613644e+00 2.7909597524e+00 
6100 4.7472234057e+00 5.3046490514e-02 1.6097097553e+00 -2.7880990816e+00 1.6097097553e+00 2.7880990816e+00 
6200 4.7463700801e+00 5.2816599821e-02 1.6080623331e+00 -2.7852456626e+00 1.6080623331e+00 2.7852456626e+00 
6300 4.7455469124e+00 5.2548735745e-02 1.6064203693e+00 -2.7824016980e+00 1.6064203693e+00 2.7824016980e+00 
6400 4.7447528964e+00 5.2245365090e-02 1.6047850623e+00 -2.7795692632e+00 1.6047850623e+00 2.7795692632e+00 
6500 4.7439870590e+00 5.1908894301e-02 1.6031575383e+00 -2.7767503090e+00 1.6031575383e+00 2.7767503090e+00 
6600 4.7432484579e+00 5.1541664232e-02 1.6015388531e+00 -2.7739466639e+00 1.6015388531e+00 2.7739466639e+00 
6700 4.7425361783e+00 5.1145945822e-02 1.5999299935e+00 -2.7711600372e+00 1.5999299935e+00 2.7711600372e+00 
6800 4.7418493315e+00 5.0723936615e-02 1.5983318791e+00 -2.7683920220e+00 1.5983318791e+00 2.7683920220e+00 
6900 4.7411870526e+00 5.0277758040e-02 1.5967453646e+00 -2.7656440982e+00 1.5967453646e+00 2.7656440982e+00 
7000 4.7405484999e+00 4.9809453382e-02 1.5951712411e+00 -2.7629176364e+00 1.5951712411e+00 2.7629176364e+00 
7100 4.7399328535e+00 4.9320986376e-02 1.5936102388e+00 -2.7602139010e+00 1.5936102388e+00 2.7602139010e+00 
7200 4.7393393148e+00 4.8814240361e-02 1.5920630287e+00 -2.7575340546e+00 1.5920630287e+00 2.7575340546e+00 
7300 4.7387671059e+00 4.8291017919e-02 1.5905302251e+00 -2.7548791609e+00 1.5905302251e+00 2.7548791609e+00 
7400 4.7382154691e+00 4.7753040972e-02 1.5890123876e+00 -2.7522501892e+00 1.5890123876e+00 2.7522501892e+00 
7500 4.7376836668e+00 4.7201951249e-02 1.5875100234e+00 -2.7496480180e+00 1.5875100234e+00 2.7496480180e+00 
7600 4.7371709810e+00 4.6639311099e-02 1.5860235894e+00 -2.7470734388e+00 1.5860235894e+00 2.7470734388e+00 
7700 4.7366767135e+00 4.6066604601e-02 1.5845534946e+00 -2.7445271600e+00 1.5845534946e+00 2.7445271600e+00 
7800 4.7362001857e+00 4.5485238919e-02 1.5831001024e+00 -2.7420098108e+00 1.5831001024e+00 2.7420098108e+00 
7900 4.7357407384e+00 4.4896545880e-02 1.5816637323e+00 -2.7395219448e+00 1.5816637323e+00 2.7395219448e+00 
8000 4.7352977317e+00 4.4301783723e-02 1.5802446625e+00 -2.7370640438e+00 1.5802446625e+00 2.7370640438e+00 
8100 4.7348705451e+00 4.3702139014e-02 1.5788431318e+00 -2.7346365214e+00 1.5788431318e+00 2.7346365214e+00 
8200 4.7344585773e+00 4.3098728667e-02 1.5774593417e+00 -2.7322397267e+00 1.5774593417e+00 2.7322397267e+00 
8300 4.7340612460e+00 4.2492602074e-02 1.5760934586e+00 -2.7298739477e+00 1.5760934586e+00 2.7298739477e+00 
8400 4.7336779880e+00 4.1884743306e-02 1.5747456153e+00 -2.7275394147e+00 1.5747456153e+00 2.7275394147e+00 
8500 4.7333082588e+00 4.1276073373e-02 1.5734159134e+00 -2.7252363035e+00 1.5734159134e+00 2.7252363035e+00 
8600 4.7329515323e+00 4.0667452513e-02 1.5721044251e+00 -2.7229647390e+00 1.5721044251e+00 2.7229647390e+00 
8700 4.7326073010e+00 4.0059682515e-02 1.5708111944e+00 -2.7207247979e+00 1.5708111944e+00 2.7207247979e+00 
8800 4.7322750754e+00 3.9453509041e-02 1.5695362399e+00 -2.7185165118e+00 1.5695362399e+00 2.7185165118e+00 
8900 4.7319543838e+00 3.8849623946e-02 1.5682795553e+00 -2.7163398703e+00 1.5682795553e+00 2.7163398703e+00 
9000 4.7316447719e+00 3.8248667587e-02 1.5670411120e+00 -2.7141948236e+00 1.5670411120e+00 2.7141948236e+00 
9100 4.7313458027e+00 3.7651231099e-02 1.5658208601e+00 -2.7120812852e+00 1.5658208601e+00 2.7120812852e+00 
9200 4.7310570558e+00 3.7057858654e-02 1.5646187299e+00 -2.7099991347e+00 1.5646187299e+00 2.7099991347e+00 
9300 4.7307781274e+00 3.6469049663e-02 1.5634346338e+00 -2.7079482200e+00 1.5634346338e+00 2.7079482200e+00 
9400 4.7305086295e+00 3.5885260949e-02 1.5622684670e+00 -2.7059283598e+00 1.5622684670e+00 2.7059283598e+00 
9500 4.7302481897e+00 3.5306908866e-02 1.5611201092e+00 -2.7039393459e+00 1.5611201092e+00 2.7039393459e+00 
9600 4.7299964509e+00 3.4734371355e-02 1.5599894261e+00 -2.7019809453e+00 1.5599894261e+00 2.7019809453e+00 
9700 4.7297530704e+00 3.4167989963e-02 1.5588762700e+00 -2.7000529023e+00 1.5588762700e+00 2.7000529023e+00 
9800 4.7295177201e+00 3.3608071784e-02 1.5577804811e+00 -2.6981549404e+00 1.5577804811e+00 2.6981549404e+00 
9900 4.7292900853e+00 3.3054891352e-02 1.5567018892e+00 -2.6962867643e+00 1.5567018892e+00 2.6962867643e+00 
10000 4.7290698650e+00 3.2508692465e-02 1.5556403137e+00 -2.6944480616e+00 1.5556403137e+00 2.6944480616e+00 
10100 4.7288567706e+00 3.1969689948e-02 1.5545955654e+00 -2.6926385045e+00 1.5545955654e+00 2.6926385045e+00 
10200 4.7286505263e+00 3.1438071352e-02 1.5535674471e+00 -2.6908577513e+00 1.5535674471e+00 2.6908577513e+00 
10300 4.7284508679e+00 3.0913998591e-02 1.5525557544e+00 -2.6891054482e+00 1.5525557544e+00 2.6891054482e+00 
10400 4.7282575430e+00 3.0397609509e-02 1.5515602767e+00 -2.6873812302e+00 1.5515602767e+00 2.6873812302e+00 
10500 4.7280703098e+00 2.9889019392e-02 1.5505807979e+00 -2.6856847231e+00 1.5505807979e+00 2.6856847231e+00 
10600 4.7278889375e+00 2.9388322411e-02 1.5496170970e+00 -2.6840155443e+00 1.5496170970e+00 2.6840155443e+00 
10700 4.7277132051e+00 2.8895593006e-02 1.5486689491e+00 -2.6823733040e+00 1.5486689491e+00 2.6823733040e+00 
10800 4.7275429014e+00 2.8410887207e-02 1.5477361258e+00 -2.6807576066e+00 1.5477361258e+00 2.6807576066e+00 
10900 4.7273778245e+00 2.7934243900e-02 1.5468183958e+00 -2.6791680516e+00 1.5468183958e+00 2.6791680516e+00 
11000 4.7272177814e+00 2.7465686028e-02 1.5459155256e+00 -2.6776042345e+00 1.5459155256e+00 2.6776042345e+00 
11100 4.7270625875e+00 2.7005221740e-02 1.5450272800e+00 -2.6760657480e+00 1.5450272800e+00 2.6760657480e+00 
11200 4.7269120665e+00 2.6552845484e-02 1.5441534224e+00 -2.6745521824e+00 1.5441534224e+00 2.6745521824e+00 
11300 4.7267660494e+00 2.6108539046e-02 1.5432937158e+00 -2.6730631267e+00 1.5432937158e+00 2.6730631267e+00 
11400 4.7266243750e+00 2.5672272532e-02 1.5424479224e+00 -2.6715981696e+00 1.5424479224e+00 2.6715981696e+00 
11500 4.7264868890e+00 2.5244005309e-02 1.5416158047e+00 -2.6701568995e+00 1.5416158047e+00 2.6701568995e+00 
11600 4.7263534435e+00 2.4823686887e-02 1.5407971257e+00 -2.6687389059e+00 1.5407971257e+00 2.6687389059e+00 
11700 4.7262238973e+00 2.4411257763e-02 1.5399916491e+00 -2.6673437794e+00 1.5399916491e+00 2.6673437794e+00 
11800 4.7260981152e+00 2.4006650209e-02 1.5391991395e+00 -2.6659711125e+00 1.5391991395e+00 2.6659711125e+00 
11900 4.7259759676e+00 2.3609789029e-02 1.5384193631e+00 -2.6646205003e+00 1.5384193631e+00 2.6646205003e+00 
12000 4.7258573305e+00 2.3220592260e-02 1.5376520878e+00 -2.6632915404e+00 1.5376520878e+00 2.6632915404e+00 
12100 4.7257420851e+00 2.2838971846e-02 1.5368970831e+00 -2.6619838339e+00 1.5368970831e+00 2.6619838339e+00 
12200 4.7256301176e+00 2.2464834260e-02 1.5361541208e+00 -2.6606969855e+00 1.5361541208e+00 2.6606969855e+00 
12300 4.7255213189e+00 2.2098081100e-02 1.5354229751e+00 -2.6594306039e+00 1.5354229751e+00 2.6594306039e+00 
12400 4.7254155842e+00 2.1738609642e-02 1.5347034224e+00 -2.6581843021e+00 1.5347034224e+00 2.6581843021e+00 
12500 4.7253128132e+00 2.1386313363e-02 1.5339952420e+00 -2.6569576977e+00 1.5339952420e+00 2.6569576977e+00 
12600 4.7252129096e+00 2.1041082428e-02 1.5332982160e+00 -2.6557504132e+00 1.5332982160e+00 2.6557504132e+00 
12700 4.7251157808e+00 2.0702804148e-02 1.5326121292e+00 -2.6545620760e+00 1.5326121292e+00 2.6545620760e+00 
12800 4.7250213379e+00 2.0371363411e-02 1.5319367697e+00 -2.6533923191e+00 1.5319367697e+00 2.6533923191e+00 
12900 4.7249294957e+00 2.0046643074e-02 1.5312719286e+00 -2.6522407806e+00 1.5312719286e+00 2.6522407806e+00 
13000 4.7248401721e+00 1.9728524345e-02 1.5306174004e+00 -2.6511071044e+00 1.5306174004e+00 2.6511071044e+00 
13100 4.7247532881e+00 1.9416887123e-02 1.5299729827e+00 -2.6499909402e+00 1.5299729827e+00 2.6499909402e+00 
13200 4.7246687679e+00 1.9111610323e-02 1.5293384766e+00 -2.6488919434e+00 1.5293384766e+00 2.6488919434e+00 
13300 4.7245865384e+00 1.8812572174e-02 1.5287136865e+00 -2.6478097753e+00 1.5287136865e+00 2.6478097753e+00 
13400 4.7245065293e+00 1.8519650498e-02 1.5280984206e+00 -2.6467441034e+00 1.5280984206e+00 2.6467441034e+00 
13500 4.7244286728e+00 1.8232722967e-02 1.5274924902e+00 -2.6456946012e+00 1.5274924902e+00 2.6456946012e+00 
13600 4.7243529037e+00 1.7951667337e-02 1.5268957103e+00 -2.6446609481e+00 1.5268957103e+00 2.6446609481e+00 
13700 4.7242791590e+00 1.7676361666e-02 1.5263078995e+00 -2.6436428300e+00 1.5263078995e+00 2.6436428300e+00 
13800 4.7242073782e+00 1.7406684518e-02 1.5257288800e+00 -2.6426399387e+00 1.5257288800e+00 2.6426399387e+00 
13900 4.7241375025e+00 1.7142515144e-02 1.5251584772e+00 -2.6416519721e+00 1.5251584772e+00 2.6416519721e+00 
14000 4.7240694756e+00 1.6883733647e-02 1.5245965204e+00 -2.6406786344e+00 1.5245965204e+00 2.6406786344e+00 
14100 4.7240032429e+00 1.6630221140e-02 1.5240428424e+00 -2.6397196360e+00 1.5240428424e+00 2.6397196360e+00 
14200 4.7239387518e+00 1.6381859883e-02 1.5234972794e+00 -2.6387746931e+00 1.5234972794e+00 2.6387746931e+00 
14300 4.7238759514e+00 1.6138533407e-02 1.5229596711e+00 -2.6378435282e+00 1.5229596711e+00 2.6378435282e+00 
14400 4.7238147926e+00 1.5900126628e-02 1.5224298607e+00 -2.6369258697e+00 1.5224298607e+00 2.6369258697e+00 
14500 4.7237552278e+00 1.5666525950e-02 1.5219076949e+00 -2.6360214519e+00 1.5219076949e+00 2.6360214519e+00 
14600 4.7236972110e+00 1.5437619354e-02 1.5213930236e+00 -2.6351300152e+00 1.5213930236e+00 2.6351300152e+00 
14700 4.7236406979e+00 1.5213296477e-02 1.5208857004e+00 -2.6342513055e+00 1.5208857004e+00 2.6342513055e+00 
14800 4.7235856455e+00 1.4993448685e-02 1.5203855818e+00 -2.6333850748e+00 1.5203855818e+00 2.6333850748e+00 
14900 4.7235320121e+00 1.4777969135e-02 1.5198925280e+00 -2.6325310806e+00 1.5198925280e+00 2.6325310806e+00 
15000 4.7234797575e+00 1.4566752824e-02 1.5194064022e+00 -2.6316890859e+00 1.5194064022e+00 2.6316890859e+00 
15100 4.7234288427e+00 1.4359696639e-02 1.5189270707e+00 -2.6308588594e+00 1.5189270707e+00 2.6308588594e+00 
15200 4.7233792300e+00 1.4156699393e-02 1.5184544031e+00 -2.6300401752e+00 1.5184544031e+00 2.6300401752e+00 
15300 4.7233308826e+00 1.3957661854e-02 1.5179882721e+00 -2.6292328125e+00 1.5179882721e+00 2.6292328125e+00 
15400 4.7232837653e+00 1.3762486773e-02 1.5175285532e+00 -2.6284365561e+00 1.5175285532e+00 2.6284365561e+00 
15500 4.7232378437e+00 1.3571078902e-02 1.5170751251e+00 -2.6276511956e+00 1.5170751251e+00 2.6276511956e+00 
15600 4.7231930846e+00 1.3383345005e-02 1.5166278693e+00 -2.6268765259e+00 1.5166278693e+00 2.6268765259e+00 
15700 4.7231494555e+00 1.3199193870e-02 1.5161866703e+00 -2.6261123467e+00 1.5161866703e+00 2.6261123467e+00 
15800 4.7231069254e+00 1.3018536309e-02 1.5157514151e+00 -2.6253584626e+00 1.5157514151e+00 2.6253584626e+00 
15900 4.7230654638e+00 1.2841285160e-02 1.5153219937e+00 -2.6246146829e+00 1.5153219937e+00 2.6246146829e+00 
16000 4.7230250414e+00 1.2667355282e-02 1.5148982987e+00 -2.6238808217e+00 1.5148982987e+00 2.6238808217e+00 
16100 4.7229856296e+00 1.2496663546e-02 1.5144802254e+00 -2.6231566974e+00 1.5144802254e+00 2.6231566974e+00 
16200 4.7229472008e+00 1.2329128821e-02 1.5140676714e+00 -2.6224421330e+00 1.5140676714e+00 2.6224421330e+00 
16300 4.7229097282e+00 1.2164671966e-02 1.5136605372e+00 -2.6217369558e+00 1.5136605372e+00 2.6217369558e+00 
16400 4.7228731856e+00 1.2003215805e-02 1.5132587254e+00 -2.6210409973e+00 1.5132587254e+00 2.6210409973e+00 
16500 4.7228375478e+00 1.1844685113e-02 1.5128621411e+00 -2.6203540933e+00 1.5128621411e+00 2.6203540933e+00 
16600 4.7228027903e+00 1.1689006590e-02 1.5124706919e+00 -2.6196760833e+00 1.5124706919e+00 2.6196760833e+00 
16700 4.7227688893e+00 1.1536108840e-02 1.5120842874e+00 -2.6190068111e+00 1.5120842874e+00 2.6190068111e+00 
16800 4.7227358217e+00 1.1385922342e-02 1.5117028396e+00 -2.6183461242e+00 1.5117028396e+00 2.6183461242e+00 
16900 4.7227035650e+00 1.1238379423e-02 1.5113262627e+00 -2.6176938738e+00 1.5113262627e+00 2.6176938738e+00 
17000 4.7226720975e+00 1.1093414231e-02 1.5109544727e+00 -2.6170499147e+00 1.5109544727e+00 2.6170499147e+00 
17100 4.7226413981e+00 1.0950962704e-02 1.5105873880e+00 -2.6164141054e+00 1.5105873880e+00 2.6164141054e+00 
17200 4.7226114462e+00 1.0810962536e-02 1.5102249289e+00 -2.6157863077e+00 1.5102249289e+00 2.6157863077e+00 
17300 4.7225822219e+00 1.0673353149e-02 1.5098670174e+00 -2.6151663869e+00 1.5098670174e+00 2.6151663869e+00 
17400 4.7225537058e+00 1.0538075654e-02 1.5095135778e+00 -2.6145542115e+00 1.5095135778e+00 2.6145542115e+00 
17500 4.7225258792e+00 1.0405072825e-02 1.5091645359e+00 -2.6139496532e+00 1.5091645359e+00 2.6139496532e+00 
17600 4.7224987238e+00 1.0274289056e-02 1.5088198195e+00 -2.6133525868e+00 1.5088198195e+00 2.6133525868e+00 
17700 4.7224722219e+00 1.0145670334e-02 1.5084793579e+00 -2.6127628901e+00 1.5084793579e+00 2.6127628901e+00 
17800 4.7224463563e+00 1.0019164199e-02 1.5081430824e+00 -2.6121804439e+00 1.5081430824e+00 2.6121804439e+00 
17900 4.7224211102e+00 9.8947197106e-03 1.5078109257e+00 -2.6116051316e+00 1.5078109257e+00 2.6116051316e+00 
18000 4.7223964673e+00 9.7722874115e-03 1.5074828222e+00 -2.6110368397e+00 1.5074828222e+00 2.6110368397e+00 
18100 4.7223724120e+00 9.6518192931e-03 1.5071587079e+00 -2.6104754571e+00 1.5071587079e+00 2.6104754571e+00 
18200 4.7223489289e+00 9.5332687597e-03 1.5068385200e+00 -2.6099208755e+00 1.5068385200e+00 2.6099208755e+00 
18300 4.7223260031e+00 9.4165905928e-03 1.5065221977e+00 -2.6093729891e+00 1.5065221977e+00 2.6093729891e+00 
18400 4.7223036200e+00 9.3017409162e-03 1.5062096810e+00 -2.6088316944e+00 1.5062096810e+00 2.6088316944e+00 
18500 4.7222817657e+00 9.1886771609e-03 1.5059009118e+00 -2.6082968904e+00 1.5059009118e+00 2.6082968904e+00 
18600 4.7222604265e+00 9.0773580307e-03 1.5055958331e+00 -2.6077684786e+00 1.5055958331e+00 2.6077684786e+00 
18700 4.7222395892e+00 8.9677434673e-03 1.5052943891e+00 -2.6072463623e+00 1.5052943891e+00 2.6072463623e+00 
18800 4.7222192407e+00 8.8597946168e-03 1.5049965256e+00 -2.6067304475e+00 1.5049965256e+00 2.6067304475e+00 
18900 4.7221993686e+00 8.7534737958e-03 1.5047021891e+00 -2.6062206418e+00 1.5047021891e+00 2.6062206418e+00 
19000 4.7221799606e+00 8.6487444585e-03 1.5044113279e+00 -2.6057168554e+00 1.5044113279e+00 2.6057168554e+00 
19100 4.7221610050e+00 8.5455711637e-03 1.5041238909e+00 -2.6052189999e+00 1.5041238909e+00 2.6052189999e+00 
19200 4.7221424902e+00 8.4439195431e-03 1.5038398284e+00 -2.6047269893e+00 1.5038398284e+00 2.6047269893e+00 
19300 4.7221244050e+00 8.3437562694e-03 1.5035590919e+00 -2.6042407393e+00 1.5035590919e+00 2.6042407393e+00 
19400 4.7221067385e+00 8.2450490251e-03 1.5032816336e+00 -2.6037601674e+00 1.5032816336e+00 2.6037601674e+00 
19500 4.7220894802e+00 8.1477664725e-03 1.5030074069e+00 -2.6032851929e+00 1.5030074069e+00 2.6032851929e+00 
19600 4.7220726198e+00 8.0518782231e-03 1.5027363663e+00 -2.6028157367e+00 1.5027363663e+00 2.6028157367e+00 
19700 4.7220561472e+00 7.9573548090e-03 1.5024684670e+00 -2.6023517216e+00 1.5024684670e+00 2.6023517216e+00 
19800 4.7220400528e+00 7.8641676536e-03 1.5022036654e+00 -2.6018930718e+00 1.5022036654e+00 2.6018930718e+00 
19900 4.7220243270e+00 7.7722890441e-03 1.5019419186e+00 -2.6014397131e+00 1.5019419186e+00 2.6014397131e+00 
20000 4.7220089608e+00 7.6816921034e-03 1.5016831847e+00 -2.6009915728e+00 1.5016831847e+00 2.6009915728e+00 
20100 4.7219939451e+00 7.5923507642e-03 1.5014274226e+00 -2.6005485798e+00 1.5014274226e+00 2.6005485798e+00 
20200 4.7219792712e+00 7.5042397417e-03 1.5011745919e+00 -2.6001106643e+00 1.5011745919e+00 2.6001106643e+00 
20300 4.7219649308e+00 7.4173345090e-03 1.5009246533e+00 -2.5996777578e+00 1.5009246533e+00 2.5996777578e+00 
20400 4.7219509155e+00 7.3316112719e-03 1.5006775679e+00 -2.5992497934e+00 1.5006775679e+00 2.5992497934e+00 
20500 4.7219372173e+00 7.2470469446e-03 1.5004332978e+00 -2.5988267052e+00 1.5004332978e+00 2.5988267052e+00 
20600 4.7219238285e+00 7.1636191260e-03 1.5001918058e+00 -2.5984084288e+00 1.5001918058e+00 2.5984084288e+00 
20700 4.7219107415e+00 7.0813060770e-03 1.4999530554e+00 -2.5979949009e+00 1.4999530554e+00 2.5979949009e+00 
20800 4.7218979489e+00 7.0000866979e-03 1.4997170107e+00 -2.5975860594e+00 1.4997170107e+00 2.5975860594e+00 
20900 4.7218854435e+00 6.9199405068e-03 1.4994836365e+00 -2.5971818435e+00 1.4994836365e+00 2.5971818435e+00 
21000 4.7218732184e+00 6.8408476184e-03 1.4992528983e+00 -2.5967821932e+00 1.4992528983e+00 2.5967821932e+00 
21100 4.7218612668e+00 6.7627887236e-03 1.4990247622e+00 -2.5963870499e+00 1.4990247622e+00 2.5963870499e+00 
21200 4.7218495820e+00 6.6857450696e-03 1.4987991949e+00 -2.5959963559e+00 1.4987991949e+00 2.5959963559e+00 
21300 4.7218381575e+00 6.6096984403e-03 1.4985761637e+00 -2.5956100545e+00 1.4985761637e+00 2.5956100545e+00 
21400 4.7218269873e+00 6.5346311382e-03 1.4983556365e+00 -2.5952280902e+00 1.4983556365e+00 2.5952280902e+00 
21500 4.7218160650e+00 6.4605259655e-03 1.4981375817e+00 -2.5948504082e+00 1.4981375817e+00 2.5948504082e+00 
21600 4.7218053849e+00 6.3873662071e-03 1.4979219683e+00 -2.5944769548e+00 1.4979219683e+00 2.5944769548e+00 
21700 4.7217949411e+00 6.3151356133e-03 1.4977087658e+00 -2.5941076772e+00 1.4977087658e+00 2.5941076772e+00 
21800 4.7217847280e+00 6.2438183833e-03 1.4974979442e+00 -2.5937425235e+00 1.4974979442e+00 2.5937425235e+00 
21900 4.7217747400e+00 6.1733991494e-03 1.4972894740e+00 -2.5933814425e+00 1.4972894740e+00 2.5933814425e+00 
22000 4.7217649720e+00 6.1038629615e-03 1.4970833262e+00 -2.5930243841e+00 1.4970833262e+00 2.5930243841e+00 
22100 4.7217554186e+00 6.0351952721e-03 1.4968794723e+00 -2.5926712989e+00 1.4968794723e+00 2.5926712989e+00 
22200 4.7217460748e+00 5.9673819220e-03 1.4966778843e+00 -2.5923221382e+00 1.4966778843e+00 2.5923221382e+00 
22300 4.7217369356e+00 5.9004091263e-03 1.4964785345e+00 -2.5919768542e+00 1.4964785345e+00 2.5919768542e+00 
22400 4.7217279963e+00 5.8342634610e-03 1.4962813957e+00 -2.5916353997e+00 1.4962813957e+00 2.5916353997e+00 
22500 4.7217192522e+00 5.7689318499e-03 1.4960864412e+00 -2.5912977286e+00 1.4960864412e+00 2.5912977286e+00 
22600 4.7217106987e+00 5.7044015523e-03 1.4958936445e+00 -2.5909637951e+00 1.4958936445e+00 2.5909637951e+00 
22700 4.7217023313e+00 5.6406601504e-03 1.4957029799e+00 -2.5906335542e+00 1.4957029799e+00 2.5906335542e+00 
22800 4.7216941458e+00 5.5776955385e-03 1.4955144217e+00 -2.5903069618e+00 1.4955144217e+00 2.5903069618e+00 
22900 4.7216861379e+00 5.5154959107e-03 1.4953279447e+00 -2.5899839743e+00 1.4953279447e+00 2.5899839743e+00 
23000 4.7216783035e+00 5.4540497510e-03 1.4951435242e+00 -2.5896645486e+00 1.4951435242e+00 2.5896645486e+00 
23100 4.7216706386e+00 5.3933458223e-03 1.4949611358e+00 -2.5893486425e+00 1.4949611358e+00 2.5893486425e+00 
23200 4.7216631392e+00 5.3333731564e-03 1.4947807552e+00 -2.5890362143e+00 1.4947807552e+00 2.5890362143e+00 
23300 4.7216558016e+00 5.2741210445e-03 1.4946023589e+00 -2.5887272228e+00 1.4946023589e+00 2.5887272228e+00 
23400 4.7216486221e+00 5.2155790278e-03 1.4944259235e+00 -2.5884216276e+00 1.4944259235e+00 2.5884216276e+00 
23500 4.7216415969e+00 5.1577368885e-03 1.4942514258e+00 -2.5881193887e+00 1.4942514258e+00 2.5881193887e+00 
23600 4.7216347227e+00 5.1005846411e-03 1.4940788431e+00 -2.5878204668e+00 1.4940788431e+00 2.5878204668e+00 
23700 4.7216279959e+00 5.0441125242e-03 1.4939081531e+00 -2.5875248230e+00 1.4939081531e+00 2.5875248230e+00 
23800 4.7216214133e+00 4.9883109925e-03 1.4937393336e+00 -2.5872324190e+00 1.4937393336e+00 2.5872324190e+00 
23900 4.7216149714e+00 4.9331707092e-03 1.4935723627e+00 -2.5869432170e+00 1.4935723627e+00 2.5869432170e+00 
24000 4.7216086672e+00 4.8786825384e-03 1.4934072191e+00 -2.5866571798e+00 1.4934072191e+00 2.5866571798e+00 
24100 4.7216024974e+00 4.8248375381e-03 1.4932438814e+00 -2.5863742707e+00 1.4932438814e+00 2.5863742707e+00 
24200 4.7215964592e+00 4.7716269536e-03 1.4930823287e+00 -2.5860944532e+00 1.4930823287e+00 2.5860944532e+00 
24300 4.7215905494e+00 4.7190422108e-03 1.4929225404e+00 -2.5858176918e+00 1.4929225404e+00 2.5858176918e+00 
24400 4.7215847653e+00 4.6670749098e-03 1.4927644961e+00 -2.5855439510e+00 1.4927644961e+00 2.5855439510e+00 
24500 4.7215791039e+00 4.6157168190e-03 1.4926081756e+00 -2.5852731959e+00 1.4926081756e+00 2.5852731959e+00 
24600 4.7215735626e+00 4.5649598696e-03 1.4924535591e+00 -2.5850053923e+00 1.4924535591e+00 2.5850053923e+00 
24700 4.7215681386e+00 4.5147961495e-03 1.4923006270e+00 -2.5847405061e+00 1.4923006270e+00 2.5847405061e+00 
24800 4.7215628294e+00 4.4652178984e-03 1.4921493599e+00 -2.5844785038e+00 1.4921493599e+00 2.5844785038e+00 
24900 4.7215576323e+00 4.4162175024e-03 1.4919997387e+00 -2.5842193523e+00 1.4919997387e+00 2.5842193523e+00 
25000 4.7215525449e+00 4.3677874896e-03 1.4918517445e+00 -2.5839630189e+00 1.4918517445e+00 2.5839630189e+00 
25100 4.7215475647e+00 4.3199205248e-03 1.4917053588e+00 -2.5837094714e+00 1.4917053588e+00 2.5837094714e+00 
25200 4.7215426894e+00 4.2726094054e-03 1.4915605631e+00 -2.5834586779e+00 1.4915605631e+00 2.5834586779e+00 
25300 4.7215379167e+00 4.2258470570e-03 1.4914173393e+00 -2.5832106069e+00 1.4914173393e+00 2.5832106069e+00 
25400 4.7215332442e+00 4.1796265292e-03 1.4912756693e+00 -2.5829652273e+00 1.4912756693e+00 2.5829652273e+00 
25500 4.7215286697e+00 4.1339409919e-03 1.4911355356e+00 -2.5827225086e+00 1.4911355356e+00 2.5827225086e+00 
25600 4.7215241912e+00 4.0887837311e-03 1.4909969205e+00 -2.5824824202e+00 1.4909969205e+00 2.5824824202e+00 
25700 4.7215198064e+00 4.0441481457e-03 1.4908598068e+00 -2.5822449324e+00 1.4908598068e+00 2.5822449324e+00 
25800 4.7215155134e+00 4.0000277438e-03 1.4907241775e+00 -2.5820100155e+00 1.4907241775e+00 2.5820100155e+00 
25900 4.7215113101e+00 3.9564161395e-03 1.4905900156e+00 -2.5817776403e+00 1.4905900156e+00 2.5817776403e+00 
26000 4.7215071945e+00 3.9133070493e-03 1.4904573045e+00 -2.5815477778e+00 1.4904573045e+00 2.5815477778e+00 
26100 4.7215031648e+00 3.8706942899e-03 1.4903260277e+00 -2.5813203997e+00 1.4903260277e+00 2.5813203997e+00 
26200 4.7214992190e+00 3.8285717744e-03 1.4901961689e+00 -2.5810954778e+00 1.4901961689e+00 2.5810954778e+00 
26300 4.7214953553e+00 3.7869335101e-03 1.4900677121e+00 -2.5808729840e+00 1.4900677121e+00 2.5808729840e+00 
26400 4.7214915720e+00 3.7457735957e-03 1.4899406414e+00 -2.5806528911e+00 1.4899406414e+00 2.5806528911e+00 
26500 4.7214878673e+00 3.7050862184e-03 1.4898149410e+00 -2.5804351717e+00 1.4898149410e+00 2.5804351717e+00 
26600 4.7214842395e+00 3.6648656522e-03 1.4896905956e+00 -2.5802197991e+00 1.4896905956e+00 2.5802197991e+00 
26700 4.7214806869e+00 3.6251062547e-03 1.4895675896e+00 -2.5800067466e+00 1.4895675896e+00 2.5800067466e+00 
26800 4.7214772079e+00 3.5858024654e-03 1.4894459081e+00 -2.5797959880e+00 1.4894459081e+00 2.5797959880e+00 
26900 4.7214738010e+00 3.5469488037e-03 1.4893255360e+00 -2.5795874974e+00 1.4893255360e+00 2.5795874974e+00 
27000 4.7214704645e+00 3.5085398662e-03 1.4892064586e+00 -2.5793812492e+00 1.4892064586e+00 2.5793812492e+00 
27100 4.7214671969e+00 3.4705703254e-03 1.4890886612e+00 -2.5791772181e+00 1.4890886612e+00 2.5791772181e+00 
27200 4.7214639967e+00 3.4330349275e-03 1.4889721293e+00 -2.5789753790e+00 1.4889721293e+00 2.5789753790e+00 
27300 4.7214608626e+00 3.3959284907e-03 1.4888568488e+00 -2.5787757073e+00 1.4888568488e+00 2.5787757073e+00 
27400 4.7214577931e+00 3.3592459035e-03 1.4887428054e+00 -2.5785781783e+00 1.4887428054e+00 2.5785781783e+00 
27500 4.7214547868e+00 3.3229821230e-03 1.4886299853e+00 -2.5783827681e+00 1.4886299853e+00 2.5783827681e+00 
27600 4.7214518423e+00 3.2871321733e-03 1.4885183746e+00 -2.5781894527e+00 1.4885183746e+00 2.5781894527e+00 
27700 4.7214489584e+00 3.2516911442e-03 1.4884079597e+00 -2.5779982085e+00 1.4884079597e+00 2.5779982085e+00 
27800 4.7214461337e+00 3.2166541895e-03 1.4882987271e+00 -2.5778090123e+00 1.4882987271e+00 2.5778090123e+00 
27900 4.7214433670e+00 3.1820165257e-03 1.4881906636e+00 -2.5776218408e+00 1.4881906636e+00 2.5776218408e+00 
28000 4.7214406570e+00 3.1477734310e-03 1.4880837560e+00 -2.5774366714e+00 1.4880837560e+00 2.5774366714e+00 
28100 4.7214380026e+00 3.1139202434e-03 1.4879779913e+00 -2.5772534814e+00 1.4879779913e+00 2.5772534814e+00 
28200 4.7214354025e+00 3.0804523600e-03 1.4878733565e+00 -2.5770722488e+00 1.4878733565e+00 2.5770722488e+00 
28300 4.7214328556e+00 3.0473652357e-03 1.4877698391e+00 -2.5768929513e+00 1.4877698391e+00 2.5768929513e+00 
28400 4.7214303608e+00 3.0146543822e-03 1.4876674264e+00 -2.5767155673e+00 1.4876674264e+00 2.5767155673e+00 
28500 4.7214279170e+00 2.9823153665e-03 1.4875661061e+00 -2.5765400753e+00 1.4875661061e+00 2.5765400753e+00 
28600 4.7214255231e+00 2.9503438105e-03 1.4874658657e+00 -2.5763664540e+00 1.4874658657e+00 2.5763664540e+00 
28700 4.7214231780e+00 2.9187353894e-03 1.4873666933e+00 -2.5761946824e+00 1.4873666933e+00 2.5761946824e+00 
28800 4.7214208807e+00 2.8874858313e-03 1.4872685769e+00 -2.5760247396e+00 1.4872685769e+00 2.5760247396e+00 
28900 4.7214186302e+00 2.8565909159e-03 1.4871715045e+00 -2.5758566053e+00 1.4871715045e+00 2.5758566053e+00 
29000 4.7214164256e+00 2.8260464737e-03 1.4870754644e+00 -2.5756902591e+00 1.4870754644e+00 2.5756902591e+00 
29100 4.7214142658e+00 2.7958483855e-03 1.4869804452e+00 -2.5755256809e+00 1.4869804452e+00 2.5755256809e+00 
29200 4.7214121499e+00 2.7659925811e-03 1.4868864352e+00 -2.5753628509e+00 1.4868864352e+00 2.5753628509e+00 
29300 4.7214100770e+00 2.7364750387e-03 1.4867934233e+00 -2.5752017495e+00 1.4867934233e+00 2.5752017495e+00 
29400 4.7214080462e+00 2.7072917844e-03 1.4867013982e+00 -2.5750423573e+00 1.4867013982e+00 2.5750423573e+00 
29500 4.7214060566e+00 2.6784388911e-03 1.4866103488e+00 -2.5748846552e+00 1.4866103488e+00 2.5748846552e+00 
29600 4.7214041074e+00 2.6499124780e-03 1.4865202643e+00 -2.5747286242e+00 1.4865202643e+00 2.5747286242e+00 
29700 4.7214021977e+00 2.6217087100e-03 1.4864311338e+00 -2.5745742457e+00 1.4864311338e+00 2.5745742457e+00 
29800 4.7214003266e+00 2.5938237969e-03 1.4863429466e+00 -2.5744215010e+00 1.4863429466e+00 2.5744215010e+00 
29900 4.7213984935e+00 2.5662539928e-03 1.4862556923e+00 -2.5742703720e+00 1.4862556923e+00 2.5742703720e+00 
30000 4.7213966974e+00 2.5389955954e-03 1.4861693602e+00 -2.5741208406e+00 1.4861693602e+00 2.5741208406e+00 
30100 4.7213949376e+00 2.5120449457e-03 1.4860839403e+00 -2.5739728888e+00 1.4860839403e+00 2.5739728888e+00 
30200 4.7213932134e+00 2.4853984273e-03 1.4859994221e+00 -2.5738264991e+00 1.4859994221e+00 2.5738264991e+00 
30300 4.7213915240e+00 2.4590524657e-03 1.4859157957e+00 -2.5736816540e+00 1.4859157957e+00 2.5736816540e+00 
30400 4.7213898687e+00 2.4330035277e-03 1.4858330511e+00 -2.5735383361e+00 1.4858330511e+00 2.5735383361e+00 
30500 4.7213882468e+00 2.4072481214e-03 1.4857511785e+00 -2.5733965286e+00 1.4857511785e+00 2.5733965286e+00 
30600 4.7213866576e+00 2.3817827951e-03 1.4856701681e+00 -2.5732562144e+00 1.4856701681e+00 2.5732562144e+00 
30700 4.7213851005e+00 2.3566041370e-03 1.4855900103e+00 -2.5731173770e+00 1.4855900103e+00 2.5731173770e+00 
30800 4.7213835746e+00 2.3317087750e-03 1.4855106956e+00 -2.5729799999e+00 1.4855106956e+00 2.5729799999e+00 
30900 4.7213820795e+00 2.3070933758e-03 1.4854322145e+00 -2.5728440668e+00 1.4854322145e+00 2.5728440668e+00 
31000 4.7213806145e+00 2.2827546448e-03 1.4853545579e+00 -2.5727095616e+00 1.4853545579e+00 2.5727095616e+00 
31100 4.7213791789e+00 2.2586893253e-03 1.4852777165e+00 -2.5725764683e+00 1.4852777165e+00 2.5725764683e+00 
31200 4.7213777722e+00 2.2348941984e-03 1.4852016812e+00 -2.5724447714e+00 1.4852016812e+00 2.5724447714e+00 
31300 4.7213763938e+00 2.2113660825e-03 1.4851264431e+00 -2.5723144551e+00 1.4851264431e+00 2.5723144551e+00 
31400 4.7213750430e+00 2.1881018326e-03 1.4850519933e+00 -2.5721855043e+00 1.4850519933e+00 2.5721855043e+00 
31500 4.7213737193e+00 2.1650983402e-03 1.4849783230e+00 -2.5720579036e+00 1.4849783230e+00 2.5720579036e+00 
31600 4.7213724222e+00 2.1423525331e-03 1.4849054236e+00 -2.5719316381e+00 1.4849054236e+00 2.5719316381e+00 
31700 4.7213711510e+00 2.1198613742e-03 1.4848332865e+00 -2.5718066930e+00 1.4848332865e+00 2.5718066930e+00 
31800 4.7213699054e+00 2.0976218622e-03 1.4847619033e+00 -2.5716830536e+00 1.4847619033e+00 2.5716830536e+00 
31900 4.7213686847e+00 2.0756310301e-03 1.4846912655e+00 -2.5715607054e+00 1.4846912655e+00 2.5715607054e+00 
32000 4.7213674884e+00 2.0538859459e-03 1.4846213650e+00 -2.5714396341e+00 1.4846213650e+00 2.5714396341e+00 
32100 4.7213663161e+00 2.0323837114e-03 1.4845521935e+00 -2.5713198256e+00 1.4845521935e+00 2.5713198256e+00 
32200 4.7213651672e+00 2.0111214622e-03 1.4844837429e+00 -2.5712012657e+00 1.4844837429e+00 2.5712012657e+00 
32300 4.7213640413e+00 1.9900963675e-03 1.4844160054e+00 -2.5710839408e+00 1.4844160054e+00 2.5710839408e+00 
32400 4.7213629379e+00 1.9693056294e-03 1.4843489729e+00 -2.5709678372e+00 1.4843489729e+00 2.5709678372e+00 
32500 4.7213618566e+00 1.9487464827e-03 1.4842826377e+00 -2.5708529413e+00 1.4842826377e+00 2.5708529413e+00 
32600 4.7213607968e+00 1.9284161947e-03 1.4842169921e+00 -2.5707392398e+00 1.4842169921e+00 2.5707392398e+00 
32700 4.7213597582e+00 1.9083120647e-03 1.4841520285e+00 -2.5706267195e+00 1.4841520285e+00 2.5706267195e+00 
32800 4.7213587403e+00 1.8884314235e-03 1.4840877393e+00 -2.5705153674e+00 1.4840877393e+00 2.5705153674e+00 
32900 4.7213577427e+00 1.8687716337e-03 1.4840241171e+00 -2.5704051706e+00 1.4840241171e+00 2.5704051706e+00 
33000 4.7213567650e+00 1.8493300886e-03 1.4839611546e+00 -2.5702961162e+00 1.4839611546e+00 2.5702961162e+00 
33100 4.7213558068e+00 1.8301042125e-03 1.4838988445e+00 -2.5701881919e+00 1.4838988445e+00 2.5701881919e+00 
33200 4.7213548677e+00 1.8110914598e-03 1.4838371795e+00 -2.5700813850e+00 1.4838371795e+00 2.5700813850e+00 
33300 4.7213539473e+00 1.7922893154e-03 1.4837761526e+00 -2.5699756834e+00 1.4837761526e+00 2.5699756834e+00 
33400 4.7213530452e+00 1.7736952938e-03 1.4837157568e+00 -2.5698710748e+00 1.4837157568e+00 2.5698710748e+00 
33500 4.7213521611e+00 1.7553069388e-03 1.4836559851e+00 -2.5697675472e+00 1.4836559851e+00 2.5697675472e+00 
33600 4.7213512945e+00 1.7371218238e-03 1.4835968307e+00 -2.5696650888e+00 1.4835968307e+00 2.5696650888e+00 
33700 4.7213504452e+00 1.7191375508e-03 1.4835382869e+00 -2.5695636878e+00 1.4835382869e+00 2.5695636878e+00 
33800 4.7213496127e+00 1.7013517505e-03 1.4834803468e+00 -2.5694633327e+00 1.4834803468e+00 2.5694633327e+00 
33900 4.7213487968e+00 1.6837620817e-03 1.4834230039e+00 -2.5693640119e+00 1.4834230039e+00 2.5693640119e+00 
34000 4.7213479971e+00 1.6663662315e-03 1.4833662517e+00 -2.5692657141e+00 1.4833662517e+00 2.5692657141e+00 
34100 4.7213472133e+00 1.6491619145e-03 1.4833100836e+00 -2.5691684282e+00 1.4833100836e+00 2.5691684282e+00 
34200 4.7213464451e+00 1.6321468727e-03 1.4832544934e+00 -2.5690721431e+00 1.4832544934e+00 2.5690721431e+00 
34300 4.7213456921e+00 1.6153188752e-03 1.4831994746e+00 -2.5689768478e+00 1.4831994746e+00 2.5689768478e+00 
34400 4.7213449540e+00 1.5986757182e-03 1.4831450211e+00 -2.5688825315e+00 1.4831450211e+00 2.5688825315e+00 
34500 4.7213442306e+00 1.5822152241e-03 1.4830911266e+00 -2.5687891835e+00 1.4830911266e+00 2.5687891835e+00 
34600 4.7213435215e+00 1.5659352417e-03 1.4830377851e+00 -2.5686967934e+00 1.4830377851e+00 2.5686967934e+00 
34700 4.7213428265e+00 1.5498336460e-03 1.4829849906e+00 -2.5686053505e+00 1.4829849906e+00 2.5686053505e+00 
34800 4.7213421453e+00 1.5339083373e-03 1.4829327370e+00 -2.5685148447e+00 1.4829327370e+00 2.5685148447e+00 
34900 4.7213414775e+00 1.5181572417e-03 1.4828810186e+00 -2.5684252658e+00 1.4828810186e+00 2.5684252658e+00 
35000 4.7213408230e+00 1.5025783102e-03 1.4828298294e+00 -2.5683366036e+00 1.4828298294e+00 2.5683366036e+00 
35100 4.7213401814e+00 1.4871695189e-03 1.4827791638e+00 -2.5682488481e+00 1.4827791638e+00 2.5682488481e+00 
35200 4.7213395525e+00 1.4719288684e-03 1.4827290161e+00 -2.5681619897e+00 1.4827290161e+00 2.5681619897e+00 
35300 4.7213389361e+00 1.4568543836e-03 1.4826793805e+00 -2.5680760184e+00 1.4826793805e+00 2.5680760184e+00 
35400 4.7213383319e+00 1.4419441135e-03 1.4826302517e+00 -2.5679909248e+00 1.4826302517e+00 2.5679909248e+00 
35500 4.7213377396e+00 1.4271961312e-03 1.4825816240e+00 -2.5679066992e+00 1.4825816240e+00 2.5679066992e+00 
35600 4.7213371590e+00 1.4126085328e-03 1.4825334922e+00 -2.5678233324e+00 1.4825334922e+00 2.5678233324e+00 
35700 4.7213365899e+00 1.3981794383e-03 1.4824858507e+00 -2.5677408150e+00 1.4824858507e+00 2.5677408150e+00 
35800 4.7213360321e+00 1.3839069902e-03 1.4824386944e+00 -2.5676591378e+00 1.4824386944e+00 2.5676591378e+00 
35900 4.7213354853e+00 1.3697893540e-03 1.4823920179e+00 -2.5675782918e+00 1.4823920179e+00 2.5675782918e+00 
36000 4.7213349493e+00 1.3558247179e-03 1.4823458162e+00 -2.5674982680e+00 1.4823458162e+00 2.5674982680e+00 
36100 4.7213344238e+00 1.3420112920e-03 1.4823000840e+00 -2.5674190576e+00 1.4823000840e+00 2.5674190576e+00 
36200 4.7213339088e+00 1.3283473087e-03 1.4822548164e+00 -2.5673406517e+00 1.4822548164e+00 2.5673406517e+00 
36300 4.7213334039e+00 1.3148310220e-03 1.4822100083e+00 -2.5672630418e+00 1.4822100083e+00 2.5672630418e+00 
36400 4.7213329090e+00 1.3014607074e-03 1.4821656548e+00 -2.5671862193e+00 1.4821656548e+00 2.5671862193e+00 
36500 4.7213324238e+00 1.2882346617e-03 1.4821217509e+00 -2.5671101756e+00 1.4821217509e+00 2.5671101756e+00 
36600 4.7213319482e+00 1.2751512028e-03 1.4820782920e+00 -2.5670349026e+00 1.4820782920e+00 2.5670349026e+00 
36700 4.7213314820e+00 1.2622086693e-03 1.4820352732e+00 -2.5669603918e+00 1.4820352732e+00 2.5669603918e+00 
36800 4.7213310250e+00 1.2494054202e-03 1.4819926898e+00 -2.5668866352e+00 1.4819926898e+00 2.5668866352e+00 
36900 4.7213305770e+00 1.2367398349e-03 1.4819505371e+00 -2.5668136246e+00 1.4819505371e+00 2.5668136246e+00 
37000 4.7213301379e+00 1.2242103130e-03 1.4819088105e+00 -2.5667413520e+00 1.4819088105e+00 2.5667413520e+00 
37100 4.7213297074e+00 1.2118152737e-03 1.4818675055e+00 -2.5666698097e+00 1.4818675055e+00 2.5666698097e+00 
37200 4.7213292853e+00 1.1995531558e-03 1.4818266176e+00 -2.5665989897e+00 1.4818266176e+00 2.5665989897e+00 
37300 4.7213288716e+00 1.1874224175e-03 1.4817861423e+00 -2.5665288844e+00 1.4817861423e+00 2.5665288844e+00 
37400 4.7213284661e+00 1.1754215361e-03 1.4817460752e+00 -2.5664594862e+00 1.4817460752e+00 2.5664594862e+00 
37500 4.7213280685e+00 1.1635490079e-03 1.4817064120e+00 -2.5663907875e+00 1.4817064120e+00 2.5663907875e+00 
37600 4.7213276787e+00 1.1518033476e-03 1.4816671484e+00 -2.5663227809e+00 1.4816671484e+00 2.5663227809e+00 
37700 4.7213272967e+00 1.1401830885e-03 1.4816282800e+00 -2.5662554590e+00 1.4816282800e+00 2.5662554590e+00 
37800 4.7213269221e+00 1.1286867822e-03 1.4815898028e+00 -2.5661888145e+00 1.4815898028e+00 2.5661888145e+00 
37900 4.7213265550e+00 1.1173129981e-03 1.4815517126e+00 -2.5661228403e+00 1.4815517126e+00 2.5661228403e+00 
38000 4.7213261950e+00 1.1060603234e-03 1.4815140053e+00 -2.5660575292e+00 1.4815140053e+00 2.5660575292e+00 
38100 4.7213258421e+00 1.0949273629e-03 1.4814766767e+00 -2.5659928743e+00 1.4814766767e+00 2.5659928743e+00 
38200 4.7213254962e+00 1.0839127388e-03 1.4814397229e+00 -2.5659288685e+00 1.4814397229e+00 2.5659288685e+00 
38300 4.7213251571e+00 1.0730150904e-03 1.4814031400e+00 -2.5658655050e+00 1.4814031400e+00 2.5658655050e+00 
38400 4.7213248247e+00 1.0622330737e-03 1.4813669240e+00 -2.5658027770e+00 1.4813669240e+00 2.5658027770e+00 
38500 4.7213244988e+00 1.0515653617e-03 1.4813310710e+00 -2.5657406778e+00 1.4813310710e+00 2.5657406778e+00 
38600 4.7213241793e+00 1.0410106438e-03 1.4812955772e+00 -2.5656792007e+00 1.4812955772e+00 2.5656792007e+00 
38700 4.7213238660e+00 1.0305676254e-03 1.4812604388e+00 -2.5656183392e+00 1.4812604388e+00 2.5656183392e+00 
38800 4.7213235590e+00 1.0202350284e-03 1.4812256521e+00 -2.5655580869e+00 1.4812256521e+00 2.5655580869e+00 
38900 4.7213232580e+00 1.0100115905e-03 1.4811912133e+00 -2.5654984372e+00 1.4811912133e+00 2.5654984372e+00 
39000 4.7213229629e+00 9.9989606473e-04 1.4811571189e+00 -2.5654393839e+00 1.4811571189e+00 2.5654393839e+00 
39100 4.7213226736e+00 9.8988722005e-04 1.4811233651e+00 -2.5653809207e+00 1.4811233651e+00 2.5653809207e+00 
39200 4.7213223899e+00 9.7998384046e-04 1.4810899485e+00 -2.5653230414e+00 1.4810899485e+00 2.5653230414e+00 
39300 4.7213221119e+00 9.7018472511e-04 1.4810568654e+00 -2.5652657398e+00 1.4810568654e+00 2.5652657398e+00 
39400 4.7213218393e+00 9.6048868805e-04 1.4810241124e+00 -2.5652090100e+00 1.4810241124e+00 2.5652090100e+00 
39500 4.7213215721e+00 9.5089455805e-04 1.4809916860e+00 -2.5651528458e+00 1.4809916860e+00 2.5651528458e+00 
39600 4.7213213101e+00 9.4140117840e-04 1.4809595828e+00 -2.5650972415e+00 1.4809595828e+00 2.5650972415e+00 
39700 4.7213210533e+00 9.3200740670e-04 1.4809277995e+00 -2.5650421910e+00 1.4809277995e+00 2.5650421910e+00 
39800 4.7213208015e+00 9.2271211475e-04 1.4808963326e+00 -2.5649876888e+00 1.4808963326e+00 2.5649876888e+00 
39900 4.7213205546e+00 9.1351418829e-04 1.4808651788e+00 -2.5649337289e+00 1.4808651788e+00 2.5649337289e+00 
40000 4.7213203127e+00 9.0441252686e-04 1.4808343350e+00 -2.5648803058e+00 1.4808343350e+00 2.5648803058e+00 
40100 4.7213200754e+00 8.9540604360e-04 1.4808037979e+00 -2.5648274139e+00 1.4808037979e+00 2.5648274139e+00 
40200 4.7213198428e+00 8.8649366512e-04 1.4807735642e+00 -2.5647750477e+00 1.4807735642e+00 2.5647750477e+00 
40300 4.7213196148e+00 8.7767433126e-04 1.4807436308e+00 -2.5647232016e+00 1.4807436308e+00 2.5647232016e+00 
40400 4.7213193913e+00 8.6894699497e-04 1.4807139946e+00 -2.5646718702e+00 1.4807139946e+00 2.5646718702e+00 
40500 4.7213191721e+00 8.6031062212e-04 1.4806846526e+00 -2.5646210483e+00 1.4806846526e+00 2.5646210483e+00 
40600 4.7213189573e+00 8.5176419131e-04 1.4806556016e+00 -2.5645707304e+00 1.4806556016e+00 2.5645707304e+00 
40700 4.7213187466e+00 8.4330669375e-04 1.4806268386e+00 -2.5645209115e+00 1.4806268386e+00 2.5645209115e+00 
40800 4.7213185402e+00 8.3493713308e-04 1.4805983606e+00 -2.5644715862e+00 1.4805983606e+00 2.5644715862e+00 
40900 4.7213183377e+00 8.2665452516e-04 1.4805701648e+00 -2.5644227496e+00 1.4805701648e+00 2.5644227496e+00 
41000 4.7213181392e+00 8.1845789799e-04 1.4805422481e+00 -2.5643743965e+00 1.4805422481e+00 2.5643743965e+00 
41100 4.7213179447e+00 8.1034629150e-04 1.4805146077e+00 -2.5643265219e+00 1.4805146077e+00 2.5643265219e+00 
41200 4.7213177539e+00 8.0231875738e-04 1.4804872408e+00 -2.5642791210e+00 1.4804872408e+00 2.5642791210e+00 
41300 4.7213175669e+00 7.9437435897e-04 1.4804601444e+00 -2.5642321887e+00 1.4804601444e+00 2.5642321887e+00 
41400 4.7213173836e+00 7.8651217108e-04 1.4804333159e+00 -2.5641857203e+00 1.4804333159e+00 2.5641857203e+00 
41500 4.7213172038e+00 7.7873127986e-04 1.4804067524e+00 -2.5641397110e+00 1.4804067524e+00 2.5641397110e+00 
41600 4.7213170276e+00 7.7103078260e-04 1.4803804512e+00 -2.5640941560e+00 1.4803804512e+00 2.5640941560e+00 
41700 4.7213168549e+00 7.6340978766e-04 1.4803544096e+00 -2.5640490507e+00 1.4803544096e+00 2.5640490507e+00 
41800 4.7213166855e+00 7.5586741425e-04 1.4803286250e+00 -2.5640043904e+00 1.4803286250e+00 2.5640043904e+00 
41900 4.7213165194e+00 7.4840279234e-04 1.4803030947e+00 -2.5639601706e+00 1.4803030947e+00 2.5639601706e+00 
42000 4.7213163567e+00 7.4101506247e-04 1.4802778160e+00 -2.5639163867e+00 1.4802778160e+00 2.5639163867e+00 
42100 4.7213161971e+00 7.3370337567e-04 1.4802527865e+00 -2.5638730343e+00 1.4802527865e+00 2.5638730343e+00 
42200 4.7213160406e+00 7.2646689327e-04 1.4802280035e+00 -2.5638301089e+00 1.4802280035e+00 2.5638301089e+00 
42300 4.7213158872e+00 7.1930478677e-04 1.4802034646e+00 -2.5637876062e+00 1.4802034646e+00 2.5637876062e+00 
42400 4.7213157368e+00 7.1221623776e-04 1.4801791672e+00 -2.5637455218e+00 1.4801791672e+00 2.5637455218e+00 
42500 4.7213155894e+00 7.0520043768e-04 1.4801551088e+00 -2.5637038515e+00 1.4801551088e+00 2.5637038515e+00 
42600 4.7213154449e+00 6.9825658782e-04 1.4801312870e+00 -2.5636625910e+00 1.4801312870e+00 2.5636625910e+00 
42700 4.7213153032e+00 6.9138389906e-04 1.4801076994e+00 -2.5636217360e+00 1.4801076994e+00 2.5636217360e+00 
42800 4.7213151643e+00 6.8458159186e-04 1.4800843436e+00 -2.5635812826e+00 1.4800843436e+00 2.5635812826e+00 
42900 4.7213150281e+00 6.7784889605e-04 1.4800612172e+00 -2.5635412265e+00 1.4800612172e+00 2.5635412265e+00 
43000 4.7213148946e+00 6.7118505073e-04 1.4800383179e+00 -2.5635015638e+00 1.4800383179e+00 2.5635015638e+00 
43100 4.7213147637e+00 6.6458930416e-04 1.4800156434e+00 -2.5634622904e+00 1.4800156434e+00 2.5634622904e+00 
43200 4.7213146353e+00 6.5806091363e-04 1.4799931914e+00 -2.5634234023e+00 1.4799931914e+00 2.5634234023e+00 
43300 4.7213145095e+00 6.5159914535e-04 1.4799709595e+00 -2.5633848956e+00 1.4799709595e+00 2.5633848956e+00 
43400 4.7213143862e+00 6.4520327430e-04 1.4799489457e+00 -2.5633467665e+00 1.4799489457e+00 2.5633467665e+00 
43500 4.7213142653e+00 6.3887258416e-04 1.4799271476e+00 -2.5633090111e+00 1.4799271476e+00 2.5633090111e+00 
43600 4.7213141467e+00 6.3260636714e-04 1.4799055630e+00 -2.5632716255e+00 1.4799055630e+00 2.5632716255e+00 
43700 4.7213140305e+00 6.2640392394e-04 1.4798841899e+00 -2.5632346062e+00 1.4798841899e+00 2.5632346062e+00 
43800 4.7213139166e+00 6.2026456355e-04 1.4798630260e+00 -2.5631979492e+00 1.4798630260e+00 2.5631979492e+00 
43900 4.7213138049e+00 6.1418760322e-04 1.4798420692e+00 -2.5631616510e+00 1.4798420692e+00 2.5631616510e+00 
44000 4.7213136954e+00 6.0817236831e-04 1.4798213174e+00 -2.5631257079e+00 1.4798213174e+00 2.5631257079e+00 
44100 4.7213135880e+00 6.0221819217e-04 1.4798007686e+00 -2.5630901164e+00 1.4798007686e+00 2.5630901164e+00 
44200 4.7213134828e+00 5.9632441607e-04 1.4797804207e+00 -2.5630548728e+00 1.4797804207e+00 2.5630548728e+00 
44300 4.7213133796e+00 5.9049038909e-04 1.4797602717e+00 -2.5630199736e+00 1.4797602717e+00 2.5630199736e+00 
44400 4.7213132785e+00 5.8471546798e-04 1.4797403195e+00 -2.5629854154e+00 1.4797403195e+00 2.5629854154e+00 
44500 4.7213131793e+00 5.7899901710e-04 1.4797205622e+00 -2.5629511947e+00 1.4797205622e+00 2.5629511947e+00 
44600 4.7213130821e+00 5.7334040831e-04 1.4797009978e+00 -2.5629173081e+00 1.4797009978e+00 2.5629173081e+00 
44700 4.7213129868e+00 5.6773902085e-04 1.4796816243e+00 -2.5628837523e+00 1.4796816243e+00 2.5628837523e+00 
44800 4.7213128933e+00 5.6219424129e-04 1.4796624398e+00 -2.5628505238e+00 1.4796624398e+00 2.5628505238e+00 
44900 4.7213128017e+00 5.5670546336e-04 1.4796434425e+00 -2.5628176195e+00 1.4796434425e+00 2.5628176195e+00 
45000 4.7213127119e+00 5.5127208793e-04 1.4796246304e+00 -2.5627850359e+00 1.4796246304e+00 2.5627850359e+00 
45100 4.7213126239e+00 5.4589352288e-04 1.4796060016e+00 -2.5627527700e+00 1.4796060016e+00 2.5627527700e+00 
45200 4.7213125376e+00 5.4056918301e-04 1.4795875544e+00 -2.5627208185e+00 1.4795875544e+00 2.5627208185e+00 
45300 4.7213124530e+00 5.3529848994e-04 1.4795692869e+00 -2.5626891782e+00 1.4795692869e+00 2.5626891782e+00 
45400 4.7213123700e+00 5.3008087206e-04 1.4795511972e+00 -2.5626578460e+00 1.4795511972e+00 2.5626578460e+00 
45500 4.7213122887e+00 5.2491576441e-04 1.4795332837e+00 -2.5626268189e+00 1.4795332837e+00 2.5626268189e+00 
45600 4.7213122090e+00 5.1980260857e-04 1.4795155445e+00 -2.5625960937e+00 1.4795155445e+00 2.5625960937e+00 
45700 4.7213121308e+00 5.1474085263e-04 1.4794979779e+00 -2.5625656674e+00 1.4794979779e+00 2.5625656674e+00 
45800 4.7213120542e+00 5.0972995108e-04 1.4794805821e+00 -2.5625355371e+00 1.4794805821e+00 2.5625355371e+00 
45900 4.7213119791e+00 5.0476936472e-04 1.4794633555e+00 -2.5625056997e+00 1.4794633555e+00 2.5625056997e+00 
46000 4.7213119055e+00 4.9985856057e-04 1.4794462964e+00 -2.5624761524e+00 1.4794462964e+00 2.5624761524e+00 
46100 4.7213118333e+00 4.9499701182e-04 1.4794294029e+00 -2.5624468921e+00 1.4794294029e+00 2.5624468921e+00 
46200 4.7213117625e+00 4.9018419773e-04 1.4794126737e+00 -2.5624179161e+00 1.4794126737e+00 2.5624179161e+00 
46300 4.7213116932e+00 4.8541960354e-04 1.4793961068e+00 -2.5623892216e+00 1.4793961068e+00 2.5623892216e+00 
46400 4.7213116252e+00 4.8070272044e-04 1.4793797009e+00 -2.5623608056e+00 1.4793797009e+00 2.5623608056e+00 
46500 4.7213115585e+00 4.7603304542e-04 1.4793634541e+00 -2.5623326654e+00 1.4793634541e+00 2.5623326654e+00 
46600 4.7213114932e+00 4.7141008126e-04 1.4793473650e+00 -2.5623047983e+00 1.4793473650e+00 2.5623047983e+00 
46700 4.7213114291e+00 4.6683333643e-04 1.4793314320e+00 -2.5622772015e+00 1.4793314320e+00 2.5622772015e+00 
46800 4.7213113663e+00 4.6230232500e-04 1.4793156535e+00 -2.5622498723e+00 1.4793156535e+00 2.5622498723e+00 
46900 4.7213113047e+00 4.5781656662e-04 1.4793000280e+00 -2.5622228082e+00 1.4793000280e+00 2.5622228082e+00 
47000 4.7213112444e+00 4.5337558639e-04 1.4792845539e+00 -2.5621960063e+00 1.4792845539e+00 2.5621960063e+00 
47100 4.7213111852e+00 4.4897891481e-04 1.4792692298e+00 -2.5621694641e+00 1.4792692298e+00 2.5621694641e+00 
47200 4.7213111272e+00 4.4462608773e-04 1.4792540541e+00 -2.5621431791e+00 1.4792540541e+00 2.5621431791e+00 
47300 4.7213110703e+00 4.4031664627e-04 1.4792390254e+00 -2.5621171486e+00 1.4792390254e+00 2.5621171486e+00 
47400 4.7213110146e+00 4.3605013673e-04 1.4792241423e+00 -2.5620913702e+00 1.4792241423e+00 2.5620913702e+00 
47500 4.7213109600e+00 4.3182611058e-04 1.4792094031e+00 -2.5620658413e+00 1.4792094031e+00 2.5620658413e+00 
47600 4.7213109064e+00 4.2764412433e-04 1.4791948066e+00 -2.5620405594e+00 1.4791948066e+00 2.5620405594e+00 
47700 4.7213108539e+00 4.2350373951e-04 1.4791803514e+00 -2.5620155221e+00 1.4791803514e+00 2.5620155221e+00 
47800 4.7213108024e+00 4.1940452258e-04 1.4791660359e+00 -2.5619907270e+00 1.4791660359e+00 2.5619907270e+00 
47900 4.7213107520e+00 4.1534604489e-04 1.4791518589e+00 -2.5619661716e+00 1.4791518589e+00 2.5619661716e+00 
48000 4.7213107025e+00 4.1132788260e-04 1.4791378189e+00 -2.5619418537e+00 1.4791378189e+00 2.5619418537e+00 
48100 4.7213106540e+00 4.0734961664e-04 1.4791239146e+00 -2.5619177707e+00 1.4791239146e+00 2.5619177707e+00 
48200 4.7213106065e+00 4.0341083263e-04 1.4791101446e+00 -2.5618939205e+00 1.4791101446e+00 2.5618939205e+00 
48300 4.7213105599e+00 3.9951112083e-04 1.4790965077e+00 -2.5618703007e+00 1.4790965077e+00 2.5618703007e+00 
48400 4.7213105142e+00 3.9565007608e-04 1.4790830025e+00 -2.5618469089e+00 1.4790830025e+00 2.5618469089e+00 
48500 4.7213104695e+00 3.9182729774e-04 1.4790696277e+00 -2.5618237431e+00 1.4790696277e+00 2.5618237431e+00 
48600 4.7213104256e+00 3.8804238964e-04 1.4790563820e+00 -2.5618008008e+00 1.4790563820e+00 2.5618008008e+00 
48700 4.7213103826e+00 3.8429496004e-04 1.4790432641e+00 -2.5617780800e+00 1.4790432641e+00 2.5617780800e+00 
48800 4.7213103404e+00 3.8058462151e-04 1.4790302728e+00 -2.5617555783e+00 1.4790302728e+00 2.5617555783e+00 
48900 4.7213102991e+00 3.7691099098e-04 1.4790174068e+00 -2.5617332938e+00 1.4790174068e+00 2.5617332938e+00 
49000 4.7213102586e+00 3.7327368959e-04 1.4790046648e+00 -2.5617112241e+00 1.4790046648e+00 2.5617112241e+00 
49100 4.7213102188e+00 3.6967234268e-04 1.4789920458e+00 -2.5616893673e+00 1.4789920458e+00 2.5616893673e+00 
49200 4.7213101799e+00 3.6610657975e-04 1.4789795483e+00 -2.5616677211e+00 1.4789795483e+00 2.5616677211e+00 
49300 4.7213101417e+00 3.6257603439e-04 1.4789671714e+00 -2.5616462835e+00 1.4789671714e+00 2.5616462835e+00 
49400 4.7213101043e+00 3.5908034422e-04 1.4789549136e+00 -2.5616250525e+00 1.4789549136e+00 2.5616250525e+00 
49500 4.7213100677e+00 3.5561915087e-04 1.4789427740e+00 -2.5616040260e+00 1.4789427740e+00 2.5616040260e+00 
49600 4.7213100317e+00 3.5219209991e-04 1.4789307513e+00 -2.5615832020e+00 1.4789307513e+00 2.5615832020e+00 
49700 4.7213099965e+00 3.4879884080e-04 1.4789188443e+00 -2.5615625786e+00 1.4789188443e+00 2.5615625786e+00 
49800 4.7213099620e+00 3.4543902686e-04 1.4789070519e+00 -2.5615421536e+00 1.4789070519e+00 2.5615421536e+00 
49900 4.7213099281e+00 3.4211231520e-04 1.4788953731e+00 -2.5615219253e+00 1.4788953731e+00 2.5615219253e+00 
50000 4.7213098949e+00 3.3881836669e-04 1.4788838066e+00 -2.5615018916e+00 1.4788838066e+00 2.5615018916e+00 
50100 4.7213098624e+00 3.3555684592e-04 1.4788723514e+00 -2.5614820506e+00 1.4788723514e+00 2.5614820506e+00 
50200 4.7213098306e+00 3.3232742112e-04 1.4788610064e+00 -2.5614624005e+00 1.4788610064e+00 2.5614624005e+00 
50300 4.7213097993e+00 3.2912976418e-04 1.4788497705e+00 -2.5614429393e+00 1.4788497705e+00 2.5614429393e+00 
50400 4.7213097687e+00 3.2596355052e-04 1.4788386426e+00 -2.5614236652e+00 1.4788386426e+00 2.5614236652e+00 
50500 4.7213097387e+00 3.2282845913e-04 1.4788276217e+00 -2.5614045765e+00 1.4788276217e+00 2.5614045765e+00 
50600 4.7213097093e+00 3.1972417248e-04 1.4788167067e+00 -2.5613856711e+00 1.4788167067e+00 2.5613856711e+00 
50700 4.7213096804e+00 3.1665037648e-04 1.4788058966e+00 -2.5613669474e+00 1.4788058966e+00 2.5613669474e+00 
50800 4.7213096522e+00 3.1360676047e-04 1.4787951903e+00 -2.5613484036e+00 1.4787951903e+00 2.5613484036e+00 
50900 4.7213096244e+00 3.1059301712e-04 1.4787845869e+00 -2.5613300379e+00 1.4787845869e+00 2.5613300379e+00 
51000 4.7213095973e+00 3.0760884247e-04 1.4787740853e+00 -2.5613118486e+00 1.4787740853e+00 2.5613118486e+00 
51100 4.7213095707e+00 3.0465393582e-04 1.4787636845e+00 -2.5612938339e+00 1.4787636845e+00 2.5612938339e+00 
51200 4.7213095446e+00 3.0172799972e-04 1.4787533835e+00 -2.5612759921e+00 1.4787533835e+00 2.5612759921e+00 
51300 4.7213095190e+00 2.9883073993e-04 1.4787431814e+00 -2.5612583216e+00 1.4787431814e+00 2.5612583216e+00 
51400 4.7213094940e+00 2.9596186540e-04 1.4787330772e+00 -2.5612408206e+00 1.4787330772e+00 2.5612408206e+00 
51500 4.7213094694e+00 2.9312108818e-04 1.4787230699e+00 -2.5612234875e+00 1.4787230699e+00 2.5612234875e+00 
51600 4.7213094453e+00 2.9030812344e-04 1.4787131587e+00 -2.5612063206e+00 1.4787131587e+00 2.5612063206e+00 
51700 4.7213094217e+00 2.8752268941e-04 1.4787033424e+00 -2.5611893184e+00 1.4787033424e+00 2.5611893184e+00 
51800 4.7213093986e+00 2.8476450733e-04 1.4786936203e+00 -2.5611724792e+00 1.4786936203e+00 2.5611724792e+00 
51900 4.7213093760e+00 2.8203330144e-04 1.4786839914e+00 -2.5611558015e+00 1.4786839914e+00 2.5611558015e+00 
52000 4.7213093538e+00 2.7932879893e-04 1.4786744548e+00 -2.5611392836e+00 1.4786744548e+00 2.5611392836e+00 
52100 4.7213093320e+00 2.7665072990e-04 1.4786650096e+00 -2.5611229239e+00 1.4786650096e+00 2.5611229239e+00 
52200 4.7213093107e+00 2.7399882735e-04 1.4786556548e+00 -2.5611067211e+00 1.4786556548e+00 2.5611067211e+00 
52300 4.7213092897e+00 2.7137282712e-04 1.4786463897e+00 -2.5610906734e+00 1.4786463897e+00 2.5610906734e+00 
52400 4.7213092693e+00 2.6877246786e-04 1.4786372133e+00 -2.5610747794e+00 1.4786372133e+00 2.5610747794e+00 
52500 4.7213092492e+00 2.6619749102e-04 1.4786281248e+00 -2.5610590377e+00 1.4786281248e+00 2.5610590377e+00 
52600 4.7213092295e+00 2.6364764079e-04 1.4786191233e+00 -2.5610434466e+00 1.4786191233e+00 2.5610434466e+00 
52700 4.7213092102e+00 2.6112266409e-04 1.4786102080e+00 -2.5610280048e+00 1.4786102080e+00 2.5610280048e+00 
52800 4.7213091913e+00 2.5862231052e-04 1.4786013780e+00 -2.5610127108e+00 1.4786013780e+00 2.5610127108e+00 
52900 4.7213091728e+00 2.5614633235e-04 1.4785926325e+00 -2.5609975632e+00 1.4785926325e+00 2.5609975632e+00 
53000 4.7213091546e+00 2.5369448445e-04 1.4785839707e+00 -2.5609825605e+00 1.4785839707e+00 2.5609825605e+00 
53100 4.7213091368e+00 2.5126652432e-04 1.4785753917e+00 -2.5609677013e+00 1.4785753917e+00 2.5609677013e+00 
53200 4.7213091194e+00 2.4886221200e-04 1.4785668948e+00 -2.5609529842e+00 1.4785668948e+00 2.5609529842e+00 
53300 4.7213091023e+00 2.4648131008e-04 1.4785584792e+00 -2.5609384079e+00 1.4785584792e+00 2.5609384079e+00 
53400 4.7213090855e+00 2.4412358365e-04 1.4785501440e+00 -2.5609239709e+00 1.4785501440e+00 2.5609239709e+00 
53500 4.7213090691e+00 2.4178880028e-04 1.4785418885e+00 -2.5609096720e+00 1.4785418885e+00 2.5609096720e+00 
53600 4.7213090530e+00 2.3947673000e-04 1.4785337119e+00 -2.5608955097e+00 1.4785337119e+00 2.5608955097e+00 
53700 4.7213090373e+00 2.3718714526e-04 1.4785256134e+00 -2.5608814828e+00 1.4785256134e+00 2.5608814828e+00 
53800 4.7213090218e+00 2.3491982089e-04 1.4785175924e+00 -2.5608675899e+00 1.4785175924e+00 2.5608675899e+00 
53900 4.7213090067e+00 2.3267453411e-04 1.4785096480e+00 -2.5608538297e+00 1.4785096480e+00 2.5608538297e+00 
54000 4.7213089919e+00 2.3045106445e-04 1.4785017794e+00 -2.5608402010e+00 1.4785017794e+00 2.5608402010e+00 
54100 4.7213089773e+00 2.2824919379e-04 1.4784939860e+00 -2.5608267025e+00 1.4784939860e+00 2.5608267025e+00 
54200 4.7213089631e+00 2.2606870627e-04 1.4784862671e+00 -2.5608133328e+00 1.4784862671e+00 2.5608133328e+00 
54300 4.7213089491e+00 2.2390938831e-04 1.4784786218e+00 -2.5608000908e+00 1.4784786218e+00 2.5608000908e+00 
54400 4.7213089355e+00 2.2177102855e-04 1.4784710495e+00 -2.5607869753e+00 1.4784710495e+00 2.5607869753e+00 
54500 4.7213089221e+00 2.1965341785e-04 1.4784635495e+00 -2.5607739849e+00 1.4784635495e+00 2.5607739849e+00 
54600 4.7213089089e+00 2.1755634926e-04 1.4784561211e+00 -2.5607611184e+00 1.4784561211e+00 2.5607611184e+00 
54700 4.7213088961e+00 2.1547961798e-04 1.4784487635e+00 -2.5607483748e+00 1.4784487635e+00 2.5607483748e+00 
54800 4.7213088835e+00 2.1342302137e-04 1.4784414762e+00 -2.5607357527e+00 1.4784414762e+00 2.5607357527e+00 
54900 4.7213088711e+00 2.1138635886e-04 1.4784342583e+00 -2.5607232511e+00 1.4784342583e+00 2.5607232511e+00 
55000 4.7213088590e+00 2.0936943201e-04 1.4784271093e+00 -2.5607108687e+00 1.4784271093e+00 2.5607108687e+00 
55100 4.7213088471e+00 2.0737204443e-04 1.4784200285e+00 -2.5606986044e+00 1.4784200285e+00 2.5606986044e+00 
55200 4.7213088355e+00 2.0539400178e-04 1.4784130152e+00 -2.5606864570e+00 1.4784130152e+00 2.5606864570e+00 
55300 4.7213088241e+00 2.0343511173e-04 1.4784060688e+00 -2.5606744254e+00 1.4784060688e+00 2.5606744254e+00 
55400 4.7213088130e+00 2.0149518394e-04 1.4783991886e+00 -2.5606625085e+00 1.4783991886e+00 2.5606625085e+00 
55500 4.7213088020e+00 1.9957403007e-04 1.4783923740e+00 -2.5606507052e+00 1.4783923740e+00 2.5606507052e+00 
55600 4.7213087913e+00 1.9767146372e-04 1.4783856243e+00 -2.5606390144e+00 1.4783856243e+00 2.5606390144e+00 
55700 4.7213087808e+00 1.9578730041e-04 1.4783789389e+00 -2.5606274350e+00 1.4783789389e+00 2.5606274350e+00 
55800 4.7213087705e+00 1.9392135759e-04 1.4783723172e+00 -2.5606159659e+00 1.4783723172e+00 2.5606159659e+00 
55900 4.7213087605e+00 1.9207345459e-04 1.4783657586e+00 -2.5606046061e+00 1.4783657586e+00 2.5606046061e+00 
56000 4.7213087506e+00 1.9024341260e-04 1.4783592625e+00 -2.5605933544e+00 1.4783592625e+00 2.5605933544e+00 
56100 4.7213087409e+00 1.8843105467e-04 1.4783528282e+00 -2.5605822100e+00 1.4783528282e+00 2.5605822100e+00 
56200 4.7213087314e+00 1.8663620568e-04 1.4783464552e+00 -2.5605711716e+00 1.4783464552e+00 2.5605711716e+00 
56300 4.7213087221e+00 1.8485869230e-04 1.4783401429e+00 -2.5605602383e+00 1.4783401429e+00 2.5605602383e+00 
56400 4.7213087130e+00 1.8309834299e-04 1.4783338906e+00 -2.5605494091e+00 1.4783338906e+00 2.5605494091e+00 
56500 4.7213087041e+00 1.8135498799e-04 1.4783276979e+00 -2.5605386830e+00 1.4783276979e+00 2.5605386830e+00 
56600 4.7213086954e+00 1.7962845929e-04 1.4783215641e+00 -2.5605280590e+00 1.4783215641e+00 2.5605280590e+00 
56700 4.7213086868e+00 1.7791859057e-04 1.4783154887e+00 -2.5605175361e+00 1.4783154887e+00 2.5605175361e+00 
56800 4.7213086785e+00 1.7622521728e-04 1.4783094711e+00 -2.5605071133e+00 1.4783094711e+00 2.5605071133e+00 
56900 4.7213086703e+00 1.7454817651e-04 1.4783035108e+00 -2.5604967896e+00 1.4783035108e+00 2.5604967896e+00 
57000 4.7213086622e+00 1.7288730704e-04 1.4782976071e+00 -2.5604865642e+00 1.4782976071e+00 2.5604865642e+00 
57100 4.7213086543e+00 1.7124244932e-04 1.4782917596e+00 -2.5604764360e+00 1.4782917596e+00 2.5604764360e+00 
57200 4.7213086466e+00 1.6961344541e-04 1.4782859677e+00 -2.5604664041e+00 1.4782859677e+00 2.5604664041e+00 
57300 4.7213086391e+00 1.6800013900e-04 1.4782802309e+00 -2.5604564677e+00 1.4782802309e+00 2.5604564677e+00 
57400 4.7213086316e+00 1.6640237539e-04 1.4782745486e+00 -2.5604466257e+00 1.4782745486e+00 2.5604466257e+00 
57500 4.7213086244e+00 1.6482000144e-04 1.4782689203e+00 -2.5604368772e+00 1.4782689203e+00 2.5604368772e+00 
57600 4.7213086173e+00 1.6325286559e-04 1.4782633456e+00 -2.5604272215e+00 1.4782633456e+00 2.5604272215e+00 
57700 4.7213086103e+00 1.6170081784e-04 1.4782578238e+00 -2.5604176575e+00 1.4782578238e+00 2.5604176575e+00 
57800 4.7213086035e+00 1.6016370970e-04 1.4782523545e+00 -2.5604081844e+00 1.4782523545e+00 2.5604081844e+00 
57900 4.7213085968e+00 1.5864139421e-04 1.4782469372e+00 -2.5603988013e+00 1.4782469372e+00 2.5603988013e+00 
58000 4.7213085903e+00 1.5713372590e-04 1.4782415713e+00 -2.5603895073e+00 1.4782415713e+00 2.5603895073e+00 
58100 4.7213085838e+00 1.5564056080e-04 1.4782362564e+00 -2.5603803017e+00 1.4782362564e+00 2.5603803017e+00 
58200 4.7213085776e+00 1.5416175638e-04 1.4782309920e+00 -2.5603711835e+00 1.4782309920e+00 2.5603711835e+00 
58300 4.7213085714e+00 1.5269717158e-04 1.4782257776e+00 -2.5603621519e+00 1.4782257776e+00 2.5603621519e+00 
58400 4.7213085654e+00 1.5124666677e-04 1.4782206127e+00 -2.5603532061e+00 1.4782206127e+00 2.5603532061e+00 
58500 4.7213085595e+00 1.4981010375e-04 1.4782154969e+00 -2.5603443452e+00 1.4782154969e+00 2.5603443452e+00 
58600 4.7213085537e+00 1.4838734571e-04 1.4782104296e+00 -2.5603355684e+00 1.4782104296e+00 2.5603355684e+00 
58700 4.7213085480e+00 1.4697825723e-04 1.4782054105e+00 -2.5603268750e+00 1.4782054105e+00 2.5603268750e+00 
58800 4.7213085425e+00 1.4558270428e-04 1.4782004390e+00 -2.5603182641e+00 1.4782004390e+00 2.5603182641e+00 
58900 4.7213085371e+00 1.4420055418e-04 1.4781955147e+00 -2.5603097349e+00 1.4781955147e+00 2.5603097349e+00 
59000 4.7213085317e+00 1.4283167559e-04 1.4781906371e+00 -2.5603012867e+00 1.4781906371e+00 2.5603012867e+00 
59100 4.7213085265e+00 1.4147593850e-04 1.4781858058e+00 -2.5602929186e+00 1.4781858058e+00 2.5602929186e+00 
59200 4.7213085214e+00 1.4013321424e-04 1.4781810203e+00 -2.5602846300e+00 1.4781810203e+00 2.5602846300e+00 
59300 4.7213085164e+00 1.3880337542e-04 1.4781762803e+00 -2.5602764200e+00 1.4781762803e+00 2.5602764200e+00 
59400 4.7213085115e+00 1.3748629594e-04 1.4781715852e+00 -2.5602682879e+00 1.4781715852e+00 2.5602682879e+00 
59500 4.7213085067e+00 1.3618185098e-04 1.4781669346e+00 -2.5602602329e+00 1.4781669346e+00 2.5602602329e+00 
59600 4.7213085020e+00 1.3488991699e-04 1.4781623282e+00 -2.5602522543e+00 1.4781623282e+00 2.5602522543e+00 
59700 4.7213084974e+00 1.3361037165e-04 1.4781577654e+00 -2.5602443513e+00 1.4781577654e+00 2.5602443513e+00 
59800 4.7213084929e+00 1.3234309389e-04 1.4781532460e+00 -2.5602365234e+00 1.4781532460e+00 2.5602365234e+00 
59900 4.7213084885e+00 1.3108796386e-04 1.4781487693e+00 -2.5602287696e+00 1.4781487693e+00 2.5602287696e+00 
60000 4.7213084842e+00 1.2984486290e-04 1.4781443351e+00 -2.5602210894e+00 1.4781443351e+00 2.5602210894e+00 
60100 4.7213084800e+00 1.2861367357e-04 1.4781399430e+00 -2.5602134819e+00 1.4781399430e+00 2.5602134819e+00 
60200 4.7213084758e+00 1.2739427961e-04 1.4781355925e+00 -2.5602059466e+00 1.4781355925e+00 2.5602059466e+00 
60300 4.7213084718e+00 1.2618656591e-04 1.4781312832e+00 -2.5601984827e+00 1.4781312832e+00 2.5601984827e+00 
60400 4.7213084678e+00 1.2499041855e-04 1.4781270147e+00 -2.5601910895e+00 1.4781270147e+00 2.5601910895e+00 
60500 4.7213084639e+00 1.2380572472e-04 1.4781227867e+00 -2.5601837664e+00 1.4781227867e+00 2.5601837664e+00 
60600 4.7213084601e+00 1.2263237278e-04 1.4781185988e+00 -2.5601765127e+00 1.4781185988e+00 2.5601765127e+00 
60700 4.7213084564e+00 1.2147025218e-04 1.4781144505e+00 -2.5601693277e+00 1.4781144505e+00 2.5601693277e+00 
60800 4.7213084527e+00 1.2031925350e-04 1.4781103416e+00 -2.5601622108e+00 1.4781103416e+00 2.5601622108e+00 
60900 4.7213084491e+00 1.1917926842e-04 1.4781062715e+00 -2.5601551613e+00 1.4781062715e+00 2.5601551613e+00 
61000 4.7213084456e+00 1.1805018969e-04 1.4781022401e+00 -2.5601481785e+00 1.4781022401e+00 2.5601481785e+00 
61100 4.7213084422e+00 1.1693191116e-04 1.4780982467e+00 -2.5601412619e+00 1.4780982467e+00 2.5601412619e+00 
61200 4.7213084389e+00 1.1582432771e-04 1.4780942913e+00 -2.5601344109e+00 1.4780942913e+00 2.5601344109e+00 
61300 4.7213084356e+00 1.1472733531e-04 1.4780903732e+00 -2.5601276246e+00 1.4780903732e+00 2.5601276246e+00 
61400 4.7213084324e+00 1.1364083094e-04 1.4780864923e+00 -2.5601209027e+00 1.4780864923e+00 2.5601209027e+00 
61500 4.7213084292e+00 1.1256471263e-04 1.4780826481e+00 -2.5601142443e+00 1.4780826481e+00 2.5601142443e+00 
61600 4.7213084261e+00 1.1149887943e-04 1.4780788403e+00 -2.5601076490e+00 1.4780788403e+00 2.5601076490e+00 
61700 4.7213084231e+00 1.1044323140e-04 1.4780750686e+00 -2.5601011162e+00 1.4780750686e+00 2.5601011162e+00 
61800 4.7213084201e+00 1.0939766958e-04 1.4780713325e+00 -2.5600946452e+00 1.4780713325e+00 2.5600946452e+00 
61900 4.7213084172e+00 1.0836209603e-04 1.4780676318e+00 -2.5600882354e+00 1.4780676318e+00 2.5600882354e+00 
62000 4.7213084144e+00 1.0733641375e-04 1.4780639662e+00 -2.5600818863e+00 1.4780639662e+00 2.5600818863e+00 
62100 4.7213084116e+00 1.0632052674e-04 1.4780603352e+00 -2.5600755972e+00 1.4780603352e+00 2.5600755972e+00 
62200 4.7213084089e+00 1.0531433996e-04 1.4780567386e+00 -2.5600693677e+00 1.4780567386e+00 2.5600693677e+00 
62300 4.7213084063e+00 1.0431775928e-04 1.4780531760e+00 -2.5600631971e+00 1.4780531760e+00 2.5600631971e+00 
62400 4.7213084037e+00 1.0333069154e-04 1.4780496471e+00 -2.5600570849e+00 1.4780496471e+00 2.5600570849e+00 
62500 4.7213084011e+00 1.0235304451e-04 1.4780461516e+00 -2.5600510305e+00 1.4780461516e+00 2.5600510305e+00 
62600 4.7213083986e+00 1.0138472686e-04 1.4780426891e+00 -2.5600450334e+00 1.4780426891e+00 2.5600450334e+00 
62700 4.7213083962e+00 1.0042564819e-04 1.4780392595e+00 -2.5600390930e+00 1.4780392595e+00 2.5600390930e+00 
62800 4.7213083938e+00 9.9475718969e-05 1.4780358622e+00 -2.5600332087e+00 1.4780358622e+00 2.5600332087e+00 
62900 4.7213083915e+00 9.8534850590e-05 1.4780324971e+00 -2.5600273802e+00 1.4780324971e+00 2.5600273802e+00 
63000 4.7213083892e+00 9.7602955309e-05 1.4780291638e+00 -2.5600216067e+00 1.4780291638e+00 2.5600216067e+00 
63100 4.7213083869e+00 9.6679946256e-05 1.4780258620e+00 -2.5600158878e+00 1.4780258620e+00 2.5600158878e+00 
63200 4.7213083847e+00 9.5765737426e-05 1.4780225914e+00 -2.5600102230e+00 1.4780225914e+00 2.5600102230e+00 
63300 4.7213083826e+00 9.4860243665e-05 1.4780193517e+00 -2.5600046118e+00 1.4780193517e+00 2.5600046118e+00 
63400 4.7213083805e+00 9.3963380668e-05 1.4780161427e+00 -2.5599990536e+00 1.4780161427e+00 2.5599990536e+00 
63500 4.7213083784e+00 9.3075064963e-05 1.4780129640e+00 -2.5599935479e+00 1.4780129640e+00 2.5599935479e+00 
63600 4.7213083764e+00 9.2195213908e-05 1.4780098153e+00 -2.5599880943e+00 1.4780098153e+00 2.5599880943e+00 
63700 4.7213083745e+00 9.1323745679e-05 1.4780066965e+00 -2.5599826922e+00 1.4780066965e+00 2.5599826922e+00 
63800 4.7213083725e+00 9.0460579262e-05 1.4780036070e+00 -2.5599773411e+00 1.4780036070e+00 2.5599773411e+00 
63900 4.7213083706e+00 8.9605634447e-05 1.4780005468e+00 -2.5599720407e+00 1.4780005468e+00 2.5599720407e+00 
64000 4.7213083688e+00 8.8758831818e-05 1.4779975155e+00 -2.5599667903e+00 1.4779975155e+00 2.5599667903e+00 
64100 4.7213083670e+00 8.7920092743e-05 1.4779945128e+00 -2.5599615895e+00 1.4779945128e+00 2.5599615895e+00 
64200 4.7213083652e+00 8.7089339371e-05 1.4779915385e+00 -2.5599564379e+00 1.4779915385e+00 2.5599564379e+00 
64300 4.7213083635e+00 8.6266494616e-05 1.4779885923e+00 -2.5599513349e+00 1.4779885923e+00 2.5599513349e+00 
64400 4.7213083618e+00 8.5451482159e-05 1.4779856739e+00 -2.5599462801e+00 1.4779856739e+00 2.5599462801e+00 
64500 4.7213083602e+00 8.4644226434e-05 1.4779827831e+00 -2.5599412731e+00 1.4779827831e+00 2.5599412731e+00 
64600 4.7213083585e+00 8.3844652617e-05 1.4779799196e+00 -2.5599363134e+00 1.4779799196e+00 2.5599363134e+00 
64700 4.7213083570e+00 8.3052686628e-05 1.4779770832e+00 -2.5599314005e+00 1.4779770832e+00 2.5599314005e+00 
64800 4.7213083554e+00 8.2268255116e-05 1.4779742735e+00 -2.5599265340e+00 1.4779742735e+00 2.5599265340e+00 
64900 4.7213083539e+00 8.1491285454e-05 1.4779714903e+00 -2.5599217134e+00 1.4779714903e+00 2.5599217134e+00 
65000 4.7213083524e+00 8.0721705730e-05 1.4779687335e+00 -2.5599169384e+00 1.4779687335e+00 2.5599169384e+00 
65100 4.7213083510e+00 7.9959444742e-05 1.4779660027e+00 -2.5599122085e+00 1.4779660027e+00 2.5599122085e+00 
65200 4.7213083495e+00 7.9204431989e-05 1.4779632976e+00 -2.5599075232e+00 1.4779632976e+00 2.5599075232e+00 
65300 4.7213083481e+00 7.8456597667e-05 1.4779606181e+00 -2.5599028821e+00 1.4779606181e+00 2.5599028821e+00 
65400 4.7213083468e+00 7.7715872654e-05 1.4779579639e+00 -2.5598982849e+00 1.4779579639e+00 2.5598982849e+00 
65500 4.7213083455e+00 7.6982188514e-05 1.4779553347e+00 -2.5598937310e+00 1.4779553347e+00 2.5598937310e+00 
65600 4.7213083442e+00 7.6255477481e-05 1.4779527304e+00 -2.5598892202e+00 1.4779527304e+00 2.5598892202e+00 
65700 4.7213083429e+00 7.5535672457e-05 1.4779501506e+00 -2.5598847519e+00 1.4779501506e+00 2.5598847519e+00 
65800 4.7213083416e+00 7.4822707002e-05 1.4779475952e+00 -2.5598803258e+00 1.4779475952e+00 2.5598803258e+00 
65900 4.7213083404e+00 7.4116515332e-05 1.4779450639e+00 -2.5598759414e+00 1.4779450639e+00 2.5598759414e+00 
66000 4.7213083392e+00 7.3417032307e-05 1.4779425565e+00 -2.5598715985e+00 1.4779425565e+00 2.5598715985e+00 
66100 4.7213083381e+00 7.2724193427e-05 1.4779400727e+00 -2.5598672965e+00 1.4779400727e+00 2.5598672965e+00 
66200 4.7213083369e+00 7.2037934826e-05 1.4779376124e+00 -2.5598630351e+00 1.4779376124e+00 2.5598630351e+00 
66300 4.7213083358e+00 7.1358193265e-05 1.4779351753e+00 -2.5598588139e+00 1.4779351753e+00 2.5598588139e+00 
66400 4.7213083347e+00 7.0684906124e-05 1.4779327612e+00 -2.5598546325e+00 1.4779327612e+00 2.5598546325e+00 
66500 4.7213083339e+00 7.1256366268e-05 1.4779327612e+00 -2.5598546325e+00 1.4779327612e+00 2.5598546325e+00 
66600 4.7213083329e+00 7.0582573007e-05 1.4779303505e+00 -2.5598504571e+00 1.4779303505e+00 2.5598504571e+00 
66700 4.7213083321e+00 7.1151220510e-05 1.4779303505e+00 -2.5598504571e+00 1.4779303505e+00 2.5598504571e+00 
66800 4.7213083311e+00 7.0476010701e-05 1.4779279434e+00 -2.5598462878e+00 1.4779279434e+00 2.5598462878e+00 
66900 4.7213083303e+00 7.1040945924e-05 1.4779279434e+00 -2.5598462878e+00 1.4779279434e+00 2.5598462878e+00 
67000 4.7213083293e+00 7.0363572007e-05 1.4779255400e+00 -2.5598421250e+00 1.4779255400e+00 2.5598421250e+00 
67100 4.7213083286e+00 7.0924017432e-05 1.4779255400e+00 -2.5598421250e+00 1.4779255400e+00 2.5598421250e+00 
67200 4.7213083277e+00 7.0243872195e-05 1.4779231405e+00 -2.5598379691e+00 1.4779231405e+00 2.5598379691e+00 
67300 4.7213083270e+00 7.0799156284e-05 1.4779231405e+00 -2.5598379691e+00 1.4779231405e+00 2.5598379691e+00 
67400 4.7213083261e+00 7.0115753700e-05 1.4779207453e+00 -2.5598338204e+00 1.4779207453e+00 2.5598338204e+00 
67500 4.7213083255e+00 7.0665297209e-05 1.4779207453e+00 -2.5598338204e+00 1.4779207453e+00 2.5598338204e+00 
67600 4.7213083249e+00 7.1216126051e-05 1.4779207453e+00 -2.5598338204e+00 1.4779207453e+00 2.5598338204e+00 
67700 4.7213083240e+00 7.0520384515e-05 1.4779183360e+00 -2.5598296473e+00 1.4779183360e+00 2.5598296473e+00 
67800 4.7213083234e+00 7.1064229166e-05 1.4779183360e+00 -2.5598296473e+00 1.4779183360e+00 2.5598296473e+00 
67900 4.7213083226e+00 7.0364003091e-05 1.4779159318e+00 -2.5598254831e+00 1.4779159318e+00 2.5598254831e+00 
68000 4.7213083221e+00 7.0900526703e-05 1.4779159318e+00 -2.5598254831e+00 1.4779159318e+00 2.5598254831e+00 
68100 4.7213083213e+00 7.0195710681e-05 1.4779135331e+00 -2.5598213285e+00 1.4779135331e+00 2.5598213285e+00 
68200 4.7213083208e+00 7.0724626979e-05 1.4779135331e+00 -2.5598213285e+00 1.4779135331e+00 2.5598213285e+00 
68300 4.7213083200e+00 7.0015170163e-05 1.4779111404e+00 -2.5598171842e+00 1.4779111404e+00 2.5598171842e+00 
68400 4.7213083195e+00 7.0536237929e-05 1.4779111404e+00 -2.5598171842e+00 1.4779111404e+00 2.5598171842e+00 
68500 4.7213083190e+00 7.1057643997e-05 1.4779111404e+00 -2.5598171842e+00 1.4779111404e+00 2.5598171842e+00 
68600 4.7213083183e+00 7.0334479073e-05 1.4779087364e+00 -2.5598130204e+00 1.4779087364e+00 2.5598130204e+00 
68700 4.7213083179e+00 7.0847226933e-05 1.4779087364e+00 -2.5598130204e+00 1.4779087364e+00 2.5598130204e+00 
68800 4.7213083172e+00 7.0119049530e-05 1.4779063395e+00 -2.5598088689e+00 1.4779063395e+00 2.5598088689e+00 
68900 4.7213083167e+00 7.0623049666e-05 1.4779063395e+00 -2.5598088689e+00 1.4779063395e+00 2.5598088689e+00 
69000 4.7213083163e+00 7.1126995799e-05 1.4779063395e+00 -2.5598088689e+00 1.4779063395e+00 2.5598088689e+00 
69100 4.7213083157e+00 7.0384846830e-05 1.4779039332e+00 -2.5598047010e+00 1.4779039332e+00 2.5598047010e+00 
69200 4.7213083153e+00 7.0879430416e-05 1.4779039332e+00 -2.5598047010e+00 1.4779039332e+00 2.5598047010e+00 
69300 4.7213083147e+00 7.0132269427e-05 1.4779015352e+00 -2.5598005475e+00 1.4779015352e+00 2.5598005475e+00 
69400 4.7213083143e+00 7.0617513404e-05 1.4779015352e+00 -2.5598005475e+00 1.4779015352e+00 2.5598005475e+00 
69500 4.7213083139e+00 7.1102446020e-05 1.4779015352e+00 -2.5598005475e+00 1.4779015352e+00 2.5598005475e+00 
69600 4.7213083133e+00 7.0341528250e-05 1.4778991297e+00 -2.5597963811e+00 1.4778991297e+00 2.5597963811e+00 
69700 4.7213083130e+00 7.0816652663e-05 1.4778991297e+00 -2.5597963811e+00 1.4778991297e+00 2.5597963811e+00 
69800 4.7213083124e+00 7.0050986542e-05 1.4778967338e+00 -2.5597922313e+00 1.4778967338e+00 2.5597922313e+00 
69900 4.7213083121e+00 7.0516410422e-05 1.4778967338e+00 -2.5597922313e+00 1.4778967338e+00 2.5597922313e+00 
70000 4.7213083118e+00 7.0981365881e-05 1.4778967338e+00 -2.5597922313e+00 1.4778967338e+00 2.5597922313e+00 
70100 4.7213083112e+00 7.0202498181e-05 1.4778943324e+00 -2.5597880719e+00 1.4778943324e+00 2.5597880719e+00 
70200 4.7213083109e+00 7.0657396142e-05 1.4778943324e+00 -2.5597880719e+00 1.4778943324e+00 2.5597880719e+00 
70300 4.7213083106e+00 7.1111680291e-05 1.4778943324e+00 -2.5597880719e+00 1.4778943324e+00 2.5597880719e+00 
70400 4.7213083101e+00 7.0319754628e-05 1.4778919265e+00 -2.5597839049e+00 1.4778919265e+00 2.5597839049e+00 
70500 4.7213083098e+00 7.0763714647e-05 1.4778919265e+00 -2.5597839049e+00 1.4778919265e+00 2.5597839049e+00 
70600 4.7213083094e+00 6.9967667754e-05 1.4778895325e+00 -2.5597797582e+00 1.4778895325e+00 2.5597797582e+00 
70700 4.7213083091e+00 7.0401528319e-05 1.4778895325e+00 -2.5597797582e+00 1.4778895325e+00 2.5597797582e+00 
70800 4.7213083089e+00 7.0834754904e-05 1.4778895325e+00 -2.5597797582e+00 1.4778895325e+00 2.5597797582e+00 
70900 4.7213083084e+00 7.0026653056e-05 1.4778871360e+00 -2.5597756074e+00 1.4778871360e+00 2.5597756074e+00 
71000 4.7213083081e+00 7.0449576744e-05 1.4778871360e+00 -2.5597756074e+00 1.4778871360e+00 2.5597756074e+00 
71100 4.7213083079e+00 7.0871785969e-05 1.4778871360e+00 -2.5597756074e+00 1.4778871360e+00 2.5597756074e+00 
71200 4.7213083075e+00 7.0051972746e-05 1.4778847383e+00 -2.5597714544e+00 1.4778847383e+00 2.5597714544e+00 
71300 4.7213083073e+00 7.0463743335e-05 1.4778847383e+00 -2.5597714544e+00 1.4778847383e+00 2.5597714544e+00 
71400 4.7213083071e+00 7.0874747728e-05 1.4778847383e+00 -2.5597714544e+00 1.4778847383e+00 2.5597714544e+00 
71500 4.7213083066e+00 7.0043658437e-05 1.4778823404e+00 -2.5597673012e+00 1.4778823404e+00 2.5597673012e+00 
71600 4.7213083064e+00 7.0444145006e-05 1.4778823404e+00 -2.5597673012e+00 1.4778823404e+00 2.5597673012e+00 
71700 4.7213083062e+00 7.0843837366e-05 1.4778823404e+00 -2.5597673012e+00 1.4778823404e+00 2.5597673012e+00 
71800 4.7213083058e+00 7.0001979441e-05 1.4778799436e+00 -2.5597631498e+00 1.4778799436e+00 2.5597631498e+00 
71900 4.7213083057e+00 7.0391122225e-05 1.4778799436e+00 -2.5597631498e+00 1.4778799436e+00 2.5597631498e+00 
72000 4.7213083055e+00 7.0779462399e-05 1.4778799436e+00 -2.5597631498e+00 1.4778799436e+00 2.5597631498e+00 
72100 4.7213083051e+00 6.9927399325e-05 1.4778775490e+00 -2.5597590022e+00 1.4778775490e+00 2.5597590022e+00 
72200 4.7213083049e+00 7.0305198086e-05 1.4778775490e+00 -2.5597590022e+00 1.4778775490e+00 2.5597590022e+00 
72300 4.7213083048e+00 7.0682202051e-05 1.4778775490e+00 -2.5597590022e+00 1.4778775490e+00 2.5597590022e+00 
72400 4.7213083047e+00 7.1058258158e-05 1.4778775490e+00 -2.5597590022e+00 1.4778775490e+00 2.5597590022e+00 
72500 4.7213083043e+00 7.0188929574e-05 1.4778751449e+00 -2.5597548382e+00 1.4778751449e+00 2.5597548382e+00 
72600 4.7213083041e+00 7.0554167024e-05 1.4778751449e+00 -2.5597548382e+00 1.4778751449e+00 2.5597548382e+00 
72700 4.7213083040e+00 7.0918510808e-05 1.4778751449e+00 -2.5597548382e+00 1.4778751449e+00 2.5597548382e+00 
72800 4.7213083037e+00 7.0039993484e-05 1.4778727456e+00 -2.5597506825e+00 1.4778727456e+00 2.5597506825e+00 
72900 4.7213083035e+00 7.0393649260e-05 1.4778727456e+00 -2.5597506825e+00 1.4778727456e+00 2.5597506825e+00 
73000 4.7213083034e+00 7.0746470108e-05 1.4778727456e+00 -2.5597506825e+00 1.4778727456e+00 2.5597506825e+00 
73100 4.7213083031e+00 6.9859522520e-05 1.4778703521e+00 -2.5597465368e+00 1.4778703521e+00 2.5597465368e+00 
73200 4.7213083030e+00 7.0201798614e-05 1.4778703521e+00 -2.5597465368e+00 1.4778703521e+00 2.5597465368e+00 
73300 4.7213083029e+00 7.0543302480e-05 1.4778703521e+00 -2.5597465368e+00 1.4778703521e+00 2.5597465368e+00 
73400 4.7213083028e+00 7.0883897253e-05 1.4778703521e+00 -2.5597465368e+00 1.4778703521e+00 2.5597465368e+00 
73500 4.7213083024e+00 6.9982281222e-05 1.4778679539e+00 -2.5597423830e+00 1.4778679539e+00 2.5597423830e+00 
73600 4.7213083023e+00 7.0312200458e-05 1.4778679539e+00 -2.5597423830e+00 1.4778679539e+00 2.5597423830e+00 
73700 4.7213083023e+00 7.0641306655e-05 1.4778679539e+00 -2.5597423830e+00 1.4778679539e+00 2.5597423830e+00 
73800 4.7213083022e+00 7.0969472278e-05 1.4778679539e+00 -2.5597423830e+00 1.4778679539e+00 2.5597423830e+00 
73900 4.7213083019e+00 7.0053931242e-05 1.4778655528e+00 -2.5597382242e+00 1.4778655528e+00 2.5597382242e+00 
74000 4.7213083018e+00 7.0371373592e-05 1.4778655528e+00 -2.5597382242e+00 1.4778655528e+00 2.5597382242e+00 
74100 4.7213083017e+00 7.0687996332e-05 1.4778655528e+00 -2.5597382242e+00 1.4778655528e+00 2.5597382242e+00 
74200 4.7213083016e+00 7.1003678951e-05 1.4778655528e+00 -2.5597382242e+00 1.4778655528e+00 2.5597382242e+00 
74300 4.7213083013e+00 7.0075087143e-05 1.4778631506e+00 -2.5597340634e+00 1.4778631506e+00 2.5597340634e+00 
74400 4.7213083013e+00 7.0380062531e-05 1.4778631506e+00 -2.5597340634e+00 1.4778631506e+00 2.5597340634e+00 
74500 4.7213083012e+00 7.0684237383e-05 1.4778631506e+00 -2.5597340634e+00 1.4778631506e+00 2.5597340634e+00 
74600 4.7213083011e+00 7.0987496517e-05 1.4778631506e+00 -2.5597340634e+00 1.4778631506e+00 2.5597340634e+00 
74700 4.7213083009e+00 7.0046816965e-05 1.4778607489e+00 -2.5597299036e+00 1.4778607489e+00 2.5597299036e+00 
74800 4.7213083008e+00 7.0339434204e-05 1.4778607489e+00 -2.5597299036e+00 1.4778607489e+00 2.5597299036e+00 
74900 4.7213083008e+00 7.0631289175e-05 1.4778607489e+00 -2.5597299036e+00 1.4778607489e+00 2.5597299036e+00 
75000 4.7213083007e+00 7.0922270759e-05 1.4778607489e+00 -2.5597299036e+00 1.4778607489e+00 2.5597299036e+00 
75100 4.7213083004e+00 6.9970523724e-05 1.4778583494e+00 -2.5597257475e+00 1.4778583494e+00 2.5597257475e+00 
75200 4.7213083004e+00 7.0250966999e-05 1.4778583494e+00 -2.5597257475e+00 1.4778583494e+00 2.5597257475e+00 
75300 4.7213083003e+00 7.0530700559e-05 1.4778583494e+00 -2.5597257475e+00 1.4778583494e+00 2.5597257475e+00 
75400 4.7213083003e+00 7.0809616390e-05 1.4778583494e+00 -2.5597257475e+00 1.4778583494e+00 2.5597257475e+00 
75500 4.7213083000e+00 6.9847855434e-05 1.4778559537e+00 -2.5597215981e+00 1.4778559537e+00 2.5597215981e+00 
75600 4.7213083000e+00 7.0116366252e-05 1.4778559537e+00 -2.5597215981e+00 1.4778559537e+00 2.5597215981e+00 
75700 4.7213083000e+00 7.0384230407e-05 1.4778559537e+00 -2.5597215981e+00 1.4778559537e+00 2.5597215981e+00 
75800 4.7213082999e+00 7.0651342267e-05 1.4778559537e+00 -2.5597215981e+00 1.4778559537e+00 2.5597215981e+00 
75900 4.7213082999e+00 7.0917604092e-05 1.4778559537e+00 -2.5597215981e+00 1.4778559537e+00 2.5597215981e+00 
76000 4.7213082997e+00 6.9941301444e-05 1.4778535544e+00 -2.5597174423e+00 1.4778535544e+00 2.5597174423e+00 
76100 4.7213082996e+00 7.0197108547e-05 1.4778535544e+00 -2.5597174423e+00 1.4778535544e+00 2.5597174423e+00 
76200 4.7213082996e+00 7.0452263877e-05 1.4778535544e+00 -2.5597174423e+00 1.4778535544e+00 2.5597174423e+00 
76300 4.7213082996e+00 7.0706669341e-05 1.4778535544e+00 -2.5597174423e+00 1.4778535544e+00 2.5597174423e+00 
76400 4.7213082996e+00 7.0960234191e-05 1.4778535544e+00 -2.5597174423e+00 1.4778535544e+00 2.5597174423e+00 
76500 4.7213082993e+00 6.9970528406e-05 1.4778511536e+00 -2.5597132840e+00 1.4778511536e+00 2.5597132840e+00 
76600 4.7213082993e+00 7.0213671245e-05 1.4778511536e+00 -2.5597132840e+00 1.4778511536e+00 2.5597132840e+00 
76700 4.7213082993e+00 7.0456190091e-05 1.4778511536e+00 -2.5597132840e+00 1.4778511536e+00 2.5597132840e+00 
76800 4.7213082993e+00 7.0697992013e-05 1.4778511536e+00 -2.5597132840e+00 1.4778511536e+00 2.5597132840e+00 
76900 4.7213082993e+00 7.0938991056e-05 1.4778511536e+00 -2.5597132840e+00 1.4778511536e+00 2.5597132840e+00 
77000 4.7213082990e+00 6.9937156436e-05 1.4778487535e+00 -2.5597091270e+00 1.4778487535e+00 2.5597091270e+00 
77100 4.7213082990e+00 7.0167824495e-05 1.4778487535e+00 -2.5597091270e+00 1.4778487535e+00 2.5597091270e+00 
77200 4.7213082990e+00 7.0397918562e-05 1.4778487535e+00 -2.5597091270e+00 1.4778487535e+00 2.5597091270e+00 
77300 4.7213082990e+00 7.0627349266e-05 1.4778487535e+00 -2.5597091270e+00 1.4778487535e+00 2.5597091270e+00 
77400 4.7213082990e+00 7.0856033950e-05 1.4778487535e+00 -2.5597091270e+00 1.4778487535e+00 2.5597091270e+00 
77500 4.7213082988e+00 6.9843418757e-05 1.4778463562e+00 -2.5597049748e+00 1.4778463562e+00 2.5597049748e+00 
77600 4.7213082988e+00 7.0061905046e-05 1.4778463562e+00 -2.5597049748e+00 1.4778463562e+00 2.5597049748e+00 
77700 4.7213082988e+00 7.0279882187e-05 1.4778463562e+00 -2.5597049748e+00 1.4778463562e+00 2.5597049748e+00 
77800 4.7213082988e+00 7.0497263260e-05 1.4778463562e+00 -2.5597049748e+00 1.4778463562e+00 2.5597049748e+00 
77900 4.7213082988e+00 7.0713967880e-05 1.4778463562e+00 -2.5597049748e+00 1.4778463562e+00 2.5597049748e+00 
78000 4.7213082985e+00 6.9691951659e-05 1.4778439638e+00 -2.5597008309e+00 1.4778439638e+00 2.5597008309e+00 
78100 4.7213082985e+00 6.9898620145e-05 1.4778439638e+00 -2.5597008309e+00 1.4778439638e+00 2.5597008309e+00 
78200 4.7213082985e+00 7.0104853952e-05 1.4778439638e+00 -2.5597008309e+00 1.4778439638e+00 2.5597008309e+00 
78300 4.7213082985e+00 7.0310567850e-05 1.4778439638e+00 -2.5597008309e+00 1.4778439638e+00 2.5597008309e+00 
78400 4.7213082986e+00 7.0515683003e-05 1.4778439638e+00 -2.5597008309e+00 1.4778439638e+00 2.5597008309e+00 
78500 4.7213082986e+00 7.0720126480e-05 1.4778439638e+00 -2.5597008309e+00 1.4778439638e+00 2.5597008309e+00 
78600 4.7213082983e+00 6.9685776529e-05 1.4778415711e+00 -2.5596966867e+00 1.4778415711e+00 2.5596966867e+00 
78700 4.7213082984e+00 6.9880212814e-05 1.4778415711e+00 -2.5596966867e+00 1.4778415711e+00 2.5596966867e+00 
78800 4.7213082984e+00 7.0074238353e-05 1.4778415711e+00 -2.5596966867e+00 1.4778415711e+00 2.5596966867e+00 
78900 4.7213082984e+00 7.0267773338e-05 1.4778415711e+00 -2.5596966867e+00 1.4778415711e+00 2.5596966867e+00 
79000 4.7213082984e+00 7.0460743937e-05 1.4778415711e+00 -2.5596966867e+00 1.4778415711e+00 2.5596966867e+00 
79100 4.7213082984e+00 7.0653081844e-05 1.4778415711e+00 -2.5596966867e+00 1.4778415711e+00 2.5596966867e+00 
79200 4.7213082984e+00 7.0844723864e-05 1.4778415711e+00 -2.5596966867e+00 1.4778415711e+00 2.5596966867e+00 
79300 4.7213082982e+00 6.9795402169e-05 1.4778391742e+00 -2.5596925351e+00 1.4778391742e+00 2.5596925351e+00 
79400 4.7213082982e+00 6.9976999965e-05 1.4778391742e+00 -2.5596925351e+00 1.4778391742e+00 2.5596925351e+00 
79500 4.7213082982e+00 7.0158188624e-05 1.4778391742e+00 -2.5596925351e+00 1.4778391742e+00 2.5596925351e+00 
79600 4.7213082982e+00 7.0338895422e-05 1.4778391742e+00 -2.5596925351e+00 1.4778391742e+00 2.5596925351e+00 
79700 4.7213082982e+00 7.0519053084e-05 1.4778391742e+00 -2.5596925351e+00 1.4778391742e+00 2.5596925351e+00 
79800 4.7213082983e+00 7.0698599376e-05 1.4778391742e+00 -2.5596925351e+00 1.4778391742e+00 2.5596925351e+00 
79900 4.7213082983e+00 7.0877476728e-05 1.4778391742e+00 -2.5596925351e+00 1.4778391742e+00 2.5596925351e+00 
80000 4.7213082981e+00 6.9814873222e-05 1.4778367762e+00 -2.5596883816e+00 1.4778367762e+00 2.5596883816e+00 
80100 4.7213082981e+00 6.9983771549e-05 1.4778367762e+00 -2.5596883816e+00 1.4778367762e+00 2.5596883816e+00 
80200 4.7213082981e+00 7.0152302397e-05 1.4778367762e+00 -2.5596883816e+00 1.4778367762e+00 2.5596883816e+00 
80300 4.7213082981e+00 7.0320397170e-05 1.4778367762e+00 -2.5596883816e+00 1.4778367762e+00 2.5596883816e+00 
80400 4.7213082981e+00 7.0487992417e-05 1.4778367762e+00 -2.5596883816e+00 1.4778367762e+00 2.5596883816e+00 
80500 4.7213082982e+00 7.0655029446e-05 1.4778367762e+00 -2.5596883816e+00 1.4778367762e+00 2.5596883816e+00 
80600 4.7213082982e+00 7.0821453969e-05 1.4778367762e+00 -2.5596883816e+00 1.4778367762e+00 2.5596883816e+00 
80700 4.7213082980e+00 6.9747459940e-05 1.4778343801e+00 -2.5596842314e+00 1.4778343801e+00 2.5596842314e+00 
80800 4.7213082980e+00 6.9904033887e-05 1.4778343801e+00 -2.5596842314e+00 1.4778343801e+00 2.5596842314e+00 
80900 4.7213082980e+00 7.0060304877e-05 1.4778343801e+00 -2.5596842314e+00 1.4778343801e+00 2.5596842314e+00 
81000 4.7213082980e+00 7.0216206736e-05 1.4778343801e+00 -2.5596842314e+00 1.4778343801e+00 2.5596842314e+00 
81100 4.7213082980e+00 7.0371678251e-05 1.4778343801e+00 -2.5596842314e+00 1.4778343801e+00 2.5596842314e+00 
81200 4.7213082981e+00 7.0526662795e-05 1.4778343801e+00 -2.5596842314e+00 1.4778343801e+00 2.5596842314e+00 
81300 4.7213082981e+00 7.0681107982e-05 1.4778343801e+00 -2.5596842314e+00 1.4778343801e+00 2.5596842314e+00 
81400 4.7213082981e+00 7.0834965350e-05 1.4778343801e+00 -2.5596842314e+00 1.4778343801e+00 2.5596842314e+00 
81500 4.7213082979e+00 6.9748221426e-05 1.4778319835e+00 -2.5596800804e+00 1.4778319835e+00 2.5596800804e+00 
81600 4.7213082979e+00 6.9892291717e-05 1.4778319835e+00 -2.5596800804e+00 1.4778319835e+00 2.5596800804e+00 
81700 4.7213082979e+00 7.0036098796e-05 1.4778319835e+00 -2.5596800804e+00 1.4778319835e+00 2.5596800804e+00 
81800 4.7213082980e+00 7.0179580736e-05 1.4778319835e+00 -2.5596800804e+00 1.4778319835e+00 2.5596800804e+00 
81900 4.7213082980e+00 7.0322680254e-05 1.4778319835e+00 -2.5596800804e+00 1.4778319835e+00 2.5596800804e+00 
82000 4.7213082980e+00 7.0465344354e-05 1.4778319835e+00 -2.5596800804e+00 1.4778319835e+00 2.5596800804e+00 
82100 4.7213082980e+00 7.0607524006e-05 1.4778319835e+00 -2.5596800804e+00 1.4778319835e+00 2.5596800804e+00 
82200 4.7213082981e+00 7.0749173847e-05 1.4778319835e+00 -2.5596800804e+00 1.4778319835e+00 2.5596800804e+00 
82300 4.7213082979e+00 6.9651806561e-05 1.4778295898e+00 -2.5596759345e+00 1.4778295898e+00 2.5596759345e+00 
82400 4.7213082979e+00 6.9783803976e-05 1.4778295898e+00 -2.5596759345e+00 1.4778295898e+00 2.5596759345e+00 
82500 4.7213082979e+00 6.9915603583e-05 1.4778295898e+00 -2.5596759345e+00 1.4778295898e+00 2.5596759345e+00 
82600 4.7213082979e+00 7.0047145733e-05 1.4778295898e+00 -2.5596759345e+00 1.4778295898e+00 2.5596759345e+00 
82700 4.7213082979e+00 7.0178375242e-05 1.4778295898e+00 -2.5596759345e+00 1.4778295898e+00 2.5596759345e+00 
82800 4.7213082980e+00 7.0309241043e-05 1.4778295898e+00 -2.5596759345e+00 1.4778295898e+00 2.5596759345e+00 
82900 4.7213082980e+00 7.0439695880e-05 1.4778295898e+00 -2.5596759345e+00 1.4778295898e+00 2.5596759345e+00 
83000 4.7213082980e+00 7.0569696020e-05 1.4778295898e+00 -2.5596759345e+00 1.4778295898e+00 2.5596759345e+00 
83100 4.7213082980e+00 7.0699200988e-05 1.4778295898e+00 -2.5596759345e+00 1.4778295898e+00 2.5596759345e+00 
83200 4.7213082981e+00 7.0828173331e-05 1.4778295898e+00 -2.5596759345e+00 1.4778295898e+00 2.5596759345e+00 
83300 4.7213082979e+00 6.9716775377e-05 1.4778271934e+00 -2.5596717838e+00 1.4778271934e+00 2.5596717838e+00 
83400 4.7213082979e+00 6.9836101575e-05 1.4778271934e+00 -2.5596717838e+00 1.4778271934e+00 2.5596717838e+00 
83500 4.7213082979e+00 6.9955247979e-05 1.4778271934e+00 -2.5596717838e+00 1.4778271934e+00 2.5596717838e+00 
83600 4.7213082979e+00 7.0074160698e-05 1.4778271934e+00 -2.5596717838e+00 1.4778271934e+00 2.5596717838e+00 
83700 4.7213082980e+00 7.0192789875e-05 1.4778271934e+00 -2.5596717838e+00 1.4778271934e+00 2.5596717838e+00 
83800 4.7213082980e+00 7.0311089377e-05 1.4778271934e+00 -2.5596717838e+00 1.4778271934e+00 2.5596717838e+00 
83900 4.7213082980e+00 7.0429016511e-05 1.4778271934e+00 -2.5596717838e+00 1.4778271934e+00 2.5596717838e+00 
84000 4.7213082980e+00 7.0546531772e-05 1.4778271934e+00 -2.5596717838e+00 1.4778271934e+00 2.5596717838e+00 
84100 4.7213082981e+00 7.0663598596e-05 1.4778271934e+00 -2.5596717838e+00 1.4778271934e+00 2.5596717838e+00 
84200 4.7213082981e+00 7.0780183153e-05 1.4778271934e+00 -2.5596717838e+00 1.4778271934e+00 2.5596717838e+00 
84300 4.7213082979e+00 6.9657313494e-05 1.4778247987e+00 -2.5596676360e+00 1.4778247987e+00 2.5596676360e+00 
84400 4.7213082979e+00 6.9764368165e-05 1.4778247987e+00 -2.5596676360e+00 1.4778247987e+00 2.5596676360e+00 
84500 4.7213082979e+00 6.9871302420e-05 1.4778247987e+00 -2.5596676360e+00 1.4778247987e+00 2.5596676360e+00 
84600 4.7213082979e+00 6.9978065037e-05 1.4778247987e+00 -2.5596676360e+00 1.4778247987e+00 2.5596676360e+00 
84700 4.7213082980e+00 7.0084608628e-05 1.4778247987e+00 -2.5596676360e+00 1.4778247987e+00 2.5596676360e+00 
84800 4.7213082980e+00 7.0190889340e-05 1.4778247987e+00 -2.5596676360e+00 1.4778247987e+00 2.5596676360e+00 
84900 4.7213082980e+00 7.0296866587e-05 1.4778247987e+00 -2.5596676360e+00 1.4778247987e+00 2.5596676360e+00 
85000 4.7213082980e+00 7.0402502804e-05 1.4778247987e+00 -2.5596676360e+00 1.4778247987e+00 2.5596676360e+00 
85100 4.7213082981e+00 7.0507763219e-05 1.4778247987e+00 -2.5596676360e+00 1.4778247987e+00 2.5596676360e+00 
85200 4.7213082981e+00 7.0612615645e-05 1.4778247987e+00 -2.5596676360e+00 1.4778247987e+00 2.5596676360e+00 
85300 4.7213082981e+00 7.0717030295e-05 1.4778247987e+00 -2.5596676360e+00 1.4778247987e+00 2.5596676360e+00 
85400 4.7213082979e+00 6.9583166433e-05 1.4778224061e+00 -2.5596634919e+00 1.4778224061e+00 2.5596634919e+00 
85500 4.7213082979e+00 6.9678158657e-05 1.4778224061e+00 -2.5596634919e+00 1.4778224061e+00 2.5596634919e+00 
85600 4.7213082980e+00 6.9773084927e-05 1.4778224061e+00 -2.5596634919e+00 1.4778224061e+00 2.5596634919e+00 
85700 4.7213082980e+00 6.9867896989e-05 1.4778224061e+00 -2.5596634919e+00 1.4778224061e+00 2.5596634919e+00 
85800 4.7213082980e+00 6.9962550192e-05 1.4778224061e+00 -2.5596634919e+00 1.4778224061e+00 2.5596634919e+00 
85900 4.7213082980e+00 7.0057003208e-05 1.4778224061e+00 -2.5596634919e+00 1.4778224061e+00 2.5596634919e+00 
86000 4.7213082981e+00 7.0151217781e-05 1.4778224061e+00 -2.5596634919e+00 1.4778224061e+00 2.5596634919e+00 
86100 4.7213082981e+00 7.0245158489e-05 1.4778224061e+00 -2.5596634919e+00 1.4778224061e+00 2.5596634919e+00 
86200 4.7213082981e+00 7.0338792536e-05 1.4778224061e+00 -2.5596634919e+00 1.4778224061e+00 2.5596634919e+00 
86300 4.7213082981e+00 7.0432089552e-05 1.4778224061e+00 -2.5596634919e+00 1.4778224061e+00 2.5596634919e+00 
86400 4.7213082981e+00 7.0525021417e-05 1.4778224061e+00 -2.5596634919e+00 1.4778224061e+00 2.5596634919e+00 
86500 4.7213082982e+00 7.0617562095e-05 1.4778224061e+00 -2.5596634919e+00 1.4778224061e+00 2.5596634919e+00 
86600 4.7213082982e+00 7.0709687484e-05 1.4778224061e+00 -2.5596634919e+00 1.4778224061e+00 2.5596634919e+00 
86700 4.7213082982e+00 7.0801375276e-05 1.4778224061e+00 -2.5596634919e+00 1.4778224061e+00 2.5596634919e+00 
86800 4.7213082980e+00 6.9653340591e-05 1.4778200106e+00 -2.5596593429e+00 1.4778200106e+00 2.5596593429e+00 
86900 4.7213082980e+00 6.9735616475e-05 1.4778200106e+00 -2.5596593429e+00 1.4778200106e+00 2.5596593429e+00 
87000 4.7213082980e+00 6.9817846410e-05 1.4778200106e+00 -2.5596593429e+00 1.4778200106e+00 2.5596593429e+00 
87100 4.7213082981e+00 6.9899987621e-05 1.4778200106e+00 -2.5596593429e+00 1.4778200106e+00 2.5596593429e+00 
87200 4.7213082981e+00 6.9982000533e-05 1.4778200106e+00 -2.5596593429e+00 1.4778200106e+00 2.5596593429e+00 
87300 4.7213082981e+00 7.0016398791e-05 1.4778200106e+00 -2.5596593429e+00 1.4778200106e+00 2.5596593429e+00 
87300 4.7213082981e+00 7.0016398792e-05 1.4778200106e+00 -2.5596593429e+00 1.4778200106e+00 2.5596593429e+00 
