# step Hamiltonian StressXX CellTensor1 CellTensor2 CellTensor3 CellTensor4 
0 7.1918595136e+00 -1.5721584606e-01 1.7438352029e+00 -3.0204111715e+00 1.7438352029e+00 3.0204111715e+00 
100 7.1799664968e+00 -1.5462027699e-01 1.7438352029e+00 -3.0204111715e+00 1.7438352029e+00 3.0204111715e+00 
200 7.1677442090e+00 -1.4857187164e-01 1.7482704163e+00 -3.0280931865e+00 1.7482704163e+00 3.0280931865e+00 
300 7.1560699257e+00 -1.4285436206e-01 1.7525212435e+00 -3.0354558352e+00 1.7525212435e+00 3.0354558352e+00 
400 7.1449688216e+00 -1.3745254471e-01 1.7565985009e+00 -3.0425178521e+00 1.7565985009e+00 3.0425178521e+00 
500 7.1344602463e+00 -1.3235253874e-01 1.7605124134e+00 -3.0492969474e+00 1.7605124134e+00 3.0492969474e+00 
600 7.1245578509e+00 -1.2754170049e-01 1.7642726691e+00 -3.0558099013e+00 1.7642726691e+00 3.0558099013e+00 
700 7.1152697670e+00 -1.2300853527e-01 1.7678884697e+00 -3.0620726516e+00 1.7678884697e+00 3.0620726516e+00 
800 7.1065988370e+00 -1.1874260574e-01 1.7713685761e+00 -3.0681003727e+00 1.7713685761e+00 3.0681003727e+00 
900 7.0985428887e+00 -1.1473443709e-01 1.7747213504e+00 -3.0739075482e+00 1.7747213504e+00 3.0739075482e+00 
1000 7.0910950497e+00 -1.1097542001e-01 1.7779547933e+00 -3.0795080356e+00 1.7779547933e+00 3.0795080356e+00 
1100 7.0842440943e+00 -1.0745771248e-01 1.7810765777e+00 -3.0849151247e+00 1.7810765777e+00 3.0849151247e+00 
1200 7.0779748173e+00 -1.0417414169e-01 1.7840940783e+00 -3.0901415892e+00 1.7840940783e+00 3.0901415892e+00 
1300 7.0722684275e+00 -1.0111810740e-01 1.7870143982e+00 -3.0951997315e+00 1.7870143982e+00 3.0951997315e+00 
1400 7.0671029544e+00 -9.8283487963e-02 1.7898443907e+00 -3.1001014223e+00 1.7898443907e+00 3.1001014223e+00 
1500 7.0624536625e+00 -9.5664550044e-02 1.7925906791e+00 -3.1048581334e+00 1.7925906791e+00 3.1048581334e+00 
1600 7.0582934674e+00 -9.3255863079e-02 1.7952596723e+00 -3.1094809652e+00 1.7952596723e+00 3.1094809652e+00 
1700 7.0545933478e+00 -9.1052219116e-02 1.7978575783e+00 -3.1139806704e+00 1.7978575783e+00 3.1139806704e+00 
1800 7.0513227494e+00 -8.9048558730e-02 1.8003904142e+00 -3.1183676708e+00 1.8003904142e+00 3.1183676708e+00 
1900 7.0484499757e+00 -8.7239903445e-02 1.8028640142e+00 -3.1226520718e+00 1.8028640142e+00 3.1226520718e+00 
2000 7.0459425631e+00 -8.5621294989e-02 1.8052840357e+00 -3.1268436718e+00 1.8052840357e+00 3.1268436718e+00 
2100 7.0437676358e+00 -8.4187741589e-02 1.8076559620e+00 -3.1309519688e+00 1.8076559620e+00 3.1309519688e+00 
2200 7.0418922390e+00 -8.2934171387e-02 1.8099851053e+00 -3.1349861633e+00 1.8099851053e+00 3.1349861633e+00 
2300 7.0402836479e+00 -8.1855392983e-02 1.8122766060e+00 -3.1389551590e+00 1.8122766060e+00 3.1389551590e+00 
2400 7.0389096510e+00 -8.0946062987e-02 1.8145354326e+00 -3.1428675615e+00 1.8145354326e+00 3.1428675615e+00 
2500 7.0377388059e+00 -8.0200660430e-02 1.8167663790e+00 -3.1467316740e+00 1.8167663790e+00 3.1467316740e+00 
2600 7.0367406688e+00 -7.9613467767e-02 1.8189740619e+00 -3.1505554929e+00 1.8189740619e+00 3.1505554929e+00 
2700 7.0358859950e+00 -7.9178558174e-02 1.8211629170e+00 -3.1543467011e+00 1.8211629170e+00 3.1543467011e+00 
2800 7.0351469122e+00 -7.8889788777e-02 1.8233371951e+00 -3.1581126612e+00 1.8233371951e+00 3.1581126612e+00 
2900 7.0344970672e+00 -7.8740799400e-02 1.8255009575e+00 -3.1618604076e+00 1.8255009575e+00 3.1618604076e+00 
3000 7.0339117450e+00 -7.8725016396e-02 1.8276580718e+00 -3.1655966393e+00 1.8276580718e+00 3.1655966393e+00 
3100 7.0333679636e+00 -7.8835661077e-02 1.8298122072e+00 -3.1693277113e+00 1.8298122072e+00 3.1693277113e+00 
3200 7.0328445434e+00 -7.9065762249e-02 1.8319668303e+00 -3.1730596279e+00 1.8319668303e+00 3.1730596279e+00 
3300 7.0323221551e+00 -7.9408172350e-02 1.8341252009e+00 -3.1767980354e+00 1.8341252009e+00 3.1767980354e+00 
3400 7.0317833452e+00 -7.9855586661e-02 1.8362903686e+00 -3.1805482159e+00 1.8362903686e+00 3.1805482159e+00 
3500 7.0312125420e+00 -8.0400565092e-02 1.8384651698e+00 -3.1843150820e+00 1.8384651698e+00 3.1843150820e+00 
3600 7.0305960445e+00 -8.1035556035e-02 1.8406522246e+00 -3.1881031721e+00 1.8406522246e+00 3.1881031721e+00 
3700 7.0299219940e+00 -8.1752921785e-02 1.8428539357e+00 -3.1919166476e+00 1.8428539357e+00 3.1919166476e+00 
3800 7.0291803320e+00 -8.2544965085e-02 1.8450724865e+00 -3.1957592903e+00 1.8450724865e+00 3.1957592903e+00 
3900 7.0283627451e+00 -8.3403956330e-02 1.8473098410e+00 -3.1996345020e+00 1.8473098410e+00 3.1996345020e+00 
4000 7.0274625987e+00 -8.4322161049e-02 1.8495677439e+00 -3.2035453044e+00 1.8495677439e+00 3.2035453044e+00 
4100 7.0264748621e+00 -8.5291867264e-02 1.8518477215e+00 -3.2074943414e+00 1.8518477215e+00 3.2074943414e+00 
4200 7.0253960251e+00 -8.6305412410e-02 1.8541510837e+00 -3.2114838819e+00 1.8541510837e+00 3.2114838819e+00 
4300 7.0242240088e+00 -8.7355209505e-02 1.8564789265e+00 -3.2155158239e+00 1.8564789265e+00 3.2155158239e+00 
4400 7.0229580715e+00 -8.8433772313e-02 1.8588321349e+00 -3.2195917005e+00 1.8588321349e+00 3.2195917005e+00 
4500 7.0215987109e+00 -8.9533739283e-02 1.8612113872e+00 -3.2237126862e+00 1.8612113872e+00 3.2237126862e+00 
4600 7.0201475646e+00 -9.0647896072e-02 1.8636171590e+00 -3.2278796052e+00 1.8636171590e+00 3.2278796052e+00 
4700 7.0186073083e+00 -9.1769196512e-02 1.8660497291e+00 -3.2320929402e+00 1.8660497291e+00 3.2320929402e+00 
4800 7.0169815552e+00 -9.2890781919e-02 1.8685091845e+00 -3.2363528420e+00 1.8685091845e+00 3.2363528420e+00 
4900 7.0152747551e+00 -9.4005998643e-02 1.8709954273e+00 -3.2406591409e+00 1.8709954273e+00 3.2406591409e+00 
5000 7.0134920950e+00 -9.5108413839e-02 1.8735081809e+00 -3.2450113576e+00 1.8735081809e+00 3.2450113576e+00 
5100 7.0116394029e+00 -9.6191829418e-02 1.8760469971e+00 -3.2494087164e+00 1.8760469971e+00 3.2494087164e+00 
5200 7.0097230528e+00 -9.7250294193e-02 1.8786112641e+00 -3.2538501571e+00 1.8786112641e+00 3.2538501571e+00 
5300 7.0077498740e+00 -9.8278114253e-02 1.8812002136e+00 -3.2583343492e+00 1.8812002136e+00 3.2583343492e+00 
5400 7.0057270642e+00 -9.9269861596e-02 1.8838129293e+00 -3.2628597056e+00 1.8838129293e+00 3.2628597056e+00 
5500 7.0036621056e+00 -1.0022038110e-01 1.8864483548e+00 -3.2674243963e+00 1.8864483548e+00 3.2674243963e+00 
5600 7.0015626863e+00 -1.0112479588e-01 1.8891053018e+00 -3.2720263636e+00 1.8891053018e+00 3.2720263636e+00 
5700 6.9994366255e+00 -1.0197851118e-01 1.8917824591e+00 -3.2766633361e+00 1.8917824591e+00 3.2766633361e+00 
5800 6.9972918037e+00 -1.0277721682e-01 1.8944784005e+00 -3.2813328436e+00 1.8944784005e+00 3.2813328436e+00 
5900 6.9951360971e+00 -1.0351688829e-01 1.8971915935e+00 -3.2860322316e+00 1.8971915935e+00 3.2860322316e+00 
6000 6.9929773173e+00 -1.0419378677e-01 1.8999204075e+00 -3.2907586762e+00 1.8999204075e+00 3.2907586762e+00 
6100 6.9908231555e+00 -1.0480445789e-01 1.9026631228e+00 -3.2955091983e+00 1.9026631228e+00 3.2955091983e+00 
6200 6.9886811310e+00 -1.0534572964e-01 1.9054179380e+00 -3.3002806782e+00 1.9054179380e+00 3.3002806782e+00 
6300 6.9865585448e+00 -1.0581470926e-01 1.9081829787e+00 -3.3050698693e+00 1.9081829787e+00 3.3050698693e+00 
6400 6.9844624376e+00 -1.0620877951e-01 1.9109563055e+00 -3.3098734121e+00 1.9109563055e+00 3.3098734121e+00 
6500 6.9823995523e+00 -1.0652559410e-01 1.9137359212e+00 -3.3146878478e+00 1.9137359212e+00 3.3146878478e+00 
6600 6.9803763003e+00 -1.0676307266e-01 1.9165197791e+00 -3.3195096311e+00 1.9165197791e+00 3.3195096311e+00 
6700 6.9783987324e+00 -1.0691939521e-01 1.9193057899e+00 -3.3243351433e+00 1.9193057899e+00 3.3243351433e+00 
6800 6.9764725140e+00 -1.0699299614e-01 1.9220918290e+00 -3.3291607046e+00 1.9220918290e+00 3.3291607046e+00 
6900 6.9746029028e+00 -1.0698255801e-01 1.9248757433e+00 -3.3339825856e+00 1.9248757433e+00 3.3339825856e+00 
7000 6.9727947320e+00 -1.0688700501e-01 1.9276553581e+00 -3.3387970197e+00 1.9276553581e+00 3.3387970197e+00 
7100 6.9710523952e+00 -1.0670549630e-01 1.9304284832e+00 -3.3436002133e+00 1.9304284832e+00 3.3436002133e+00 
7200 6.9693798358e+00 -1.0643741923e-01 1.9331929193e+00 -3.3483883570e+00 1.9331929193e+00 3.3483883570e+00 
7300 6.9677805392e+00 -1.0608238255e-01 1.9359464635e+00 -3.3531576355e+00 1.9359464635e+00 3.3531576355e+00 
7400 6.9662575277e+00 -1.0564020952e-01 1.9386869156e+00 -3.3579042377e+00 1.9386869156e+00 3.3579042377e+00 
7500 6.9648133583e+00 -1.0511093123e-01 1.9414120827e+00 -3.3626243657e+00 1.9414120827e+00 3.3626243657e+00 
7600 6.9634501237e+00 -1.0449477987e-01 1.9441197852e+00 -3.3673142439e+00 1.9441197852e+00 3.3673142439e+00 
7700 6.9621694549e+00 -1.0379218216e-01 1.9468078608e+00 -3.3719701275e+00 1.9468078608e+00 3.3719701275e+00 
7800 6.9609725265e+00 -1.0300375297e-01 1.9494741701e+00 -3.3765883106e+00 1.9494741701e+00 3.3765883106e+00 
7900 6.9598600647e+00 -1.0213028903e-01 1.9521166002e+00 -3.3811651339e+00 1.9521166002e+00 3.3811651339e+00 
8000 6.9588323562e+00 -1.0117276288e-01 1.9547330696e+00 -3.3856969918e+00 1.9547330696e+00 3.3856969918e+00 
8100 6.9578892602e+00 -1.0013231699e-01 1.9573215319e+00 -3.3901803401e+00 1.9573215319e+00 3.3901803401e+00 
8200 6.9570302211e+00 -9.9010258042e-02 1.9598799797e+00 -3.3946117016e+00 1.9598799797e+00 3.3946117016e+00 
8300 6.9562542840e+00 -9.7808051470e-02 1.9624064481e+00 -3.3989876733e+00 1.9624064481e+00 3.3989876733e+00 
8400 6.9555601102e+00 -9.6527316115e-02 1.9648990186e+00 -3.4033049319e+00 1.9648990186e+00 3.4033049319e+00 
8500 6.9549459957e+00 -9.5169819106e-02 1.9673558217e+00 -3.4075602398e+00 1.9673558217e+00 3.4075602398e+00 
8600 6.9544098896e+00 -9.3737470882e-02 1.9697750409e+00 -3.4117504502e+00 1.9697750409e+00 3.4117504502e+00 
8700 6.9539494150e+00 -9.2232320365e-02 1.9721549146e+00 -3.4158725126e+00 1.9721549146e+00 3.4158725126e+00 
8800 6.9535618895e+00 -9.0656550257e-02 1.9744937402e+00 -3.4199234772e+00 1.9744937402e+00 3.4199234772e+00 
8900 6.9532443480e+00 -8.9012472436e-02 1.9767898755e+00 -3.4239005003e+00 1.9767898755e+00 3.4239005003e+00 
9000 6.9529935655e+00 -8.7302523422e-02 1.9790417423e+00 -3.4278008480e+00 1.9790417423e+00 3.4278008480e+00 
9100 6.9528060807e+00 -8.5529259895e-02 1.9812478282e+00 -3.4316219009e+00 1.9812478282e+00 3.4316219009e+00 
9200 6.9526782211e+00 -8.3695354215e-02 1.9834066892e+00 -3.4353611578e+00 1.9834066892e+00 3.4353611578e+00 
9300 6.9526061275e+00 -8.1803589928e-02 1.9855169518e+00 -3.4390162397e+00 1.9855169518e+00 3.4390162397e+00 
9400 6.9525857794e+00 -7.9856857217e-02 1.9875773150e+00 -3.4425848935e+00 1.9875773150e+00 3.4425848935e+00 
9500 6.9526130215e+00 -7.7858148261e-02 1.9895865524e+00 -3.4460649948e+00 1.9895865524e+00 3.4460649948e+00 
9600 6.9526835887e+00 -7.5810552473e-02 1.9915435142e+00 -3.4494545521e+00 1.9915435142e+00 3.4494545521e+00 
9700 6.9527931332e+00 -7.3717251577e-02 1.9934471286e+00 -3.4527517089e+00 1.9934471286e+00 3.4527517089e+00 
9800 6.9529372504e+00 -7.1581514495e-02 1.9952964035e+00 -3.4559547470e+00 1.9952964035e+00 3.4559547470e+00 
9900 6.9531115046e+00 -6.9406692008e-02 1.9970904284e+00 -3.4590620894e+00 1.9970904284e+00 3.4590620894e+00 
10000 6.9533114557e+00 -6.7196211168e-02 1.9988283755e+00 -3.4620723020e+00 1.9988283755e+00 3.4620723020e+00 
10100 6.9535326842e+00 -6.4953569418e-02 2.0005095009e+00 -3.4649840965e+00 2.0005095009e+00 3.4649840965e+00 
10200 6.9537708165e+00 -6.2682328415e-02 2.0021331459e+00 -3.4677963322e+00 2.0021331459e+00 3.4677963322e+00 
10300 6.9540215496e+00 -6.0386107523e-02 2.0036987383e+00 -3.4705080179e+00 2.0036987383e+00 3.4705080179e+00 
10400 6.9542806751e+00 -5.8068576961e-02 2.0052057930e+00 -3.4731183131e+00 2.0052057930e+00 3.4731183131e+00 
10500 6.9545441020e+00 -5.5733450596e-02 2.0066539127e+00 -3.4756265300e+00 2.0066539127e+00 3.4756265300e+00 
10600 6.9548078792e+00 -5.3384478376e-02 2.0080427889e+00 -3.4780321341e+00 2.0080427889e+00 3.4780321341e+00 
10700 6.9550682166e+00 -5.1025438400e-02 2.0093722019e+00 -3.4803347449e+00 2.0093722019e+00 3.4803347449e+00 
10800 6.9553215046e+00 -4.8660128626e-02 2.0106420216e+00 -3.4825341372e+00 2.0106420216e+00 3.4825341372e+00 
10900 6.9555643336e+00 -4.6292358243e-02 2.0118522073e+00 -3.4846302404e+00 2.0118522073e+00 3.4846302404e+00 
11000 6.9557935102e+00 -4.3925938703e-02 2.0130028079e+00 -3.4866231391e+00 2.0130028079e+00 3.4866231391e+00 
11100 6.9560060738e+00 -4.1564674459e-02 2.0140939615e+00 -3.4885130726e+00 2.0140939615e+00 3.4885130726e+00 
11200 6.9561993099e+00 -3.9212353424e-02 2.0151258951e+00 -3.4903004339e+00 2.0151258951e+00 3.4903004339e+00 
11300 6.9563707629e+00 -3.6872737205e-02 2.0160989238e+00 -3.4919857691e+00 2.0160989238e+00 3.4919857691e+00 
11400 6.9565182460e+00 -3.4549551132e-02 2.0170134504e+00 -3.4935697757e+00 2.0170134504e+00 3.4935697757e+00 
11500 6.9566398503e+00 -3.2246474159e-02 2.0178699642e+00 -3.4950533010e+00 2.0178699642e+00 3.4950533010e+00 
11600 6.9567339508e+00 -2.9967128670e-02 2.0186690395e+00 -3.4964373400e+00 2.0186690395e+00 3.4964373400e+00 
11700 6.9567992110e+00 -2.7715070267e-02 2.0194113346e+00 -3.4977230329e+00 2.0194113346e+00 3.4977230329e+00 
11800 6.9568345854e+00 -2.5493777582e-02 2.0200975900e+00 -3.4989116622e+00 2.0200975900e+00 3.4989116622e+00 
11900 6.9568393193e+00 -2.3306642213e-02 2.0207286265e+00 -3.5000046494e+00 2.0207286265e+00 3.5000046494e+00 
12000 6.9568129474e+00 -2.1156958812e-02 2.0213053430e+00 -3.5010035517e+00 2.0213053430e+00 3.5010035517e+00 
12100 6.9567552894e+00 -1.9047915434e-02 2.0218287145e+00 -3.5019100577e+00 2.0218287145e+00 3.5019100577e+00 
12200 6.9566664439e+00 -1.6982584192e-02 2.0222997894e+00 -3.5027259833e+00 2.0222997894e+00 3.5027259833e+00 
12300 6.9565467803e+00 -1.4963912301e-02 2.0227196868e+00 -3.5034532671e+00 2.0227196868e+00 3.5034532671e+00 
12400 6.9563969285e+00 -1.2994713577e-02 2.0230895940e+00 -3.5040939650e+00 2.0230895940e+00 3.5040939650e+00 
12500 6.9562177671e+00 -1.1077660451e-02 2.0234107626e+00 -3.5046502453e+00 2.0234107626e+00 3.5046502453e+00 
12600 6.9560104092e+00 -9.2152765660e-03 2.0236845060e+00 -3.5051243830e+00 2.0236845060e+00 3.5051243830e+00 
12700 6.9557761871e+00 -7.4099300134e-03 2.0239121959e+00 -3.5055187534e+00 2.0239121959e+00 3.5055187534e+00 
12800 6.9555166352e+00 -5.6638272556e-03 2.0240952583e+00 -3.5058358267e+00 2.0240952583e+00 3.5058358267e+00 
12900 6.9552334716e+00 -3.9790077811e-03 2.0242351700e+00 -3.5060781608e+00 2.0242351700e+00 3.5060781608e+00 
13000 6.9549285786e+00 -2.3573395305e-03 2.0243334550e+00 -3.5062483955e+00 2.0243334550e+00 3.5062483955e+00 
13100 6.9546039819e+00 -8.0051512002e-04 2.0243916803e+00 -3.5063492448e+00 2.0243916803e+00 3.5063492448e+00 
13200 6.9542618296e+00 6.8995111471e-04 2.0244114521e+00 -3.5063834905e+00 2.0244114521e+00 3.5063834905e+00 
13300 6.9539043700e+00 2.1127252435e-03 2.0243944114e+00 -3.5063539750e+00 2.0243944114e+00 3.5063539750e+00 
13400 6.9535339292e+00 3.4666550310e-03 2.0243422299e+00 -3.5062635941e+00 2.0243422299e+00 3.5062635941e+00 
13500 6.9531528886e+00 4.7507703958e-03 2.0242566063e+00 -3.5061152897e+00 2.0242566063e+00 3.5061152897e+00 
13600 6.9527636627e+00 5.9642830522e-03 2.0241392614e+00 -3.5059120423e+00 2.0241392614e+00 3.5059120423e+00 
13700 6.9523686766e+00 7.1065853581e-03 2.0239919343e+00 -3.5056568643e+00 2.0239919343e+00 3.5056568643e+00 
13800 6.9519703445e+00 8.1772483945e-03 2.0238163782e+00 -3.5053527922e+00 2.0238163782e+00 3.5053527922e+00 
13900 6.9515710486e+00 9.1760193169e-03 2.0236143561e+00 -3.5050028797e+00 2.0236143561e+00 3.5050028797e+00 
14000 6.9511731188e+00 1.0102818018e-02 2.0233876368e+00 -3.5046101904e+00 2.0233876368e+00 3.5046101904e+00 
14100 6.9507788141e+00 1.0957733149e-02 2.0231379909e+00 -3.5041777909e+00 2.0231379909e+00 3.5041777909e+00 
14200 6.9503903038e+00 1.1741017557e-02 2.0228671866e+00 -3.5037087441e+00 2.0228671866e+00 3.5037087441e+00 
14300 6.9500096521e+00 1.2453083183e-02 2.0225769862e+00 -3.5032061023e+00 2.0225769862e+00 3.5032061023e+00 
14400 6.9496388022e+00 1.3094495496e-02 2.0222691421e+00 -3.5026729007e+00 2.0222691421e+00 3.5026729007e+00 
14500 6.9492795635e+00 1.3665967503e-02 2.0219453933e+00 -3.5021121513e+00 2.0219453933e+00 3.5021121513e+00 
14600 6.9489335993e+00 1.4168353409e-02 2.0216074616e+00 -3.5015268365e+00 2.0216074616e+00 3.5015268365e+00 
14700 6.9486024175e+00 1.4602641992e-02 2.0212570488e+00 -3.5009199037e+00 2.0212570488e+00 3.5009199037e+00 
14800 6.9482873620e+00 1.4969949728e-02 2.0208958328e+00 -3.5002942592e+00 2.0208958328e+00 3.5002942592e+00 
14900 6.9479896069e+00 1.5271513752e-02 2.0205254651e+00 -3.4996527635e+00 2.0205254651e+00 3.4996527635e+00 
15000 6.9477101515e+00 1.5508684692e-02 2.0201475674e+00 -3.4989982255e+00 2.0201475674e+00 3.4989982255e+00 
15100 6.9474498181e+00 1.5682919429e-02 2.0197637293e+00 -3.4983333984e+00 2.0197637293e+00 3.4983333984e+00 
15200 6.9472092512e+00 1.5795773839e-02 2.0193755052e+00 -3.4976609746e+00 2.0193755052e+00 3.4976609746e+00 
15300 6.9469889181e+00 1.5848895547e-02 2.0189844124e+00 -3.4969835820e+00 2.0189844124e+00 3.4969835820e+00 
15400 6.9467891117e+00 1.5844016750e-02 2.0185919284e+00 -3.4963037798e+00 2.0185919284e+00 3.4963037798e+00 
15500 6.9466099549e+00 1.5782947116e-02 2.0181994889e+00 -3.4956240547e+00 2.0181994889e+00 3.4956240547e+00 
15600 6.9464514055e+00 1.5667566826e-02 2.0178084860e+00 -3.4949468178e+00 2.0178084860e+00 3.4949468178e+00 
15700 6.9463132639e+00 1.5499819744e-02 2.0174202662e+00 -3.4942744013e+00 2.0174202662e+00 3.4942744013e+00 
15800 6.9461951808e+00 1.5281706767e-02 2.0170361289e+00 -3.4936090560e+00 2.0170361289e+00 3.4936090560e+00 
15900 6.9460966665e+00 1.5015279357e-02 2.0166573249e+00 -3.4929529482e+00 2.0166573249e+00 3.4929529482e+00 
16000 6.9460171013e+00 1.4702633263e-02 2.0162850550e+00 -3.4923081578e+00 2.0162850550e+00 3.4923081578e+00 
16100 6.9459557462e+00 1.4345902455e-02 2.0159204689e+00 -3.4916766761e+00 2.0159204689e+00 3.4916766761e+00 
16200 6.9459117546e+00 1.3947253264e-02 2.0155646642e+00 -3.4910604043e+00 2.0155646642e+00 3.4910604043e+00 
16300 6.9458841845e+00 1.3508878737e-02 2.0152186853e+00 -3.4904611513e+00 2.0152186853e+00 3.4904611513e+00 
16400 6.9458720108e+00 1.3032993197e-02 2.0148835231e+00 -3.4898806333e+00 2.0148835231e+00 3.4898806333e+00 
16500 6.9458741380e+00 1.2521827021e-02 2.0145601137e+00 -3.4893204718e+00 2.0145601137e+00 3.4893204718e+00 
16600 6.9458894131e+00 1.1977621614e-02 2.0142493385e+00 -3.4887821935e+00 2.0142493385e+00 3.4887821935e+00 
16700 6.9459166378e+00 1.1402624592e-02 2.0139520236e+00 -3.4882672289e+00 2.0139520236e+00 3.4882672289e+00 
16800 6.9459545816e+00 1.0799085142e-02 2.0136689395e+00 -3.4877769128e+00 2.0136689395e+00 3.4877769128e+00 
16900 6.9460019932e+00 1.0169249589e-02 2.0134008009e+00 -3.4873124832e+00 2.0134008009e+00 3.4873124832e+00 
17000 6.9460576130e+00 9.5153571165e-03 2.0131482671e+00 -3.4868750818e+00 2.0131482671e+00 3.4868750818e+00 
17100 6.9461201839e+00 8.8396356779e-03 2.0129119415e+00 -3.4864657538e+00 2.0129119415e+00 3.4864657538e+00 
17200 6.9461884619e+00 8.1442980571e-03 2.0126923721e+00 -3.4860854485e+00 2.0126923721e+00 3.4860854485e+00 
17300 6.9462612264e+00 7.4315380918e-03 2.0124900520e+00 -3.4857350199e+00 2.0124900520e+00 3.4857350199e+00 
17400 6.9463372892e+00 6.7035270432e-03 2.0123054195e+00 -3.4854152269e+00 2.0123054195e+00 3.4854152269e+00 
17500 6.9464155033e+00 5.9624101110e-03 2.0121388584e+00 -3.4851267346e+00 2.0121388584e+00 3.4851267346e+00 
17600 6.9464947700e+00 5.2103030867e-03 2.0119906992e+00 -3.4848701154e+00 2.0119906992e+00 3.4848701154e+00 
17700 6.9465740464e+00 4.4492891423e-03 2.0118612193e+00 -3.4846458496e+00 2.0118612193e+00 3.4846458496e+00 
17800 6.9466523509e+00 3.6814157498e-03 2.0117506439e+00 -3.4844543274e+00 2.0117506439e+00 3.4844543274e+00 
17900 6.9467287686e+00 2.9086917308e-03 2.0116591468e+00 -3.4842958497e+00 2.0116591468e+00 3.4842958497e+00 
18000 6.9468024554e+00 2.1330844342e-03 2.0115868514e+00 -3.4841706304e+00 2.0115868514e+00 3.4841706304e+00 
18100 6.9468726414e+00 1.3565170395e-03 2.0115338317e+00 -3.4840787976e+00 2.0115338317e+00 3.4840787976e+00 
18200 6.9469386332e+00 5.8086598844e-04 2.0115001133e+00 -3.4840203956e+00 2.0115001133e+00 3.4840203956e+00 
18300 6.9469998161e+00 -1.9204145655e-04 2.0114856747e+00 -3.4839953872e+00 2.0114856747e+00 3.4839953872e+00 
18400 6.9470556549e+00 -9.6042952592e-04 2.0114904483e+00 -3.4840036554e+00 2.0114904483e+00 3.4840036554e+00 
18500 6.9471056936e+00 -1.7225761263e-03 2.0115143219e+00 -3.4840450057e+00 2.0115143219e+00 3.4840450057e+00 
18600 6.9471495557e+00 -2.4768148926e-03 2.0115571400e+00 -3.4841191687e+00 2.0115571400e+00 3.4841191687e+00 
18700 6.9471869425e+00 -3.2215371068e-03 2.0116187049e+00 -3.4842258023e+00 2.0116187049e+00 3.4842258023e+00 
18800 6.9472176313e+00 -3.9551934812e-03 2.0116987787e+00 -3.4843644942e+00 2.0116987787e+00 3.4843644942e+00 
18900 6.9472414735e+00 -4.6762958047e-03 2.0117970843e+00 -3.4845347645e+00 2.0117970843e+00 3.4845347645e+00 
19000 6.9472583913e+00 -5.3834184498e-03 2.0119133073e+00 -3.4847360686e+00 2.0119133073e+00 3.4847360686e+00 
19100 6.9472683748e+00 -6.0751997381e-03 2.0120470973e+00 -3.4849677997e+00 2.0120470973e+00 3.4849677997e+00 
19200 6.9472714782e+00 -6.7503431637e-03 2.0121980698e+00 -3.4852292918e+00 2.0121980698e+00 3.4852292918e+00 
19300 6.9472678155e+00 -7.4076184730e-03 2.0123658077e+00 -3.4855198223e+00 2.0123658077e+00 3.4855198223e+00 
19400 6.9472575570e+00 -8.0458625992e-03 2.0125498630e+00 -3.4858386154e+00 2.0125498630e+00 3.4858386154e+00 
19500 6.9472409238e+00 -8.6639804524e-03 2.0127497585e+00 -3.4861848447e+00 2.0127497585e+00 3.4861848447e+00 
19600 6.9472181840e+00 -9.2609455635e-03 2.0129649898e+00 -3.4865576362e+00 2.0129649898e+00 3.4865576362e+00 
19700 6.9471896473e+00 -9.8358005842e-03 2.0131950266e+00 -3.4869560717e+00 2.0131950266e+00 3.4869560717e+00 
19800 6.9471556603e+00 -1.0387657642e-02 2.0134393149e+00 -3.4873791914e+00 2.0134393149e+00 3.4873791914e+00 
19900 6.9471166017e+00 -1.0915698553e-02 2.0136972785e+00 -3.4878259974e+00 2.0136972785e+00 3.4878259974e+00 
20000 6.9470728774e+00 -1.1419174893e-02 2.0139683208e+00 -3.4882954565e+00 2.0139683208e+00 3.4882954565e+00 
20100 6.9470249153e+00 -1.1897407929e-02 2.0142518268e+00 -3.4887865033e+00 2.0142518268e+00 3.4887865033e+00 
20200 6.9469731610e+00 -1.2349788416e-02 2.0145471647e+00 -3.4892980436e+00 2.0145471647e+00 3.4892980436e+00 
20300 6.9469180728e+00 -1.2775776259e-02 2.0148536878e+00 -3.4898289570e+00 2.0148536878e+00 3.4898289570e+00 
20400 6.9468601175e+00 -1.3174900043e-02 2.0151707359e+00 -3.4903781005e+00 2.0151707359e+00 3.4903781005e+00 
20500 6.9467997657e+00 -1.3546756441e-02 2.0154976376e+00 -3.4909443109e+00 2.0154976376e+00 3.4909443109e+00 
20600 6.9467374881e+00 -1.3891009493e-02 2.0158337118e+00 -3.4915264084e+00 2.0158337118e+00 3.4915264084e+00 
20700 6.9466737514e+00 -1.4207389773e-02 2.0161782691e+00 -3.4921231991e+00 2.0161782691e+00 3.4921231991e+00 
20800 6.9466090147e+00 -1.4495693438e-02 2.0165306140e+00 -3.4927334785e+00 2.0165306140e+00 3.4927334785e+00 
20900 6.9465437260e+00 -1.4755781167e-02 2.0168900463e+00 -3.4933560334e+00 2.0168900463e+00 3.4933560334e+00 
21000 6.9464783194e+00 -1.4987577000e-02 2.0172558626e+00 -3.4939896459e+00 2.0172558626e+00 3.4939896459e+00 
21100 6.9464132118e+00 -1.5191067071e-02 2.0176273583e+00 -3.4946330953e+00 2.0176273583e+00 3.4946330953e+00 
21200 6.9463488008e+00 -1.5366298255e-02 2.0180038287e+00 -3.4952851612e+00 2.0180038287e+00 3.4952851612e+00 
21300 6.9462854620e+00 -1.5513376713e-02 2.0183845708e+00 -3.4959446259e+00 2.0183845708e+00 3.4959446259e+00 
21400 6.9462235476e+00 -1.5632466368e-02 2.0187688848e+00 -3.4966102773e+00 2.0187688848e+00 3.4966102773e+00 
21500 6.9461633841e+00 -1.5723787289e-02 2.0191560754e+00 -3.4972809110e+00 2.0191560754e+00 3.4972809110e+00 
21600 6.9461052712e+00 -1.5787614010e-02 2.0195454532e+00 -3.4979553332e+00 2.0195454532e+00 3.4979553332e+00 
21700 6.9460494807e+00 -1.5824273772e-02 2.0199363363e+00 -3.4986323626e+00 2.0199363363e+00 3.4986323626e+00 
21800 6.9459962556e+00 -1.5834144710e-02 2.0203280513e+00 -3.4993108328e+00 2.0203280513e+00 3.4993108328e+00 
21900 6.9459458095e+00 -1.5817653975e-02 2.0207199346e+00 -3.4999895946e+00 2.0207199346e+00 3.4999895946e+00 
22000 6.9458983263e+00 -1.5775275802e-02 2.0211113338e+00 -3.5006675179e+00 2.0211113338e+00 3.5006675179e+00 
22100 6.9458539602e+00 -1.5707529538e-02 2.0215016088e+00 -3.5013434940e+00 2.0215016088e+00 3.5013434940e+00 
22200 6.9458128356e+00 -1.5614977611e-02 2.0218901327e+00 -3.5020164371e+00 2.0218901327e+00 3.5020164371e+00 
22300 6.9457750479e+00 -1.5498223473e-02 2.0222762930e+00 -3.5026852864e+00 2.0222762930e+00 3.5026852864e+00 
22400 6.9457406637e+00 -1.5357909499e-02 2.0226594927e+00 -3.5033490077e+00 2.0226594927e+00 3.5033490077e+00 
22500 6.9457097218e+00 -1.5194714865e-02 2.0230391510e+00 -3.5040065952e+00 2.0230391510e+00 3.5040065952e+00 
22600 6.9456822340e+00 -1.5009353385e-02 2.0234147044e+00 -3.5046570728e+00 2.0234147044e+00 3.5046570728e+00 
22700 6.9456581863e+00 -1.4802571344e-02 2.0237856074e+00 -3.5052994956e+00 2.0237856074e+00 3.5052994956e+00 
22800 6.9456375403e+00 -1.4575145295e-02 2.0241513333e+00 -3.5059329515e+00 2.0241513333e+00 3.5059329515e+00 
22900 6.9456202342e+00 -1.4327879862e-02 2.0245113750e+00 -3.5065565620e+00 2.0245113750e+00 3.5065565620e+00 
23000 6.9456061848e+00 -1.4061605514e-02 2.0248652455e+00 -3.5071694837e+00 2.0248652455e+00 3.5071694837e+00 
23100 6.9455952886e+00 -1.3777176345e-02 2.0252124787e+00 -3.5077709092e+00 2.0252124787e+00 3.5077709092e+00 
23200 6.9455874238e+00 -1.3475467850e-02 2.0255526297e+00 -3.5083600680e+00 2.0255526297e+00 3.5083600680e+00 
23300 6.9455824521e+00 -1.3157374702e-02 2.0258852756e+00 -3.5089362277e+00 2.0258852756e+00 3.5089362277e+00 
23400 6.9455802200e+00 -1.2823808529e-02 2.0262100158e+00 -3.5094986941e+00 2.0262100158e+00 3.5094986941e+00 
23500 6.9455805612e+00 -1.2475695714e-02 2.0265264722e+00 -3.5100468127e+00 2.0265264722e+00 3.5100468127e+00 
23600 6.9455832983e+00 -1.2113975191e-02 2.0268342898e+00 -3.5105799684e+00 2.0268342898e+00 3.5105799684e+00 
23700 6.9455882441e+00 -1.1739596269e-02 2.0271331369e+00 -3.5110975869e+00 2.0271331369e+00 3.5110975869e+00 
23800 6.9455952043e+00 -1.1353516471e-02 2.0274227054e+00 -3.5115991341e+00 2.0274227054e+00 3.5115991341e+00 
23900 6.9456039788e+00 -1.0956699397e-02 2.0277027106e+00 -3.5120841173e+00 2.0277027106e+00 3.5120841173e+00 
24000 6.9456143633e+00 -1.0550112614e-02 2.0279728918e+00 -3.5125520849e+00 2.0279728918e+00 3.5125520849e+00 
24100 6.9456261514e+00 -1.0134725576e-02 2.0282330121e+00 -3.5130026265e+00 2.0282330121e+00 3.5130026265e+00 
24200 6.9456391363e+00 -9.7115075737e-03 2.0284828584e+00 -3.5134353731e+00 2.0284828584e+00 3.5134353731e+00 
24300 6.9456531121e+00 -9.2814257296e-03 2.0287222417e+00 -3.5138499971e+00 2.0287222417e+00 3.5138499971e+00 
24400 6.9456678754e+00 -8.8454430219e-03 2.0289509966e+00 -3.5142462121e+00 2.0289509966e+00 3.5142462121e+00 
24500 6.9456832270e+00 -8.4045163601e-03 2.0291689812e+00 -3.5146237725e+00 2.0291689812e+00 3.5146237725e+00 
24600 6.9456989729e+00 -7.9595947019e-03 2.0293760773e+00 -3.5149824735e+00 2.0293760773e+00 3.5149824735e+00 
24700 6.9457149257e+00 -7.5116172217e-03 2.0295721898e+00 -3.5153221504e+00 2.0295721898e+00 3.5153221504e+00 
24800 6.9457309059e+00 -7.0615115302e-03 2.0297572468e+00 -3.5156426786e+00 2.0297572468e+00 3.5156426786e+00 
24900 6.9457467428e+00 -6.6101919492e-03 2.0299311990e+00 -3.5159439725e+00 2.0299311990e+00 3.5159439725e+00 
25000 6.9457622752e+00 -6.1585578450e-03 2.0300940193e+00 -3.5162259855e+00 2.0300940193e+00 3.5162259855e+00 
25100 6.9457773527e+00 -5.7074920218e-03 2.0302457028e+00 -3.5164887090e+00 2.0302457028e+00 3.5164887090e+00 
25200 6.9457918360e+00 -5.2578591784e-03 2.0303862660e+00 -3.5167321717e+00 2.0303862660e+00 3.5167321717e+00 
25300 6.9458055977e+00 -4.8105044311e-03 2.0305157467e+00 -3.5169564388e+00 2.0305157467e+00 3.5169564388e+00 
25400 6.9458185227e+00 -4.3662519040e-03 2.0306342030e+00 -3.5171616112e+00 2.0306342030e+00 3.5171616112e+00 
25500 6.9458305086e+00 -3.9259033905e-03 2.0307417135e+00 -3.5173478249e+00 2.0307417135e+00 3.5173478249e+00 
25600 6.9458414657e+00 -3.4902370857e-03 2.0308383761e+00 -3.5175152494e+00 2.0308383761e+00 3.5175152494e+00 
25700 6.9458513175e+00 -3.0600063946e-03 2.0309243077e+00 -3.5176640872e+00 2.0309243077e+00 3.5176640872e+00 
25800 6.9458600007e+00 -2.6359388151e-03 2.0309996435e+00 -3.5177945726e+00 2.0309996435e+00 3.5177945726e+00 
25900 6.9458674647e+00 -2.2187348980e-03 2.0310645364e+00 -3.5179069706e+00 2.0310645364e+00 3.5179069706e+00 
26000 6.9458736720e+00 -1.8090672870e-03 2.0311191567e+00 -3.5180015756e+00 2.0311191567e+00 3.5180015756e+00 
26100 6.9458785973e+00 -1.4075798373e-03 2.0311636906e+00 -3.5180787106e+00 2.0311636906e+00 3.5180787106e+00 
26200 6.9458822278e+00 -1.0148868147e-03 2.0311983403e+00 -3.5181387256e+00 2.0311983403e+00 3.5181387256e+00 
26300 6.9458845623e+00 -6.3157217684e-04 2.0312233228e+00 -3.5181819966e+00 2.0312233228e+00 3.5181819966e+00 
26400 6.9458856109e+00 -2.5818893521e-04 2.0312388694e+00 -3.5182089242e+00 2.0312388694e+00 3.5182089242e+00 
26500 6.9458853943e+00 1.0474140054e-04 2.0312452249e+00 -3.5182199321e+00 2.0312452249e+00 3.5182199321e+00 
26600 6.9458839435e+00 4.5672929674e-04 2.0312426466e+00 -3.5182154665e+00 2.0312426466e+00 3.5182154665e+00 
26700 6.9458812984e+00 7.9731758815e-04 2.0312314040e+00 -3.5181959937e+00 2.0312314040e+00 3.5181959937e+00 
26800 6.9458775078e+00 1.1260817895e-03 2.0312117776e+00 -3.5181619997e+00 2.0312117776e+00 3.5181619997e+00 
26900 6.9458726284e+00 1.4426303267e-03 2.0311840582e+00 -3.5181139883e+00 2.0311840582e+00 3.5181139883e+00 
27000 6.9458667236e+00 1.7466046887e-03 2.0311485463e+00 -3.5180524798e+00 2.0311485463e+00 3.5180524798e+00 
27100 6.9458598634e+00 2.0376795014e-03 2.0311055509e+00 -3.5179780097e+00 2.0311055509e+00 3.5179780097e+00 
27200 6.9458521229e+00 2.3155625246e-03 2.0310553893e+00 -3.5178911272e+00 2.0310553893e+00 3.5178911272e+00 
27300 6.9458435817e+00 2.5799945734e-03 2.0309983856e+00 -3.5177923940e+00 2.0309983856e+00 3.5177923940e+00 
27400 6.9458343232e+00 2.8307493677e-03 2.0309348705e+00 -3.5176823826e+00 2.0309348705e+00 3.5176823826e+00 
27500 6.9458244336e+00 3.0676333080e-03 2.0308651801e+00 -3.5175616753e+00 2.0308651801e+00 3.5175616753e+00 
27600 6.9458140010e+00 3.2904851846e-03 2.0307896553e+00 -3.5174308625e+00 2.0307896553e+00 3.5174308625e+00 
27700 6.9458031147e+00 3.4991758174e-03 2.0307086410e+00 -3.5172905415e+00 2.0307086410e+00 3.5172905415e+00 
27800 6.9457918646e+00 3.6936076332e-03 2.0306224850e+00 -3.5171413151e+00 2.0306224850e+00 3.5171413151e+00 
27900 6.9457803398e+00 3.8737141800e-03 2.0305315381e+00 -3.5169837903e+00 2.0305315381e+00 3.5169837903e+00 
28000 6.9457686287e+00 4.0394595826e-03 2.0304361521e+00 -3.5168185770e+00 2.0304361521e+00 3.5168185770e+00 
28100 6.9457568177e+00 4.1908379422e-03 2.0303366802e+00 -3.5166462866e+00 2.0303366802e+00 3.5166462866e+00 
28200 6.9457449909e+00 4.3278726817e-03 2.0302334756e+00 -3.5164675309e+00 2.0302334756e+00 3.5164675309e+00 
28300 6.9457332295e+00 4.4506158420e-03 2.0301268909e+00 -3.5162829209e+00 2.0301268909e+00 3.5162829209e+00 
28400 6.9457216108e+00 4.5591473297e-03 2.0300172777e+00 -3.5160930652e+00 2.0300172777e+00 3.5160930652e+00 
28500 6.9457102083e+00 4.6535741217e-03 2.0299049854e+00 -3.5158985693e+00 2.0299049854e+00 3.5158985693e+00 
28600 6.9456990912e+00 4.7340294280e-03 2.0297903611e+00 -3.5157000341e+00 2.0297903611e+00 3.5157000341e+00 
28700 6.9456883234e+00 4.8006718174e-03 2.0296737484e+00 -3.5154980551e+00 2.0296737484e+00 3.5154980551e+00 
28800 6.9456779641e+00 4.8536843079e-03 2.0295554874e+00 -3.5152932210e+00 2.0295554874e+00 3.5152932210e+00 
28900 6.9456680666e+00 4.8932734258e-03 2.0294359135e+00 -3.5150861130e+00 2.0294359135e+00 3.5150861130e+00 
29000 6.9456586789e+00 4.9196682372e-03 2.0293153573e+00 -3.5148773033e+00 2.0293153573e+00 3.5148773033e+00 
29100 6.9456498429e+00 4.9331193531e-03 2.0291941435e+00 -3.5146673549e+00 2.0291941435e+00 3.5146673549e+00 
29200 6.9456415948e+00 4.9338979136e-03 2.0290725910e+00 -3.5144568199e+00 2.0290725910e+00 3.5144568199e+00 
29300 6.9456339647e+00 4.9222945521e-03 2.0289510121e+00 -3.5142462391e+00 2.0289510121e+00 3.5142462391e+00 
29400 6.9456269769e+00 4.8986183443e-03 2.0288297119e+00 -3.5140361409e+00 2.0288297119e+00 3.5140361409e+00 
29500 6.9456206495e+00 4.8631957436e-03 2.0287089879e+00 -3.5138270407e+00 2.0287089879e+00 3.5138270407e+00 
29600 6.9456149950e+00 4.8163695064e-03 2.0285891297e+00 -3.5136194403e+00 2.0285891297e+00 3.5136194403e+00 
29700 6.9456100202e+00 4.7584976095e-03 2.0284704185e+00 -3.5134138265e+00 2.0284704185e+00 3.5134138265e+00 
29800 6.9456057263e+00 4.6899521636e-03 2.0283531269e+00 -3.5132106715e+00 2.0283531269e+00 3.5132106715e+00 
29900 6.9456021095e+00 4.6111183235e-03 2.0282375181e+00 -3.5130104312e+00 2.0282375181e+00 3.5130104312e+00 
30000 6.9455991605e+00 4.5223931994e-03 2.0281238462e+00 -3.5128135456e+00 2.0281238462e+00 3.5128135456e+00 
30100 6.9455968658e+00 4.4241847703e-03 2.0280123552e+00 -3.5126204375e+00 2.0280123552e+00 3.5126204375e+00 
30200 6.9455952072e+00 4.3169108029e-03 2.0279032793e+00 -3.5124315125e+00 2.0279032793e+00 3.5124315125e+00 
30300 6.9455941623e+00 4.2009977774e-03 2.0277968424e+00 -3.5122471585e+00 2.0277968424e+00 3.5122471585e+00 
30400 6.9455937052e+00 4.0768798223e-03 2.0276932580e+00 -3.5120677451e+00 2.0276932580e+00 3.5120677451e+00 
30500 6.9455938065e+00 3.9449976612e-03 2.0275927289e+00 -3.5118936234e+00 2.0275927289e+00 3.5118936234e+00 
30600 6.9455944339e+00 3.8057975721e-03 2.0274954468e+00 -3.5117251260e+00 2.0274954468e+00 3.5117251260e+00 
30700 6.9455955524e+00 3.6597303620e-03 2.0274015929e+00 -3.5115625663e+00 2.0274015929e+00 3.5115625663e+00 
30800 6.9455971248e+00 3.5072503582e-03 2.0273113369e+00 -3.5114062383e+00 2.0273113369e+00 3.5114062383e+00 
30900 6.9455991122e+00 3.3488144175e-03 2.0272248375e+00 -3.5112564169e+00 2.0272248375e+00 3.5112564169e+00 
31000 6.9456014741e+00 3.1848809556e-03 2.0271422420e+00 -3.5111133573e+00 2.0271422420e+00 3.5111133573e+00 
31100 6.9456041690e+00 3.0159089973e-03 2.0270636866e+00 -3.5109772954e+00 2.0270636866e+00 3.5109772954e+00 
31200 6.9456071549e+00 2.8423572493e-03 2.0269892960e+00 -3.5108484470e+00 2.0269892960e+00 3.5108484470e+00 
31300 6.9456103893e+00 2.6646831965e-03 2.0269191836e+00 -3.5107270088e+00 2.0269191836e+00 3.5107270088e+00 
31400 6.9456138298e+00 2.4833422231e-03 2.0268534516e+00 -3.5106131577e+00 2.0268534516e+00 3.5106131577e+00 
31500 6.9456174343e+00 2.2987867601e-03 2.0267921909e+00 -3.5105070510e+00 2.0267921909e+00 3.5105070510e+00 
31600 6.9456211617e+00 2.1114654580e-03 2.0267354812e+00 -3.5104088269e+00 2.0267354812e+00 3.5104088269e+00 
31700 6.9456249715e+00 1.9218223890e-03 2.0266833911e+00 -3.5103186042e+00 2.0266833911e+00 3.5103186042e+00 
31800 6.9456288247e+00 1.7302962762e-03 2.0266359783e+00 -3.5102364828e+00 2.0266359783e+00 3.5102364828e+00 
31900 6.9456326839e+00 1.5373197525e-03 2.0265932896e+00 -3.5101625438e+00 2.0265932896e+00 3.5101625438e+00 
32000 6.9456365132e+00 1.3433186491e-03 2.0265553610e+00 -3.5100968496e+00 2.0265553610e+00 3.5100968496e+00 
32100 6.9456402789e+00 1.1487113143e-03 2.0265222182e+00 -3.5100394446e+00 2.0265222182e+00 3.5100394446e+00 
32200 6.9456439493e+00 9.5390796287e-04 2.0264938763e+00 -3.5099903550e+00 2.0264938763e+00 3.5099903550e+00 
32300 6.9456474950e+00 7.5931005705e-04 2.0264703404e+00 -3.5099495897e+00 2.0264703404e+00 3.5099495897e+00 
32400 6.9456508891e+00 5.6530971856e-04 2.0264516057e+00 -3.5099171401e+00 2.0264516057e+00 3.5099171401e+00 
32500 6.9456541073e+00 3.7228917285e-04 2.0264376574e+00 -3.5098929810e+00 2.0264376574e+00 3.5098929810e+00 
32600 6.9456571276e+00 1.8062022517e-04 2.0264284716e+00 -3.5098770708e+00 2.0264284716e+00 3.5098770708e+00 
32700 6.9456599311e+00 -9.3362310326e-06 2.0264240150e+00 -3.5098693517e+00 2.0264240150e+00 3.5098693517e+00 
32800 6.9456625012e+00 -1.9741115299e-04 2.0264240150e+00 -3.5098693517e+00 2.0264240150e+00 3.5098693517e+00 
32900 6.9456648242e+00 -3.8290337744e-04 2.0264288859e+00 -3.5098777884e+00 2.0264288859e+00 3.5098777884e+00 
33000 6.9456668890e+00 -5.6567040970e-04 2.0264383337e+00 -3.5098941524e+00 2.0264383337e+00 3.5098941524e+00 
33100 6.9456686872e+00 -7.4539927025e-04 2.0264522910e+00 -3.5099183271e+00 2.0264522910e+00 3.5099183271e+00 
33200 6.9456702129e+00 -9.2178986420e-04 2.0264706827e+00 -3.5099501825e+00 2.0264706827e+00 3.5099501825e+00 
33300 6.9456714630e+00 -1.0945552793e-03 2.0264934265e+00 -3.5099895759e+00 2.0264934265e+00 3.5099895759e+00 
33400 6.9456724365e+00 -1.2634220520e-03 2.0265204327e+00 -3.5100363520e+00 2.0265204327e+00 3.5100363520e+00 
33500 6.9456731348e+00 -1.4281304020e-03 2.0265516050e+00 -3.5100903440e+00 2.0265516050e+00 3.5100903440e+00 
33600 6.9456735618e+00 -1.5884344355e-03 2.0265868406e+00 -3.5101513738e+00 2.0265868406e+00 3.5101513738e+00 
33700 6.9456737230e+00 -1.7441023171e-03 2.0266260306e+00 -3.5102192529e+00 2.0266260306e+00 3.5102192529e+00 
33800 6.9456736262e+00 -1.8949164121e-03 2.0266690604e+00 -3.5102937828e+00 2.0266690604e+00 3.5102937828e+00 
33900 6.9456732808e+00 -2.0406733973e-03 2.0267158101e+00 -3.5103747557e+00 2.0267158101e+00 3.5103747557e+00 
34000 6.9456726980e+00 -2.1811843434e-03 2.0267661547e+00 -3.5104619550e+00 2.0267661547e+00 3.5104619550e+00 
34100 6.9456718903e+00 -2.3162747671e-03 2.0268199644e+00 -3.5105551561e+00 2.0268199644e+00 3.5105551561e+00 
34200 6.9456708715e+00 -2.4457846555e-03 2.0268771053e+00 -3.5106541270e+00 2.0268771053e+00 3.5106541270e+00 
34300 6.9456696566e+00 -2.5695684619e-03 2.0269374394e+00 -3.5107586288e+00 2.0269374394e+00 3.5107586288e+00 
34400 6.9456682616e+00 -2.6874950739e-03 2.0270008252e+00 -3.5108684163e+00 2.0270008252e+00 3.5108684163e+00 
34500 6.9456667031e+00 -2.7994477556e-03 2.0270671180e+00 -3.5109832387e+00 2.0270671180e+00 3.5109832387e+00 
34600 6.9456649984e+00 -2.9053240627e-03 2.0271361700e+00 -3.5111028404e+00 2.0271361700e+00 3.5111028404e+00 
34700 6.9456631654e+00 -3.0050357327e-03 2.0272078313e+00 -3.5112269613e+00 2.0272078313e+00 3.5112269613e+00 
34800 6.9456612221e+00 -3.0985085500e-03 2.0272819493e+00 -3.5113553375e+00 2.0272819493e+00 3.5113553375e+00 
34900 6.9456591865e+00 -3.1856821877e-03 2.0273583701e+00 -3.5114877021e+00 2.0273583701e+00 3.5114877021e+00 
35000 6.9456570770e+00 -3.2665100256e-03 2.0274369379e+00 -3.5116237856e+00 2.0274369379e+00 3.5116237856e+00 
35100 6.9456549114e+00 -3.3409589460e-03 2.0275174961e+00 -3.5117633164e+00 2.0275174961e+00 3.5117633164e+00 
35200 6.9456527074e+00 -3.4090091083e-03 2.0275998870e+00 -3.5119060217e+00 2.0275998870e+00 3.5119060217e+00 
35300 6.9456504822e+00 -3.4706537023e-03 2.0276839527e+00 -3.5120516278e+00 2.0276839527e+00 3.5120516278e+00 
35400 6.9456482525e+00 -3.5258986825e-03 2.0277695350e+00 -3.5121998607e+00 2.0277695350e+00 3.5121998607e+00 
35500 6.9456460344e+00 -3.5747624828e-03 2.0278564760e+00 -3.5123504469e+00 2.0278564760e+00 3.5123504469e+00 
35600 6.9456438431e+00 -3.6172757136e-03 2.0279446180e+00 -3.5125031134e+00 2.0279446180e+00 3.5125031134e+00 
35700 6.9456416929e+00 -3.6534808417e-03 2.0280338044e+00 -3.5126575888e+00 2.0280338044e+00 3.5126575888e+00 
35800 6.9456395974e+00 -3.6834318536e-03 2.0281238796e+00 -3.5128136034e+00 2.0281238796e+00 3.5128136034e+00 
35900 6.9456375691e+00 -3.7071939047e-03 2.0282146891e+00 -3.5129708902e+00 2.0282146891e+00 3.5129708902e+00 
36000 6.9456356195e+00 -3.7248429530e-03 2.0283060803e+00 -3.5131291845e+00 2.0283060803e+00 3.5131291845e+00 
36100 6.9456337588e+00 -3.7364653800e-03 2.0283979026e+00 -3.5132882252e+00 2.0283979026e+00 3.5132882252e+00 
36200 6.9456319963e+00 -3.7421575999e-03 2.0284900071e+00 -3.5134477550e+00 2.0284900071e+00 3.5134477550e+00 
36300 6.9456303401e+00 -3.7420256562e-03 2.0285822478e+00 -3.5136075205e+00 2.0285822478e+00 3.5136075205e+00 
36400 6.9456287971e+00 -3.7361848089e-03 2.0286744810e+00 -3.5137672732e+00 2.0286744810e+00 3.5137672732e+00 
36500 6.9456273732e+00 -3.7247591119e-03 2.0287665661e+00 -3.5139267692e+00 2.0287665661e+00 3.5139267692e+00 
36600 6.9456260728e+00 -3.7078809821e-03 2.0288583654e+00 -3.5140857703e+00 2.0288583654e+00 3.5140857703e+00 
36700 6.9456248994e+00 -3.6856907611e-03 2.0289497446e+00 -3.5142440437e+00 2.0289497446e+00 3.5142440437e+00 
36800 6.9456238554e+00 -3.6583362698e-03 2.0290405728e+00 -3.5144013628e+00 2.0290405728e+00 3.5144013628e+00 
36900 6.9456229421e+00 -3.6259723590e-03 2.0291307229e+00 -3.5145575073e+00 2.0291307229e+00 3.5145575073e+00 
37000 6.9456221595e+00 -3.5887604537e-03 2.0292200715e+00 -3.5147122636e+00 2.0292200715e+00 3.5147122636e+00 
37100 6.9456215069e+00 -3.5468680949e-03 2.0293084992e+00 -3.5148654249e+00 2.0293084992e+00 3.5148654249e+00 
37200 6.9456209826e+00 -3.5004684787e-03 2.0293958909e+00 -3.5150167917e+00 2.0293958909e+00 3.5150167917e+00 
37300 6.9456205838e+00 -3.4497399933e-03 2.0294821356e+00 -3.5151661719e+00 2.0294821356e+00 3.5151661719e+00 
37400 6.9456203071e+00 -3.3948657557e-03 2.0295671269e+00 -3.5153133811e+00 2.0295671269e+00 3.5153133811e+00 
37500 6.9456201481e+00 -3.3360331482e-03 2.0296507626e+00 -3.5154582425e+00 2.0296507626e+00 3.5154582425e+00 
37600 6.9456201019e+00 -3.2734333561e-03 2.0297329456e+00 -3.5156005877e+00 2.0297329456e+00 3.5156005877e+00 
37700 6.9456201628e+00 -3.2072609074e-03 2.0298135832e+00 -3.5157402560e+00 2.0298135832e+00 3.5157402560e+00 
37800 6.9456203247e+00 -3.1377132153e-03 2.0298925876e+00 -3.5158770956e+00 2.0298925876e+00 3.5158770956e+00 
37900 6.9456205809e+00 -3.0649901242e-03 2.0299698757e+00 -3.5160109626e+00 2.0299698757e+00 3.5160109626e+00 
38000 6.9456209242e+00 -2.9892934602e-03 2.0300453697e+00 -3.5161417219e+00 2.0300453697e+00 3.5161417219e+00 
38100 6.9456213473e+00 -2.9108265872e-03 2.0301189964e+00 -3.5162692472e+00 2.0301189964e+00 3.5162692472e+00 
38200 6.9456218425e+00 -2.8297939686e-03 2.0301906878e+00 -3.5163934204e+00 2.0301906878e+00 3.5163934204e+00 
38300 6.9456224017e+00 -2.7464007363e-03 2.0302603811e+00 -3.5165141326e+00 2.0302603811e+00 3.5165141326e+00 
38400 6.9456230171e+00 -2.6608522665e-03 2.0303280181e+00 -3.5166312834e+00 2.0303280181e+00 3.5166312834e+00 
38500 6.9456236806e+00 -2.5733537647e-03 2.0303935461e+00 -3.5167447812e+00 2.0303935461e+00 3.5167447812e+00 
38600 6.9456243840e+00 -2.4841098591e-03 2.0304569172e+00 -3.5168545432e+00 2.0304569172e+00 3.5168545432e+00 
38700 6.9456251195e+00 -2.3933242033e-03 2.0305180887e+00 -3.5169604954e+00 2.0305180887e+00 3.5169604954e+00 
38800 6.9456258791e+00 -2.3011990900e-03 2.0305770229e+00 -3.5170625723e+00 2.0305770229e+00 3.5170625723e+00 
38900 6.9456266551e+00 -2.2079350748e-03 2.0306336868e+00 -3.5171607171e+00 2.0306336868e+00 3.5171607171e+00 
39000 6.9456274403e+00 -2.1137306113e-03 2.0306880527e+00 -3.5172548816e+00 2.0306880527e+00 3.5172548816e+00 
39100 6.9456282273e+00 -2.0187816988e-03 2.0307400976e+00 -3.5173450261e+00 2.0307400976e+00 3.5173450261e+00 
39200 6.9456290095e+00 -1.9232815416e-03 2.0307898034e+00 -3.5174311190e+00 2.0307898034e+00 3.5174311190e+00 
39300 6.9456297804e+00 -1.8274202212e-03 2.0308371566e+00 -3.5175131372e+00 2.0308371566e+00 3.5175131372e+00 
39400 6.9456305339e+00 -1.7313843823e-03 2.0308821486e+00 -3.5175910655e+00 2.0308821486e+00 3.5175910655e+00 
39500 6.9456312646e+00 -1.6353569317e-03 2.0309247751e+00 -3.5176648969e+00 2.0309247751e+00 3.5176648969e+00 
39600 6.9456319672e+00 -1.5395167514e-03 2.0309650367e+00 -3.5177346319e+00 2.0309650367e+00 3.5177346319e+00 
39700 6.9456326372e+00 -1.4440384262e-03 2.0310029379e+00 -3.5178002788e+00 2.0310029379e+00 3.5178002788e+00 
39800 6.9456332703e+00 -1.3490919857e-03 2.0310384879e+00 -3.5178618531e+00 2.0310384879e+00 3.5178618531e+00 
39900 6.9456338630e+00 -1.2548426609e-03 2.0310716998e+00 -3.5179193780e+00 2.0310716998e+00 3.5179193780e+00 
40000 6.9456344121e+00 -1.1614506563e-03 2.0311025911e+00 -3.5179728831e+00 2.0311025911e+00 3.5179728831e+00 
40100 6.9456349151e+00 -1.0690709364e-03 2.0311311828e+00 -3.5180224054e+00 2.0311311828e+00 3.5180224054e+00 
40200 6.9456353697e+00 -9.7785302841e-04 2.0311575000e+00 -3.5180679881e+00 2.0311575000e+00 3.5180679881e+00 
40300 6.9456357744e+00 -8.8794083956e-04 2.0311815713e+00 -3.5181096809e+00 2.0311815713e+00 3.5181096809e+00 
40400 6.9456361281e+00 -7.9947249054e-04 2.0312034291e+00 -3.5181475397e+00 2.0312034291e+00 3.5181475397e+00 
40500 6.9456364302e+00 -7.1258016394e-04 2.0312231089e+00 -3.5181816262e+00 2.0312231089e+00 3.5181816262e+00 
40600 6.9456366805e+00 -6.2738996848e-04 2.0312406496e+00 -3.5182120075e+00 2.0312406496e+00 3.5182120075e+00 
40700 6.9456368794e+00 -5.4402181854e-04 2.0312560931e+00 -3.5182387565e+00 2.0312560931e+00 3.5182387565e+00 
40800 6.9456370274e+00 -4.6258932916e-04 2.0312694844e+00 -3.5182619509e+00 2.0312694844e+00 3.5182619509e+00 
40900 6.9456371256e+00 -3.8319972625e-04 2.0312808711e+00 -3.5182816733e+00 2.0312808711e+00 3.5182816733e+00 
41000 6.9456371757e+00 -3.0595377200e-04 2.0312903036e+00 -3.5182980108e+00 2.0312903036e+00 3.5182980108e+00 
41100 6.9456371793e+00 -2.3094570518e-04 2.0312978346e+00 -3.5183110549e+00 2.0312978346e+00 3.5183110549e+00 
41200 6.9456371386e+00 -1.5826319628e-04 2.0313035193e+00 -3.5183209011e+00 2.0313035193e+00 3.5183209011e+00 
41300 6.9456370560e+00 -8.7987317170e-05 2.0313074149e+00 -3.5183276485e+00 2.0313074149e+00 3.5183276485e+00 
41400 6.9456369341e+00 -2.0192525033e-05 2.0313095807e+00 -3.5183313997e+00 2.0313095807e+00 3.5183313997e+00 
41500 6.9456367757e+00 4.4666503816e-05 2.0313095807e+00 -3.5183313997e+00 2.0313095807e+00 3.5183313997e+00 
41600 6.9456365841e+00 1.0816309529e-04 2.0313095807e+00 -3.5183313997e+00 2.0313095807e+00 3.5183313997e+00 
41700 6.9456363622e+00 1.6812760961e-04 2.0313069183e+00 -3.5183267883e+00 2.0313069183e+00 3.5183267883e+00 
41800 6.9456361133e+00 2.2537939681e-04 2.0313027799e+00 -3.5183196204e+00 2.0313027799e+00 3.5183196204e+00 
41900 6.9456358409e+00 2.7987682747e-04 2.0312972323e+00 -3.5183100115e+00 2.0312972323e+00 3.5183100115e+00 
42000 6.9456355484e+00 3.3158469997e-04 2.0312903431e+00 -3.5182980792e+00 2.0312903431e+00 3.5182980792e+00 
42100 6.9456352391e+00 3.8047416574e-04 2.0312821812e+00 -3.5182839424e+00 2.0312821812e+00 3.5182839424e+00 
42200 6.9456349165e+00 4.2652264308e-04 2.0312728159e+00 -3.5182677211e+00 2.0312728159e+00 3.5182677211e+00 
42300 6.9456345841e+00 4.6971372001e-04 2.0312623170e+00 -3.5182495365e+00 2.0312623170e+00 3.5182495365e+00 
42400 6.9456342450e+00 5.1003704657e-04 2.0312507549e+00 -3.5182295103e+00 2.0312507549e+00 3.5182295103e+00 
42500 6.9456339027e+00 5.4748821713e-04 2.0312382001e+00 -3.5182077649e+00 2.0312382001e+00 3.5182077649e+00 
42600 6.9456335602e+00 5.8206864305e-04 2.0312247234e+00 -3.5181844226e+00 2.0312247234e+00 3.5181844226e+00 
42700 6.9456332205e+00 6.1378541634e-04 2.0312103954e+00 -3.5181596057e+00 2.0312103954e+00 3.5181596057e+00 
42800 6.9456328865e+00 6.4265116470e-04 2.0311952866e+00 -3.5181334365e+00 2.0311952866e+00 3.5181334365e+00 
42900 6.9456325608e+00 6.6868389850e-04 2.0311794671e+00 -3.5181060363e+00 2.0311794671e+00 3.5181060363e+00 
43000 6.9456322459e+00 6.9190685021e-04 2.0311630066e+00 -3.5180775259e+00 2.0311630066e+00 3.5180775259e+00 
43100 6.9456319442e+00 7.1234830677e-04 2.0311459744e+00 -3.5180480252e+00 2.0311459744e+00 3.5180480252e+00 
43200 6.9456316577e+00 7.3004143551e-04 2.0311284388e+00 -3.5180176526e+00 2.0311284388e+00 3.5180176526e+00 
43300 6.9456313883e+00 7.4502410394e-04 2.0311104675e+00 -3.5179865254e+00 2.0311104675e+00 3.5179865254e+00 
43400 6.9456311378e+00 7.5733869419e-04 2.0310921272e+00 -3.5179547591e+00 2.0310921272e+00 3.5179547591e+00 
43500 6.9456309074e+00 7.6703191243e-04 2.0310734836e+00 -3.5179224674e+00 2.0310734836e+00 3.5179224674e+00 
43600 6.9456306985e+00 7.7415459387e-04 2.0310546012e+00 -3.5178897622e+00 2.0310546012e+00 3.5178897622e+00 
43700 6.9456305120e+00 7.7876150381e-04 2.0310355433e+00 -3.5178567529e+00 2.0310355433e+00 3.5178567529e+00 
43800 6.9456303487e+00 7.8091113531e-04 2.0310163717e+00 -3.5178235469e+00 2.0310163717e+00 3.5178235469e+00 
43900 6.9456302092e+00 7.8066550393e-04 2.0309971471e+00 -3.5177902489e+00 2.0309971471e+00 3.5177902489e+00 
44000 6.9456300938e+00 7.7808994007e-04 2.0309779284e+00 -3.5177569610e+00 2.0309779284e+00 3.5177569610e+00 
44100 6.9456300026e+00 7.7325287939e-04 2.0309587729e+00 -3.5177237827e+00 2.0309587729e+00 3.5177237827e+00 
44200 6.9456299355e+00 7.6622565178e-04 2.0309397363e+00 -3.5176908103e+00 2.0309397363e+00 3.5176908103e+00 
44300 6.9456298922e+00 7.5708226938e-04 2.0309208725e+00 -3.5176581373e+00 2.0309208725e+00 3.5176581373e+00 
44400 6.9456298724e+00 7.4589921413e-04 2.0309022336e+00 -3.5176258538e+00 2.0309022336e+00 3.5176258538e+00 
44500 6.9456298754e+00 7.3275522519e-04 2.0308838699e+00 -3.5175940469e+00 2.0308838699e+00 3.5175940469e+00 
44600 6.9456299004e+00 7.1773108684e-04 2.0308658296e+00 -3.5175628002e+00 2.0308658296e+00 3.5175628002e+00 
44700 6.9456299466e+00 7.0090941718e-04 2.0308481591e+00 -3.5175321940e+00 2.0308481591e+00 3.5175321940e+00 
44800 6.9456300128e+00 6.8237445803e-04 2.0308309025e+00 -3.5175023048e+00 2.0308309025e+00 3.5175023048e+00 
44900 6.9456300979e+00 6.6221186655e-04 2.0308141022e+00 -3.5174732057e+00 2.0308141022e+00 3.5174732057e+00 
45000 6.9456302006e+00 6.4050850879e-04 2.0307977981e+00 -3.5174449662e+00 2.0307977981e+00 3.5174449662e+00 
45100 6.9456303197e+00 6.1735225577e-04 2.0307820282e+00 -3.5174176520e+00 2.0307820282e+00 3.5174176520e+00 
45200 6.9456304536e+00 5.9283178222e-04 2.0307668284e+00 -3.5173913251e+00 2.0307668284e+00 3.5173913251e+00 
45300 6.9456306010e+00 5.6703636852e-04 2.0307522322e+00 -3.5173660437e+00 2.0307522322e+00 3.5173660437e+00 
45400 6.9456307602e+00 5.4005570599e-04 2.0307382709e+00 -3.5173418621e+00 2.0307382709e+00 3.5173418621e+00 
45500 6.9456309298e+00 5.1197970606e-04 2.0307249739e+00 -3.5173188310e+00 2.0307249739e+00 3.5173188310e+00 
45600 6.9456311081e+00 4.8289831340e-04 2.0307123681e+00 -3.5172969971e+00 2.0307123681e+00 3.5172969971e+00 
45700 6.9456312936e+00 4.5290132341e-04 2.0307004782e+00 -3.5172764033e+00 2.0307004782e+00 3.5172764033e+00 
45800 6.9456314848e+00 4.2207820438e-04 2.0306893269e+00 -3.5172570886e+00 2.0306893269e+00 3.5172570886e+00 
45900 6.9456316801e+00 3.9051792441e-04 2.0306789344e+00 -3.5172390883e+00 2.0306789344e+00 3.5172390883e+00 
46000 6.9456318780e+00 3.5830878351e-04 2.0306693190e+00 -3.5172224338e+00 2.0306693190e+00 3.5172224338e+00 
46100 6.9456320771e+00 3.2553825100e-04 2.0306604965e+00 -3.5172071529e+00 2.0306604965e+00 3.5172071529e+00 
46200 6.9456322760e+00 2.9229280833e-04 2.0306524810e+00 -3.5171932696e+00 2.0306524810e+00 3.5171932696e+00 
46300 6.9456324732e+00 2.5865779775e-04 2.0306452840e+00 -3.5171808040e+00 2.0306452840e+00 3.5171808040e+00 
46400 6.9456326677e+00 2.2471727672e-04 2.0306389151e+00 -3.5171697728e+00 2.0306389151e+00 3.5171697728e+00 
46500 6.9456328582e+00 1.9055387840e-04 2.0306333819e+00 -3.5171601891e+00 2.0306333819e+00 3.5171601891e+00 
46600 6.9456330435e+00 1.5624867832e-04 2.0306286900e+00 -3.5171520623e+00 2.0306286900e+00 3.5171520623e+00 
46700 6.9456332227e+00 1.2188106728e-04 2.0306248427e+00 -3.5171453986e+00 2.0306248427e+00 3.5171453986e+00 
46800 6.9456333949e+00 8.7528630648e-05 2.0306218416e+00 -3.5171402006e+00 2.0306218416e+00 3.5171402006e+00 
46900 6.9456335592e+00 5.3267034174e-05 2.0306196864e+00 -3.5171364677e+00 2.0306196864e+00 3.5171364677e+00 
47000 6.9456337149e+00 2.0192739138e-05 2.0306196864e+00 -3.5171364677e+00 2.0306196864e+00 3.5171364677e+00 
47100 6.9456338613e+00 -1.3294389493e-05 2.0306196864e+00 -3.5171364677e+00 2.0306196864e+00 3.5171364677e+00 
47200 6.9456339980e+00 -4.7123991826e-05 2.0306196864e+00 -3.5171364677e+00 2.0306196864e+00 3.5171364677e+00 
47300 6.9456341246e+00 -8.1226847472e-05 2.0306196864e+00 -3.5171364677e+00 2.0306196864e+00 3.5171364677e+00 
47400 6.9456342408e+00 -1.1397548354e-04 2.0306216864e+00 -3.5171399318e+00 2.0306216864e+00 3.5171399318e+00 
47500 6.9456343462e+00 -1.4622511351e-04 2.0306244928e+00 -3.5171447927e+00 2.0306244928e+00 3.5171447927e+00 
47600 6.9456344408e+00 -1.7791615732e-04 2.0306280933e+00 -3.5171510289e+00 2.0306280933e+00 3.5171510289e+00 
47700 6.9456345245e+00 -2.0899162884e-04 2.0306324742e+00 -3.5171586167e+00 2.0306324742e+00 3.5171586167e+00 
47800 6.9456345974e+00 -2.3939719009e-04 2.0306376201e+00 -3.5171675298e+00 2.0306376201e+00 3.5171675298e+00 
47900 6.9456346596e+00 -2.6908119886e-04 2.0306435148e+00 -3.5171777396e+00 2.0306435148e+00 3.5171777396e+00 
48000 6.9456347113e+00 -2.9799474987e-04 2.0306501403e+00 -3.5171892154e+00 2.0306501403e+00 3.5171892154e+00 
48100 6.9456347528e+00 -3.2609170934e-04 2.0306574777e+00 -3.5172019242e+00 2.0306574777e+00 3.5172019242e+00 
48200 6.9456347845e+00 -3.5332874332e-04 2.0306655069e+00 -3.5172158312e+00 2.0306655069e+00 3.5172158312e+00 
48300 6.9456348067e+00 -3.7966533961e-04 2.0306742068e+00 -3.5172308997e+00 2.0306742068e+00 3.5172308997e+00 
48400 6.9456348200e+00 -4.0506382353e-04 2.0306835550e+00 -3.5172470914e+00 2.0306835550e+00 3.5172470914e+00 
48500 6.9456348248e+00 -4.2948936764e-04 2.0306935286e+00 -3.5172643662e+00 2.0306935286e+00 3.5172643662e+00 
48600 6.9456348218e+00 -4.5290999547e-04 2.0307041036e+00 -3.5172826825e+00 2.0307041036e+00 3.5172826825e+00 
48700 6.9456348115e+00 -4.7529657942e-04 2.0307152551e+00 -3.5173019976e+00 2.0307152551e+00 3.5173019976e+00 
48800 6.9456347946e+00 -4.9662283302e-04 2.0307269578e+00 -3.5173222673e+00 2.0307269578e+00 3.5173222673e+00 
48900 6.9456347716e+00 -5.1686529758e-04 2.0307391856e+00 -3.5173434463e+00 2.0307391856e+00 3.5173434463e+00 
49000 6.9456347433e+00 -5.3600332354e-04 2.0307519116e+00 -3.5173654885e+00 2.0307519116e+00 3.5173654885e+00 
49100 6.9456347104e+00 -5.5401904650e-04 2.0307651088e+00 -3.5173883467e+00 2.0307651088e+00 3.5173883467e+00 
49200 6.9456346735e+00 -5.7089735828e-04 2.0307787495e+00 -3.5174119730e+00 2.0307787495e+00 3.5174119730e+00 
49300 6.9456346334e+00 -5.8662587301e-04 2.0307928056e+00 -3.5174363189e+00 2.0307928056e+00 3.5174363189e+00 
49400 6.9456345907e+00 -6.0119488865e-04 2.0308072489e+00 -3.5174613354e+00 2.0308072489e+00 3.5174613354e+00 
49500 6.9456345460e+00 -6.1459734381e-04 2.0308220508e+00 -3.5174869731e+00 2.0308220508e+00 3.5174869731e+00 
49600 6.9456345001e+00 -6.2682877041e-04 2.0308371825e+00 -3.5175131820e+00 2.0308371825e+00 3.5175131820e+00 
49700 6.9456344536e+00 -6.3788724209e-04 2.0308526153e+00 -3.5175399124e+00 2.0308526153e+00 3.5175399124e+00 
49800 6.9456344070e+00 -6.4777331874e-04 2.0308683202e+00 -3.5175671141e+00 2.0308683202e+00 3.5175671141e+00 
49900 6.9456343611e+00 -6.5648998726e-04 2.0308842685e+00 -3.5175947373e+00 2.0308842685e+00 3.5175947373e+00 
50000 6.9456343162e+00 -6.6404259881e-04 2.0309004311e+00 -3.5176227318e+00 2.0309004311e+00 3.5176227318e+00 
50100 6.9456342729e+00 -6.7043880272e-04 2.0309167796e+00 -3.5176510483e+00 2.0309167796e+00 3.5176510483e+00 
50200 6.9456342317e+00 -6.7568847724e-04 2.0309332855e+00 -3.5176796372e+00 2.0309332855e+00 3.5176796372e+00 
50300 6.9456341931e+00 -6.7980365747e-04 2.0309499204e+00 -3.5177084498e+00 2.0309499204e+00 3.5177084498e+00 
50400 6.9456341573e+00 -6.8279846047e-04 2.0309666565e+00 -3.5177374376e+00 2.0309666565e+00 3.5177374376e+00 
50500 6.9456341249e+00 -6.8468900799e-04 2.0309834663e+00 -3.5177665529e+00 2.0309834663e+00 3.5177665529e+00 
50600 6.9456340960e+00 -6.8549334682e-04 2.0310003224e+00 -3.5177957486e+00 2.0310003224e+00 3.5177957486e+00 
50700 6.9456340710e+00 -6.8523136715e-04 2.0310171982e+00 -3.5178249783e+00 2.0310171982e+00 3.5178249783e+00 
50800 6.9456340501e+00 -6.8392471903e-04 2.0310340674e+00 -3.5178541966e+00 2.0310340674e+00 3.5178541966e+00 
50900 6.9456340334e+00 -6.8159672717e-04 2.0310509042e+00 -3.5178833589e+00 2.0310509042e+00 3.5178833589e+00 
51000 6.9456340211e+00 -6.7827230433e-04 2.0310676837e+00 -3.5179124217e+00 2.0310676837e+00 3.5179124217e+00 
51100 6.9456340132e+00 -6.7397786345e-04 2.0310843811e+00 -3.5179413426e+00 2.0310843811e+00 3.5179413426e+00 
51200 6.9456340099e+00 -6.6874122879e-04 2.0311009727e+00 -3.5179700801e+00 2.0311009727e+00 3.5179700801e+00 
51300 6.9456340111e+00 -6.6259154616e-04 2.0311174353e+00 -3.5179985940e+00 2.0311174353e+00 3.5179985940e+00 
51400 6.9456340167e+00 -6.5555919259e-04 2.0311337463e+00 -3.5180268456e+00 2.0311337463e+00 3.5180268456e+00 
51500 6.9456340269e+00 -6.4767568555e-04 2.0311498841e+00 -3.5180547970e+00 2.0311498841e+00 3.5180547970e+00 
51600 6.9456340413e+00 -6.3897359194e-04 2.0311658277e+00 -3.5180824122e+00 2.0311658277e+00 3.5180824122e+00 
51700 6.9456340599e+00 -6.2948643695e-04 2.0311815569e+00 -3.5181096560e+00 2.0311815569e+00 3.5181096560e+00 
51800 6.9456340826e+00 -6.1924861318e-04 2.0311970525e+00 -3.5181364952e+00 2.0311970525e+00 3.5181364952e+00 
51900 6.9456341091e+00 -6.0829528996e-04 2.0312122960e+00 -3.5181628976e+00 2.0312122960e+00 3.5181628976e+00 
52000 6.9456341392e+00 -5.9666232323e-04 2.0312272697e+00 -3.5181888329e+00 2.0312272697e+00 3.5181888329e+00 
52100 6.9456341728e+00 -5.8438616602e-04 2.0312419570e+00 -3.5182142719e+00 2.0312419570e+00 3.5182142719e+00 
52200 6.9456342095e+00 -5.7150377984e-04 2.0312563419e+00 -3.5182391874e+00 2.0312563419e+00 3.5182391874e+00 
52300 6.9456342491e+00 -5.5805254696e-04 2.0312704097e+00 -3.5182635535e+00 2.0312704097e+00 3.5182635535e+00 
52400 6.9456342912e+00 -5.4407018389e-04 2.0312841462e+00 -3.5182873459e+00 2.0312841462e+00 3.5182873459e+00 
52500 6.9456343357e+00 -5.2959465619e-04 2.0312975385e+00 -3.5183105420e+00 2.0312975385e+00 3.5183105420e+00 
52600 6.9456343822e+00 -5.1466409459e-04 2.0313105744e+00 -3.5183331208e+00 2.0313105744e+00 3.5183331208e+00 
52700 6.9456344304e+00 -4.9931671281e-04 2.0313232427e+00 -3.5183550630e+00 2.0313232427e+00 3.5183550630e+00 
52800 6.9456344800e+00 -4.8359072705e-04 2.0313355331e+00 -3.5183763506e+00 2.0313355331e+00 3.5183763506e+00 
52900 6.9456345307e+00 -4.6752427726e-04 2.0313474364e+00 -3.5183969677e+00 2.0313474364e+00 3.5183969677e+00 
53000 6.9456345822e+00 -4.5115535043e-04 2.0313589442e+00 -3.5184168997e+00 2.0313589442e+00 3.5184168997e+00 
53100 6.9456346343e+00 -4.3452170591e-04 2.0313700490e+00 -3.5184361338e+00 2.0313700490e+00 3.5184361338e+00 
53200 6.9456346865e+00 -4.1766080290e-04 2.0313807442e+00 -3.5184546586e+00 2.0313807442e+00 3.5184546586e+00 
53300 6.9456347387e+00 -4.0060973019e-04 2.0313910245e+00 -3.5184724644e+00 2.0313910245e+00 3.5184724644e+00 
53400 6.9456347905e+00 -3.8340513830e-04 2.0314008850e+00 -3.5184895433e+00 2.0314008850e+00 3.5184895433e+00 
53500 6.9456348418e+00 -3.6608317407e-04 2.0314103219e+00 -3.5185058886e+00 2.0314103219e+00 3.5185058886e+00 
53600 6.9456348923e+00 -3.4867941769e-04 2.0314193325e+00 -3.5185214954e+00 2.0314193325e+00 3.5185214954e+00 
53700 6.9456349417e+00 -3.3122882242e-04 2.0314279147e+00 -3.5185363601e+00 2.0314279147e+00 3.5185363601e+00 
53800 6.9456349899e+00 -3.1376565696e-04 2.0314360673e+00 -3.5185504809e+00 2.0314360673e+00 3.5185504809e+00 
53900 6.9456350366e+00 -2.9632345045e-04 2.0314437901e+00 -3.5185638571e+00 2.0314437901e+00 3.5185638571e+00 
54000 6.9456350818e+00 -2.7893494036e-04 2.0314510835e+00 -3.5185764897e+00 2.0314510835e+00 3.5185764897e+00 
54100 6.9456351251e+00 -2.6163202314e-04 2.0314579489e+00 -3.5185883809e+00 2.0314579489e+00 3.5185883809e+00 
54200 6.9456351666e+00 -2.4444570768e-04 2.0314643884e+00 -3.5185995345e+00 2.0314643884e+00 3.5185995345e+00 
54300 6.9456352061e+00 -2.2740607172e-04 2.0314704049e+00 -3.5186099554e+00 2.0314704049e+00 3.5186099554e+00 
54400 6.9456352435e+00 -2.1054222115e-04 2.0314760020e+00 -3.5186196498e+00 2.0314760020e+00 3.5186196498e+00 
54500 6.9456352787e+00 -1.9388225222e-04 2.0314811840e+00 -3.5186286253e+00 2.0314811840e+00 3.5186286253e+00 
54600 6.9456353117e+00 -1.7745321670e-04 2.0314859559e+00 -3.5186368905e+00 2.0314859559e+00 3.5186368905e+00 
54700 6.9456353424e+00 -1.6128108995e-04 2.0314903235e+00 -3.5186444554e+00 2.0314903235e+00 3.5186444554e+00 
54800 6.9456353708e+00 -1.4539074199e-04 2.0314942930e+00 -3.5186513308e+00 2.0314942930e+00 3.5186513308e+00 
54900 6.9456353970e+00 -1.2980591146e-04 2.0314978715e+00 -3.5186575288e+00 2.0314978715e+00 3.5186575288e+00 
55000 6.9456354209e+00 -1.1454918252e-04 2.0315010663e+00 -3.5186630624e+00 2.0315010663e+00 3.5186630624e+00 
55100 6.9456354426e+00 -9.9641964620e-05 2.0315038856e+00 -3.5186679457e+00 2.0315038856e+00 3.5186679457e+00 
55200 6.9456354621e+00 -8.5104475197e-05 2.0315063380e+00 -3.5186721934e+00 2.0315063380e+00 3.5186721934e+00 
55300 6.9456354794e+00 -7.0955725192e-05 2.0315084326e+00 -3.5186758214e+00 2.0315084326e+00 3.5186758214e+00 
55400 6.9456354948e+00 -5.7213507386e-05 2.0315101790e+00 -3.5186788462e+00 2.0315101790e+00 3.5186788462e+00 
55500 6.9456355082e+00 -4.4991128560e-05 2.0315101790e+00 -3.5186788462e+00 2.0315101790e+00 3.5186788462e+00 
55600 6.9456355197e+00 -3.2958275942e-05 2.0315101790e+00 -3.5186788462e+00 2.0315101790e+00 3.5186788462e+00 
55700 6.9456355294e+00 -2.1136263722e-05 2.0315101790e+00 -3.5186788462e+00 2.0315101790e+00 3.5186788462e+00 
55800 6.9456355374e+00 -9.5454114475e-06 2.0315101790e+00 -3.5186788462e+00 2.0315101790e+00 3.5186788462e+00 
55900 6.9456355439e+00 1.7949743766e-06 2.0315101790e+00 -3.5186788462e+00 2.0315101790e+00 3.5186788462e+00 
56000 6.9456355490e+00 1.2866615819e-05 2.0315101790e+00 -3.5186788462e+00 2.0315101790e+00 3.5186788462e+00 
56100 6.9456355529e+00 2.3652276255e-05 2.0315101790e+00 -3.5186788462e+00 2.0315101790e+00 3.5186788462e+00 
56200 6.9456355556e+00 3.4135770364e-05 2.0315101790e+00 -3.5186788462e+00 2.0315101790e+00 3.5186788462e+00 
56300 6.9456355574e+00 4.4301971463e-05 2.0315101790e+00 -3.5186788462e+00 2.0315101790e+00 3.5186788462e+00 
56400 6.9456355584e+00 5.4136816252e-05 2.0315101790e+00 -3.5186788462e+00 2.0315101790e+00 3.5186788462e+00 
56500 6.9456355587e+00 6.3627307038e-05 2.0315101790e+00 -3.5186788462e+00 2.0315101790e+00 3.5186788462e+00 
56600 6.9456355585e+00 7.2761511525e-05 2.0315101790e+00 -3.5186788462e+00 2.0315101790e+00 3.5186788462e+00 
56700 6.9456355577e+00 8.0133518350e-05 2.0315083882e+00 -3.5186757444e+00 2.0315083882e+00 3.5186757444e+00 
56800 6.9456355565e+00 8.6979060687e-05 2.0315064159e+00 -3.5186723283e+00 2.0315064159e+00 3.5186723283e+00 
56900 6.9456355552e+00 9.3298248810e-05 2.0315042752e+00 -3.5186686204e+00 2.0315042752e+00 3.5186686204e+00 
57000 6.9456355537e+00 9.9092257396e-05 2.0315019789e+00 -3.5186646431e+00 2.0315019789e+00 3.5186646431e+00 
57100 6.9456355523e+00 1.0436329907e-04 2.0314995400e+00 -3.5186604189e+00 2.0314995400e+00 3.5186604189e+00 
57200 6.9456355509e+00 1.0911459641e-04 2.0314969714e+00 -3.5186559699e+00 2.0314969714e+00 3.5186559699e+00 
57300 6.9456355498e+00 1.1335035252e-04 2.0314942858e+00 -3.5186513183e+00 2.0314942858e+00 3.5186513183e+00 
57400 6.9456355490e+00 1.1707572020e-04 2.0314914960e+00 -3.5186464862e+00 2.0314914960e+00 3.5186464862e+00 
57500 6.9456355486e+00 1.2029676987e-04 2.0314886145e+00 -3.5186414953e+00 2.0314886145e+00 3.5186414953e+00 
57600 6.9456355487e+00 1.2302045636e-04 2.0314856537e+00 -3.5186363670e+00 2.0314856537e+00 3.5186363670e+00 
57700 6.9456355493e+00 1.2525458461e-04 2.0314826258e+00 -3.5186311226e+00 2.0314826258e+00 3.5186311226e+00 
57800 6.9456355505e+00 1.2700777433e-04 2.0314795430e+00 -3.5186257830e+00 2.0314795430e+00 3.5186257830e+00 
57900 6.9456355523e+00 1.2828942388e-04 2.0314764170e+00 -3.5186203686e+00 2.0314764170e+00 3.5186203686e+00 
58000 6.9456355549e+00 1.2910967331e-04 2.0314732595e+00 -3.5186148996e+00 2.0314732595e+00 3.5186148996e+00 
58100 6.9456355581e+00 1.2947936672e-04 2.0314700817e+00 -3.5186093956e+00 2.0314700817e+00 3.5186093956e+00 
58200 6.9456355621e+00 1.2941001403e-04 2.0314668949e+00 -3.5186038758e+00 2.0314668949e+00 3.5186038758e+00 
58300 6.9456355669e+00 1.2891375224e-04 2.0314637097e+00 -3.5185983590e+00 2.0314637097e+00 3.5185983590e+00 
58400 6.9456355724e+00 1.2800330626e-04 2.0314605368e+00 -3.5185928633e+00 2.0314605368e+00 3.5185928633e+00 
58500 6.9456355787e+00 1.2669194948e-04 2.0314573863e+00 -3.5185874065e+00 2.0314573863e+00 3.5185874065e+00 
58600 6.9456355858e+00 1.2499346405e-04 2.0314542680e+00 -3.5185820055e+00 2.0314542680e+00 3.5185820055e+00 
58700 6.9456355936e+00 1.2292210103e-04 2.0314511916e+00 -3.5185766769e+00 2.0314511916e+00 3.5185766769e+00 
58800 6.9456356021e+00 1.2049254049e-04 2.0314481661e+00 -3.5185714367e+00 2.0314481661e+00 3.5185714367e+00 
58900 6.9456356114e+00 1.1771985163e-04 2.0314452004e+00 -3.5185662999e+00 2.0314452004e+00 3.5185662999e+00 
59000 6.9456356213e+00 1.1461945300e-04 2.0314423030e+00 -3.5185612814e+00 2.0314423030e+00 3.5185612814e+00 
59100 6.9456356319e+00 1.1120707295e-04 2.0314394819e+00 -3.5185563951e+00 2.0314394819e+00 3.5185563951e+00 
59200 6.9456356430e+00 1.0749871025e-04 2.0314367447e+00 -3.5185516542e+00 2.0314367447e+00 3.5185516542e+00 
59300 6.9456356547e+00 1.0351059515e-04 2.0314340988e+00 -3.5185470714e+00 2.0314340988e+00 3.5185470714e+00 
59400 6.9456356669e+00 9.9259150789e-05 2.0314315511e+00 -3.5185426586e+00 2.0314315511e+00 3.5185426586e+00 
59500 6.9456356796e+00 9.4760955112e-05 2.0314291080e+00 -3.5185384271e+00 2.0314291080e+00 3.5185384271e+00 
59600 6.9456356926e+00 9.0032703324e-05 2.0314267757e+00 -3.5185343873e+00 2.0314267757e+00 3.5185343873e+00 
59700 6.9456357060e+00 8.5091170948e-05 2.0314245597e+00 -3.5185305491e+00 2.0314245597e+00 3.5185305491e+00 
59800 6.9456357197e+00 7.9953177583e-05 2.0314224653e+00 -3.5185269215e+00 2.0314224653e+00 3.5185269215e+00 
59900 6.9456357336e+00 7.4635551377e-05 2.0314204974e+00 -3.5185235130e+00 2.0314204974e+00 3.5185235130e+00 
60000 6.9456357477e+00 6.9155094298e-05 2.0314186604e+00 -3.5185203312e+00 2.0314186604e+00 3.5185203312e+00 
60100 6.9456357620e+00 6.4854808901e-05 2.0314186604e+00 -3.5185203312e+00 2.0314186604e+00 3.5185203312e+00 
60200 6.9456357764e+00 6.0324880758e-05 2.0314186604e+00 -3.5185203312e+00 2.0314186604e+00 3.5185203312e+00 
60300 6.9456357907e+00 5.5579100740e-05 2.0314186604e+00 -3.5185203312e+00 2.0314186604e+00 3.5185203312e+00 
60400 6.9456358049e+00 5.0631370634e-05 2.0314186604e+00 -3.5185203312e+00 2.0314186604e+00 3.5185203312e+00 
60500 6.9456358190e+00 4.5495669948e-05 2.0314186604e+00 -3.5185203312e+00 2.0314186604e+00 3.5185203312e+00 
60600 6.9456358329e+00 4.0186023541e-05 2.0314186604e+00 -3.5185203312e+00 2.0314186604e+00 3.5185203312e+00 
60700 6.9456358465e+00 3.4716470126e-05 2.0314186604e+00 -3.5185203312e+00 2.0314186604e+00 3.5185203312e+00 
60800 6.9456358600e+00 2.9101031685e-05 2.0314186604e+00 -3.5185203312e+00 2.0314186604e+00 3.5185203312e+00 
60900 6.9456358731e+00 2.3353683812e-05 2.0314186604e+00 -3.5185203312e+00 2.0314186604e+00 3.5185203312e+00 
61000 6.9456358859e+00 1.7488327033e-05 2.0314186604e+00 -3.5185203312e+00 2.0314186604e+00 3.5185203312e+00 
61100 6.9456358983e+00 1.1518759118e-05 2.0314186604e+00 -3.5185203312e+00 2.0314186604e+00 3.5185203312e+00 
61200 6.9456359104e+00 5.4586484221e-06 2.0314186604e+00 -3.5185203312e+00 2.0314186604e+00 3.5185203312e+00 
61300 6.9456359220e+00 -6.7849172787e-07 2.0314186604e+00 -3.5185203312e+00 2.0314186604e+00 3.5185203312e+00 
61400 6.9456359332e+00 -6.8793275797e-06 2.0314186604e+00 -3.5185203312e+00 2.0314186604e+00 3.5185203312e+00 
61500 6.9456359440e+00 -1.3130728422e-05 2.0314186604e+00 -3.5185203312e+00 2.0314186604e+00 3.5185203312e+00 
61600 6.9456359543e+00 -1.9419788926e-05 2.0314186604e+00 -3.5185203312e+00 2.0314186604e+00 3.5185203312e+00 
61700 6.9456359641e+00 -2.5733850401e-05 2.0314186604e+00 -3.5185203312e+00 2.0314186604e+00 3.5185203312e+00 
61800 6.9456359735e+00 -3.2060520906e-05 2.0314186604e+00 -3.5185203312e+00 2.0314186604e+00 3.5185203312e+00 
61900 6.9456359825e+00 -3.8387694223e-05 2.0314186604e+00 -3.5185203312e+00 2.0314186604e+00 3.5185203312e+00 
62000 6.9456359909e+00 -4.4703567707e-05 2.0314186604e+00 -3.5185203312e+00 2.0314186604e+00 3.5185203312e+00 
62100 6.9456359989e+00 -5.0996658978e-05 2.0314186604e+00 -3.5185203312e+00 2.0314186604e+00 3.5185203312e+00 
62200 6.9456360065e+00 -5.7255821470e-05 2.0314186604e+00 -3.5185203312e+00 2.0314186604e+00 3.5185203312e+00 
62300 6.9456360136e+00 -6.3470258837e-05 2.0314186604e+00 -3.5185203312e+00 2.0314186604e+00 3.5185203312e+00 
62400 6.9456360203e+00 -6.9629538221e-05 2.0314186604e+00 -3.5185203312e+00 2.0314186604e+00 3.5185203312e+00 
62500 6.9456360266e+00 -7.5723602374e-05 2.0314186604e+00 -3.5185203312e+00 2.0314186604e+00 3.5185203312e+00 
62600 6.9456360323e+00 -8.0290742556e-05 2.0314205242e+00 -3.5185235594e+00 2.0314205242e+00 3.5185235594e+00 
62700 6.9456360376e+00 -8.4677724961e-05 2.0314225004e+00 -3.5185269823e+00 2.0314225004e+00 3.5185269823e+00 
62800 6.9456360425e+00 -8.8878214424e-05 2.0314245846e+00 -3.5185305922e+00 2.0314245846e+00 3.5185305922e+00 
62900 6.9456360471e+00 -9.2886410617e-05 2.0314267722e+00 -3.5185343812e+00 2.0314267722e+00 3.5185343812e+00 
63000 6.9456360513e+00 -9.6697048252e-05 2.0314290584e+00 -3.5185383411e+00 2.0314290584e+00 3.5185383411e+00 
63100 6.9456360551e+00 -1.0030539616e-04 2.0314314384e+00 -3.5185424634e+00 2.0314314384e+00 3.5185424634e+00 
63200 6.9456360587e+00 -1.0370725526e-04 2.0314339073e+00 -3.5185467396e+00 2.0314339073e+00 3.5185467396e+00 
63300 6.9456360620e+00 -1.0689895550e-04 2.0314364598e+00 -3.5185511608e+00 2.0314364598e+00 3.5185511608e+00 
63400 6.9456360650e+00 -1.0987735166e-04 2.0314390909e+00 -3.5185557180e+00 2.0314390909e+00 3.5185557180e+00 
63500 6.9456360678e+00 -1.1263981829e-04 2.0314417954e+00 -3.5185604022e+00 2.0314417954e+00 3.5185604022e+00 
63600 6.9456360704e+00 -1.1518424358e-04 2.0314445678e+00 -3.5185652042e+00 2.0314445678e+00 3.5185652042e+00 
63700 6.9456360728e+00 -1.1750902234e-04 2.0314474028e+00 -3.5185701146e+00 2.0314474028e+00 3.5185701146e+00 
63800 6.9456360751e+00 -1.1961304805e-04 2.0314502951e+00 -3.5185751241e+00 2.0314502951e+00 3.5185751241e+00 
63900 6.9456360773e+00 -1.2149570410e-04 2.0314532391e+00 -3.5185802233e+00 2.0314532391e+00 3.5185802233e+00 
64000 6.9456360794e+00 -1.2315685418e-04 2.0314562295e+00 -3.5185854028e+00 2.0314562295e+00 3.5185854028e+00 
64100 6.9456360814e+00 -1.2459683189e-04 2.0314592607e+00 -3.5185906530e+00 2.0314592607e+00 3.5185906530e+00 
64200 6.9456360833e+00 -1.2581642958e-04 2.0314623274e+00 -3.5185959647e+00 2.0314623274e+00 3.5185959647e+00 
64300 6.9456360852e+00 -1.2681688661e-04 2.0314654241e+00 -3.5186013283e+00 2.0314654241e+00 3.5186013283e+00 
64400 6.9456360871e+00 -1.2759987676e-04 2.0314685454e+00 -3.5186067346e+00 2.0314685454e+00 3.5186067346e+00 
64500 6.9456360891e+00 -1.2816749519e-04 2.0314716860e+00 -3.5186121743e+00 2.0314716860e+00 3.5186121743e+00 
64600 6.9456360910e+00 -1.2852224471e-04 2.0314748405e+00 -3.5186176381e+00 2.0314748405e+00 3.5186176381e+00 
64700 6.9456360930e+00 -1.2866702162e-04 2.0314780038e+00 -3.5186231171e+00 2.0314780038e+00 3.5186231171e+00 
64800 6.9456360951e+00 -1.2860510092e-04 2.0314811706e+00 -3.5186286022e+00 2.0314811706e+00 3.5186286022e+00 
64900 6.9456360972e+00 -1.2834012119e-04 2.0314843359e+00 -3.5186340846e+00 2.0314843359e+00 3.5186340846e+00 
65000 6.9456360994e+00 -1.2787606903e-04 2.0314874947e+00 -3.5186395558e+00 2.0314874947e+00 3.5186395558e+00 
65100 6.9456361017e+00 -1.2721726305e-04 2.0314906421e+00 -3.5186450072e+00 2.0314906421e+00 3.5186450072e+00 
65200 6.9456361041e+00 -1.2636833762e-04 2.0314937732e+00 -3.5186504305e+00 2.0314937732e+00 3.5186504305e+00 
65300 6.9456361066e+00 -1.2533422635e-04 2.0314968834e+00 -3.5186558175e+00 2.0314968834e+00 3.5186558175e+00 
65400 6.9456361093e+00 -1.2412014522e-04 2.0314999682e+00 -3.5186611605e+00 2.0314999682e+00 3.5186611605e+00 
65500 6.9456361120e+00 -1.2273157560e-04 2.0315030231e+00 -3.5186664517e+00 2.0315030231e+00 3.5186664517e+00 
65600 6.9456361149e+00 -1.2117424703e-04 2.0315060438e+00 -3.5186716838e+00 2.0315060438e+00 3.5186716838e+00 
65700 6.9456361179e+00 -1.1945411998e-04 2.0315090262e+00 -3.5186768494e+00 2.0315090262e+00 3.5186768494e+00 
65800 6.9456361209e+00 -1.1757736839e-04 2.0315119662e+00 -3.5186819417e+00 2.0315119662e+00 3.5186819417e+00 
65900 6.9456361242e+00 -1.1555036223e-04 2.0315148601e+00 -3.5186869540e+00 2.0315148601e+00 3.5186869540e+00 
66000 6.9456361275e+00 -1.1337965006e-04 2.0315177040e+00 -3.5186918798e+00 2.0315177040e+00 3.5186918798e+00 
66100 6.9456361309e+00 -1.1107194158e-04 2.0315204945e+00 -3.5186967131e+00 2.0315204945e+00 3.5186967131e+00 
66200 6.9456361344e+00 -1.0863409024e-04 2.0315232282e+00 -3.5187014481e+00 2.0315232282e+00 3.5187014481e+00 
66300 6.9456361380e+00 -1.0607307596e-04 2.0315259020e+00 -3.5187060791e+00 2.0315259020e+00 3.5187060791e+00 
66400 6.9456361417e+00 -1.0339598795e-04 2.0315285126e+00 -3.5187106009e+00 2.0315285126e+00 3.5187106009e+00 
66500 6.9456361455e+00 -1.0061000772e-04 2.0315310574e+00 -3.5187150086e+00 2.0315310574e+00 3.5187150086e+00 
66600 6.9456361493e+00 -9.7722392233e-05 2.0315335336e+00 -3.5187192975e+00 2.0315335336e+00 3.5187192975e+00 
66700 6.9456361532e+00 -9.4740457357e-05 2.0315359388e+00 -3.5187234633e+00 2.0315359388e+00 3.5187234633e+00 
66800 6.9456361572e+00 -9.1671561469e-05 2.0315382705e+00 -3.5187275020e+00 2.0315382705e+00 3.5187275020e+00 
66900 6.9456361611e+00 -8.8523089403e-05 2.0315405267e+00 -3.5187314099e+00 2.0315405267e+00 3.5187314099e+00 
67000 6.9456361651e+00 -8.5302436671e-05 2.0315427054e+00 -3.5187351836e+00 2.0315427054e+00 3.5187351836e+00 
67100 6.9456361692e+00 -8.2016994035e-05 2.0315448049e+00 -3.5187388199e+00 2.0315448049e+00 3.5187388199e+00 
67200 6.9456361732e+00 -7.8674132408e-05 2.0315468235e+00 -3.5187423162e+00 2.0315468235e+00 3.5187423162e+00 
67300 6.9456361772e+00 -7.5281188151e-05 2.0315487598e+00 -3.5187456700e+00 2.0315487598e+00 3.5187456700e+00 
67400 6.9456361812e+00 -7.1845448764e-05 2.0315506126e+00 -3.5187488792e+00 2.0315506126e+00 3.5187488792e+00 
67500 6.9456361852e+00 -6.8374138979e-05 2.0315523808e+00 -3.5187519418e+00 2.0315523808e+00 3.5187519418e+00 
67600 6.9456361892e+00 -6.6185186096e-05 2.0315523808e+00 -3.5187519418e+00 2.0315523808e+00 3.5187519418e+00 
67700 6.9456361932e+00 -6.3915405788e-05 2.0315523808e+00 -3.5187519418e+00 2.0315523808e+00 3.5187519418e+00 
67800 6.9456361971e+00 -6.1571329512e-05 2.0315523808e+00 -3.5187519418e+00 2.0315523808e+00 3.5187519418e+00 
67900 6.9456362010e+00 -5.9159481789e-05 2.0315523808e+00 -3.5187519418e+00 2.0315523808e+00 3.5187519418e+00 
68000 6.9456362047e+00 -5.6686365708e-05 2.0315523808e+00 -3.5187519418e+00 2.0315523808e+00 3.5187519418e+00 
68100 6.9456362084e+00 -5.4158448991e-05 2.0315523808e+00 -3.5187519418e+00 2.0315523808e+00 3.5187519418e+00 
68200 6.9456362119e+00 -5.1582150573e-05 2.0315523808e+00 -3.5187519418e+00 2.0315523808e+00 3.5187519418e+00 
68300 6.9456362154e+00 -4.8963827734e-05 2.0315523808e+00 -3.5187519418e+00 2.0315523808e+00 3.5187519418e+00 
68400 6.9456362187e+00 -4.6309763796e-05 2.0315523808e+00 -3.5187519418e+00 2.0315523808e+00 3.5187519418e+00 
68500 6.9456362219e+00 -4.3626156350e-05 2.0315523808e+00 -3.5187519418e+00 2.0315523808e+00 3.5187519418e+00 
68600 6.9456362251e+00 -4.0919106066e-05 2.0315523808e+00 -3.5187519418e+00 2.0315523808e+00 3.5187519418e+00 
68700 6.9456362281e+00 -3.8194606054e-05 2.0315523808e+00 -3.5187519418e+00 2.0315523808e+00 3.5187519418e+00 
68800 6.9456362310e+00 -3.5458531789e-05 2.0315523808e+00 -3.5187519418e+00 2.0315523808e+00 3.5187519418e+00 
68900 6.9456362337e+00 -3.2716631620e-05 2.0315523808e+00 -3.5187519418e+00 2.0315523808e+00 3.5187519418e+00 
69000 6.9456362364e+00 -2.9974517822e-05 2.0315523808e+00 -3.5187519418e+00 2.0315523808e+00 3.5187519418e+00 
69100 6.9456362389e+00 -2.7237658234e-05 2.0315523808e+00 -3.5187519418e+00 2.0315523808e+00 3.5187519418e+00 
69200 6.9456362414e+00 -2.4511368450e-05 2.0315523808e+00 -3.5187519418e+00 2.0315523808e+00 3.5187519418e+00 
69300 6.9456362437e+00 -2.1800804585e-05 2.0315523808e+00 -3.5187519418e+00 2.0315523808e+00 3.5187519418e+00 
69400 6.9456362459e+00 -1.9110956594e-05 2.0315523808e+00 -3.5187519418e+00 2.0315523808e+00 3.5187519418e+00 
69500 6.9456362480e+00 -1.6446642146e-05 2.0315523808e+00 -3.5187519418e+00 2.0315523808e+00 3.5187519418e+00 
69600 6.9456362500e+00 -1.3812501051e-05 2.0315523808e+00 -3.5187519418e+00 2.0315523808e+00 3.5187519418e+00 
69700 6.9456362519e+00 -1.1212990235e-05 2.0315523808e+00 -3.5187519418e+00 2.0315523808e+00 3.5187519418e+00 
69800 6.9456362537e+00 -8.6523792501e-06 2.0315523808e+00 -3.5187519418e+00 2.0315523808e+00 3.5187519418e+00 
69900 6.9456362555e+00 -6.1347463118e-06 2.0315523808e+00 -3.5187519418e+00 2.0315523808e+00 3.5187519418e+00 
70000 6.9456362571e+00 -3.6639748727e-06 2.0315523808e+00 -3.5187519418e+00 2.0315523808e+00 3.5187519418e+00 
70100 6.9456362587e+00 -1.2437506995e-06 2.0315523808e+00 -3.5187519418e+00 2.0315523808e+00 3.5187519418e+00 
70200 6.9456362602e+00 1.1224405455e-06 2.0315523808e+00 -3.5187519418e+00 2.0315523808e+00 3.5187519418e+00 
70300 6.9456362616e+00 3.4313152215e-06 2.0315523808e+00 -3.5187519418e+00 2.0315523808e+00 3.5187519418e+00 
70400 6.9456362630e+00 5.6797931489e-06 2.0315523808e+00 -3.5187519418e+00 2.0315523808e+00 3.5187519418e+00 
70500 6.9456362643e+00 7.8649985727e-06 2.0315523808e+00 -3.5187519418e+00 2.0315523808e+00 3.5187519418e+00 
70600 6.9456362656e+00 9.9842606677e-06 2.0315523808e+00 -3.5187519418e+00 2.0315523808e+00 3.5187519418e+00 
70700 6.9456362668e+00 1.2035113596e-05 2.0315523808e+00 -3.5187519418e+00 2.0315523808e+00 3.5187519418e+00 
70800 6.9456362680e+00 1.4015296128e-05 2.0315523808e+00 -3.5187519418e+00 2.0315523808e+00 3.5187519418e+00 
70900 6.9456362692e+00 1.5922750851e-05 2.0315523808e+00 -3.5187519418e+00 2.0315523808e+00 3.5187519418e+00 
71000 6.9456362703e+00 1.7755622953e-05 2.0315523808e+00 -3.5187519418e+00 2.0315523808e+00 3.5187519418e+00 
71100 6.9456362714e+00 1.9512258633e-05 2.0315523808e+00 -3.5187519418e+00 2.0315523808e+00 3.5187519418e+00 
71200 6.9456362724e+00 2.1191203128e-05 2.0315523808e+00 -3.5187519418e+00 2.0315523808e+00 3.5187519418e+00 
71300 6.9456362735e+00 2.2791198362e-05 2.0315523808e+00 -3.5187519418e+00 2.0315523808e+00 3.5187519418e+00 
71400 6.9456362745e+00 2.4311180276e-05 2.0315523808e+00 -3.5187519418e+00 2.0315523808e+00 3.5187519418e+00 
71500 6.9456362756e+00 2.5750275800e-05 2.0315523808e+00 -3.5187519418e+00 2.0315523808e+00 3.5187519418e+00 
71600 6.9456362766e+00 2.7107799525e-05 2.0315523808e+00 -3.5187519418e+00 2.0315523808e+00 3.5187519418e+00 
71700 6.9456362776e+00 2.8383250059e-05 2.0315523808e+00 -3.5187519418e+00 2.0315523808e+00 3.5187519418e+00 
71800 6.9456362786e+00 2.9576306125e-05 2.0315523808e+00 -3.5187519418e+00 2.0315523808e+00 3.5187519418e+00 
71900 6.9456362796e+00 3.0686822363e-05 2.0315523808e+00 -3.5187519418e+00 2.0315523808e+00 3.5187519418e+00 
72000 6.9456362807e+00 3.1714824899e-05 2.0315523808e+00 -3.5187519418e+00 2.0315523808e+00 3.5187519418e+00 
72100 6.9456362817e+00 3.2660506672e-05 2.0315523808e+00 -3.5187519418e+00 2.0315523808e+00 3.5187519418e+00 
72200 6.9456362827e+00 3.3524222543e-05 2.0315523808e+00 -3.5187519418e+00 2.0315523808e+00 3.5187519418e+00 
72300 6.9456362838e+00 3.4306484205e-05 2.0315523808e+00 -3.5187519418e+00 2.0315523808e+00 3.5187519418e+00 
72400 6.9456362848e+00 3.5007954900e-05 2.0315523808e+00 -3.5187519418e+00 2.0315523808e+00 3.5187519418e+00 
72500 6.9456362859e+00 3.5629443969e-05 2.0315523808e+00 -3.5187519418e+00 2.0315523808e+00 3.5187519418e+00 
72600 6.9456362869e+00 3.6171901259e-05 2.0315523808e+00 -3.5187519418e+00 2.0315523808e+00 3.5187519418e+00 
72700 6.9456362880e+00 3.6636411370e-05 2.0315523808e+00 -3.5187519418e+00 2.0315523808e+00 3.5187519418e+00 
72800 6.9456362891e+00 3.7024187806e-05 2.0315523808e+00 -3.5187519418e+00 2.0315523808e+00 3.5187519418e+00 
72900 6.9456362902e+00 3.7336566991e-05 2.0315523808e+00 -3.5187519418e+00 2.0315523808e+00 3.5187519418e+00 
73000 6.9456362913e+00 3.7575002222e-05 2.0315523808e+00 -3.5187519418e+00 2.0315523808e+00 3.5187519418e+00 
73100 6.9456362924e+00 3.7741057531e-05 2.0315523808e+00 -3.5187519418e+00 2.0315523808e+00 3.5187519418e+00 
73200 6.9456362935e+00 3.7836401482e-05 2.0315523808e+00 -3.5187519418e+00 2.0315523808e+00 3.5187519418e+00 
73300 6.9456362946e+00 3.7862800935e-05 2.0315523808e+00 -3.5187519418e+00 2.0315523808e+00 3.5187519418e+00 
73400 6.9456362957e+00 3.7822114759e-05 2.0315523808e+00 -3.5187519418e+00 2.0315523808e+00 3.5187519418e+00 
73500 6.9456362969e+00 3.7716287549e-05 2.0315523808e+00 -3.5187519418e+00 2.0315523808e+00 3.5187519418e+00 
73600 6.9456362980e+00 3.7547343324e-05 2.0315523808e+00 -3.5187519418e+00 2.0315523808e+00 3.5187519418e+00 
73700 6.9456362991e+00 3.7317379232e-05 2.0315523808e+00 -3.5187519418e+00 2.0315523808e+00 3.5187519418e+00 
73800 6.9456363002e+00 3.7028559284e-05 2.0315523808e+00 -3.5187519418e+00 2.0315523808e+00 3.5187519418e+00 
73900 6.9456363014e+00 3.6683108115e-05 2.0315523808e+00 -3.5187519418e+00 2.0315523808e+00 3.5187519418e+00 
74000 6.9456363025e+00 3.6283304791e-05 2.0315523808e+00 -3.5187519418e+00 2.0315523808e+00 3.5187519418e+00 
74100 6.9456363036e+00 3.5831476686e-05 2.0315523808e+00 -3.5187519418e+00 2.0315523808e+00 3.5187519418e+00 
74200 6.9456363047e+00 3.5329993399e-05 2.0315523808e+00 -3.5187519418e+00 2.0315523808e+00 3.5187519418e+00 
74300 6.9456363058e+00 3.4781260777e-05 2.0315523808e+00 -3.5187519418e+00 2.0315523808e+00 3.5187519418e+00 
74400 6.9456363069e+00 3.4187715021e-05 2.0315523808e+00 -3.5187519418e+00 2.0315523808e+00 3.5187519418e+00 
74500 6.9456363080e+00 3.3551816874e-05 2.0315523808e+00 -3.5187519418e+00 2.0315523808e+00 3.5187519418e+00 
74600 6.9456363090e+00 3.2876045940e-05 2.0315523808e+00 -3.5187519418e+00 2.0315523808e+00 3.5187519418e+00 
74700 6.9456363101e+00 3.2162895106e-05 2.0315523808e+00 -3.5187519418e+00 2.0315523808e+00 3.5187519418e+00 
74800 6.9456363111e+00 3.1414865090e-05 2.0315523808e+00 -3.5187519418e+00 2.0315523808e+00 3.5187519418e+00 
74900 6.9456363122e+00 3.0634459125e-05 2.0315523808e+00 -3.5187519418e+00 2.0315523808e+00 3.5187519418e+00 
75000 6.9456363132e+00 2.9824177788e-05 2.0315523808e+00 -3.5187519418e+00 2.0315523808e+00 3.5187519418e+00 
75100 6.9456363141e+00 2.8986513962e-05 2.0315523808e+00 -3.5187519418e+00 2.0315523808e+00 3.5187519418e+00 
75200 6.9456363151e+00 2.8123947959e-05 2.0315523808e+00 -3.5187519418e+00 2.0315523808e+00 3.5187519418e+00 
75300 6.9456363160e+00 2.7238942814e-05 2.0315523808e+00 -3.5187519418e+00 2.0315523808e+00 3.5187519418e+00 
75400 6.9456363170e+00 2.6333939725e-05 2.0315523808e+00 -3.5187519418e+00 2.0315523808e+00 3.5187519418e+00 
75500 6.9456363179e+00 2.5411353666e-05 2.0315523808e+00 -3.5187519418e+00 2.0315523808e+00 3.5187519418e+00 
75600 6.9456363188e+00 2.4473569183e-05 2.0315523808e+00 -3.5187519418e+00 2.0315523808e+00 3.5187519418e+00 
75700 6.9456363196e+00 2.3522936367e-05 2.0315523808e+00 -3.5187519418e+00 2.0315523808e+00 3.5187519418e+00 
75800 6.9456363204e+00 2.2561766991e-05 2.0315523808e+00 -3.5187519418e+00 2.0315523808e+00 3.5187519418e+00 
75900 6.9456363213e+00 2.1592330852e-05 2.0315523808e+00 -3.5187519418e+00 2.0315523808e+00 3.5187519418e+00 
76000 6.9456363221e+00 2.0616852294e-05 2.0315523808e+00 -3.5187519418e+00 2.0315523808e+00 3.5187519418e+00 
76100 6.9456363228e+00 1.9637506906e-05 2.0315523808e+00 -3.5187519418e+00 2.0315523808e+00 3.5187519418e+00 
76200 6.9456363236e+00 1.8656418429e-05 2.0315523808e+00 -3.5187519418e+00 2.0315523808e+00 3.5187519418e+00 
76300 6.9456363243e+00 1.7675655847e-05 2.0315523808e+00 -3.5187519418e+00 2.0315523808e+00 3.5187519418e+00 
76400 6.9456363250e+00 1.6697230669e-05 2.0315523808e+00 -3.5187519418e+00 2.0315523808e+00 3.5187519418e+00 
76500 6.9456363257e+00 1.5723094399e-05 2.0315523808e+00 -3.5187519418e+00 2.0315523808e+00 3.5187519418e+00 
76600 6.9456363264e+00 1.4755136206e-05 2.0315523808e+00 -3.5187519418e+00 2.0315523808e+00 3.5187519418e+00 
76700 6.9456363270e+00 1.3795180789e-05 2.0315523808e+00 -3.5187519418e+00 2.0315523808e+00 3.5187519418e+00 
76800 6.9456363276e+00 1.2844986415e-05 2.0315523808e+00 -3.5187519418e+00 2.0315523808e+00 3.5187519418e+00 
76900 6.9456363282e+00 1.1906243176e-05 2.0315523808e+00 -3.5187519418e+00 2.0315523808e+00 3.5187519418e+00 
77000 6.9456363288e+00 1.0980571404e-05 2.0315523808e+00 -3.5187519418e+00 2.0315523808e+00 3.5187519418e+00 
77100 6.9456363294e+00 1.0069520288e-05 2.0315523808e+00 -3.5187519418e+00 2.0315523808e+00 3.5187519418e+00 
77200 6.9456363299e+00 9.1745666764e-06 2.0315523808e+00 -3.5187519418e+00 2.0315523808e+00 3.5187519418e+00 
77300 6.9456363305e+00 8.2971140566e-06 2.0315523808e+00 -3.5187519418e+00 2.0315523808e+00 3.5187519418e+00 
77400 6.9456363310e+00 7.4384917111e-06 2.0315523808e+00 -3.5187519418e+00 2.0315523808e+00 3.5187519418e+00 
77500 6.9456363315e+00 6.5999540519e-06 2.0315523808e+00 -3.5187519418e+00 2.0315523808e+00 3.5187519418e+00 
77600 6.9456363320e+00 5.7826801287e-06 2.0315523808e+00 -3.5187519418e+00 2.0315523808e+00 3.5187519418e+00 
77700 6.9456363325e+00 4.9877733012e-06 2.0315523808e+00 -3.5187519418e+00 2.0315523808e+00 3.5187519418e+00 
77800 6.9456363330e+00 4.2162610788e-06 2.0315523808e+00 -3.5187519418e+00 2.0315523808e+00 3.5187519418e+00 
77900 6.9456363334e+00 3.4690951173e-06 2.0315523808e+00 -3.5187519418e+00 2.0315523808e+00 3.5187519418e+00 
78000 6.9456363339e+00 2.7471513752e-06 2.0315523808e+00 -3.5187519418e+00 2.0315523808e+00 3.5187519418e+00 
78100 6.9456363343e+00 2.0512304193e-06 2.0315523808e+00 -3.5187519418e+00 2.0315523808e+00 3.5187519418e+00 
78200 6.9456363348e+00 1.3820578725e-06 2.0315523808e+00 -3.5187519418e+00 2.0315523808e+00 3.5187519418e+00 
78300 6.9456363352e+00 7.4028500883e-07 2.0315523808e+00 -3.5187519418e+00 2.0315523808e+00 3.5187519418e+00 
78400 6.9456363356e+00 1.2648948655e-07 2.0315523808e+00 -3.5187519418e+00 2.0315523808e+00 3.5187519418e+00 
78500 6.9456363360e+00 -4.5882379953e-07 2.0315523808e+00 -3.5187519418e+00 2.0315523808e+00 3.5187519418e+00 
78600 6.9456363364e+00 -1.0152217207e-06 2.0315523808e+00 -3.5187519418e+00 2.0315523808e+00 3.5187519418e+00 
78700 6.9456363368e+00 -1.5423418247e-06 2.0315523808e+00 -3.5187519418e+00 2.0315523808e+00 3.5187519418e+00 
78800 6.9456363372e+00 -2.0398910991e-06 2.0315523808e+00 -3.5187519418e+00 2.0315523808e+00 3.5187519418e+00 
78900 6.9456363376e+00 -2.5076446542e-06 2.0315523808e+00 -3.5187519418e+00 2.0315523808e+00 3.5187519418e+00 
79000 6.9456363380e+00 -2.9454442848e-06 2.0315523808e+00 -3.5187519418e+00 2.0315523808e+00 3.5187519418e+00 
79100 6.9456363384e+00 -3.3531969383e-06 2.0315523808e+00 -3.5187519418e+00 2.0315523808e+00 3.5187519418e+00 
79200 6.9456363387e+00 -3.7308730947e-06 2.0315523808e+00 -3.5187519418e+00 2.0315523808e+00 3.5187519418e+00 
79300 6.9456363391e+00 -4.0785050645e-06 2.0315523808e+00 -3.5187519418e+00 2.0315523808e+00 3.5187519418e+00 
79400 6.9456363395e+00 -4.3961851979e-06 2.0315523808e+00 -3.5187519418e+00 2.0315523808e+00 3.5187519418e+00 
79500 6.9456363399e+00 -4.6840640263e-06 2.0315523808e+00 -3.5187519418e+00 2.0315523808e+00 3.5187519418e+00 
79600 6.9456363402e+00 -4.9423483273e-06 2.0315523808e+00 -3.5187519418e+00 2.0315523808e+00 3.5187519418e+00 
79700 6.9456363406e+00 -5.1712991395e-06 2.0315523808e+00 -3.5187519418e+00 2.0315523808e+00 3.5187519418e+00 
79800 6.9456363409e+00 -5.3712297168e-06 2.0315523808e+00 -3.5187519418e+00 2.0315523808e+00 3.5187519418e+00 
79900 6.9456363413e+00 -5.5425034243e-06 2.0315523808e+00 -3.5187519418e+00 2.0315523808e+00 3.5187519418e+00 
80000 6.9456363417e+00 -5.6855316011e-06 2.0315523808e+00 -3.5187519418e+00 2.0315523808e+00 3.5187519418e+00 
80100 6.9456363420e+00 -5.8007713726e-06 2.0315523808e+00 -3.5187519418e+00 2.0315523808e+00 3.5187519418e+00 
80200 6.9456363424e+00 -5.8887234391e-06 2.0315523808e+00 -3.5187519418e+00 2.0315523808e+00 3.5187519418e+00 
80300 6.9456363427e+00 -5.9499298338e-06 2.0315523808e+00 -3.5187519418e+00 2.0315523808e+00 3.5187519418e+00 
80400 6.9456363431e+00 -5.9849716467e-06 2.0315523808e+00 -3.5187519418e+00 2.0315523808e+00 3.5187519418e+00 
80500 6.9456363434e+00 -5.9944667532e-06 2.0315523808e+00 -3.5187519418e+00 2.0315523808e+00 3.5187519418e+00 
80600 6.9456363438e+00 -5.9790675049e-06 2.0315523808e+00 -3.5187519418e+00 2.0315523808e+00 3.5187519418e+00 
80700 6.9456363441e+00 -5.9394584387e-06 2.0315523808e+00 -3.5187519418e+00 2.0315523808e+00 3.5187519418e+00 
80800 6.9456363444e+00 -5.8763539582e-06 2.0315523808e+00 -3.5187519418e+00 2.0315523808e+00 3.5187519418e+00 
80900 6.9456363448e+00 -5.7904960399e-06 2.0315523808e+00 -3.5187519418e+00 2.0315523808e+00 3.5187519418e+00 
81000 6.9456363451e+00 -5.6826519297e-06 2.0315523808e+00 -3.5187519418e+00 2.0315523808e+00 3.5187519418e+00 
81100 6.9456363454e+00 -5.5536118654e-06 2.0315523808e+00 -3.5187519418e+00 2.0315523808e+00 3.5187519418e+00 
81200 6.9456363457e+00 -5.4041868048e-06 2.0315523808e+00 -3.5187519418e+00 2.0315523808e+00 3.5187519418e+00 
81300 6.9456363461e+00 -5.2352061784e-06 2.0315523808e+00 -3.5187519418e+00 2.0315523808e+00 3.5187519418e+00 
81400 6.9456363464e+00 -5.0475156603e-06 2.0315523808e+00 -3.5187519418e+00 2.0315523808e+00 3.5187519418e+00 
81500 6.9456363467e+00 -4.8419749857e-06 2.0315523808e+00 -3.5187519418e+00 2.0315523808e+00 3.5187519418e+00 
81600 6.9456363470e+00 -4.6194557762e-06 2.0315523808e+00 -3.5187519418e+00 2.0315523808e+00 3.5187519418e+00 
81700 6.9456363473e+00 -4.3808394177e-06 2.0315523808e+00 -3.5187519418e+00 2.0315523808e+00 3.5187519418e+00 
81800 6.9456363476e+00 -4.1270149705e-06 2.0315523808e+00 -3.5187519418e+00 2.0315523808e+00 3.5187519418e+00 
81900 6.9456363479e+00 -3.8588771258e-06 2.0315523808e+00 -3.5187519418e+00 2.0315523808e+00 3.5187519418e+00 
82000 6.9456363482e+00 -3.5773242026e-06 2.0315523808e+00 -3.5187519418e+00 2.0315523808e+00 3.5187519418e+00 
82100 6.9456363485e+00 -3.2832561917e-06 2.0315523808e+00 -3.5187519418e+00 2.0315523808e+00 3.5187519418e+00 
82200 6.9456363488e+00 -2.9775728638e-06 2.0315523808e+00 -3.5187519418e+00 2.0315523808e+00 3.5187519418e+00 
82300 6.9456363490e+00 -2.6611719136e-06 2.0315523808e+00 -3.5187519418e+00 2.0315523808e+00 3.5187519418e+00 
82400 6.9456363493e+00 -2.3349471718e-06 2.0315523808e+00 -3.5187519418e+00 2.0315523808e+00 3.5187519418e+00 
82500 6.9456363496e+00 -1.9997868631e-06 2.0315523808e+00 -3.5187519418e+00 2.0315523808e+00 3.5187519418e+00 
82600 6.9456363498e+00 -1.6565719433e-06 2.0315523808e+00 -3.5187519418e+00 2.0315523808e+00 3.5187519418e+00 
82700 6.9456363501e+00 -1.3061744792e-06 2.0315523808e+00 -3.5187519418e+00 2.0315523808e+00 3.5187519418e+00 
82800 6.9456363503e+00 -9.4945609682e-07 2.0315523808e+00 -3.5187519418e+00 2.0315523808e+00 3.5187519418e+00 
82900 6.9456363506e+00 -5.8726650640e-07 2.0315523808e+00 -3.5187519418e+00 2.0315523808e+00 3.5187519418e+00 
83000 6.9456363508e+00 -2.2044207057e-07 2.0315523808e+00 -3.5187519418e+00 2.0315523808e+00 3.5187519418e+00 
83100 6.9456363511e+00 1.5019553344e-07 2.0315523808e+00 -3.5187519418e+00 2.0315523808e+00 3.5187519418e+00 
83200 6.9456363513e+00 5.2384060646e-07 2.0315523808e+00 -3.5187519418e+00 2.0315523808e+00 3.5187519418e+00 
83300 6.9456363515e+00 8.9970464236e-07 2.0315523808e+00 -3.5187519418e+00 2.0315523808e+00 3.5187519418e+00 
83400 6.9456363517e+00 1.2770174647e-06 2.0315523808e+00 -3.5187519418e+00 2.0315523808e+00 3.5187519418e+00 
83500 6.9456363520e+00 1.6550283090e-06 2.0315523808e+00 -3.5187519418e+00 2.0315523808e+00 3.5187519418e+00 
83600 6.9456363522e+00 2.0330068301e-06 2.0315523808e+00 -3.5187519418e+00 2.0315523808e+00 3.5187519418e+00 
83700 6.9456363524e+00 2.4102440260e-06 2.0315523808e+00 -3.5187519418e+00 2.0315523808e+00 3.5187519418e+00 
83800 6.9456363526e+00 2.7860531169e-06 2.0315523808e+00 -3.5187519418e+00 2.0315523808e+00 3.5187519418e+00 
83900 6.9456363528e+00 3.1597703249e-06 2.0315523808e+00 -3.5187519418e+00 2.0315523808e+00 3.5187519418e+00 
84000 6.9456363530e+00 3.5307556133e-06 2.0315523808e+00 -3.5187519418e+00 2.0315523808e+00 3.5187519418e+00 
84100 6.9456363532e+00 3.8983933268e-06 2.0315523808e+00 -3.5187519418e+00 2.0315523808e+00 3.5187519418e+00 
84200 6.9456363533e+00 4.2620927895e-06 2.0315523808e+00 -3.5187519418e+00 2.0315523808e+00 3.5187519418e+00 
84300 6.9456363535e+00 4.6212888143e-06 2.0315523808e+00 -3.5187519418e+00 2.0315523808e+00 3.5187519418e+00 
84400 6.9456363537e+00 4.9754421635e-06 2.0315523808e+00 -3.5187519418e+00 2.0315523808e+00 3.5187519418e+00 
84500 6.9456363539e+00 5.3240399234e-06 2.0315523808e+00 -3.5187519418e+00 2.0315523808e+00 3.5187519418e+00 
84600 6.9456363540e+00 5.6665958308e-06 2.0315523808e+00 -3.5187519418e+00 2.0315523808e+00 3.5187519418e+00 
84700 6.9456363542e+00 6.0026505186e-06 2.0315523808e+00 -3.5187519418e+00 2.0315523808e+00 3.5187519418e+00 
84800 6.9456363544e+00 6.3317717219e-06 2.0315523808e+00 -3.5187519418e+00 2.0315523808e+00 3.5187519418e+00 
84900 6.9456363545e+00 6.6535543943e-06 2.0315523808e+00 -3.5187519418e+00 2.0315523808e+00 3.5187519418e+00 
85000 6.9456363547e+00 6.9676207886e-06 2.0315523808e+00 -3.5187519418e+00 2.0315523808e+00 3.5187519418e+00 
85100 6.9456363548e+00 7.2736204604e-06 2.0315523808e+00 -3.5187519418e+00 2.0315523808e+00 3.5187519418e+00 
85200 6.9456363550e+00 7.5712302294e-06 2.0315523808e+00 -3.5187519418e+00 2.0315523808e+00 3.5187519418e+00 
85300 6.9456363551e+00 7.8601540727e-06 2.0315523808e+00 -3.5187519418e+00 2.0315523808e+00 3.5187519418e+00 
85400 6.9456363553e+00 8.1401229779e-06 2.0315523808e+00 -3.5187519418e+00 2.0315523808e+00 3.5187519418e+00 
85500 6.9456363554e+00 8.4108947265e-06 2.0315523808e+00 -3.5187519418e+00 2.0315523808e+00 3.5187519418e+00 
85600 6.9456363556e+00 8.6722536461e-06 2.0315523808e+00 -3.5187519418e+00 2.0315523808e+00 3.5187519418e+00 
85700 6.9456363557e+00 8.9240103058e-06 2.0315523808e+00 -3.5187519418e+00 2.0315523808e+00 3.5187519418e+00 
85800 6.9456363558e+00 9.1660011616e-06 2.0315523808e+00 -3.5187519418e+00 2.0315523808e+00 3.5187519418e+00 
85900 6.9456363560e+00 9.3980881612e-06 2.0315523808e+00 -3.5187519418e+00 2.0315523808e+00 3.5187519418e+00 
86000 6.9456363561e+00 9.6201583169e-06 2.0315523808e+00 -3.5187519418e+00 2.0315523808e+00 3.5187519418e+00 
86100 6.9456363562e+00 9.8321232210e-06 2.0315523808e+00 -3.5187519418e+00 2.0315523808e+00 3.5187519418e+00 
86200 6.9456363564e+00 1.0033918534e-05 2.0315523808e+00 -3.5187519418e+00 2.0315523808e+00 3.5187519418e+00 
86300 6.9456363565e+00 1.0225503434e-05 2.0315523808e+00 -3.5187519418e+00 2.0315523808e+00 3.5187519418e+00 
86400 6.9456363566e+00 1.0406860035e-05 2.0315523808e+00 -3.5187519418e+00 2.0315523808e+00 3.5187519418e+00 
86500 6.9456363567e+00 1.0577992772e-05 2.0315523808e+00 -3.5187519418e+00 2.0315523808e+00 3.5187519418e+00 
86600 6.9456363569e+00 1.0738927754e-05 2.0315523808e+00 -3.5187519418e+00 2.0315523808e+00 3.5187519418e+00 
86700 6.9456363570e+00 1.0889712096e-05 2.0315523808e+00 -3.5187519418e+00 2.0315523808e+00 3.5187519418e+00 
86800 6.9456363571e+00 1.1030413221e-05 2.0315523808e+00 -3.5187519418e+00 2.0315523808e+00 3.5187519418e+00 
86900 6.9456363572e+00 1.1161118140e-05 2.0315523808e+00 -3.5187519418e+00 2.0315523808e+00 3.5187519418e+00 
87000 6.9456363573e+00 1.1281932714e-05 2.0315523808e+00 -3.5187519418e+00 2.0315523808e+00 3.5187519418e+00 
87100 6.9456363575e+00 1.1392980890e-05 2.0315523808e+00 -3.5187519418e+00 2.0315523808e+00 3.5187519418e+00 
87200 6.9456363576e+00 1.1494403935e-05 2.0315523808e+00 -3.5187519418e+00 2.0315523808e+00 3.5187519418e+00 
87300 6.9456363577e+00 1.1586359639e-05 2.0315523808e+00 -3.5187519418e+00 2.0315523808e+00 3.5187519418e+00 
87400 6.9456363578e+00 1.1669021516e-05 2.0315523808e+00 -3.5187519418e+00 2.0315523808e+00 3.5187519418e+00 
87500 6.9456363579e+00 1.1742577988e-05 2.0315523808e+00 -3.5187519418e+00 2.0315523808e+00 3.5187519418e+00 
87600 6.9456363580e+00 1.1807231568e-05 2.0315523808e+00 -3.5187519418e+00 2.0315523808e+00 3.5187519418e+00 
87700 6.9456363581e+00 1.1863198031e-05 2.0315523808e+00 -3.5187519418e+00 2.0315523808e+00 3.5187519418e+00 
87800 6.9456363582e+00 1.1910705582e-05 2.0315523808e+00 -3.5187519418e+00 2.0315523808e+00 3.5187519418e+00 
87900 6.9456363583e+00 1.1949994019e-05 2.0315523808e+00 -3.5187519418e+00 2.0315523808e+00 3.5187519418e+00 
88000 6.9456363584e+00 1.1981313901e-05 2.0315523808e+00 -3.5187519418e+00 2.0315523808e+00 3.5187519418e+00 
88100 6.9456363585e+00 1.2004925711e-05 2.0315523808e+00 -3.5187519418e+00 2.0315523808e+00 3.5187519418e+00 
88200 6.9456363586e+00 1.2021099023e-05 2.0315523808e+00 -3.5187519418e+00 2.0315523808e+00 3.5187519418e+00 
88300 6.9456363587e+00 1.2030111672e-05 2.0315523808e+00 -3.5187519418e+00 2.0315523808e+00 3.5187519418e+00 
88400 6.9456363588e+00 1.2032248938e-05 2.0315523808e+00 -3.5187519418e+00 2.0315523808e+00 3.5187519418e+00 
88500 6.9456363589e+00 1.2027802723e-05 2.0315523808e+00 -3.5187519418e+00 2.0315523808e+00 3.5187519418e+00 
88600 6.9456363590e+00 1.2017070748e-05 2.0315523808e+00 -3.5187519418e+00 2.0315523808e+00 3.5187519418e+00 
88700 6.9456363591e+00 1.2000355760e-05 2.0315523808e+00 -3.5187519418e+00 2.0315523808e+00 3.5187519418e+00 
88800 6.9456363592e+00 1.1977964747e-05 2.0315523808e+00 -3.5187519418e+00 2.0315523808e+00 3.5187519418e+00 
88900 6.9456363593e+00 1.1950208155e-05 2.0315523808e+00 -3.5187519418e+00 2.0315523808e+00 3.5187519418e+00 
89000 6.9456363594e+00 1.1917399151e-05 2.0315523808e+00 -3.5187519418e+00 2.0315523808e+00 3.5187519418e+00 
89100 6.9456363595e+00 1.1879852866e-05 2.0315523808e+00 -3.5187519418e+00 2.0315523808e+00 3.5187519418e+00 
89200 6.9456363596e+00 1.1837885673e-05 2.0315523808e+00 -3.5187519418e+00 2.0315523808e+00 3.5187519418e+00 
89300 6.9456363597e+00 1.1791814487e-05 2.0315523808e+00 -3.5187519418e+00 2.0315523808e+00 3.5187519418e+00 
89400 6.9456363598e+00 1.1741956059e-05 2.0315523808e+00 -3.5187519418e+00 2.0315523808e+00 3.5187519418e+00 
89500 6.9456363598e+00 1.1688626327e-05 2.0315523808e+00 -3.5187519418e+00 2.0315523808e+00 3.5187519418e+00 
89600 6.9456363599e+00 1.1632139751e-05 2.0315523808e+00 -3.5187519418e+00 2.0315523808e+00 3.5187519418e+00 
89700 6.9456363600e+00 1.1572808691e-05 2.0315523808e+00 -3.5187519418e+00 2.0315523808e+00 3.5187519418e+00 
89800 6.9456363601e+00 1.1510942797e-05 2.0315523808e+00 -3.5187519418e+00 2.0315523808e+00 3.5187519418e+00 
89900 6.9456363602e+00 1.1446848436e-05 2.0315523808e+00 -3.5187519418e+00 2.0315523808e+00 3.5187519418e+00 
90000 6.9456363602e+00 1.1380828114e-05 2.0315523808e+00 -3.5187519418e+00 2.0315523808e+00 3.5187519418e+00 
90100 6.9456363603e+00 1.1313179953e-05 2.0315523808e+00 -3.5187519418e+00 2.0315523808e+00 3.5187519418e+00 
90200 6.9456363604e+00 1.1244197171e-05 2.0315523808e+00 -3.5187519418e+00 2.0315523808e+00 3.5187519418e+00 
90300 6.9456363605e+00 1.1174167593e-05 2.0315523808e+00 -3.5187519418e+00 2.0315523808e+00 3.5187519418e+00 
90400 6.9456363605e+00 1.1103373193e-05 2.0315523808e+00 -3.5187519418e+00 2.0315523808e+00 3.5187519418e+00 
90500 6.9456363606e+00 1.1032089651e-05 2.0315523808e+00 -3.5187519418e+00 2.0315523808e+00 3.5187519418e+00 
90600 6.9456363607e+00 1.0960585938e-05 2.0315523808e+00 -3.5187519418e+00 2.0315523808e+00 3.5187519418e+00 
90700 6.9456363607e+00 1.0889123935e-05 2.0315523808e+00 -3.5187519418e+00 2.0315523808e+00 3.5187519418e+00 
90800 6.9456363608e+00 1.0817958064e-05 2.0315523808e+00 -3.5187519418e+00 2.0315523808e+00 3.5187519418e+00 
90900 6.9456363609e+00 1.0747334953e-05 2.0315523808e+00 -3.5187519418e+00 2.0315523808e+00 3.5187519418e+00 
91000 6.9456363609e+00 1.0677493126e-05 2.0315523808e+00 -3.5187519418e+00 2.0315523808e+00 3.5187519418e+00 
91100 6.9456363610e+00 1.0608662720e-05 2.0315523808e+00 -3.5187519418e+00 2.0315523808e+00 3.5187519418e+00 
91200 6.9456363611e+00 1.0541065221e-05 2.0315523808e+00 -3.5187519418e+00 2.0315523808e+00 3.5187519418e+00 
91300 6.9456363611e+00 1.0474913235e-05 2.0315523808e+00 -3.5187519418e+00 2.0315523808e+00 3.5187519418e+00 
91400 6.9456363612e+00 1.0410410272e-05 2.0315523808e+00 -3.5187519418e+00 2.0315523808e+00 3.5187519418e+00 
91500 6.9456363613e+00 1.0347750565e-05 2.0315523808e+00 -3.5187519418e+00 2.0315523808e+00 3.5187519418e+00 
91600 6.9456363613e+00 1.0287118909e-05 2.0315523808e+00 -3.5187519418e+00 2.0315523808e+00 3.5187519418e+00 
91700 6.9456363614e+00 1.0228690527e-05 2.0315523808e+00 -3.5187519418e+00 2.0315523808e+00 3.5187519418e+00 
91800 6.9456363614e+00 1.0172630963e-05 2.0315523808e+00 -3.5187519418e+00 2.0315523808e+00 3.5187519418e+00 
91900 6.9456363615e+00 1.0119095978e-05 2.0315523808e+00 -3.5187519418e+00 2.0315523808e+00 3.5187519418e+00 
92000 6.9456363615e+00 1.0068231504e-05 2.0315523808e+00 -3.5187519418e+00 2.0315523808e+00 3.5187519418e+00 
92100 6.9456363616e+00 1.0020173581e-05 2.0315523808e+00 -3.5187519418e+00 2.0315523808e+00 3.5187519418e+00 
92200 6.9456363616e+00 9.9750483541e-06 2.0315523808e+00 -3.5187519418e+00 2.0315523808e+00 3.5187519418e+00 
92300 6.9456363617e+00 9.9329720618e-06 2.0315523808e+00 -3.5187519418e+00 2.0315523808e+00 3.5187519418e+00 
92400 6.9456363617e+00 9.8940510645e-06 2.0315523808e+00 -3.5187519418e+00 2.0315523808e+00 3.5187519418e+00 
92500 6.9456363618e+00 9.8583818778e-06 2.0315523808e+00 -3.5187519418e+00 2.0315523808e+00 3.5187519418e+00 
92600 6.9456363618e+00 9.8260512400e-06 2.0315523808e+00 -3.5187519418e+00 2.0315523808e+00 3.5187519418e+00 
92700 6.9456363619e+00 9.7971361904e-06 2.0315523808e+00 -3.5187519418e+00 2.0315523808e+00 3.5187519418e+00 
92800 6.9456363619e+00 9.7717041645e-06 2.0315523808e+00 -3.5187519418e+00 2.0315523808e+00 3.5187519418e+00 
92900 6.9456363620e+00 9.7498131102e-06 2.0315523808e+00 -3.5187519418e+00 2.0315523808e+00 3.5187519418e+00 
93000 6.9456363620e+00 9.7315116231e-06 2.0315523808e+00 -3.5187519418e+00 2.0315523808e+00 3.5187519418e+00 
93100 6.9456363621e+00 9.7168390886e-06 2.0315523808e+00 -3.5187519418e+00 2.0315523808e+00 3.5187519418e+00 
93200 6.9456363621e+00 9.7058258497e-06 2.0315523808e+00 -3.5187519418e+00 2.0315523808e+00 3.5187519418e+00 
93300 6.9456363622e+00 9.6984933881e-06 2.0315523808e+00 -3.5187519418e+00 2.0315523808e+00 3.5187519418e+00 
93400 6.9456363622e+00 9.6948545060e-06 2.0315523808e+00 -3.5187519418e+00 2.0315523808e+00 3.5187519418e+00 
93500 6.9456363623e+00 9.6949135374e-06 2.0315523808e+00 -3.5187519418e+00 2.0315523808e+00 3.5187519418e+00 
93600 6.9456363623e+00 9.6957130112e-06 2.0315523808e+00 -3.5187519418e+00 2.0315523808e+00 3.5187519418e+00 
93600 6.9456363623e+00 9.6957130116e-06 2.0315523808e+00 -3.5187519418e+00 2.0315523808e+00 3.5187519418e+00 
