# step Hamiltonian StressXX CellTensor1 CellTensor2 CellTensor3 CellTensor4 
0 5.2413272459e+00 2.6886860468e-02 1.7299681240e+00 -2.9963926863e+00 1.7299681240e+00 2.9963926863e+00 
100 5.2237613465e+00 2.6116116519e-02 1.7299681240e+00 -2.9963926863e+00 1.7299681240e+00 2.9963926863e+00 
200 5.2072538720e+00 2.5011405827e-02 1.7292133640e+00 -2.9950854035e+00 1.7292133640e+00 2.9950854035e+00 
300 5.1917695783e+00 2.4289172395e-02 1.7284902126e+00 -2.9938328685e+00 1.7284902126e+00 2.9938328685e+00 
400 5.1772505934e+00 2.3916518532e-02 1.7277876478e+00 -2.9926159907e+00 1.7277876478e+00 2.9926159907e+00 
500 5.1636414145e+00 2.3862140882e-02 1.7270955801e+00 -2.9914172942e+00 1.7270955801e+00 2.9914172942e+00 
600 5.1508888282e+00 2.4096252065e-02 1.7264048091e+00 -2.9902208438e+00 1.7264048091e+00 2.9902208438e+00 
700 5.1389418443e+00 2.4590511155e-02 1.7257069824e+00 -2.9890121725e+00 1.7257069824e+00 2.9890121725e+00 
800 5.1277516410e+00 2.5317962156e-02 1.7249945550e+00 -2.9877782121e+00 1.7249945550e+00 2.9877782121e+00 
900 5.1172715185e+00 2.6252979653e-02 1.7242607508e+00 -2.9865072259e+00 1.7242607508e+00 2.9865072259e+00 
1000 5.1074568592e+00 2.7371220866e-02 1.7234995246e+00 -2.9851887435e+00 1.7234995246e+00 2.9851887435e+00 
1100 5.0982650923e+00 2.8649583388e-02 1.7227055262e+00 -2.9838134979e+00 1.7227055262e+00 2.9838134979e+00 
1200 5.0896556610e+00 3.0066167898e-02 1.7218740644e+00 -2.9823733638e+00 1.7218740644e+00 2.9823733638e+00 
1300 5.0815899915e+00 3.1600245208e-02 1.7210010730e+00 -2.9808612983e+00 1.7210010730e+00 2.9808612983e+00 
1400 5.0740314617e+00 3.3232226980e-02 1.7200830772e+00 -2.9792712830e+00 1.7200830772e+00 2.9792712830e+00 
1500 5.0669453689e+00 3.4943639532e-02 1.7191171612e+00 -2.9775982674e+00 1.7191171612e+00 2.9775982674e+00 
1600 5.0602988958e+00 3.6717100132e-02 1.7181009363e+00 -2.9758381142e+00 1.7181009363e+00 2.9758381142e+00 
1700 5.0540610743e+00 3.8536295209e-02 1.7170325098e+00 -2.9739875452e+00 1.7170325098e+00 2.9739875452e+00 
1800 5.0482027461e+00 4.0385959950e-02 1.7159104549e+00 -2.9720440891e+00 1.7159104549e+00 2.9720440891e+00 
1900 5.0426965197e+00 4.2251858764e-02 1.7147337810e+00 -2.9700060301e+00 1.7147337810e+00 2.9700060301e+00 
2000 5.0375167242e+00 4.4120766116e-02 1.7135019048e+00 -2.9678723579e+00 1.7135019048e+00 2.9678723579e+00 
2100 5.0326393597e+00 4.5980447284e-02 1.7122146218e+00 -2.9656427184e+00 1.7122146218e+00 2.9656427184e+00 
2200 5.0280420433e+00 4.7819638617e-02 1.7108720788e+00 -2.9633173658e+00 1.7108720788e+00 2.9633173658e+00 
2300 5.0237039524e+00 4.9628026931e-02 1.7094747469e+00 -2.9608971159e+00 1.7094747469e+00 2.9608971159e+00 
2400 5.0196057643e+00 5.1396227717e-02 1.7080233948e+00 -2.9583833003e+00 1.7080233948e+00 2.9583833003e+00 
2500 5.0157295930e+00 5.3115761891e-02 1.7065190630e+00 -2.9557777213e+00 1.7065190630e+00 2.9557777213e+00 
2600 5.0120589237e+00 5.4779030898e-02 1.7049630394e+00 -2.9530826092e+00 1.7049630394e+00 2.9530826092e+00 
2700 5.0085785448e+00 5.6379290007e-02 1.7033568339e+00 -2.9503005797e+00 1.7033568339e+00 2.9503005797e+00 
2800 5.0052744784e+00 5.7910619742e-02 1.7017021556e+00 -2.9474345928e+00 1.7017021556e+00 2.9474345928e+00 
2900 5.0021339102e+00 5.9367895410e-02 1.7000008896e+00 -2.9444879137e+00 1.7000008896e+00 2.9444879137e+00 
3000 4.9991451183e+00 6.0746754801e-02 1.6982550752e+00 -2.9414640744e+00 1.6982550752e+00 2.9414640744e+00 
3100 4.9962974021e+00 6.2043564141e-02 1.6964668844e+00 -2.9383668371e+00 1.6964668844e+00 2.9383668371e+00 
3200 4.9935810119e+00 6.3255382469e-02 1.6946386021e+00 -2.9352001594e+00 1.6946386021e+00 2.9352001594e+00 
3300 4.9909870797e+00 6.4379924640e-02 1.6927726067e+00 -2.9319681604e+00 1.6927726067e+00 2.9319681604e+00 
3400 4.9885075509e+00 6.5415523174e-02 1.6908713514e+00 -2.9286750897e+00 1.6908713514e+00 2.9286750897e+00 
3500 4.9861351182e+00 6.6361089250e-02 1.6889373475e+00 -2.9253252966e+00 1.6889373475e+00 2.9253252966e+00 
3600 4.9838631588e+00 6.7216073092e-02 1.6869731476e+00 -2.9219232027e+00 1.6869731476e+00 2.9219232027e+00 
3700 4.9816856722e+00 6.7980424076e-02 1.6849813309e+00 -2.9184732749e+00 1.6849813309e+00 2.9184732749e+00 
3800 4.9795972233e+00 6.8654550828e-02 1.6829644883e+00 -2.9149800010e+00 1.6829644883e+00 2.9149800010e+00 
3900 4.9775928866e+00 6.9239281627e-02 1.6809252097e+00 -2.9114478670e+00 1.6809252097e+00 2.9114478670e+00 
4000 4.9756681953e+00 6.9735825366e-02 1.6788660722e+00 -2.9078813361e+00 1.6788660722e+00 2.9078813361e+00 
4100 4.9738190930e+00 7.0145733346e-02 1.6767896281e+00 -2.9042848295e+00 1.6767896281e+00 2.9042848295e+00 
4200 4.9720418889e+00 7.0470862141e-02 1.6746983959e+00 -2.9006627090e+00 1.6746983959e+00 2.9006627090e+00 
4300 4.9703332171e+00 7.0713337712e-02 1.6725948503e+00 -2.8970192612e+00 1.6725948503e+00 2.8970192612e+00 
4400 4.9686899986e+00 7.0875520994e-02 1.6704814149e+00 -2.8933586837e+00 1.6704814149e+00 2.8933586837e+00 
4500 4.9671094072e+00 7.0959975059e-02 1.6683604544e+00 -2.8896850724e+00 1.6683604544e+00 2.8896850724e+00 
4600 4.9655888388e+00 7.0969434001e-02 1.6662342688e+00 -2.8860024108e+00 1.6662342688e+00 2.8860024108e+00 
4700 4.9641258832e+00 7.0906773622e-02 1.6641050875e+00 -2.8823145606e+00 1.6641050875e+00 2.8823145606e+00 
4800 4.9627182997e+00 7.0774983977e-02 1.6619750650e+00 -2.8786252535e+00 1.6619750650e+00 2.8786252535e+00 
4900 4.9613639949e+00 7.0577143810e-02 1.6598462770e+00 -2.8749380845e+00 1.6598462770e+00 2.8749380845e+00 
5000 4.9600610032e+00 7.0316396900e-02 1.6577207170e+00 -2.8712565065e+00 1.6577207170e+00 2.8712565065e+00 
5100 4.9588074703e+00 6.9995930290e-02 1.6556002939e+00 -2.8675838261e+00 1.6556002939e+00 2.8675838261e+00 
5200 4.9576016382e+00 6.9618954386e-02 1.6534868304e+00 -2.8639231999e+00 1.6534868304e+00 2.8639231999e+00 
5300 4.9564418325e+00 6.9188684860e-02 1.6513820612e+00 -2.8602776328e+00 1.6513820612e+00 2.8602776328e+00 
5400 4.9553264520e+00 6.8708326319e-02 1.6492876326e+00 -2.8566499759e+00 1.6492876326e+00 2.8566499759e+00 
5500 4.9542539591e+00 6.8181057651e-02 1.6472051018e+00 -2.8530429268e+00 1.6472051018e+00 2.8530429268e+00 
5600 4.9532228725e+00 6.7610018990e-02 1.6451359374e+00 -2.8494590290e+00 1.6451359374e+00 2.8494590290e+00 
5700 4.9522317606e+00 6.6998300190e-02 1.6430815198e+00 -2.8459006732e+00 1.6430815198e+00 2.8459006732e+00 
5800 4.9512792365e+00 6.6348930750e-02 1.6410431417e+00 -2.8423700988e+00 1.6410431417e+00 2.8423700988e+00 
5900 4.9503639536e+00 6.5664871079e-02 1.6390220098e+00 -2.8388693957e+00 1.6390220098e+00 2.8388693957e+00 
6000 4.9494846022e+00 6.4949005016e-02 1.6370192460e+00 -2.8354005070e+00 1.6370192460e+00 2.8354005070e+00 
6100 4.9486399074e+00 6.4204133515e-02 1.6350358890e+00 -2.8319652320e+00 1.6350358890e+00 2.8319652320e+00 
6200 4.9478286264e+00 6.3432969410e-02 1.6330728964e+00 -2.8285652290e+00 1.6330728964e+00 2.8285652290e+00 
6300 4.9470495474e+00 6.2638133161e-02 1.6311311465e+00 -2.8252020195e+00 1.6311311465e+00 2.8252020195e+00 
6400 4.9463014885e+00 6.1822149514e-02 1.6292114410e+00 -2.8218769920e+00 1.6292114410e+00 2.8218769920e+00 
6500 4.9455832970e+00 6.0987444976e-02 1.6273145068e+00 -2.8185914057e+00 1.6273145068e+00 2.8185914057e+00 
6600 4.9448938489e+00 6.0136346042e-02 1.6254409991e+00 -2.8153463951e+00 1.6254409991e+00 2.8153463951e+00 
6700 4.9442320486e+00 5.9271078095e-02 1.6235915033e+00 -2.8121429744e+00 1.6235915033e+00 2.8121429744e+00 
6800 4.9435968291e+00 5.8393764912e-02 1.6217665381e+00 -2.8089820419e+00 1.6217665381e+00 2.8089820419e+00 
6900 4.9429871515e+00 5.7506428703e-02 1.6199665580e+00 -2.8058643850e+00 1.6199665580e+00 2.8058643850e+00 
7000 4.9424020058e+00 5.6610990644e-02 1.6181919560e+00 -2.8027906843e+00 1.6181919560e+00 2.8027906843e+00 
7100 4.9418404102e+00 5.5709271818e-02 1.6164430665e+00 -2.7997615187e+00 1.6164430665e+00 2.7997615187e+00 
7200 4.9413014120e+00 5.4802994538e-02 1.6147201675e+00 -2.7967773701e+00 1.6147201675e+00 2.7967773701e+00 
7300 4.9407840873e+00 5.3893783991e-02 1.6130234838e+00 -2.7938386278e+00 1.6130234838e+00 2.7938386278e+00 
7400 4.9402875411e+00 5.2983170157e-02 1.6113531898e+00 -2.7909455936e+00 1.6113531898e+00 2.7909455936e+00 
7500 4.9398109074e+00 5.2072589969e-02 1.6097094114e+00 -2.7880984859e+00 1.6097094114e+00 2.7880984859e+00 
7600 4.9393533493e+00 5.1163389677e-02 1.6080922294e+00 -2.7852974446e+00 1.6080922294e+00 2.7852974446e+00 
7700 4.9389140588e+00 5.0256827368e-02 1.6065016818e+00 -2.7825425353e+00 1.6065016818e+00 2.7825425353e+00 
7800 4.9384922567e+00 4.9354075640e-02 1.6049377661e+00 -2.7798337538e+00 1.6049377661e+00 2.7798337538e+00 
7900 4.9380871923e+00 4.8456224362e-02 1.6034004420e+00 -2.7771710305e+00 1.6034004420e+00 2.7771710305e+00 
8000 4.9376981433e+00 4.7564283534e-02 1.6018896340e+00 -2.7745542342e+00 1.6018896340e+00 2.7745542342e+00 
8100 4.9373244154e+00 4.6679186202e-02 1.6004052330e+00 -2.7719831763e+00 1.6004052330e+00 2.7719831763e+00 
8200 4.9369653417e+00 4.5801791406e-02 1.5989470995e+00 -2.7694576150e+00 1.5989470995e+00 2.7694576150e+00 
8300 4.9366202826e+00 4.4932887161e-02 1.5975150650e+00 -2.7669772585e+00 1.5975150650e+00 2.7669772585e+00 
8400 4.9362886249e+00 4.4073193431e-02 1.5961089347e+00 -2.7645417693e+00 1.5961089347e+00 2.7645417693e+00 
8500 4.9359697815e+00 4.3223365107e-02 1.5947284890e+00 -2.7621507672e+00 1.5947284890e+00 2.7621507672e+00 
8600 4.9356631907e+00 4.2383994952e-02 1.5933734860e+00 -2.7598038331e+00 1.5933734860e+00 2.7598038331e+00 
8700 4.9353683154e+00 4.1555616522e-02 1.5920436630e+00 -2.7575005122e+00 1.5920436630e+00 2.7575005122e+00 
8800 4.9350846426e+00 4.0738707039e-02 1.5907387385e+00 -2.7552403167e+00 1.5907387385e+00 2.7552403167e+00 
8900 4.9348116827e+00 3.9933690219e-02 1.5894584140e+00 -2.7530227296e+00 1.5894584140e+00 2.7530227296e+00 
9000 4.9345489685e+00 3.9140939038e-02 1.5882023753e+00 -2.7508472067e+00 1.5882023753e+00 2.7508472067e+00 
9100 4.9342960546e+00 3.8360778439e-02 1.5869702945e+00 -2.7487131801e+00 1.5869702945e+00 2.7487131801e+00 
9200 4.9340525167e+00 3.7593487969e-02 1.5857618312e+00 -2.7466200604e+00 1.5857618312e+00 2.7466200604e+00 
9300 4.9338179505e+00 3.6839304344e-02 1.5845766343e+00 -2.7445672391e+00 1.5845766343e+00 2.7445672391e+00 
9400 4.9335919713e+00 3.6098423942e-02 1.5834143429e+00 -2.7425540913e+00 1.5834143429e+00 2.7425540913e+00 
9500 4.9333742130e+00 3.5371005211e-02 1.5822745878e+00 -2.7405799776e+00 1.5822745878e+00 2.7405799776e+00 
9600 4.9331643273e+00 3.4657171002e-02 1.5811569930e+00 -2.7386442466e+00 1.5811569930e+00 2.7386442466e+00 
9700 4.9329619828e+00 3.3957010826e-02 1.5800611763e+00 -2.7367462364e+00 1.5800611763e+00 2.7367462364e+00 
9800 4.9327668646e+00 3.3270583018e-02 1.5789867508e+00 -2.7348852769e+00 1.5789867508e+00 2.7348852769e+00 
9900 4.9325786732e+00 3.2597916828e-02 1.5779333259e+00 -2.7330606914e+00 1.5779333259e+00 2.7330606914e+00 
10000 4.9323971238e+00 3.1939014426e-02 1.5769005079e+00 -2.7312717982e+00 1.5769005079e+00 2.7312717982e+00 
10100 4.9322219457e+00 3.1293852828e-02 1.5758879014e+00 -2.7295179123e+00 1.5758879014e+00 2.7295179123e+00 
10200 4.9320528816e+00 3.0662385736e-02 1.5748951098e+00 -2.7277983468e+00 1.5748951098e+00 2.7277983468e+00 
10300 4.9318896867e+00 3.0044545305e-02 1.5739217363e+00 -2.7261124144e+00 1.5739217363e+00 2.7261124144e+00 
10400 4.9317321283e+00 2.9440243824e-02 1.5729673843e+00 -2.7244594283e+00 1.5729673843e+00 2.7244594283e+00 
10500 4.9315799850e+00 2.8849375330e-02 1.5720316585e+00 -2.7228387036e+00 1.5720316585e+00 2.7228387036e+00 
10600 4.9314330461e+00 2.8271817131e-02 1.5711141653e+00 -2.7212495588e+00 1.5711141653e+00 2.7212495588e+00 
10700 4.9312911112e+00 2.7707431271e-02 1.5702145134e+00 -2.7196913160e+00 1.5702145134e+00 2.7196913160e+00 
10800 4.9311539894e+00 2.7156065914e-02 1.5693323144e+00 -2.7181633024e+00 1.5693323144e+00 2.7181633024e+00 
10900 4.9310214989e+00 2.6617556655e-02 1.5684671831e+00 -2.7166648511e+00 1.5684671831e+00 2.7166648511e+00 
11000 4.9308934662e+00 2.6091727772e-02 1.5676187383e+00 -2.7151953017e+00 1.5676187383e+00 2.7151953017e+00 
11100 4.9307697262e+00 2.5578393406e-02 1.5667866030e+00 -2.7137540010e+00 1.5667866030e+00 2.7137540010e+00 
11200 4.9306501212e+00 2.5077358675e-02 1.5659704047e+00 -2.7123403041e+00 1.5659704047e+00 2.7123403041e+00 
11300 4.9305345007e+00 2.4588420729e-02 1.5651697759e+00 -2.7109535743e+00 1.5651697759e+00 2.7109535743e+00 
11400 4.9304227211e+00 2.4111369749e-02 1.5643843543e+00 -2.7095931842e+00 1.5643843543e+00 2.7095931842e+00 
11500 4.9303146449e+00 2.3645989875e-02 1.5636137831e+00 -2.7082585158e+00 1.5636137831e+00 2.7082585158e+00 
11600 4.9302101408e+00 2.3192060096e-02 1.5628577114e+00 -2.7069489612e+00 1.5628577114e+00 2.7069489612e+00 
11700 4.9301090830e+00 2.2749355071e-02 1.5621157941e+00 -2.7056639227e+00 1.5621157941e+00 2.7056639227e+00 
11800 4.9300113513e+00 2.2317645908e-02 1.5613876923e+00 -2.7044028133e+00 1.5613876923e+00 2.7044028133e+00 
11900 4.9299168302e+00 2.1896700888e-02 1.5606730734e+00 -2.7031650571e+00 1.5606730734e+00 2.7031650571e+00 
12000 4.9298254091e+00 2.1486286145e-02 1.5599716113e+00 -2.7019500892e+00 1.5599716113e+00 2.7019500892e+00 
12100 4.9297369819e+00 2.1086166301e-02 1.5592829865e+00 -2.7007573559e+00 1.5592829865e+00 2.7007573559e+00 
12200 4.9296514467e+00 2.0696105053e-02 1.5586068859e+00 -2.6995863154e+00 1.5586068859e+00 2.6995863154e+00 
12300 4.9295687057e+00 2.0315865722e-02 1.5579430035e+00 -2.6984364373e+00 1.5579430035e+00 2.6984364373e+00 
12400 4.9294886647e+00 1.9945211763e-02 1.5572910397e+00 -2.6973072029e+00 1.5572910397e+00 2.6973072029e+00 
12500 4.9294112332e+00 1.9583907233e-02 1.5566507020e+00 -2.6961981054e+00 1.5566507020e+00 2.6961981054e+00 
12600 4.9293363240e+00 1.9231717230e-02 1.5560217045e+00 -2.6951086498e+00 1.5560217045e+00 2.6951086498e+00 
12700 4.9292638534e+00 1.8888408287e-02 1.5554037682e+00 -2.6940383529e+00 1.5554037682e+00 2.6940383529e+00 
12800 4.9291937404e+00 1.8553748744e-02 1.5547966211e+00 -2.6929867432e+00 1.5547966211e+00 2.6929867432e+00 
12900 4.9291259071e+00 1.8227509085e-02 1.5541999977e+00 -2.6919533611e+00 1.5541999977e+00 2.6919533611e+00 
13000 4.9290602783e+00 1.7909462238e-02 1.5536136393e+00 -2.6909377587e+00 1.5536136393e+00 2.6909377587e+00 
13100 4.9289967815e+00 1.7599383862e-02 1.5530372942e+00 -2.6899394995e+00 1.5530372942e+00 2.6899394995e+00 
13200 4.9289353468e+00 1.7297052595e-02 1.5524707169e+00 -2.6889581589e+00 1.5524707169e+00 2.6889581589e+00 
13300 4.9288759064e+00 1.7002250279e-02 1.5519136688e+00 -2.6879933232e+00 1.5519136688e+00 2.6879933232e+00 
13400 4.9288183951e+00 1.6714762170e-02 1.5513659176e+00 -2.6870445904e+00 1.5513659176e+00 2.6870445904e+00 
13500 4.9287627498e+00 1.6434377110e-02 1.5508272377e+00 -2.6861115694e+00 1.5508272377e+00 2.6861115694e+00 
13600 4.9287089095e+00 1.6160887696e-02 1.5502974094e+00 -2.6851938800e+00 1.5502974094e+00 2.6851938800e+00 
13700 4.9286568151e+00 1.5894090413e-02 1.5497762197e+00 -2.6842911529e+00 1.5497762197e+00 2.6842911529e+00 
13800 4.9286064096e+00 1.5633785757e-02 1.5492634614e+00 -2.6834030294e+00 1.5492634614e+00 2.6834030294e+00 
13900 4.9285576379e+00 1.5379778339e-02 1.5487589333e+00 -2.6825291612e+00 1.5487589333e+00 2.6825291612e+00 
14000 4.9285104466e+00 1.5131876973e-02 1.5482624404e+00 -2.6816692103e+00 1.5482624404e+00 2.6816692103e+00 
14100 4.9284647839e+00 1.4889894746e-02 1.5477737933e+00 -2.6808228486e+00 1.5477737933e+00 2.6808228486e+00 
14200 4.9284206000e+00 1.4653649072e-02 1.5472928082e+00 -2.6799897579e+00 1.5472928082e+00 2.6799897579e+00 
14300 4.9283778465e+00 1.4422961743e-02 1.5468193069e+00 -2.6791696297e+00 1.5468193069e+00 2.6791696297e+00 
14400 4.9283364764e+00 1.4197658951e-02 1.5463531168e+00 -2.6783621647e+00 1.5463531168e+00 2.6783621647e+00 
14500 4.9282964446e+00 1.3977571315e-02 1.5458940704e+00 -2.6775670731e+00 1.5458940704e+00 2.6775670731e+00 
14600 4.9282577071e+00 1.3762533884e-02 1.5454420055e+00 -2.6767840737e+00 1.5454420055e+00 2.6767840737e+00 
14700 4.9282202214e+00 1.3552386134e-02 1.5449967648e+00 -2.6760128942e+00 1.5449967648e+00 2.6760128942e+00 
14800 4.9281839466e+00 1.3346971963e-02 1.5445581961e+00 -2.6752532709e+00 1.5445581961e+00 2.6752532709e+00 
14900 4.9281488427e+00 1.3146139664e-02 1.5441261519e+00 -2.6745049483e+00 1.5441261519e+00 2.6745049483e+00 
15000 4.9281148712e+00 1.2949741902e-02 1.5437004892e+00 -2.6737676790e+00 1.5437004892e+00 2.6737676790e+00 
15100 4.9280819949e+00 1.2757635675e-02 1.5432810700e+00 -2.6730412235e+00 1.5432810700e+00 2.6730412235e+00 
15200 4.9280501778e+00 1.2569682276e-02 1.5428677601e+00 -2.6723253498e+00 1.5428677601e+00 2.6723253498e+00 
15300 4.9280193848e+00 1.2385747241e-02 1.5424604300e+00 -2.6716198334e+00 1.5424604300e+00 2.6716198334e+00 
15400 4.9279895822e+00 1.2205700300e-02 1.5420589542e+00 -2.6709244570e+00 1.5420589542e+00 2.6709244570e+00 
15500 4.9279607374e+00 1.2029415313e-02 1.5416632113e+00 -2.6702390102e+00 1.5416632113e+00 2.6702390102e+00 
15600 4.9279328186e+00 1.1856770211e-02 1.5412730837e+00 -2.6695632893e+00 1.5412730837e+00 2.6695632893e+00 
15700 4.9279057953e+00 1.1687646931e-02 1.5408884576e+00 -2.6688970974e+00 1.5408884576e+00 2.6688970974e+00 
15800 4.9278796379e+00 1.1521931337e-02 1.5405092229e+00 -2.6682402436e+00 1.5405092229e+00 2.6682402436e+00 
15900 4.9278543178e+00 1.1359513157e-02 1.5401352730e+00 -2.6675925434e+00 1.5401352730e+00 2.6675925434e+00 
16000 4.9278298072e+00 1.1200285898e-02 1.5397665048e+00 -2.6669538181e+00 1.5397665048e+00 2.6669538181e+00 
16100 4.9278060794e+00 1.1044146771e-02 1.5394028183e+00 -2.6663238946e+00 1.5394028183e+00 2.6663238946e+00 
16200 4.9277831084e+00 1.0890996612e-02 1.5390441169e+00 -2.6657026056e+00 1.5390441169e+00 2.6657026056e+00 
16300 4.9277608694e+00 1.0740739795e-02 1.5386903071e+00 -2.6650897890e+00 1.5386903071e+00 2.6650897890e+00 
16400 4.9277393380e+00 1.0593284149e-02 1.5383412982e+00 -2.6644852878e+00 1.5383412982e+00 2.6644852878e+00 
16500 4.9277184908e+00 1.0448540878e-02 1.5379970024e+00 -2.6638889500e+00 1.5379970024e+00 2.6638889500e+00 
16600 4.9276983053e+00 1.0306424467e-02 1.5376573347e+00 -2.6633006284e+00 1.5376573347e+00 2.6633006284e+00 
16700 4.9276787596e+00 1.0166852604e-02 1.5373222129e+00 -2.6627201804e+00 1.5373222129e+00 2.6627201804e+00 
16800 4.9276598325e+00 1.0029746087e-02 1.5369915572e+00 -2.6621474678e+00 1.5369915572e+00 2.6621474678e+00 
16900 4.9276415037e+00 9.8950287383e-03 1.5366652902e+00 -2.6615823569e+00 1.5366652902e+00 2.6615823569e+00 
17000 4.9276237535e+00 9.7626273211e-03 1.5363433371e+00 -2.6610247178e+00 1.5363433371e+00 2.6610247178e+00 
17100 4.9276065627e+00 9.6324714488e-03 1.5360256252e+00 -2.6604744246e+00 1.5360256252e+00 2.6604744246e+00 
17200 4.9275899130e+00 9.5044935012e-03 1.5357120841e+00 -2.6599313555e+00 1.5357120841e+00 2.6599313555e+00 
17300 4.9275737866e+00 9.3786285380e-03 1.5354026454e+00 -2.6593953920e+00 1.5354026454e+00 2.6593953920e+00 
17400 4.9275581664e+00 9.2548142144e-03 1.5350972429e+00 -2.6588664193e+00 1.5350972429e+00 2.6588664193e+00 
17500 4.9275430357e+00 9.1329906970e-03 1.5347958121e+00 -2.6583443258e+00 1.5347958121e+00 2.6583443258e+00 
17600 4.9275283785e+00 9.0131005809e-03 1.5344982906e+00 -2.6578290035e+00 1.5344982906e+00 2.6578290035e+00 
17700 4.9275141794e+00 8.8950888076e-03 1.5342046176e+00 -2.6573203470e+00 1.5342046176e+00 2.6573203470e+00 
17800 4.9275004233e+00 8.7789025845e-03 1.5339147343e+00 -2.6568182542e+00 1.5339147343e+00 2.6568182542e+00 
17900 4.9274870959e+00 8.6644913055e-03 1.5336285831e+00 -2.6563226259e+00 1.5336285831e+00 2.6563226259e+00 
18000 4.9274741833e+00 8.5518064727e-03 1.5333461084e+00 -2.6558333653e+00 1.5333461084e+00 2.6558333653e+00 
18100 4.9274616719e+00 8.4408016200e-03 1.5330672559e+00 -2.6553503787e+00 1.5330672559e+00 2.6553503787e+00 
18200 4.9274495487e+00 8.3314322378e-03 1.5327919729e+00 -2.6548735744e+00 1.5327919729e+00 2.6548735744e+00 
18300 4.9274378013e+00 8.2236556994e-03 1.5325202078e+00 -2.6544028635e+00 1.5325202078e+00 2.6544028635e+00 
18400 4.9274264175e+00 8.1174311888e-03 1.5322519107e+00 -2.6539381593e+00 1.5322519107e+00 2.6539381593e+00 
18500 4.9274153855e+00 8.0127196307e-03 1.5319870326e+00 -2.6534793771e+00 1.5319870326e+00 2.6534793771e+00 
18600 4.9274046941e+00 7.9094836211e-03 1.5317255261e+00 -2.6530264345e+00 1.5317255261e+00 2.6530264345e+00 
18700 4.9273943323e+00 7.8076873609e-03 1.5314673447e+00 -2.6525792512e+00 1.5314673447e+00 2.6525792512e+00 
18800 4.9273842896e+00 7.7072965899e-03 1.5312124431e+00 -2.6521377486e+00 1.5312124431e+00 2.6521377486e+00 
18900 4.9273745558e+00 7.6082785236e-03 1.5309607770e+00 -2.6517018501e+00 1.5309607770e+00 2.6517018501e+00 
19000 4.9273651211e+00 7.5106017909e-03 1.5307123032e+00 -2.6512714809e+00 1.5307123032e+00 2.6512714809e+00 
19100 4.9273559759e+00 7.4142363740e-03 1.5304669794e+00 -2.6508465677e+00 1.5304669794e+00 2.6508465677e+00 
19200 4.9273471110e+00 7.3191535502e-03 1.5302247645e+00 -2.6504270390e+00 1.5302247645e+00 2.6504270390e+00 
19300 4.9273385177e+00 7.2253258346e-03 1.5299856178e+00 -2.6500128249e+00 1.5299856178e+00 2.6500128249e+00 
19400 4.9273301873e+00 7.1327269257e-03 1.5297494999e+00 -2.6496038567e+00 1.5297494999e+00 2.6496038567e+00 
19500 4.9273221115e+00 7.0413316515e-03 1.5295163720e+00 -2.6492000673e+00 1.5295163720e+00 2.6492000673e+00 
19600 4.9273142823e+00 6.9511159184e-03 1.5292861961e+00 -2.6488013910e+00 1.5292861961e+00 2.6488013910e+00 
19700 4.9273066921e+00 6.8620566609e-03 1.5290589351e+00 -2.6484077633e+00 1.5290589351e+00 2.6484077633e+00 
19800 4.9272993332e+00 6.7741317936e-03 1.5288345523e+00 -2.6480191210e+00 1.5288345523e+00 2.6480191210e+00 
19900 4.9272921986e+00 6.6873201645e-03 1.5286130121e+00 -2.6476354020e+00 1.5286130121e+00 2.6476354020e+00 
20000 4.9272852811e+00 6.6016015100e-03 1.5283942791e+00 -2.6472565454e+00 1.5283942791e+00 2.6472565454e+00 
20100 4.9272785741e+00 6.5169564118e-03 1.5281783189e+00 -2.6468824914e+00 1.5281783189e+00 2.6468824914e+00 
20200 4.9272720711e+00 6.4333662547e-03 1.5279650976e+00 -2.6465131812e+00 1.5279650976e+00 2.6465131812e+00 
20300 4.9272657656e+00 6.3508131867e-03 1.5277545817e+00 -2.6461485570e+00 1.5277545817e+00 2.6461485570e+00 
20400 4.9272596517e+00 6.2692800801e-03 1.5275467385e+00 -2.6457885620e+00 1.5275467385e+00 2.6457885620e+00 
20500 4.9272537234e+00 6.1887504944e-03 1.5273415356e+00 -2.6454331402e+00 1.5273415356e+00 2.6454331402e+00 
20600 4.9272479749e+00 6.1092086405e-03 1.5271389413e+00 -2.6450822366e+00 1.5271389413e+00 2.6450822366e+00 
20700 4.9272424009e+00 6.0306393462e-03 1.5269389243e+00 -2.6447357969e+00 1.5269389243e+00 2.6447357969e+00 
20800 4.9272369958e+00 5.9530280237e-03 1.5267414537e+00 -2.6443937679e+00 1.5267414537e+00 2.6443937679e+00 
20900 4.9272317547e+00 5.8763606376e-03 1.5265464993e+00 -2.6440560969e+00 1.5265464993e+00 2.6440560969e+00 
21000 4.9272266723e+00 5.8006236749e-03 1.5263540309e+00 -2.6437227319e+00 1.5263540309e+00 2.6437227319e+00 
21100 4.9272217440e+00 5.7258041159e-03 1.5261640192e+00 -2.6433936220e+00 1.5261640192e+00 2.6433936220e+00 
21200 4.9272169651e+00 5.6518894068e-03 1.5259764350e+00 -2.6430687165e+00 1.5259764350e+00 2.6430687165e+00 
21300 4.9272123309e+00 5.5788674327e-03 1.5257912494e+00 -2.6427479658e+00 1.5257912494e+00 2.6427479658e+00 
21400 4.9272078371e+00 5.5067264931e-03 1.5256084343e+00 -2.6424313206e+00 1.5256084343e+00 2.6424313206e+00 
21500 4.9272034795e+00 5.4354552773e-03 1.5254279614e+00 -2.6421187325e+00 1.5254279614e+00 2.6421187325e+00 
21600 4.9271992539e+00 5.3650428412e-03 1.5252498032e+00 -2.6418101534e+00 1.5252498032e+00 2.6418101534e+00 
21700 4.9271951563e+00 5.2954785863e-03 1.5250739324e+00 -2.6415055362e+00 1.5250739324e+00 2.6415055362e+00 
21800 4.9271911830e+00 5.2267522378e-03 1.5249003218e+00 -2.6412048339e+00 1.5249003218e+00 2.6412048339e+00 
21900 4.9271873300e+00 5.1588538257e-03 1.5247289449e+00 -2.6409080004e+00 1.5247289449e+00 2.6409080004e+00 
22000 4.9271835940e+00 5.0917736654e-03 1.5245597752e+00 -2.6406149899e+00 1.5245597752e+00 2.6406149899e+00 
22100 4.9271799712e+00 5.0255023400e-03 1.5243927867e+00 -2.6403257572e+00 1.5243927867e+00 2.6403257572e+00 
22200 4.9271764584e+00 4.9600306836e-03 1.5242279534e+00 -2.6400402577e+00 1.5242279534e+00 2.6400402577e+00 
22300 4.9271730522e+00 4.8953497647e-03 1.5240652500e+00 -2.6397584471e+00 1.5240652500e+00 2.6397584471e+00 
22400 4.9271697494e+00 4.8314508716e-03 1.5239046511e+00 -2.6394802816e+00 1.5239046511e+00 2.6394802816e+00 
22500 4.9271665470e+00 4.7683254978e-03 1.5237461318e+00 -2.6392057181e+00 1.5237461318e+00 2.6392057181e+00 
22600 4.9271634419e+00 4.7059653282e-03 1.5235896673e+00 -2.6389347136e+00 1.5235896673e+00 2.6389347136e+00 
22700 4.9271604312e+00 4.6443622268e-03 1.5234352331e+00 -2.6386672258e+00 1.5234352331e+00 2.6386672258e+00 
22800 4.9271575122e+00 4.5835082242e-03 1.5232828051e+00 -2.6384032127e+00 1.5232828051e+00 2.6384032127e+00 
22900 4.9271546821e+00 4.5233955062e-03 1.5231323592e+00 -2.6381426328e+00 1.5231323592e+00 2.6381426328e+00 
23000 4.9271519382e+00 4.4640164036e-03 1.5229838717e+00 -2.6378854449e+00 1.5229838717e+00 2.6378854449e+00 
23100 4.9271492780e+00 4.4053633817e-03 1.5228373191e+00 -2.6376316083e+00 1.5228373191e+00 2.6376316083e+00 
23200 4.9271466990e+00 4.3474290311e-03 1.5226926781e+00 -2.6373810828e+00 1.5226926781e+00 2.6373810828e+00 
23300 4.9271441988e+00 4.2902060590e-03 1.5225499257e+00 -2.6371338284e+00 1.5225499257e+00 2.6371338284e+00 
23400 4.9271417750e+00 4.2336872805e-03 1.5224090390e+00 -2.6368898055e+00 1.5224090390e+00 2.6368898055e+00 
23500 4.9271394254e+00 4.1778656115e-03 1.5222699955e+00 -2.6366489750e+00 1.5222699955e+00 2.6366489750e+00 
23600 4.9271371478e+00 4.1227340611e-03 1.5221327727e+00 -2.6364112982e+00 1.5221327727e+00 2.6364112982e+00 
23700 4.9271349400e+00 4.0682857254e-03 1.5219973485e+00 -2.6361767366e+00 1.5219973485e+00 2.6361767366e+00 
23800 4.9271327999e+00 4.0145137804e-03 1.5218637009e+00 -2.6359452521e+00 1.5218637009e+00 2.6359452521e+00 
23900 4.9271307257e+00 3.9614114775e-03 1.5217318081e+00 -2.6357168072e+00 1.5217318081e+00 2.6357168072e+00 
24000 4.9271287152e+00 3.9089721371e-03 1.5216016487e+00 -2.6354913644e+00 1.5216016487e+00 2.6354913644e+00 
24100 4.9271267666e+00 3.8571891442e-03 1.5214732012e+00 -2.6352688869e+00 1.5214732012e+00 2.6352688869e+00 
24200 4.9271248782e+00 3.8060559440e-03 1.5213464446e+00 -2.6350493380e+00 1.5213464446e+00 2.6350493380e+00 
24300 4.9271230480e+00 3.7555660373e-03 1.5212213579e+00 -2.6348326815e+00 1.5212213579e+00 2.6348326815e+00 
24400 4.9271212744e+00 3.7057129773e-03 1.5210979204e+00 -2.6346188815e+00 1.5210979204e+00 2.6346188815e+00 
24500 4.9271195557e+00 3.6564903655e-03 1.5209761116e+00 -2.6344079024e+00 1.5209761116e+00 2.6344079024e+00 
24600 4.9271178903e+00 3.6078918491e-03 1.5208559111e+00 -2.6341997090e+00 1.5208559111e+00 2.6341997090e+00 
24700 4.9271162766e+00 3.5599111179e-03 1.5207372988e+00 -2.6339942664e+00 1.5207372988e+00 2.6339942664e+00 
24800 4.9271147130e+00 3.5125419014e-03 1.5206202547e+00 -2.6337915402e+00 1.5206202547e+00 2.6337915402e+00 
24900 4.9271131981e+00 3.4657779674e-03 1.5205047591e+00 -2.6335914960e+00 1.5205047591e+00 2.6335914960e+00 
25000 4.9271117305e+00 3.4196131189e-03 1.5203907926e+00 -2.6333941001e+00 1.5203907926e+00 2.6333941001e+00 
25100 4.9271103087e+00 3.3740411931e-03 1.5202783356e+00 -2.6331993189e+00 1.5202783356e+00 2.6331993189e+00 
25200 4.9271089314e+00 3.3290560591e-03 1.5201673691e+00 -2.6330071192e+00 1.5201673691e+00 2.6330071192e+00 
25300 4.9271075973e+00 3.2846516172e-03 1.5200578740e+00 -2.6328174682e+00 1.5200578740e+00 2.6328174682e+00 
25400 4.9271063050e+00 3.2408217971e-03 1.5199498317e+00 -2.6326303334e+00 1.5199498317e+00 2.6326303334e+00 
25500 4.9271050534e+00 3.1975605572e-03 1.5198432234e+00 -2.6324456825e+00 1.5198432234e+00 2.6324456825e+00 
25600 4.9271038413e+00 3.1548618837e-03 1.5197380309e+00 -2.6322634836e+00 1.5197380309e+00 2.6322634836e+00 
25700 4.9271026674e+00 3.1127197899e-03 1.5196342358e+00 -2.6320837053e+00 1.5196342358e+00 2.6320837053e+00 
25800 4.9271015306e+00 3.0711283155e-03 1.5195318202e+00 -2.6319063163e+00 1.5195318202e+00 2.6319063163e+00 
25900 4.9271004299e+00 3.0300815262e-03 1.5194307662e+00 -2.6317312857e+00 1.5194307662e+00 2.6317312857e+00 
26000 4.9270993641e+00 2.9895735137e-03 1.5193310563e+00 -2.6315585829e+00 1.5193310563e+00 2.6315585829e+00 
26100 4.9270983323e+00 2.9495983952e-03 1.5192326728e+00 -2.6313881778e+00 1.5192326728e+00 2.6313881778e+00 
26200 4.9270973334e+00 2.9101503135e-03 1.5191355985e+00 -2.6312200403e+00 1.5191355985e+00 2.6312200403e+00 
26300 4.9270963664e+00 2.8712234368e-03 1.5190398165e+00 -2.6310541408e+00 1.5190398165e+00 2.6310541408e+00 
26400 4.9270954304e+00 2.8328119592e-03 1.5189453096e+00 -2.6308904501e+00 1.5189453096e+00 2.6308904501e+00 
26500 4.9270945245e+00 2.7949101005e-03 1.5188520612e+00 -2.6307289392e+00 1.5188520612e+00 2.6307289392e+00 
26600 4.9270936478e+00 2.7575121067e-03 1.5187600549e+00 -2.6305695795e+00 1.5187600549e+00 2.6305695795e+00 
26700 4.9270927993e+00 2.7206122500e-03 1.5186692741e+00 -2.6304123426e+00 1.5186692741e+00 2.6304123426e+00 
26800 4.9270919784e+00 2.6842048299e-03 1.5185797027e+00 -2.6302572004e+00 1.5185797027e+00 2.6302572004e+00 
26900 4.9270911840e+00 2.6482841729e-03 1.5184913248e+00 -2.6301041253e+00 1.5184913248e+00 2.6301041253e+00 
27000 4.9270904155e+00 2.6128446333e-03 1.5184041244e+00 -2.6299530900e+00 1.5184041244e+00 2.6299530900e+00 
27100 4.9270896721e+00 2.5778805938e-03 1.5183180861e+00 -2.6298040671e+00 1.5183180861e+00 2.6298040671e+00 
27200 4.9270889531e+00 2.5433864659e-03 1.5182331942e+00 -2.6296570301e+00 1.5182331942e+00 2.6296570301e+00 
27300 4.9270882576e+00 2.5093566906e-03 1.5181494336e+00 -2.6295119525e+00 1.5181494336e+00 2.6295119525e+00 
27400 4.9270875850e+00 2.4757857390e-03 1.5180667891e+00 -2.6293688080e+00 1.5180667891e+00 2.6293688080e+00 
27500 4.9270869346e+00 2.4426681131e-03 1.5179852458e+00 -2.6292275709e+00 1.5179852458e+00 2.6292275709e+00 
27600 4.9270863058e+00 2.4099983459e-03 1.5179047890e+00 -2.6290882155e+00 1.5179047890e+00 2.6290882155e+00 
27700 4.9270856979e+00 2.3777710030e-03 1.5178254040e+00 -2.6289507167e+00 1.5178254040e+00 2.6289507167e+00 
27800 4.9270851102e+00 2.3459806824e-03 1.5177470764e+00 -2.6288150494e+00 1.5177470764e+00 2.6288150494e+00 
27900 4.9270845422e+00 2.3146220156e-03 1.5176697921e+00 -2.6286811890e+00 1.5176697921e+00 2.6286811890e+00 
28000 4.9270839933e+00 2.2836896684e-03 1.5175935370e+00 -2.6285491113e+00 1.5175935370e+00 2.6285491113e+00 
28100 4.9270834629e+00 2.2531783413e-03 1.5175182971e+00 -2.6284187920e+00 1.5175182971e+00 2.6284187920e+00 
28200 4.9270829504e+00 2.2230827703e-03 1.5174440588e+00 -2.6282902074e+00 1.5174440588e+00 2.6282902074e+00 
28300 4.9270824553e+00 2.1933977278e-03 1.5173708085e+00 -2.6281633342e+00 1.5173708085e+00 2.6281633342e+00 
28400 4.9270819771e+00 2.1641180228e-03 1.5172985328e+00 -2.6280381490e+00 1.5172985328e+00 2.6280381490e+00 
28500 4.9270815152e+00 2.1352385020e-03 1.5172272185e+00 -2.6279146291e+00 1.5172272185e+00 2.6279146291e+00 
28600 4.9270810692e+00 2.1067540502e-03 1.5171568526e+00 -2.6277927517e+00 1.5171568526e+00 2.6277927517e+00 
28700 4.9270806387e+00 2.0786595911e-03 1.5170874221e+00 -2.6276724946e+00 1.5170874221e+00 2.6276724946e+00 
28800 4.9270802230e+00 2.0509500878e-03 1.5170189144e+00 -2.6275538358e+00 1.5170189144e+00 2.6275538358e+00 
28900 4.9270798218e+00 2.0236205435e-03 1.5169513169e+00 -2.6274367534e+00 1.5169513169e+00 2.6274367534e+00 
29000 4.9270794346e+00 1.9966660018e-03 1.5168846171e+00 -2.6273212260e+00 1.5168846171e+00 2.6273212260e+00 
29100 4.9270790611e+00 1.9700815477e-03 1.5168188029e+00 -2.6272072325e+00 1.5168188029e+00 2.6272072325e+00 
29200 4.9270787007e+00 1.9438623078e-03 1.5167538621e+00 -2.6270947518e+00 1.5167538621e+00 2.6270947518e+00 
29300 4.9270783531e+00 1.9180034510e-03 1.5166897829e+00 -2.6269837633e+00 1.5166897829e+00 2.6269837633e+00 
29400 4.9270780179e+00 1.8925001890e-03 1.5166265534e+00 -2.6268742466e+00 1.5166265534e+00 2.6268742466e+00 
29500 4.9270776948e+00 1.8673477764e-03 1.5165641621e+00 -2.6267661816e+00 1.5165641621e+00 2.6267661816e+00 
29600 4.9270773832e+00 1.8425415117e-03 1.5165025974e+00 -2.6266595485e+00 1.5165025974e+00 2.6266595485e+00 
29700 4.9270770830e+00 1.8180767374e-03 1.5164418481e+00 -2.6265543276e+00 1.5164418481e+00 2.6265543276e+00 
29800 4.9270767937e+00 1.7939488405e-03 1.5163819030e+00 -2.6264504997e+00 1.5163819030e+00 2.6264504997e+00 
29900 4.9270765150e+00 1.7701532526e-03 1.5163227511e+00 -2.6263480456e+00 1.5163227511e+00 2.6263480456e+00 
30000 4.9270762466e+00 1.7466854508e-03 1.5162643816e+00 -2.6262469466e+00 1.5162643816e+00 2.6262469466e+00 
30100 4.9270759882e+00 1.7235409573e-03 1.5162067836e+00 -2.6261471840e+00 1.5162067836e+00 2.6261471840e+00 
30200 4.9270757394e+00 1.7007153404e-03 1.5161499467e+00 -2.6260487396e+00 1.5161499467e+00 2.6260487396e+00 
30300 4.9270755000e+00 1.6782042142e-03 1.5160938604e+00 -2.6259515953e+00 1.5160938604e+00 2.6259515953e+00 
30400 4.9270752697e+00 1.6560032391e-03 1.5160385144e+00 -2.6258557332e+00 1.5160385144e+00 2.6258557332e+00 
30500 4.9270750481e+00 1.6341081221e-03 1.5159838986e+00 -2.6257611359e+00 1.5159838986e+00 2.6257611359e+00 
30600 4.9270748350e+00 1.6125146168e-03 1.5159300030e+00 -2.6256677859e+00 1.5159300030e+00 2.6256677859e+00 
30700 4.9270746302e+00 1.5912185234e-03 1.5158768176e+00 -2.6255756662e+00 1.5158768176e+00 2.6255756662e+00 
30800 4.9270744334e+00 1.5702156893e-03 1.5158243329e+00 -2.6254847599e+00 1.5158243329e+00 2.6254847599e+00 
30900 4.9270742443e+00 1.5495020089e-03 1.5157725390e+00 -2.6253950503e+00 1.5157725390e+00 2.6253950503e+00 
31000 4.9270740627e+00 1.5290734236e-03 1.5157214267e+00 -2.6253065212e+00 1.5157214267e+00 2.6253065212e+00 
31100 4.9270738883e+00 1.5089259220e-03 1.5156709865e+00 -2.6252191562e+00 1.5156709865e+00 2.6252191562e+00 
31200 4.9270737210e+00 1.4890555401e-03 1.5156212093e+00 -2.6251329396e+00 1.5156212093e+00 2.6251329396e+00 
31300 4.9270735605e+00 1.4694583610e-03 1.5155720860e+00 -2.6250478554e+00 1.5155720860e+00 2.6250478554e+00 
31400 4.9270734066e+00 1.4501305148e-03 1.5155236076e+00 -2.6249638884e+00 1.5155236076e+00 2.6249638884e+00 
31500 4.9270732591e+00 1.4310681791e-03 1.5154757653e+00 -2.6248810231e+00 1.5154757653e+00 2.6248810231e+00 
31600 4.9270731177e+00 1.4122675784e-03 1.5154285504e+00 -2.6247992445e+00 1.5154285504e+00 2.6247992445e+00 
31700 4.9270729823e+00 1.3937249843e-03 1.5153819543e+00 -2.6247185377e+00 1.5153819543e+00 2.6247185377e+00 
31800 4.9270728527e+00 1.3754367154e-03 1.5153359686e+00 -2.6246388881e+00 1.5153359686e+00 2.6246388881e+00 
31900 4.9270727287e+00 1.3573991368e-03 1.5152905849e+00 -2.6245602813e+00 1.5152905849e+00 2.6245602813e+00 
32000 4.9270726102e+00 1.3396086605e-03 1.5152457951e+00 -2.6244827030e+00 1.5152457951e+00 2.6244827030e+00 
32100 4.9270724969e+00 1.3220617451e-03 1.5152015910e+00 -2.6244061393e+00 1.5152015910e+00 2.6244061393e+00 
32200 4.9270723886e+00 1.3047548951e-03 1.5151579646e+00 -2.6243305761e+00 1.5151579646e+00 2.6243305761e+00 
32300 4.9270722853e+00 1.2876846614e-03 1.5151149081e+00 -2.6242560001e+00 1.5151149081e+00 2.6242560001e+00 
32400 4.9270721867e+00 1.2708476407e-03 1.5150724136e+00 -2.6241823976e+00 1.5150724136e+00 2.6241823976e+00 
32500 4.9270720927e+00 1.2542404755e-03 1.5150304737e+00 -2.6241097554e+00 1.5150304737e+00 2.6241097554e+00 
32600 4.9270720032e+00 1.2378598534e-03 1.5149890806e+00 -2.6240380605e+00 1.5149890806e+00 2.6240380605e+00 
32700 4.9270719180e+00 1.2217025074e-03 1.5149482270e+00 -2.6239673001e+00 1.5149482270e+00 2.6239673001e+00 
32800 4.9270718369e+00 1.2057652152e-03 1.5149079056e+00 -2.6238974613e+00 1.5149079056e+00 2.6238974613e+00 
32900 4.9270717598e+00 1.1900447992e-03 1.5148681092e+00 -2.6238285318e+00 1.5148681092e+00 2.6238285318e+00 
33000 4.9270716867e+00 1.1745381258e-03 1.5148288305e+00 -2.6237604992e+00 1.5148288305e+00 2.6237604992e+00 
33100 4.9270716173e+00 1.1592421056e-03 1.5147900626e+00 -2.6236933513e+00 1.5147900626e+00 2.6236933513e+00 
33200 4.9270715515e+00 1.1441536927e-03 1.5147517987e+00 -2.6236270762e+00 1.5147517987e+00 2.6236270762e+00 
33300 4.9270714892e+00 1.1292698843e-03 1.5147140318e+00 -2.6235616620e+00 1.5147140318e+00 2.6235616620e+00 
33400 4.9270714303e+00 1.1145877206e-03 1.5146767553e+00 -2.6234970972e+00 1.5146767553e+00 2.6234970972e+00 
33500 4.9270713747e+00 1.1001042845e-03 1.5146399625e+00 -2.6234333703e+00 1.5146399625e+00 2.6234333703e+00 
33600 4.9270713223e+00 1.0858167008e-03 1.5146036470e+00 -2.6233704699e+00 1.5146036470e+00 2.6233704699e+00 
33700 4.9270712729e+00 1.0717221362e-03 1.5145678022e+00 -2.6233083849e+00 1.5145678022e+00 2.6233083849e+00 
33800 4.9270712264e+00 1.0578177985e-03 1.5145324219e+00 -2.6232471044e+00 1.5145324219e+00 2.6232471044e+00 
33900 4.9270711829e+00 1.0441009369e-03 1.5144974997e+00 -2.6231866175e+00 1.5144974997e+00 2.6231866175e+00 
34000 4.9270711420e+00 1.0305688407e-03 1.5144630297e+00 -2.6231269136e+00 1.5144630297e+00 2.6231269136e+00 
34100 4.9270711038e+00 1.0172188397e-03 1.5144290056e+00 -2.6230679821e+00 1.5144290056e+00 2.6230679821e+00 
34200 4.9270710682e+00 1.0040483032e-03 1.5143954214e+00 -2.6230098127e+00 1.5143954214e+00 2.6230098127e+00 
34300 4.9270710351e+00 9.9105463992e-04 1.5143622714e+00 -2.6229523952e+00 1.5143622714e+00 2.6229523952e+00 
34400 4.9270710043e+00 9.7823529723e-04 1.5143295497e+00 -2.6228957195e+00 1.5143295497e+00 2.6228957195e+00 
34500 4.9270709758e+00 9.6558776107e-04 1.5142972505e+00 -2.6228397757e+00 1.5142972505e+00 2.6228397757e+00 
34600 4.9270709496e+00 9.5310955529e-04 1.5142653683e+00 -2.6227845540e+00 1.5142653683e+00 2.6227845540e+00 
34700 4.9270709255e+00 9.4079824124e-04 1.5142338974e+00 -2.6227300448e+00 1.5142338974e+00 2.6227300448e+00 
34800 4.9270709035e+00 9.2865141737e-04 1.5142028323e+00 -2.6226762385e+00 1.5142028323e+00 2.6226762385e+00 
34900 4.9270708834e+00 9.1666671869e-04 1.5141721677e+00 -2.6226231259e+00 1.5141721677e+00 2.6226231259e+00 
35000 4.9270708652e+00 9.0484181640e-04 1.5141418982e+00 -2.6225706976e+00 1.5141418982e+00 2.6225706976e+00 
35100 4.9270708489e+00 8.9317441737e-04 1.5141120187e+00 -2.6225189447e+00 1.5141120187e+00 2.6225189447e+00 
35200 4.9270708344e+00 8.8166226372e-04 1.5140825238e+00 -2.6224678580e+00 1.5140825238e+00 2.6224678580e+00 
35300 4.9270708216e+00 8.7030313232e-04 1.5140534085e+00 -2.6224174288e+00 1.5140534085e+00 2.6224174288e+00 
35400 4.9270708104e+00 8.5909483436e-04 1.5140246677e+00 -2.6223676484e+00 1.5140246677e+00 2.6223676484e+00 
35500 4.9270708008e+00 8.4803521487e-04 1.5139962966e+00 -2.6223185081e+00 1.5139962966e+00 2.6223185081e+00 
35600 4.9270707928e+00 8.3712215225e-04 1.5139682901e+00 -2.6222699996e+00 1.5139682901e+00 2.6222699996e+00 
35700 4.9270707862e+00 8.2635355785e-04 1.5139406436e+00 -2.6222221144e+00 1.5139406436e+00 2.6222221144e+00 
35800 4.9270707810e+00 8.1572737545e-04 1.5139133522e+00 -2.6221748443e+00 1.5139133522e+00 2.6221748443e+00 
35900 4.9270707771e+00 8.0524158082e-04 1.5138864113e+00 -2.6221281812e+00 1.5138864113e+00 2.6221281812e+00 
36000 4.9270707746e+00 7.9489418127e-04 1.5138598162e+00 -2.6220821171e+00 1.5138598162e+00 2.6220821171e+00 
36100 4.9270707733e+00 7.8468321520e-04 1.5138335624e+00 -2.6220366442e+00 1.5138335624e+00 2.6220366442e+00 
36200 4.9270707732e+00 7.7460675160e-04 1.5138076453e+00 -2.6219917546e+00 1.5138076453e+00 2.6219917546e+00 
36300 4.9270707743e+00 7.6466288963e-04 1.5137820607e+00 -2.6219474407e+00 1.5137820607e+00 2.6219474407e+00 
36400 4.9270707764e+00 7.5484975816e-04 1.5137568041e+00 -2.6219036949e+00 1.5137568041e+00 2.6219036949e+00 
36500 4.9270707796e+00 7.4516551532e-04 1.5137318711e+00 -2.6218605099e+00 1.5137318711e+00 2.6218605099e+00 
36600 4.9270707839e+00 7.3560834805e-04 1.5137072577e+00 -2.6218178781e+00 1.5137072577e+00 2.6218178781e+00 
36700 4.9270707891e+00 7.2617647164e-04 1.5136829595e+00 -2.6217757924e+00 1.5136829595e+00 2.6217757924e+00 
36800 4.9270707952e+00 7.1686812932e-04 1.5136589725e+00 -2.6217342457e+00 1.5136589725e+00 2.6217342457e+00 
36900 4.9270708022e+00 7.0768159179e-04 1.5136352926e+00 -2.6216932309e+00 1.5136352926e+00 2.6216932309e+00 
37000 4.9270708101e+00 6.9861515681e-04 1.5136119158e+00 -2.6216527410e+00 1.5136119158e+00 2.6216527410e+00 
37100 4.9270708188e+00 6.8966714874e-04 1.5135888381e+00 -2.6216127693e+00 1.5135888381e+00 2.6216127693e+00 
37200 4.9270708283e+00 6.8083591814e-04 1.5135660556e+00 -2.6215733089e+00 1.5135660556e+00 2.6215733089e+00 
37300 4.9270708385e+00 6.7211984133e-04 1.5135435646e+00 -2.6215343533e+00 1.5135435646e+00 2.6215343533e+00 
37400 4.9270708494e+00 6.6351732000e-04 1.5135213611e+00 -2.6214958957e+00 1.5135213611e+00 2.6214958957e+00 
37500 4.9270708610e+00 6.5502678072e-04 1.5134994415e+00 -2.6214579299e+00 1.5134994415e+00 2.6214579299e+00 
37600 4.9270708733e+00 6.4664667464e-04 1.5134778021e+00 -2.6214204493e+00 1.5134778021e+00 2.6214204493e+00 
37700 4.9270708862e+00 6.3837547697e-04 1.5134564392e+00 -2.6213834477e+00 1.5134564392e+00 2.6213834477e+00 
37800 4.9270708996e+00 6.3021168666e-04 1.5134353492e+00 -2.6213469188e+00 1.5134353492e+00 2.6213469188e+00 
37900 4.9270709136e+00 6.2215382599e-04 1.5134145287e+00 -2.6213108566e+00 1.5134145287e+00 2.6213108566e+00 
38000 4.9270709282e+00 6.1420044012e-04 1.5133939741e+00 -2.6212752550e+00 1.5133939741e+00 2.6212752550e+00 
38100 4.9270709432e+00 6.0635009677e-04 1.5133736820e+00 -2.6212401081e+00 1.5133736820e+00 2.6212401081e+00 
38200 4.9270709588e+00 5.9860138582e-04 1.5133536490e+00 -2.6212054099e+00 1.5133536490e+00 2.6212054099e+00 
38300 4.9270709747e+00 5.9095291892e-04 1.5133338717e+00 -2.6211711546e+00 1.5133338717e+00 2.6211711546e+00 
38400 4.9270709912e+00 5.8340332909e-04 1.5133143469e+00 -2.6211373367e+00 1.5133143469e+00 2.6211373367e+00 
38500 4.9270710080e+00 5.7595127044e-04 1.5132950713e+00 -2.6211039503e+00 1.5132950713e+00 2.6211039503e+00 
38600 4.9270710252e+00 5.6859541772e-04 1.5132760416e+00 -2.6210709899e+00 1.5132760416e+00 2.6210709899e+00 
38700 4.9270710427e+00 5.6133446600e-04 1.5132572547e+00 -2.6210384501e+00 1.5132572547e+00 2.6210384501e+00 
38800 4.9270710606e+00 5.5416713031e-04 1.5132387075e+00 -2.6210063254e+00 1.5132387075e+00 2.6210063254e+00 
38900 4.9270710788e+00 5.4709214531e-04 1.5132203969e+00 -2.6209746106e+00 1.5132203969e+00 2.6209746106e+00 
39000 4.9270710973e+00 5.4010826493e-04 1.5132023199e+00 -2.6209433002e+00 1.5132023199e+00 2.6209433002e+00 
39100 4.9270711161e+00 5.3321426204e-04 1.5131844734e+00 -2.6209123892e+00 1.5131844734e+00 2.6209123892e+00 
39200 4.9270711352e+00 5.2640892811e-04 1.5131668545e+00 -2.6208818723e+00 1.5131668545e+00 2.6208818723e+00 
39300 4.9270711545e+00 5.1969107291e-04 1.5131494602e+00 -2.6208517446e+00 1.5131494602e+00 2.6208517446e+00 
39400 4.9270711740e+00 5.1305952417e-04 1.5131322878e+00 -2.6208220010e+00 1.5131322878e+00 2.6208220010e+00 
39500 4.9270711938e+00 5.0651312726e-04 1.5131153343e+00 -2.6207926366e+00 1.5131153343e+00 2.6207926366e+00 
39600 4.9270712137e+00 5.0005074489e-04 1.5130985969e+00 -2.6207636466e+00 1.5130985969e+00 2.6207636466e+00 
39700 4.9270712338e+00 4.9367125680e-04 1.5130820728e+00 -2.6207350262e+00 1.5130820728e+00 2.6207350262e+00 
39800 4.9270712541e+00 4.8737355948e-04 1.5130657594e+00 -2.6207067705e+00 1.5130657594e+00 2.6207067705e+00 
39900 4.9270712745e+00 4.8115656584e-04 1.5130496540e+00 -2.6206788750e+00 1.5130496540e+00 2.6206788750e+00 
40000 4.9270712951e+00 4.7501920494e-04 1.5130337538e+00 -2.6206513351e+00 1.5130337538e+00 2.6206513351e+00 
40100 4.9270713158e+00 4.6896042173e-04 1.5130180562e+00 -2.6206241461e+00 1.5130180562e+00 2.6206241461e+00 
40200 4.9270713366e+00 4.6297917672e-04 1.5130025587e+00 -2.6205973037e+00 1.5130025587e+00 2.6205973037e+00 
40300 4.9270713575e+00 4.5707444574e-04 1.5129872587e+00 -2.6205708033e+00 1.5129872587e+00 2.6205708033e+00 
40400 4.9270713785e+00 4.5124521968e-04 1.5129721537e+00 -2.6205446407e+00 1.5129721537e+00 2.6205446407e+00 
40500 4.9270713996e+00 4.4549050418e-04 1.5129572412e+00 -2.6205188115e+00 1.5129572412e+00 2.6205188115e+00 
40600 4.9270714207e+00 4.3980931943e-04 1.5129425187e+00 -2.6204933114e+00 1.5129425187e+00 2.6204933114e+00 
40700 4.9270714419e+00 4.3420069987e-04 1.5129279838e+00 -2.6204681362e+00 1.5129279838e+00 2.6204681362e+00 
40800 4.9270714632e+00 4.2866369395e-04 1.5129136342e+00 -2.6204432819e+00 1.5129136342e+00 2.6204432819e+00 
40900 4.9270714844e+00 4.2319736390e-04 1.5128994674e+00 -2.6204187443e+00 1.5128994674e+00 2.6204187443e+00 
41000 4.9270715057e+00 4.1780078548e-04 1.5128854811e+00 -2.6203945193e+00 1.5128854811e+00 2.6203945193e+00 
41100 4.9270715270e+00 4.1247304775e-04 1.5128716731e+00 -2.6203706031e+00 1.5128716731e+00 2.6203706031e+00 
41200 4.9270715484e+00 4.0721325282e-04 1.5128580409e+00 -2.6203469916e+00 1.5128580409e+00 2.6203469916e+00 
41300 4.9270715697e+00 4.0202051565e-04 1.5128445826e+00 -2.6203236809e+00 1.5128445826e+00 2.6203236809e+00 
41400 4.9270715910e+00 3.9689396381e-04 1.5128312957e+00 -2.6203006674e+00 1.5128312957e+00 2.6203006674e+00 
41500 4.9270716123e+00 3.9183273726e-04 1.5128181781e+00 -2.6202779471e+00 1.5128181781e+00 2.6202779471e+00 
41600 4.9270716336e+00 3.8683598817e-04 1.5128052277e+00 -2.6202555163e+00 1.5128052277e+00 2.6202555163e+00 
41700 4.9270716548e+00 3.8190288064e-04 1.5127924423e+00 -2.6202333714e+00 1.5127924423e+00 2.6202333714e+00 
41800 4.9270716760e+00 3.7703259059e-04 1.5127798199e+00 -2.6202115087e+00 1.5127798199e+00 2.6202115087e+00 
41900 4.9270716972e+00 3.7222430547e-04 1.5127673583e+00 -2.6201899247e+00 1.5127673583e+00 2.6201899247e+00 
42000 4.9270717183e+00 3.6747722412e-04 1.5127550556e+00 -2.6201686157e+00 1.5127550556e+00 2.6201686157e+00 
42100 4.9270717393e+00 3.6279055656e-04 1.5127429096e+00 -2.6201475783e+00 1.5127429096e+00 2.6201475783e+00 
42200 4.9270717603e+00 3.5816352378e-04 1.5127309185e+00 -2.6201268090e+00 1.5127309185e+00 2.6201268090e+00 
42300 4.9270717813e+00 3.5359535760e-04 1.5127190802e+00 -2.6201063045e+00 1.5127190802e+00 2.6201063045e+00 
42400 4.9270718021e+00 3.4908530045e-04 1.5127073928e+00 -2.6200860614e+00 1.5127073928e+00 2.6200860614e+00 
42500 4.9270718229e+00 3.4463260520e-04 1.5126958544e+00 -2.6200660762e+00 1.5126958544e+00 2.6200660762e+00 
42600 4.9270718436e+00 3.4023653500e-04 1.5126844631e+00 -2.6200463459e+00 1.5126844631e+00 2.6200463459e+00 
42700 4.9270718642e+00 3.3589636311e-04 1.5126732170e+00 -2.6200268671e+00 1.5126732170e+00 2.6200268671e+00 
42800 4.9270718848e+00 3.3161137271e-04 1.5126621143e+00 -2.6200076366e+00 1.5126621143e+00 2.6200076366e+00 
42900 4.9270719052e+00 3.2738085675e-04 1.5126511531e+00 -2.6199886513e+00 1.5126511531e+00 2.6199886513e+00 
43000 4.9270719255e+00 3.2320411780e-04 1.5126403317e+00 -2.6199699080e+00 1.5126403317e+00 2.6199699080e+00 
43100 4.9270719458e+00 3.1908046788e-04 1.5126296482e+00 -2.6199514038e+00 1.5126296482e+00 2.6199514038e+00 
43200 4.9270719659e+00 3.1500922830e-04 1.5126191010e+00 -2.6199331355e+00 1.5126191010e+00 2.6199331355e+00 
43300 4.9270719859e+00 3.1098972953e-04 1.5126086883e+00 -2.6199151002e+00 1.5126086883e+00 2.6199151002e+00 
43400 4.9270720058e+00 3.0702131105e-04 1.5125984084e+00 -2.6198972949e+00 1.5125984084e+00 2.6198972949e+00 
43500 4.9270720256e+00 3.0310332119e-04 1.5125882597e+00 -2.6198797166e+00 1.5125882597e+00 2.6198797166e+00 
43600 4.9270720453e+00 2.9923511699e-04 1.5125782403e+00 -2.6198623626e+00 1.5125782403e+00 2.6198623626e+00 
43700 4.9270720649e+00 2.9541606408e-04 1.5125683488e+00 -2.6198452300e+00 1.5125683488e+00 2.6198452300e+00 
43800 4.9270720843e+00 2.9164553652e-04 1.5125585834e+00 -2.6198283158e+00 1.5125585834e+00 2.6198283158e+00 
43900 4.9270721036e+00 2.8792291671e-04 1.5125489426e+00 -2.6198116175e+00 1.5125489426e+00 2.6198116175e+00 
44000 4.9270721228e+00 2.8424759518e-04 1.5125394248e+00 -2.6197951322e+00 1.5125394248e+00 2.6197951322e+00 
44100 4.9270721419e+00 2.8061897057e-04 1.5125300284e+00 -2.6197788572e+00 1.5125300284e+00 2.6197788572e+00 
44200 4.9270721608e+00 2.7703644942e-04 1.5125207520e+00 -2.6197627899e+00 1.5125207520e+00 2.6197627899e+00 
44300 4.9270721796e+00 2.7349944606e-04 1.5125115939e+00 -2.6197469276e+00 1.5125115939e+00 2.6197469276e+00 
44400 4.9270721983e+00 2.7000738254e-04 1.5125025527e+00 -2.6197312678e+00 1.5125025527e+00 2.6197312678e+00 
44500 4.9270722168e+00 2.6655968847e-04 1.5124936268e+00 -2.6197158078e+00 1.5124936268e+00 2.6197158078e+00 
44600 4.9270722352e+00 2.6315580090e-04 1.5124848149e+00 -2.6197005451e+00 1.5124848149e+00 2.6197005451e+00 
44700 4.9270722534e+00 2.5979516424e-04 1.5124761154e+00 -2.6196854772e+00 1.5124761154e+00 2.6196854772e+00 
44800 4.9270722716e+00 2.5647723012e-04 1.5124675271e+00 -2.6196706017e+00 1.5124675271e+00 2.6196706017e+00 
44900 4.9270722895e+00 2.5320145731e-04 1.5124590483e+00 -2.6196559160e+00 1.5124590483e+00 2.6196559160e+00 
45000 4.9270723074e+00 2.4996731158e-04 1.5124506778e+00 -2.6196414179e+00 1.5124506778e+00 2.6196414179e+00 
45100 4.9270723250e+00 2.4677426563e-04 1.5124424141e+00 -2.6196271048e+00 1.5124424141e+00 2.6196271048e+00 
45200 4.9270723426e+00 2.4362179896e-04 1.5124342560e+00 -2.6196129745e+00 1.5124342560e+00 2.6196129745e+00 
45300 4.9270723600e+00 2.4050939781e-04 1.5124262020e+00 -2.6195990246e+00 1.5124262020e+00 2.6195990246e+00 
45400 4.9270723772e+00 2.3743655499e-04 1.5124182509e+00 -2.6195852529e+00 1.5124182509e+00 2.6195852529e+00 
45500 4.9270723944e+00 2.3440276987e-04 1.5124104014e+00 -2.6195716571e+00 1.5124104014e+00 2.6195716571e+00 
45600 4.9270724113e+00 2.3140754824e-04 1.5124026521e+00 -2.6195582349e+00 1.5124026521e+00 2.6195582349e+00 
45700 4.9270724281e+00 2.2845040221e-04 1.5123950018e+00 -2.6195449842e+00 1.5123950018e+00 2.6195449842e+00 
45800 4.9270724448e+00 2.2553085014e-04 1.5123874492e+00 -2.6195319027e+00 1.5123874492e+00 2.6195319027e+00 
45900 4.9270724613e+00 2.2264841655e-04 1.5123799930e+00 -2.6195189883e+00 1.5123799930e+00 2.6195189883e+00 
46000 4.9270724777e+00 2.1980263203e-04 1.5123726322e+00 -2.6195062389e+00 1.5123726322e+00 2.6195062389e+00 
46100 4.9270724939e+00 2.1699303313e-04 1.5123653654e+00 -2.6194936524e+00 1.5123653654e+00 2.6194936524e+00 
46200 4.9270725100e+00 2.1421916233e-04 1.5123581914e+00 -2.6194812268e+00 1.5123581914e+00 2.6194812268e+00 
46300 4.9270725259e+00 2.1148056792e-04 1.5123511091e+00 -2.6194689599e+00 1.5123511091e+00 2.6194689599e+00 
46400 4.9270725417e+00 2.0877680392e-04 1.5123441174e+00 -2.6194568498e+00 1.5123441174e+00 2.6194568498e+00 
46500 4.9270725574e+00 2.0610743000e-04 1.5123372149e+00 -2.6194448945e+00 1.5123372149e+00 2.6194448945e+00 
46600 4.9270725729e+00 2.0347201142e-04 1.5123304007e+00 -2.6194330919e+00 1.5123304007e+00 2.6194330919e+00 
46700 4.9270725882e+00 2.0087011896e-04 1.5123236736e+00 -2.6194214402e+00 1.5123236736e+00 2.6194214402e+00 
46800 4.9270726034e+00 1.9830132879e-04 1.5123170325e+00 -2.6194099375e+00 1.5123170325e+00 2.6194099375e+00 
46900 4.9270726184e+00 1.9576522248e-04 1.5123104763e+00 -2.6193985818e+00 1.5123104763e+00 2.6193985818e+00 
47000 4.9270726333e+00 1.9326138685e-04 1.5123040040e+00 -2.6193873713e+00 1.5123040040e+00 2.6193873713e+00 
47100 4.9270726481e+00 1.9078941395e-04 1.5122976143e+00 -2.6193763042e+00 1.5122976143e+00 2.6193763042e+00 
47200 4.9270726627e+00 1.8834890095e-04 1.5122913064e+00 -2.6193653785e+00 1.5122913064e+00 2.6193653785e+00 
47300 4.9270726772e+00 1.8593945014e-04 1.5122850791e+00 -2.6193545926e+00 1.5122850791e+00 2.6193545926e+00 
47400 4.9270726915e+00 1.8356066876e-04 1.5122789315e+00 -2.6193439446e+00 1.5122789315e+00 2.6193439446e+00 
47500 4.9270727057e+00 1.8121216904e-04 1.5122728625e+00 -2.6193334328e+00 1.5122728625e+00 2.6193334328e+00 
47600 4.9270727197e+00 1.7889356805e-04 1.5122668711e+00 -2.6193230554e+00 1.5122668711e+00 2.6193230554e+00 
47700 4.9270727336e+00 1.7660448770e-04 1.5122609564e+00 -2.6193128107e+00 1.5122609564e+00 2.6193128107e+00 
47800 4.9270727473e+00 1.7434455462e-04 1.5122551173e+00 -2.6193026972e+00 1.5122551173e+00 2.6193026972e+00 
47900 4.9270727609e+00 1.7211340015e-04 1.5122493529e+00 -2.6192927129e+00 1.5122493529e+00 2.6192927129e+00 
48000 4.9270727744e+00 1.6991066025e-04 1.5122436623e+00 -2.6192828565e+00 1.5122436623e+00 2.6192828565e+00 
48100 4.9270727877e+00 1.6773597544e-04 1.5122380444e+00 -2.6192731261e+00 1.5122380444e+00 2.6192731261e+00 
48200 4.9270728009e+00 1.6558899077e-04 1.5122324985e+00 -2.6192635202e+00 1.5122324985e+00 2.6192635202e+00 
48300 4.9270728139e+00 1.6346935569e-04 1.5122270235e+00 -2.6192540373e+00 1.5122270235e+00 2.6192540373e+00 
48400 4.9270728268e+00 1.6137672410e-04 1.5122216186e+00 -2.6192446757e+00 1.5122216186e+00 2.6192446757e+00 
48500 4.9270728396e+00 1.5931075421e-04 1.5122162828e+00 -2.6192354339e+00 1.5122162828e+00 2.6192354339e+00 
48600 4.9270728522e+00 1.5727110850e-04 1.5122110154e+00 -2.6192263104e+00 1.5122110154e+00 2.6192263104e+00 
48700 4.9270728647e+00 1.5525745369e-04 1.5122058154e+00 -2.6192173037e+00 1.5122058154e+00 2.6192173037e+00 
48800 4.9270728771e+00 1.5326946068e-04 1.5122006819e+00 -2.6192084123e+00 1.5122006819e+00 2.6192084123e+00 
48900 4.9270728893e+00 1.5130680448e-04 1.5121956141e+00 -2.6191996346e+00 1.5121956141e+00 2.6191996346e+00 
49000 4.9270729014e+00 1.4936916417e-04 1.5121906112e+00 -2.6191909694e+00 1.5121906112e+00 2.6191909694e+00 
49100 4.9270729133e+00 1.4745622284e-04 1.5121856724e+00 -2.6191824151e+00 1.5121856724e+00 2.6191824151e+00 
49200 4.9270729251e+00 1.4556766757e-04 1.5121807968e+00 -2.6191739703e+00 1.5121807968e+00 2.6191739703e+00 
49300 4.9270729368e+00 1.4370318932e-04 1.5121759836e+00 -2.6191656337e+00 1.5121759836e+00 2.6191656337e+00 
49400 4.9270729484e+00 1.4186248295e-04 1.5121712321e+00 -2.6191574038e+00 1.5121712321e+00 2.6191574038e+00 
49500 4.9270729598e+00 1.4004524713e-04 1.5121665414e+00 -2.6191492793e+00 1.5121665414e+00 2.6191492793e+00 
49600 4.9270729711e+00 1.3825118430e-04 1.5121619108e+00 -2.6191412588e+00 1.5121619108e+00 2.6191412588e+00 
49700 4.9270729823e+00 1.3648000063e-04 1.5121573395e+00 -2.6191333411e+00 1.5121573395e+00 2.6191333411e+00 
49800 4.9270729934e+00 1.3473140595e-04 1.5121528267e+00 -2.6191255247e+00 1.5121528267e+00 2.6191255247e+00 
49900 4.9270730043e+00 1.3300511374e-04 1.5121483718e+00 -2.6191178085e+00 1.5121483718e+00 2.6191178085e+00 
50000 4.9270730151e+00 1.3130084107e-04 1.5121439739e+00 -2.6191101912e+00 1.5121439739e+00 2.6191101912e+00 
50100 4.9270730258e+00 1.2961830856e-04 1.5121396324e+00 -2.6191026714e+00 1.5121396324e+00 2.6191026714e+00 
50200 4.9270730363e+00 1.2795724030e-04 1.5121353464e+00 -2.6190952480e+00 1.5121353464e+00 2.6190952480e+00 
50300 4.9270730467e+00 1.2631736386e-04 1.5121311154e+00 -2.6190879196e+00 1.5121311154e+00 2.6190879196e+00 
50400 4.9270730571e+00 1.2469841022e-04 1.5121269386e+00 -2.6190806852e+00 1.5121269386e+00 2.6190806852e+00 
50500 4.9270730673e+00 1.2310011374e-04 1.5121228154e+00 -2.6190735435e+00 1.5121228154e+00 2.6190735435e+00 
50600 4.9270730773e+00 1.2152221209e-04 1.5121187449e+00 -2.6190664933e+00 1.5121187449e+00 2.6190664933e+00 
50700 4.9270730873e+00 1.1996444625e-04 1.5121147267e+00 -2.6190595334e+00 1.5121147267e+00 2.6190595334e+00 
50800 4.9270730971e+00 1.1842656043e-04 1.5121107599e+00 -2.6190526628e+00 1.5121107599e+00 2.6190526628e+00 
50900 4.9270731069e+00 1.1690830207e-04 1.5121068439e+00 -2.6190458802e+00 1.5121068439e+00 2.6190458802e+00 
51000 4.9270731165e+00 1.1540942176e-04 1.5121029782e+00 -2.6190391845e+00 1.5121029782e+00 2.6190391845e+00 
51100 4.9270731260e+00 1.1392967324e-04 1.5120991620e+00 -2.6190325747e+00 1.5120991620e+00 2.6190325747e+00 
51200 4.9270731354e+00 1.1246881332e-04 1.5120953947e+00 -2.6190260496e+00 1.5120953947e+00 2.6190260496e+00 
51300 4.9270731446e+00 1.1102660189e-04 1.5120916758e+00 -2.6190196081e+00 1.5120916758e+00 2.6190196081e+00 
51400 4.9270731538e+00 1.0960280184e-04 1.5120880045e+00 -2.6190132493e+00 1.5120880045e+00 2.6190132493e+00 
51500 4.9270731629e+00 1.0819717904e-04 1.5120843803e+00 -2.6190069720e+00 1.5120843803e+00 2.6190069720e+00 
51600 4.9270731718e+00 1.0680950231e-04 1.5120808025e+00 -2.6190007751e+00 1.5120808025e+00 2.6190007751e+00 
51700 4.9270731806e+00 1.0543954338e-04 1.5120772706e+00 -2.6189946577e+00 1.5120772706e+00 2.6189946577e+00 
51800 4.9270731894e+00 1.0408707685e-04 1.5120737841e+00 -2.6189886188e+00 1.5120737841e+00 2.6189886188e+00 
51900 4.9270731980e+00 1.0275188014e-04 1.5120703422e+00 -2.6189826573e+00 1.5120703422e+00 2.6189826573e+00 
52000 4.9270732065e+00 1.0143373350e-04 1.5120669445e+00 -2.6189767723e+00 1.5120669445e+00 2.6189767723e+00 
52100 4.9270732150e+00 1.0013241993e-04 1.5120635903e+00 -2.6189709628e+00 1.5120635903e+00 2.6189709628e+00 
52200 4.9270732233e+00 9.8847725173e-05 1.5120602792e+00 -2.6189652277e+00 1.5120602792e+00 2.6189652277e+00 
52300 4.9270732315e+00 9.7579437661e-05 1.5120570106e+00 -2.6189595663e+00 1.5120570106e+00 2.6189595663e+00 
52400 4.9270732396e+00 9.6327348502e-05 1.5120537839e+00 -2.6189539775e+00 1.5120537839e+00 2.6189539775e+00 
52500 4.9270732477e+00 9.5091251438e-05 1.5120505986e+00 -2.6189484603e+00 1.5120505986e+00 2.6189484603e+00 
52600 4.9270732556e+00 9.3870942811e-05 1.5120474541e+00 -2.6189430140e+00 1.5120474541e+00 2.6189430140e+00 
52700 4.9270732634e+00 9.2666221535e-05 1.5120443500e+00 -2.6189376375e+00 1.5120443500e+00 2.6189376375e+00 
52800 4.9270732711e+00 9.1476889061e-05 1.5120412857e+00 -2.6189323301e+00 1.5120412857e+00 2.6189323301e+00 
52900 4.9270732788e+00 9.0302749350e-05 1.5120382608e+00 -2.6189270907e+00 1.5120382608e+00 2.6189270907e+00 
53000 4.9270732863e+00 8.9143608837e-05 1.5120352747e+00 -2.6189219186e+00 1.5120352747e+00 2.6189219186e+00 
53100 4.9270732938e+00 8.7999276406e-05 1.5120323269e+00 -2.6189168128e+00 1.5120323269e+00 2.6189168128e+00 
53200 4.9270733011e+00 8.6869563356e-05 1.5120294169e+00 -2.6189117726e+00 1.5120294169e+00 2.6189117726e+00 
53300 4.9270733084e+00 8.5754283373e-05 1.5120265443e+00 -2.6189067971e+00 1.5120265443e+00 2.6189067971e+00 
53400 4.9270733156e+00 8.4653252500e-05 1.5120237086e+00 -2.6189018855e+00 1.5120237086e+00 2.6189018855e+00 
53500 4.9270733227e+00 8.3566289108e-05 1.5120209092e+00 -2.6188970369e+00 1.5120209092e+00 2.6188970369e+00 
53600 4.9270733297e+00 8.2493213870e-05 1.5120181458e+00 -2.6188922505e+00 1.5120181458e+00 2.6188922505e+00 
53700 4.9270733366e+00 8.1433849726e-05 1.5120154179e+00 -2.6188875256e+00 1.5120154179e+00 2.6188875256e+00 
53800 4.9270733434e+00 8.0388021862e-05 1.5120127250e+00 -2.6188828614e+00 1.5120127250e+00 2.6188828614e+00 
53900 4.9270733501e+00 7.9355557679e-05 1.5120100667e+00 -2.6188782571e+00 1.5120100667e+00 2.6188782571e+00 
54000 4.9270733568e+00 7.8336286765e-05 1.5120074425e+00 -2.6188737119e+00 1.5120074425e+00 2.6188737119e+00 
54100 4.9270733634e+00 7.7330040870e-05 1.5120048521e+00 -2.6188692251e+00 1.5120048521e+00 2.6188692251e+00 
54200 4.9270733699e+00 7.6336653879e-05 1.5120022949e+00 -2.6188647959e+00 1.5120022949e+00 2.6188647959e+00 
54300 4.9270733763e+00 7.5355961786e-05 1.5119997705e+00 -2.6188604235e+00 1.5119997705e+00 2.6188604235e+00 
54400 4.9270733826e+00 7.4387802660e-05 1.5119972786e+00 -2.6188561074e+00 1.5119972786e+00 2.6188561074e+00 
54500 4.9270733889e+00 7.3432016633e-05 1.5119948187e+00 -2.6188518467e+00 1.5119948187e+00 2.6188518467e+00 
54600 4.9270733950e+00 7.2488445866e-05 1.5119923903e+00 -2.6188476407e+00 1.5119923903e+00 2.6188476407e+00 
54700 4.9270734011e+00 7.1556934523e-05 1.5119899932e+00 -2.6188434888e+00 1.5119899932e+00 2.6188434888e+00 
54800 4.9270734071e+00 7.0637328751e-05 1.5119876269e+00 -2.6188393902e+00 1.5119876269e+00 2.6188393902e+00 
54900 4.9270734133e+00 7.1257329189e-05 1.5119876269e+00 -2.6188393902e+00 1.5119876269e+00 2.6188393902e+00 
55000 4.9270734191e+00 7.0338724923e-05 1.5119852705e+00 -2.6188353088e+00 1.5119852705e+00 2.6188353088e+00 
55100 4.9270734251e+00 7.0952847564e-05 1.5119852705e+00 -2.6188353088e+00 1.5119852705e+00 2.6188353088e+00 
55200 4.9270734309e+00 7.0034558115e-05 1.5119829242e+00 -2.6188312448e+00 1.5119829242e+00 2.6188312448e+00 
55300 4.9270734367e+00 7.0642047180e-05 1.5119829242e+00 -2.6188312448e+00 1.5119829242e+00 2.6188312448e+00 
55400 4.9270734425e+00 7.1251397114e-05 1.5119829242e+00 -2.6188312448e+00 1.5119829242e+00 2.6188312448e+00 
55500 4.9270734480e+00 7.0321170907e-05 1.5119805679e+00 -2.6188271637e+00 1.5119805679e+00 2.6188271637e+00 
55600 4.9270734536e+00 7.0922404495e-05 1.5119805679e+00 -2.6188271637e+00 1.5119805679e+00 2.6188271637e+00 
55700 4.9270734589e+00 6.9990875815e-05 1.5119782226e+00 -2.6188231015e+00 1.5119782226e+00 2.6188231015e+00 
55800 4.9270734644e+00 7.0583424406e-05 1.5119782226e+00 -2.6188231015e+00 1.5119782226e+00 2.6188231015e+00 
55900 4.9270734698e+00 7.1176871499e-05 1.5119782226e+00 -2.6188231015e+00 1.5119782226e+00 2.6188231015e+00 
56000 4.9270734749e+00 7.0231473402e-05 1.5119758688e+00 -2.6188190246e+00 1.5119758688e+00 2.6188190246e+00 
56100 4.9270734802e+00 7.0815015905e-05 1.5119758688e+00 -2.6188190246e+00 1.5119758688e+00 2.6188190246e+00 
56200 4.9270734852e+00 6.9867316825e-05 1.5119735270e+00 -2.6188149685e+00 1.5119735270e+00 2.6188149685e+00 
56300 4.9270734903e+00 7.0440550414e-05 1.5119735270e+00 -2.6188149685e+00 1.5119735270e+00 2.6188149685e+00 
56400 4.9270734954e+00 7.1013919467e-05 1.5119735270e+00 -2.6188149685e+00 1.5119735270e+00 2.6188149685e+00 
56500 4.9270735002e+00 7.0051276999e-05 1.5119711786e+00 -2.6188109010e+00 1.5119711786e+00 2.6188109010e+00 
56600 4.9270735051e+00 7.0613349900e-05 1.5119711786e+00 -2.6188109010e+00 1.5119711786e+00 2.6188109010e+00 
56700 4.9270735100e+00 7.1175114481e-05 1.5119711786e+00 -2.6188109010e+00 1.5119711786e+00 2.6188109010e+00 
56800 4.9270735146e+00 7.0196979775e-05 1.5119688249e+00 -2.6188068242e+00 1.5119688249e+00 2.6188068242e+00 
56900 4.9270735193e+00 7.0746600595e-05 1.5119688249e+00 -2.6188068242e+00 1.5119688249e+00 2.6188068242e+00 
57000 4.9270735238e+00 6.9765477751e-05 1.5119664854e+00 -2.6188027720e+00 1.5119664854e+00 2.6188027720e+00 
57100 4.9270735284e+00 7.0302783561e-05 1.5119664854e+00 -2.6188027720e+00 1.5119664854e+00 2.6188027720e+00 
57200 4.9270735330e+00 7.0839296501e-05 1.5119664854e+00 -2.6188027720e+00 1.5119664854e+00 2.6188027720e+00 
57300 4.9270735373e+00 6.9842748124e-05 1.5119641427e+00 -2.6187987144e+00 1.5119641427e+00 2.6187987144e+00 
57400 4.9270735417e+00 7.0366287733e-05 1.5119641427e+00 -2.6187987144e+00 1.5119641427e+00 2.6187987144e+00 
57500 4.9270735461e+00 7.0888740530e-05 1.5119641427e+00 -2.6187987144e+00 1.5119641427e+00 2.6187987144e+00 
57600 4.9270735502e+00 6.9876803996e-05 1.5119617985e+00 -2.6187946541e+00 1.5119617985e+00 2.6187946541e+00 
57700 4.9270735545e+00 7.0385740863e-05 1.5119617985e+00 -2.6187946541e+00 1.5119617985e+00 2.6187946541e+00 
57800 4.9270735587e+00 7.0893349141e-05 1.5119617985e+00 -2.6187946541e+00 1.5119617985e+00 2.6187946541e+00 
57900 4.9270735627e+00 6.9866259414e-05 1.5119594541e+00 -2.6187905934e+00 1.5119594541e+00 2.6187905934e+00 
58000 4.9270735668e+00 7.0359916058e-05 1.5119594541e+00 -2.6187905934e+00 1.5119594541e+00 2.6187905934e+00 
58100 4.9270735708e+00 7.0852050092e-05 1.5119594541e+00 -2.6187905934e+00 1.5119594541e+00 2.6187905934e+00 
58200 4.9270735746e+00 6.9810215669e-05 1.5119571110e+00 -2.6187865351e+00 1.5119571110e+00 2.6187865351e+00 
58300 4.9270735786e+00 7.0288060839e-05 1.5119571110e+00 -2.6187865351e+00 1.5119571110e+00 2.6187865351e+00 
58400 4.9270735824e+00 7.0764232949e-05 1.5119571110e+00 -2.6187865351e+00 1.5119571110e+00 2.6187865351e+00 
58500 4.9270735861e+00 6.9708213493e-05 1.5119547709e+00 -2.6187824819e+00 1.5119547709e+00 2.6187824819e+00 
58600 4.9270735899e+00 7.0169849915e-05 1.5119547709e+00 -2.6187824819e+00 1.5119547709e+00 2.6187824819e+00 
58700 4.9270735936e+00 7.0629702418e-05 1.5119547709e+00 -2.6187824819e+00 1.5119547709e+00 2.6187824819e+00 
58800 4.9270735973e+00 7.1087619945e-05 1.5119547709e+00 -2.6187824819e+00 1.5119547709e+00 2.6187824819e+00 
58900 4.9270736007e+00 7.0006129453e-05 1.5119524200e+00 -2.6187784101e+00 1.5119524200e+00 2.6187784101e+00 
59000 4.9270736043e+00 7.0448995812e-05 1.5119524200e+00 -2.6187784101e+00 1.5119524200e+00 2.6187784101e+00 
59100 4.9270736079e+00 7.0889874182e-05 1.5119524200e+00 -2.6187784101e+00 1.5119524200e+00 2.6187784101e+00 
59200 4.9270736111e+00 6.9795591064e-05 1.5119500757e+00 -2.6187743496e+00 1.5119500757e+00 2.6187743496e+00 
59300 4.9270736146e+00 7.0221374082e-05 1.5119500757e+00 -2.6187743496e+00 1.5119500757e+00 2.6187743496e+00 
59400 4.9270736180e+00 7.0645146363e-05 1.5119500757e+00 -2.6187743496e+00 1.5119500757e+00 2.6187743496e+00 
59500 4.9270736214e+00 7.1066784146e-05 1.5119500757e+00 -2.6187743496e+00 1.5119500757e+00 2.6187743496e+00 
59600 4.9270736245e+00 6.9949320905e-05 1.5119477255e+00 -2.6187702790e+00 1.5119477255e+00 2.6187702790e+00 
59700 4.9270736277e+00 7.0355589880e-05 1.5119477255e+00 -2.6187702790e+00 1.5119477255e+00 2.6187702790e+00 
59800 4.9270736310e+00 7.0759747870e-05 1.5119477255e+00 -2.6187702790e+00 1.5119477255e+00 2.6187702790e+00 
59900 4.9270736339e+00 6.9631486854e-05 1.5119453855e+00 -2.6187662260e+00 1.5119453855e+00 2.6187662260e+00 
60000 4.9270736371e+00 7.0020393797e-05 1.5119453855e+00 -2.6187662260e+00 1.5119453855e+00 2.6187662260e+00 
60100 4.9270736402e+00 7.0407235412e-05 1.5119453855e+00 -2.6187662260e+00 1.5119453855e+00 2.6187662260e+00 
60200 4.9270736432e+00 7.0791909365e-05 1.5119453855e+00 -2.6187662260e+00 1.5119453855e+00 2.6187662260e+00 
60300 4.9270736460e+00 6.9643439376e-05 1.5119430444e+00 -2.6187621711e+00 1.5119430444e+00 2.6187621711e+00 
60400 4.9270736490e+00 7.0012780892e-05 1.5119430444e+00 -2.6187621711e+00 1.5119430444e+00 2.6187621711e+00 
60500 4.9270736520e+00 7.0380036535e-05 1.5119430444e+00 -2.6187621711e+00 1.5119430444e+00 2.6187621711e+00 
60600 4.9270736549e+00 7.0745115058e-05 1.5119430444e+00 -2.6187621711e+00 1.5119430444e+00 2.6187621711e+00 
60700 4.9270736575e+00 6.9578076365e-05 1.5119407049e+00 -2.6187581189e+00 1.5119407049e+00 2.6187581189e+00 
60800 4.9270736603e+00 6.9927842156e-05 1.5119407049e+00 -2.6187581189e+00 1.5119407049e+00 2.6187581189e+00 
60900 4.9270736631e+00 7.0275543128e-05 1.5119407049e+00 -2.6187581189e+00 1.5119407049e+00 2.6187581189e+00 
61000 4.9270736659e+00 7.0621097484e-05 1.5119407049e+00 -2.6187581189e+00 1.5119407049e+00 2.6187581189e+00 
61100 4.9270736686e+00 7.0964427714e-05 1.5119407049e+00 -2.6187581189e+00 1.5119407049e+00 2.6187581189e+00 
61200 4.9270736710e+00 6.9770881145e-05 1.5119383581e+00 -2.6187540541e+00 1.5119383581e+00 2.6187540541e+00 
61300 4.9270736737e+00 7.0098810477e-05 1.5119383581e+00 -2.6187540541e+00 1.5119383581e+00 2.6187540541e+00 
61400 4.9270736763e+00 7.0424667158e-05 1.5119383581e+00 -2.6187540541e+00 1.5119383581e+00 2.6187540541e+00 
61500 4.9270736788e+00 7.0748381048e-05 1.5119383581e+00 -2.6187540541e+00 1.5119383581e+00 2.6187540541e+00 
61600 4.9270736811e+00 6.9539989582e-05 1.5119360184e+00 -2.6187500017e+00 1.5119360184e+00 2.6187500017e+00 
61700 4.9270736836e+00 6.9848518739e-05 1.5119360184e+00 -2.6187500017e+00 1.5119360184e+00 2.6187500017e+00 
61800 4.9270736861e+00 7.0155075677e-05 1.5119360184e+00 -2.6187500017e+00 1.5119360184e+00 2.6187500017e+00 
61900 4.9270736885e+00 7.0459596397e-05 1.5119360184e+00 -2.6187500017e+00 1.5119360184e+00 2.6187500017e+00 
62000 4.9270736909e+00 7.0762020418e-05 1.5119360184e+00 -2.6187500017e+00 1.5119360184e+00 2.6187500017e+00 
62100 4.9270736931e+00 6.9532113439e-05 1.5119336783e+00 -2.6187459485e+00 1.5119336783e+00 2.6187459485e+00 
62200 4.9270736954e+00 6.9819470109e-05 1.5119336783e+00 -2.6187459485e+00 1.5119336783e+00 2.6187459485e+00 
62300 4.9270736977e+00 7.0104927199e-05 1.5119336783e+00 -2.6187459485e+00 1.5119336783e+00 2.6187459485e+00 
62400 4.9270737000e+00 7.0388428739e-05 1.5119336783e+00 -2.6187459485e+00 1.5119336783e+00 2.6187459485e+00 
62500 4.9270737022e+00 7.0669921904e-05 1.5119336783e+00 -2.6187459485e+00 1.5119336783e+00 2.6187459485e+00 
62600 4.9270737045e+00 7.0949356897e-05 1.5119336783e+00 -2.6187459485e+00 1.5119336783e+00 2.6187459485e+00 
62700 4.9270737064e+00 6.9692474650e-05 1.5119313320e+00 -2.6187418846e+00 1.5119313320e+00 2.6187418846e+00 
62800 4.9270737086e+00 6.9956921120e-05 1.5119313320e+00 -2.6187418846e+00 1.5119313320e+00 2.6187418846e+00 
62900 4.9270737107e+00 7.0219536750e-05 1.5119313320e+00 -2.6187418846e+00 1.5119313320e+00 2.6187418846e+00 
63000 4.9270737128e+00 7.0480274422e-05 1.5119313320e+00 -2.6187418846e+00 1.5119313320e+00 2.6187418846e+00 
63100 4.9270737149e+00 7.0739089755e-05 1.5119313320e+00 -2.6187418846e+00 1.5119313320e+00 2.6187418846e+00 
63200 4.9270737167e+00 6.9466286626e-05 1.5119289926e+00 -2.6187378327e+00 1.5119289926e+00 2.6187378327e+00 
63300 4.9270737187e+00 6.9710432020e-05 1.5119289926e+00 -2.6187378327e+00 1.5119289926e+00 2.6187378327e+00 
63400 4.9270737207e+00 6.9952895896e-05 1.5119289926e+00 -2.6187378327e+00 1.5119289926e+00 2.6187378327e+00 
63500 4.9270737226e+00 7.0193635474e-05 1.5119289926e+00 -2.6187378327e+00 1.5119289926e+00 2.6187378327e+00 
63600 4.9270737246e+00 7.0432610448e-05 1.5119289926e+00 -2.6187378327e+00 1.5119289926e+00 2.6187378327e+00 
63700 4.9270737265e+00 7.0669782894e-05 1.5119289926e+00 -2.6187378327e+00 1.5119289926e+00 2.6187378327e+00 
63800 4.9270737283e+00 7.0905117174e-05 1.5119289926e+00 -2.6187378327e+00 1.5119289926e+00 2.6187378327e+00 
63900 4.9270737300e+00 6.9605350997e-05 1.5119266478e+00 -2.6187337713e+00 1.5119266478e+00 2.6187337713e+00 
64000 4.9270737318e+00 6.9826183068e-05 1.5119266478e+00 -2.6187337713e+00 1.5119266478e+00 2.6187337713e+00 
64100 4.9270737336e+00 7.0045442369e-05 1.5119266478e+00 -2.6187337713e+00 1.5119266478e+00 2.6187337713e+00 
64200 4.9270737354e+00 7.0263093227e-05 1.5119266478e+00 -2.6187337713e+00 1.5119266478e+00 2.6187337713e+00 
64300 4.9270737371e+00 7.0479102082e-05 1.5119266478e+00 -2.6187337713e+00 1.5119266478e+00 2.6187337713e+00 
64400 4.9270737389e+00 7.0693437398e-05 1.5119266478e+00 -2.6187337713e+00 1.5119266478e+00 2.6187337713e+00 
64500 4.9270737406e+00 7.0906069592e-05 1.5119266478e+00 -2.6187337713e+00 1.5119266478e+00 2.6187337713e+00 
64600 4.9270737420e+00 6.9583735059e-05 1.5119243029e+00 -2.6187297098e+00 1.5119243029e+00 2.6187297098e+00 
64700 4.9270737437e+00 6.9782151842e-05 1.5119243029e+00 -2.6187297098e+00 1.5119243029e+00 2.6187297098e+00 
64800 4.9270737453e+00 6.9979147154e-05 1.5119243029e+00 -2.6187297098e+00 1.5119243029e+00 2.6187297098e+00 
64900 4.9270737469e+00 7.0174690138e-05 1.5119243029e+00 -2.6187297098e+00 1.5119243029e+00 2.6187297098e+00 
65000 4.9270737485e+00 7.0368751767e-05 1.5119243029e+00 -2.6187297098e+00 1.5119243029e+00 2.6187297098e+00 
65100 4.9270737501e+00 7.0561304766e-05 1.5119243029e+00 -2.6187297098e+00 1.5119243029e+00 2.6187297098e+00 
65200 4.9270737517e+00 7.0752323549e-05 1.5119243029e+00 -2.6187297098e+00 1.5119243029e+00 2.6187297098e+00 
65300 4.9270737530e+00 6.9411884441e-05 1.5119219631e+00 -2.6187256571e+00 1.5119219631e+00 2.6187256571e+00 
65400 4.9270737545e+00 6.9589059877e-05 1.5119219631e+00 -2.6187256571e+00 1.5119219631e+00 2.6187256571e+00 
65500 4.9270737560e+00 6.9764992475e-05 1.5119219631e+00 -2.6187256571e+00 1.5119219631e+00 2.6187256571e+00 
65600 4.9270737574e+00 6.9939654431e-05 1.5119219631e+00 -2.6187256571e+00 1.5119219631e+00 2.6187256571e+00 
65700 4.9270737589e+00 7.0113019547e-05 1.5119219631e+00 -2.6187256571e+00 1.5119219631e+00 2.6187256571e+00 
65800 4.9270737603e+00 7.0285063165e-05 1.5119219631e+00 -2.6187256571e+00 1.5119219631e+00 2.6187256571e+00 
65900 4.9270737617e+00 7.0455762109e-05 1.5119219631e+00 -2.6187256571e+00 1.5119219631e+00 2.6187256571e+00 
66000 4.9270737631e+00 7.0625094624e-05 1.5119219631e+00 -2.6187256571e+00 1.5119219631e+00 2.6187256571e+00 
66100 4.9270737645e+00 7.0793040325e-05 1.5119219631e+00 -2.6187256571e+00 1.5119219631e+00 2.6187256571e+00 
66200 4.9270737656e+00 6.9428814135e-05 1.5119196219e+00 -2.6187216021e+00 1.5119196219e+00 2.6187216021e+00 
66300 4.9270737670e+00 6.9583219524e-05 1.5119196219e+00 -2.6187216021e+00 1.5119196219e+00 2.6187216021e+00 
66400 4.9270737683e+00 6.9736543523e-05 1.5119196219e+00 -2.6187216021e+00 1.5119196219e+00 2.6187216021e+00 
66500 4.9270737696e+00 6.9888762386e-05 1.5119196219e+00 -2.6187216021e+00 1.5119196219e+00 2.6187216021e+00 
66600 4.9270737709e+00 7.0039853718e-05 1.5119196219e+00 -2.6187216021e+00 1.5119196219e+00 2.6187216021e+00 
66700 4.9270737721e+00 7.0189796422e-05 1.5119196219e+00 -2.6187216021e+00 1.5119196219e+00 2.6187216021e+00 
66800 4.9270737734e+00 7.0338570646e-05 1.5119196219e+00 -2.6187216021e+00 1.5119196219e+00 2.6187216021e+00 
66900 4.9270737746e+00 7.0486157736e-05 1.5119196219e+00 -2.6187216021e+00 1.5119196219e+00 2.6187216021e+00 
67000 4.9270737758e+00 7.0632540189e-05 1.5119196219e+00 -2.6187216021e+00 1.5119196219e+00 2.6187216021e+00 
67100 4.9270737770e+00 7.0777701612e-05 1.5119196219e+00 -2.6187216021e+00 1.5119196219e+00 2.6187216021e+00 
67200 4.9270737780e+00 6.9391205765e-05 1.5119172813e+00 -2.6187175480e+00 1.5119172813e+00 2.6187175480e+00 
67300 4.9270737792e+00 6.9523171762e-05 1.5119172813e+00 -2.6187175480e+00 1.5119172813e+00 2.6187175480e+00 
67400 4.9270737803e+00 6.9654232616e-05 1.5119172813e+00 -2.6187175480e+00 1.5119172813e+00 2.6187175480e+00 
67500 4.9270737814e+00 6.9784367644e-05 1.5119172813e+00 -2.6187175480e+00 1.5119172813e+00 2.6187175480e+00 
67600 4.9270737826e+00 6.9913557309e-05 1.5119172813e+00 -2.6187175480e+00 1.5119172813e+00 2.6187175480e+00 
67700 4.9270737837e+00 7.0041783166e-05 1.5119172813e+00 -2.6187175480e+00 1.5119172813e+00 2.6187175480e+00 
67800 4.9270737847e+00 7.0169027825e-05 1.5119172813e+00 -2.6187175480e+00 1.5119172813e+00 2.6187175480e+00 
67900 4.9270737858e+00 7.0295274906e-05 1.5119172813e+00 -2.6187175480e+00 1.5119172813e+00 2.6187175480e+00 
68000 4.9270737869e+00 7.0420509004e-05 1.5119172813e+00 -2.6187175480e+00 1.5119172813e+00 2.6187175480e+00 
68100 4.9270737879e+00 7.0544715651e-05 1.5119172813e+00 -2.6187175480e+00 1.5119172813e+00 2.6187175480e+00 
68200 4.9270737890e+00 7.0667881285e-05 1.5119172813e+00 -2.6187175480e+00 1.5119172813e+00 2.6187175480e+00 
68300 4.9270737900e+00 7.0789993216e-05 1.5119172813e+00 -2.6187175480e+00 1.5119172813e+00 2.6187175480e+00 
68400 4.9270737908e+00 6.9380366654e-05 1.5119149402e+00 -2.6187134931e+00 1.5119149402e+00 2.6187134931e+00 
68500 4.9270737917e+00 6.9489626161e-05 1.5119149402e+00 -2.6187134931e+00 1.5119149402e+00 2.6187134931e+00 
68600 4.9270737927e+00 6.9598157709e-05 1.5119149402e+00 -2.6187134931e+00 1.5119149402e+00 2.6187134931e+00 
68700 4.9270737937e+00 6.9705943468e-05 1.5119149402e+00 -2.6187134931e+00 1.5119149402e+00 2.6187134931e+00 
68800 4.9270737946e+00 6.9812966561e-05 1.5119149402e+00 -2.6187134931e+00 1.5119149402e+00 2.6187134931e+00 
68900 4.9270737956e+00 6.9919211025e-05 1.5119149402e+00 -2.6187134931e+00 1.5119149402e+00 2.6187134931e+00 
69000 4.9270737965e+00 7.0024661772e-05 1.5119149402e+00 -2.6187134931e+00 1.5119149402e+00 2.6187134931e+00 
69100 4.9270737974e+00 7.0129304556e-05 1.5119149402e+00 -2.6187134931e+00 1.5119149402e+00 2.6187134931e+00 
69200 4.9270737983e+00 7.0233125944e-05 1.5119149402e+00 -2.6187134931e+00 1.5119149402e+00 2.6187134931e+00 
69300 4.9270737992e+00 7.0336113281e-05 1.5119149402e+00 -2.6187134931e+00 1.5119149402e+00 2.6187134931e+00 
69400 4.9270738001e+00 7.0438254668e-05 1.5119149402e+00 -2.6187134931e+00 1.5119149402e+00 2.6187134931e+00 
69500 4.9270738009e+00 7.0539538934e-05 1.5119149402e+00 -2.6187134931e+00 1.5119149402e+00 2.6187134931e+00 
69600 4.9270738018e+00 7.0639955612e-05 1.5119149402e+00 -2.6187134931e+00 1.5119149402e+00 2.6187134931e+00 
69700 4.9270738026e+00 7.0739494916e-05 1.5119149402e+00 -2.6187134931e+00 1.5119149402e+00 2.6187134931e+00 
69800 4.9270738032e+00 6.9308579630e-05 1.5119126008e+00 -2.6187094412e+00 1.5119126008e+00 2.6187094412e+00 
69900 4.9270738041e+00 6.9395634783e-05 1.5119126008e+00 -2.6187094412e+00 1.5119126008e+00 2.6187094412e+00 
70000 4.9270738049e+00 6.9482145680e-05 1.5119126008e+00 -2.6187094412e+00 1.5119126008e+00 2.6187094412e+00 
70100 4.9270738057e+00 6.9568096705e-05 1.5119126008e+00 -2.6187094412e+00 1.5119126008e+00 2.6187094412e+00 
70200 4.9270738064e+00 6.9653473035e-05 1.5119126008e+00 -2.6187094412e+00 1.5119126008e+00 2.6187094412e+00 
70300 4.9270738072e+00 6.9738260608e-05 1.5119126008e+00 -2.6187094412e+00 1.5119126008e+00 2.6187094412e+00 
70400 4.9270738080e+00 6.9822446096e-05 1.5119126008e+00 -2.6187094412e+00 1.5119126008e+00 2.6187094412e+00 
70500 4.9270738087e+00 6.9906016868e-05 1.5119126008e+00 -2.6187094412e+00 1.5119126008e+00 2.6187094412e+00 
70600 4.9270738095e+00 6.9988960969e-05 1.5119126008e+00 -2.6187094412e+00 1.5119126008e+00 2.6187094412e+00 
70700 4.9270738102e+00 7.0071267095e-05 1.5119126008e+00 -2.6187094412e+00 1.5119126008e+00 2.6187094412e+00 
70800 4.9270738109e+00 7.0152924567e-05 1.5119126008e+00 -2.6187094412e+00 1.5119126008e+00 2.6187094412e+00 
70900 4.9270738116e+00 7.0233923312e-05 1.5119126008e+00 -2.6187094412e+00 1.5119126008e+00 2.6187094412e+00 
71000 4.9270738124e+00 7.0314253843e-05 1.5119126008e+00 -2.6187094412e+00 1.5119126008e+00 2.6187094412e+00 
71100 4.9270738130e+00 7.0393907239e-05 1.5119126008e+00 -2.6187094412e+00 1.5119126008e+00 2.6187094412e+00 
71200 4.9270738137e+00 7.0472875127e-05 1.5119126008e+00 -2.6187094412e+00 1.5119126008e+00 2.6187094412e+00 
71300 4.9270738144e+00 7.0551149668e-05 1.5119126008e+00 -2.6187094412e+00 1.5119126008e+00 2.6187094412e+00 
71400 4.9270738151e+00 7.0628723539e-05 1.5119126008e+00 -2.6187094412e+00 1.5119126008e+00 2.6187094412e+00 
71500 4.9270738157e+00 7.0705589919e-05 1.5119126008e+00 -2.6187094412e+00 1.5119126008e+00 2.6187094412e+00 
71600 4.9270738164e+00 7.0781742475e-05 1.5119126008e+00 -2.6187094412e+00 1.5119126008e+00 2.6187094412e+00 
71700 4.9270738168e+00 6.9326707713e-05 1.5119102600e+00 -2.6187053868e+00 1.5119102600e+00 2.6187053868e+00 
71800 4.9270738174e+00 6.9390706446e-05 1.5119102600e+00 -2.6187053868e+00 1.5119102600e+00 2.6187053868e+00 
71900 4.9270738181e+00 6.9454333961e-05 1.5119102600e+00 -2.6187053868e+00 1.5119102600e+00 2.6187053868e+00 
72000 4.9270738187e+00 6.9517577386e-05 1.5119102600e+00 -2.6187053868e+00 1.5119102600e+00 2.6187053868e+00 
72100 4.9270738193e+00 6.9580424487e-05 1.5119102600e+00 -2.6187053868e+00 1.5119102600e+00 2.6187053868e+00 
72200 4.9270738199e+00 6.9642863636e-05 1.5119102600e+00 -2.6187053868e+00 1.5119102600e+00 2.6187053868e+00 
72300 4.9270738205e+00 6.9704883788e-05 1.5119102600e+00 -2.6187053868e+00 1.5119102600e+00 2.6187053868e+00 
72400 4.9270738211e+00 6.9766474454e-05 1.5119102600e+00 -2.6187053868e+00 1.5119102600e+00 2.6187053868e+00 
72500 4.9270738216e+00 6.9827625681e-05 1.5119102600e+00 -2.6187053868e+00 1.5119102600e+00 2.6187053868e+00 
72600 4.9270738222e+00 6.9888328033e-05 1.5119102600e+00 -2.6187053868e+00 1.5119102600e+00 2.6187053868e+00 
72700 4.9270738228e+00 6.9948572568e-05 1.5119102600e+00 -2.6187053868e+00 1.5119102600e+00 2.6187053868e+00 
72800 4.9270738233e+00 7.0008350822e-05 1.5119102600e+00 -2.6187053868e+00 1.5119102600e+00 2.6187053868e+00 
72900 4.9270738238e+00 7.0067654795e-05 1.5119102600e+00 -2.6187053868e+00 1.5119102600e+00 2.6187053868e+00 
73000 4.9270738244e+00 7.0126476931e-05 1.5119102600e+00 -2.6187053868e+00 1.5119102600e+00 2.6187053868e+00 
73100 4.9270738249e+00 7.0184810111e-05 1.5119102600e+00 -2.6187053868e+00 1.5119102600e+00 2.6187053868e+00 
73200 4.9270738254e+00 7.0242647630e-05 1.5119102600e+00 -2.6187053868e+00 1.5119102600e+00 2.6187053868e+00 
73300 4.9270738260e+00 7.0299983194e-05 1.5119102600e+00 -2.6187053868e+00 1.5119102600e+00 2.6187053868e+00 
73400 4.9270738265e+00 7.0356810900e-05 1.5119102600e+00 -2.6187053868e+00 1.5119102600e+00 2.6187053868e+00 
73500 4.9270738270e+00 7.0413125231e-05 1.5119102600e+00 -2.6187053868e+00 1.5119102600e+00 2.6187053868e+00 
73600 4.9270738275e+00 7.0468921042e-05 1.5119102600e+00 -2.6187053868e+00 1.5119102600e+00 2.6187053868e+00 
73700 4.9270738279e+00 7.0524193550e-05 1.5119102600e+00 -2.6187053868e+00 1.5119102600e+00 2.6187053868e+00 
73800 4.9270738284e+00 7.0578938327e-05 1.5119102600e+00 -2.6187053868e+00 1.5119102600e+00 2.6187053868e+00 
73900 4.9270738289e+00 7.0633151286e-05 1.5119102600e+00 -2.6187053868e+00 1.5119102600e+00 2.6187053868e+00 
74000 4.9270738294e+00 7.0686828677e-05 1.5119102600e+00 -2.6187053868e+00 1.5119102600e+00 2.6187053868e+00 
74100 4.9270738298e+00 7.0739967076e-05 1.5119102600e+00 -2.6187053868e+00 1.5119102600e+00 2.6187053868e+00 
74200 4.9270738301e+00 6.9263011672e-05 1.5119079206e+00 -2.6187013348e+00 1.5119079206e+00 2.6187013348e+00 
74300 4.9270738305e+00 6.9304360350e-05 1.5119079206e+00 -2.6187013348e+00 1.5119079206e+00 2.6187013348e+00 
74400 4.9270738310e+00 6.9345520238e-05 1.5119079206e+00 -2.6187013348e+00 1.5119079206e+00 2.6187013348e+00 
74500 4.9270738314e+00 6.9386480779e-05 1.5119079206e+00 -2.6187013348e+00 1.5119079206e+00 2.6187013348e+00 
74600 4.9270738318e+00 6.9427231916e-05 1.5119079206e+00 -2.6187013348e+00 1.5119079206e+00 2.6187013348e+00 
74700 4.9270738323e+00 6.9467764062e-05 1.5119079206e+00 -2.6187013348e+00 1.5119079206e+00 2.6187013348e+00 
74800 4.9270738327e+00 6.9508068080e-05 1.5119079206e+00 -2.6187013348e+00 1.5119079206e+00 2.6187013348e+00 
74900 4.9270738331e+00 6.9548135265e-05 1.5119079206e+00 -2.6187013348e+00 1.5119079206e+00 2.6187013348e+00 
75000 4.9270738335e+00 6.9587957319e-05 1.5119079206e+00 -2.6187013348e+00 1.5119079206e+00 2.6187013348e+00 
75100 4.9270738339e+00 6.9627526340e-05 1.5119079206e+00 -2.6187013348e+00 1.5119079206e+00 2.6187013348e+00 
75200 4.9270738343e+00 6.9666834803e-05 1.5119079206e+00 -2.6187013348e+00 1.5119079206e+00 2.6187013348e+00 
75300 4.9270738347e+00 6.9705875543e-05 1.5119079206e+00 -2.6187013348e+00 1.5119079206e+00 2.6187013348e+00 
75400 4.9270738351e+00 6.9744641748e-05 1.5119079206e+00 -2.6187013348e+00 1.5119079206e+00 2.6187013348e+00 
75500 4.9270738355e+00 6.9783126938e-05 1.5119079206e+00 -2.6187013348e+00 1.5119079206e+00 2.6187013348e+00 
75600 4.9270738359e+00 6.9821324961e-05 1.5119079206e+00 -2.6187013348e+00 1.5119079206e+00 2.6187013348e+00 
75700 4.9270738362e+00 6.9859229977e-05 1.5119079206e+00 -2.6187013348e+00 1.5119079206e+00 2.6187013348e+00 
75800 4.9270738366e+00 6.9896836451e-05 1.5119079206e+00 -2.6187013348e+00 1.5119079206e+00 2.6187013348e+00 
75900 4.9270738370e+00 6.9934139143e-05 1.5119079206e+00 -2.6187013348e+00 1.5119079206e+00 2.6187013348e+00 
76000 4.9270738373e+00 6.9971133097e-05 1.5119079206e+00 -2.6187013348e+00 1.5119079206e+00 2.6187013348e+00 
76100 4.9270738377e+00 7.0007813634e-05 1.5119079206e+00 -2.6187013348e+00 1.5119079206e+00 2.6187013348e+00 
76200 4.9270738380e+00 7.0044176348e-05 1.5119079206e+00 -2.6187013348e+00 1.5119079206e+00 2.6187013348e+00 
76300 4.9270738384e+00 7.0080217093e-05 1.5119079206e+00 -2.6187013348e+00 1.5119079206e+00 2.6187013348e+00 
76400 4.9270738387e+00 7.0115931978e-05 1.5119079206e+00 -2.6187013348e+00 1.5119079206e+00 2.6187013348e+00 
76500 4.9270738391e+00 7.0151317362e-05 1.5119079206e+00 -2.6187013348e+00 1.5119079206e+00 2.6187013348e+00 
76600 4.9270738394e+00 7.0186369844e-05 1.5119079206e+00 -2.6187013348e+00 1.5119079206e+00 2.6187013348e+00 
76700 4.9270738397e+00 7.0221086263e-05 1.5119079206e+00 -2.6187013348e+00 1.5119079206e+00 2.6187013348e+00 
76800 4.9270738400e+00 7.0255463686e-05 1.5119079206e+00 -2.6187013348e+00 1.5119079206e+00 2.6187013348e+00 
76900 4.9270738404e+00 7.0289499405e-05 1.5119079206e+00 -2.6187013348e+00 1.5119079206e+00 2.6187013348e+00 
77000 4.9270738407e+00 7.0323190932e-05 1.5119079206e+00 -2.6187013348e+00 1.5119079206e+00 2.6187013348e+00 
77100 4.9270738410e+00 7.0356535994e-05 1.5119079206e+00 -2.6187013348e+00 1.5119079206e+00 2.6187013348e+00 
77200 4.9270738413e+00 7.0389532526e-05 1.5119079206e+00 -2.6187013348e+00 1.5119079206e+00 2.6187013348e+00 
77300 4.9270738416e+00 7.0422178666e-05 1.5119079206e+00 -2.6187013348e+00 1.5119079206e+00 2.6187013348e+00 
77400 4.9270738419e+00 7.0454472754e-05 1.5119079206e+00 -2.6187013348e+00 1.5119079206e+00 2.6187013348e+00 
77500 4.9270738422e+00 7.0486413322e-05 1.5119079206e+00 -2.6187013348e+00 1.5119079206e+00 2.6187013348e+00 
77600 4.9270738425e+00 7.0517999092e-05 1.5119079206e+00 -2.6187013348e+00 1.5119079206e+00 2.6187013348e+00 
77700 4.9270738427e+00 7.0549228972e-05 1.5119079206e+00 -2.6187013348e+00 1.5119079206e+00 2.6187013348e+00 
77800 4.9270738430e+00 7.0580102049e-05 1.5119079206e+00 -2.6187013348e+00 1.5119079206e+00 2.6187013348e+00 
77900 4.9270738433e+00 7.0610617588e-05 1.5119079206e+00 -2.6187013348e+00 1.5119079206e+00 2.6187013348e+00 
78000 4.9270738436e+00 7.0640775021e-05 1.5119079206e+00 -2.6187013348e+00 1.5119079206e+00 2.6187013348e+00 
78100 4.9270738439e+00 7.0670573953e-05 1.5119079206e+00 -2.6187013348e+00 1.5119079206e+00 2.6187013348e+00 
78200 4.9270738441e+00 7.0700014147e-05 1.5119079206e+00 -2.6187013348e+00 1.5119079206e+00 2.6187013348e+00 
78300 4.9270738444e+00 7.0729095527e-05 1.5119079206e+00 -2.6187013348e+00 1.5119079206e+00 2.6187013348e+00 
78400 4.9270738444e+00 6.9228513905e-05 1.5119055815e+00 -2.6186972834e+00 1.5119055815e+00 2.6186972834e+00 
78500 4.9270738447e+00 6.9246176974e-05 1.5119055815e+00 -2.6186972834e+00 1.5119055815e+00 2.6186972834e+00 
78600 4.9270738449e+00 6.9263840447e-05 1.5119055815e+00 -2.6186972834e+00 1.5119055815e+00 2.6186972834e+00 
78700 4.9270738452e+00 6.9281496480e-05 1.5119055815e+00 -2.6186972834e+00 1.5119055815e+00 2.6186972834e+00 
78800 4.9270738454e+00 6.9299137579e-05 1.5119055815e+00 -2.6186972834e+00 1.5119055815e+00 2.6186972834e+00 
78900 4.9270738457e+00 6.9316756573e-05 1.5119055815e+00 -2.6186972834e+00 1.5119055815e+00 2.6186972834e+00 
79000 4.9270738459e+00 6.9334346600e-05 1.5119055815e+00 -2.6186972834e+00 1.5119055815e+00 2.6186972834e+00 
79100 4.9270738462e+00 6.9351901084e-05 1.5119055815e+00 -2.6186972834e+00 1.5119055815e+00 2.6186972834e+00 
79200 4.9270738464e+00 6.9369413724e-05 1.5119055815e+00 -2.6186972834e+00 1.5119055815e+00 2.6186972834e+00 
79300 4.9270738466e+00 6.9386878475e-05 1.5119055815e+00 -2.6186972834e+00 1.5119055815e+00 2.6186972834e+00 
79400 4.9270738468e+00 6.9404289538e-05 1.5119055815e+00 -2.6186972834e+00 1.5119055815e+00 2.6186972834e+00 
79500 4.9270738471e+00 6.9421641346e-05 1.5119055815e+00 -2.6186972834e+00 1.5119055815e+00 2.6186972834e+00 
79600 4.9270738473e+00 6.9438928554e-05 1.5119055815e+00 -2.6186972834e+00 1.5119055815e+00 2.6186972834e+00 
79700 4.9270738475e+00 6.9456146028e-05 1.5119055815e+00 -2.6186972834e+00 1.5119055815e+00 2.6186972834e+00 
79800 4.9270738477e+00 6.9473288840e-05 1.5119055815e+00 -2.6186972834e+00 1.5119055815e+00 2.6186972834e+00 
79900 4.9270738479e+00 6.9490352252e-05 1.5119055815e+00 -2.6186972834e+00 1.5119055815e+00 2.6186972834e+00 
80000 4.9270738481e+00 6.9507331717e-05 1.5119055815e+00 -2.6186972834e+00 1.5119055815e+00 2.6186972834e+00 
80100 4.9270738484e+00 6.9524222865e-05 1.5119055815e+00 -2.6186972834e+00 1.5119055815e+00 2.6186972834e+00 
80200 4.9270738486e+00 6.9541021501e-05 1.5119055815e+00 -2.6186972834e+00 1.5119055815e+00 2.6186972834e+00 
80300 4.9270738488e+00 6.9557723600e-05 1.5119055815e+00 -2.6186972834e+00 1.5119055815e+00 2.6186972834e+00 
80400 4.9270738490e+00 6.9574325297e-05 1.5119055815e+00 -2.6186972834e+00 1.5119055815e+00 2.6186972834e+00 
80500 4.9270738492e+00 6.9590822887e-05 1.5119055815e+00 -2.6186972834e+00 1.5119055815e+00 2.6186972834e+00 
80600 4.9270738493e+00 6.9607212817e-05 1.5119055815e+00 -2.6186972834e+00 1.5119055815e+00 2.6186972834e+00 
80700 4.9270738495e+00 6.9623491685e-05 1.5119055815e+00 -2.6186972834e+00 1.5119055815e+00 2.6186972834e+00 
80800 4.9270738497e+00 6.9639656235e-05 1.5119055815e+00 -2.6186972834e+00 1.5119055815e+00 2.6186972834e+00 
80900 4.9270738499e+00 6.9655703350e-05 1.5119055815e+00 -2.6186972834e+00 1.5119055815e+00 2.6186972834e+00 
81000 4.9270738501e+00 6.9671630055e-05 1.5119055815e+00 -2.6186972834e+00 1.5119055815e+00 2.6186972834e+00 
81100 4.9270738503e+00 6.9687433509e-05 1.5119055815e+00 -2.6186972834e+00 1.5119055815e+00 2.6186972834e+00 
81200 4.9270738505e+00 6.9703111005e-05 1.5119055815e+00 -2.6186972834e+00 1.5119055815e+00 2.6186972834e+00 
81300 4.9270738506e+00 6.9718659963e-05 1.5119055815e+00 -2.6186972834e+00 1.5119055815e+00 2.6186972834e+00 
81400 4.9270738508e+00 6.9734077933e-05 1.5119055815e+00 -2.6186972834e+00 1.5119055815e+00 2.6186972834e+00 
81500 4.9270738510e+00 6.9749362587e-05 1.5119055815e+00 -2.6186972834e+00 1.5119055815e+00 2.6186972834e+00 
81600 4.9270738512e+00 6.9764511723e-05 1.5119055815e+00 -2.6186972834e+00 1.5119055815e+00 2.6186972834e+00 
81700 4.9270738513e+00 6.9779523253e-05 1.5119055815e+00 -2.6186972834e+00 1.5119055815e+00 2.6186972834e+00 
81800 4.9270738515e+00 6.9794395211e-05 1.5119055815e+00 -2.6186972834e+00 1.5119055815e+00 2.6186972834e+00 
81900 4.9270738517e+00 6.9809125745e-05 1.5119055815e+00 -2.6186972834e+00 1.5119055815e+00 2.6186972834e+00 
82000 4.9270738518e+00 6.9823713115e-05 1.5119055815e+00 -2.6186972834e+00 1.5119055815e+00 2.6186972834e+00 
82100 4.9270738520e+00 6.9838155693e-05 1.5119055815e+00 -2.6186972834e+00 1.5119055815e+00 2.6186972834e+00 
82200 4.9270738521e+00 6.9852451959e-05 1.5119055815e+00 -2.6186972834e+00 1.5119055815e+00 2.6186972834e+00 
82300 4.9270738523e+00 6.9866600498e-05 1.5119055815e+00 -2.6186972834e+00 1.5119055815e+00 2.6186972834e+00 
82400 4.9270738524e+00 6.9880600003e-05 1.5119055815e+00 -2.6186972834e+00 1.5119055815e+00 2.6186972834e+00 
82500 4.9270738526e+00 6.9894449266e-05 1.5119055815e+00 -2.6186972834e+00 1.5119055815e+00 2.6186972834e+00 
82600 4.9270738527e+00 6.9908147182e-05 1.5119055815e+00 -2.6186972834e+00 1.5119055815e+00 2.6186972834e+00 
82700 4.9270738529e+00 6.9921692742e-05 1.5119055815e+00 -2.6186972834e+00 1.5119055815e+00 2.6186972834e+00 
82800 4.9270738530e+00 6.9935085035e-05 1.5119055815e+00 -2.6186972834e+00 1.5119055815e+00 2.6186972834e+00 
82900 4.9270738532e+00 6.9948323244e-05 1.5119055815e+00 -2.6186972834e+00 1.5119055815e+00 2.6186972834e+00 
83000 4.9270738533e+00 6.9961406642e-05 1.5119055815e+00 -2.6186972834e+00 1.5119055815e+00 2.6186972834e+00 
83100 4.9270738535e+00 6.9974334595e-05 1.5119055815e+00 -2.6186972834e+00 1.5119055815e+00 2.6186972834e+00 
83200 4.9270738536e+00 6.9987106555e-05 1.5119055815e+00 -2.6186972834e+00 1.5119055815e+00 2.6186972834e+00 
83300 4.9270738537e+00 6.9999722063e-05 1.5119055815e+00 -2.6186972834e+00 1.5119055815e+00 2.6186972834e+00 
83400 4.9270738539e+00 7.0012180741e-05 1.5119055815e+00 -2.6186972834e+00 1.5119055815e+00 2.6186972834e+00 
83500 4.9270738540e+00 7.0024482294e-05 1.5119055815e+00 -2.6186972834e+00 1.5119055815e+00 2.6186972834e+00 
83600 4.9270738541e+00 7.0036626507e-05 1.5119055815e+00 -2.6186972834e+00 1.5119055815e+00 2.6186972834e+00 
83700 4.9270738543e+00 7.0048613243e-05 1.5119055815e+00 -2.6186972834e+00 1.5119055815e+00 2.6186972834e+00 
83800 4.9270738544e+00 7.0060442440e-05 1.5119055815e+00 -2.6186972834e+00 1.5119055815e+00 2.6186972834e+00 
83900 4.9270738545e+00 7.0072114112e-05 1.5119055815e+00 -2.6186972834e+00 1.5119055815e+00 2.6186972834e+00 
84000 4.9270738546e+00 7.0083628343e-05 1.5119055815e+00 -2.6186972834e+00 1.5119055815e+00 2.6186972834e+00 
84100 4.9270738548e+00 7.0094985286e-05 1.5119055815e+00 -2.6186972834e+00 1.5119055815e+00 2.6186972834e+00 
84200 4.9270738549e+00 7.0106185165e-05 1.5119055815e+00 -2.6186972834e+00 1.5119055815e+00 2.6186972834e+00 
84300 4.9270738550e+00 7.0117228266e-05 1.5119055815e+00 -2.6186972834e+00 1.5119055815e+00 2.6186972834e+00 
84400 4.9270738551e+00 7.0128114941e-05 1.5119055815e+00 -2.6186972834e+00 1.5119055815e+00 2.6186972834e+00 
84500 4.9270738552e+00 7.0138845602e-05 1.5119055815e+00 -2.6186972834e+00 1.5119055815e+00 2.6186972834e+00 
84600 4.9270738553e+00 7.0149420723e-05 1.5119055815e+00 -2.6186972834e+00 1.5119055815e+00 2.6186972834e+00 
84700 4.9270738555e+00 7.0159840833e-05 1.5119055815e+00 -2.6186972834e+00 1.5119055815e+00 2.6186972834e+00 
84800 4.9270738556e+00 7.0170106520e-05 1.5119055815e+00 -2.6186972834e+00 1.5119055815e+00 2.6186972834e+00 
84900 4.9270738557e+00 7.0180218422e-05 1.5119055815e+00 -2.6186972834e+00 1.5119055815e+00 2.6186972834e+00 
85000 4.9270738558e+00 7.0190177231e-05 1.5119055815e+00 -2.6186972834e+00 1.5119055815e+00 2.6186972834e+00 
85100 4.9270738559e+00 7.0199983689e-05 1.5119055815e+00 -2.6186972834e+00 1.5119055815e+00 2.6186972834e+00 
85200 4.9270738560e+00 7.0209638585e-05 1.5119055815e+00 -2.6186972834e+00 1.5119055815e+00 2.6186972834e+00 
85300 4.9270738561e+00 7.0219142756e-05 1.5119055815e+00 -2.6186972834e+00 1.5119055815e+00 2.6186972834e+00 
85400 4.9270738562e+00 7.0228497081e-05 1.5119055815e+00 -2.6186972834e+00 1.5119055815e+00 2.6186972834e+00 
85500 4.9270738563e+00 7.0237702481e-05 1.5119055815e+00 -2.6186972834e+00 1.5119055815e+00 2.6186972834e+00 
85600 4.9270738564e+00 7.0246759921e-05 1.5119055815e+00 -2.6186972834e+00 1.5119055815e+00 2.6186972834e+00 
85700 4.9270738565e+00 7.0255670401e-05 1.5119055815e+00 -2.6186972834e+00 1.5119055815e+00 2.6186972834e+00 
85800 4.9270738566e+00 7.0264434960e-05 1.5119055815e+00 -2.6186972834e+00 1.5119055815e+00 2.6186972834e+00 
85900 4.9270738567e+00 7.0273054671e-05 1.5119055815e+00 -2.6186972834e+00 1.5119055815e+00 2.6186972834e+00 
86000 4.9270738568e+00 7.0281530643e-05 1.5119055815e+00 -2.6186972834e+00 1.5119055815e+00 2.6186972834e+00 
86100 4.9270738569e+00 7.0289864014e-05 1.5119055815e+00 -2.6186972834e+00 1.5119055815e+00 2.6186972834e+00 
86200 4.9270738570e+00 7.0298055953e-05 1.5119055815e+00 -2.6186972834e+00 1.5119055815e+00 2.6186972834e+00 
86300 4.9270738571e+00 7.0306107659e-05 1.5119055815e+00 -2.6186972834e+00 1.5119055815e+00 2.6186972834e+00 
86400 4.9270738572e+00 7.0314020355e-05 1.5119055815e+00 -2.6186972834e+00 1.5119055815e+00 2.6186972834e+00 
86500 4.9270738573e+00 7.0321795292e-05 1.5119055815e+00 -2.6186972834e+00 1.5119055815e+00 2.6186972834e+00 
86600 4.9270738573e+00 7.0329433743e-05 1.5119055815e+00 -2.6186972834e+00 1.5119055815e+00 2.6186972834e+00 
86700 4.9270738574e+00 7.0336937005e-05 1.5119055815e+00 -2.6186972834e+00 1.5119055815e+00 2.6186972834e+00 
86800 4.9270738575e+00 7.0344306395e-05 1.5119055815e+00 -2.6186972834e+00 1.5119055815e+00 2.6186972834e+00 
86900 4.9270738576e+00 7.0351543248e-05 1.5119055815e+00 -2.6186972834e+00 1.5119055815e+00 2.6186972834e+00 
87000 4.9270738577e+00 7.0358648919e-05 1.5119055815e+00 -2.6186972834e+00 1.5119055815e+00 2.6186972834e+00 
87100 4.9270738578e+00 7.0365624779e-05 1.5119055815e+00 -2.6186972834e+00 1.5119055815e+00 2.6186972834e+00 
87200 4.9270738578e+00 7.0372472212e-05 1.5119055815e+00 -2.6186972834e+00 1.5119055815e+00 2.6186972834e+00 
87300 4.9270738579e+00 7.0379192621e-05 1.5119055815e+00 -2.6186972834e+00 1.5119055815e+00 2.6186972834e+00 
87400 4.9270738580e+00 7.0385787415e-05 1.5119055815e+00 -2.6186972834e+00 1.5119055815e+00 2.6186972834e+00 
87500 4.9270738581e+00 7.0392258020e-05 1.5119055815e+00 -2.6186972834e+00 1.5119055815e+00 2.6186972834e+00 
87600 4.9270738582e+00 7.0398605869e-05 1.5119055815e+00 -2.6186972834e+00 1.5119055815e+00 2.6186972834e+00 
87700 4.9270738582e+00 7.0404832405e-05 1.5119055815e+00 -2.6186972834e+00 1.5119055815e+00 2.6186972834e+00 
87800 4.9270738583e+00 7.0410939080e-05 1.5119055815e+00 -2.6186972834e+00 1.5119055815e+00 2.6186972834e+00 
87900 4.9270738584e+00 7.0416927349e-05 1.5119055815e+00 -2.6186972834e+00 1.5119055815e+00 2.6186972834e+00 
88000 4.9270738585e+00 7.0422798677e-05 1.5119055815e+00 -2.6186972834e+00 1.5119055815e+00 2.6186972834e+00 
88100 4.9270738585e+00 7.0428554531e-05 1.5119055815e+00 -2.6186972834e+00 1.5119055815e+00 2.6186972834e+00 
88200 4.9270738586e+00 7.0434196382e-05 1.5119055815e+00 -2.6186972834e+00 1.5119055815e+00 2.6186972834e+00 
88300 4.9270738587e+00 7.0439725704e-05 1.5119055815e+00 -2.6186972834e+00 1.5119055815e+00 2.6186972834e+00 
88400 4.9270738587e+00 7.0445143972e-05 1.5119055815e+00 -2.6186972834e+00 1.5119055815e+00 2.6186972834e+00 
88500 4.9270738588e+00 7.0450452664e-05 1.5119055815e+00 -2.6186972834e+00 1.5119055815e+00 2.6186972834e+00 
88600 4.9270738589e+00 7.0455653254e-05 1.5119055815e+00 -2.6186972834e+00 1.5119055815e+00 2.6186972834e+00 
88700 4.9270738589e+00 7.0460747219e-05 1.5119055815e+00 -2.6186972834e+00 1.5119055815e+00 2.6186972834e+00 
88800 4.9270738590e+00 7.0465736031e-05 1.5119055815e+00 -2.6186972834e+00 1.5119055815e+00 2.6186972834e+00 
88900 4.9270738591e+00 7.0470621161e-05 1.5119055815e+00 -2.6186972834e+00 1.5119055815e+00 2.6186972834e+00 
89000 4.9270738591e+00 7.0475404077e-05 1.5119055815e+00 -2.6186972834e+00 1.5119055815e+00 2.6186972834e+00 
89100 4.9270738592e+00 7.0480086241e-05 1.5119055815e+00 -2.6186972834e+00 1.5119055815e+00 2.6186972834e+00 
89200 4.9270738593e+00 7.0484669114e-05 1.5119055815e+00 -2.6186972834e+00 1.5119055815e+00 2.6186972834e+00 
89300 4.9270738593e+00 7.0489154147e-05 1.5119055815e+00 -2.6186972834e+00 1.5119055815e+00 2.6186972834e+00 
89400 4.9270738594e+00 7.0493542788e-05 1.5119055815e+00 -2.6186972834e+00 1.5119055815e+00 2.6186972834e+00 
89500 4.9270738595e+00 7.0497836477e-05 1.5119055815e+00 -2.6186972834e+00 1.5119055815e+00 2.6186972834e+00 
89600 4.9270738595e+00 7.0502036647e-05 1.5119055815e+00 -2.6186972834e+00 1.5119055815e+00 2.6186972834e+00 
89700 4.9270738596e+00 7.0506144725e-05 1.5119055815e+00 -2.6186972834e+00 1.5119055815e+00 2.6186972834e+00 
89800 4.9270738596e+00 7.0510162126e-05 1.5119055815e+00 -2.6186972834e+00 1.5119055815e+00 2.6186972834e+00 
89900 4.9270738597e+00 7.0514090259e-05 1.5119055815e+00 -2.6186972834e+00 1.5119055815e+00 2.6186972834e+00 
90000 4.9270738597e+00 7.0517930523e-05 1.5119055815e+00 -2.6186972834e+00 1.5119055815e+00 2.6186972834e+00 
90100 4.9270738598e+00 7.0521684307e-05 1.5119055815e+00 -2.6186972834e+00 1.5119055815e+00 2.6186972834e+00 
90200 4.9270738599e+00 7.0525352990e-05 1.5119055815e+00 -2.6186972834e+00 1.5119055815e+00 2.6186972834e+00 
90300 4.9270738599e+00 7.0528937939e-05 1.5119055815e+00 -2.6186972834e+00 1.5119055815e+00 2.6186972834e+00 
90400 4.9270738600e+00 7.0532440514e-05 1.5119055815e+00 -2.6186972834e+00 1.5119055815e+00 2.6186972834e+00 
90500 4.9270738600e+00 7.0535862059e-05 1.5119055815e+00 -2.6186972834e+00 1.5119055815e+00 2.6186972834e+00 
90600 4.9270738601e+00 7.0539203907e-05 1.5119055815e+00 -2.6186972834e+00 1.5119055815e+00 2.6186972834e+00 
90700 4.9270738601e+00 7.0542467384e-05 1.5119055815e+00 -2.6186972834e+00 1.5119055815e+00 2.6186972834e+00 
90800 4.9270738602e+00 7.0545653796e-05 1.5119055815e+00 -2.6186972834e+00 1.5119055815e+00 2.6186972834e+00 
90900 4.9270738602e+00 7.0548764444e-05 1.5119055815e+00 -2.6186972834e+00 1.5119055815e+00 2.6186972834e+00 
91000 4.9270738602e+00 7.0549987777e-05 1.5119055815e+00 -2.6186972834e+00 1.5119055815e+00 2.6186972834e+00 
91000 4.9270738602e+00 7.0549987777e-05 1.5119055815e+00 -2.6186972834e+00 1.5119055815e+00 2.6186972834e+00 
