# step Hamiltonian StressXX CellTensor1 CellTensor2 CellTensor3 CellTensor4 
0 6.6584530998e+00 -1.7406476044e-02 1.6087831444e+00 -2.7864941444e+00 1.6087831444e+00 2.7864941444e+00 
100 6.6506094352e+00 -1.7744762145e-02 1.6087831444e+00 -2.7864941444e+00 1.6087831444e+00 2.7864941444e+00 
200 6.6429722622e+00 -1.7681521063e-02 1.6093346722e+00 -2.7874494187e+00 1.6093346722e+00 2.7874494187e+00 
300 6.6355634560e+00 -1.7842042067e-02 1.6098840461e+00 -2.7884009621e+00 1.6098840461e+00 2.7884009621e+00 
400 6.6283900756e+00 -1.8209610630e-02 1.6104382184e+00 -2.7893608168e+00 1.6104382184e+00 2.7893608168e+00 
500 6.6214569115e+00 -1.8768266570e-02 1.6110036135e+00 -2.7903401097e+00 1.6110036135e+00 2.7903401097e+00 
600 6.6147666948e+00 -1.9502785812e-02 1.6115861509e+00 -2.7913490941e+00 1.6115861509e+00 2.7913490941e+00 
700 6.6083202934e+00 -2.0398662891e-02 1.6121912692e+00 -2.7923971898e+00 1.6121912692e+00 2.7923971898e+00 
800 6.6021168974e+00 -2.1442093562e-02 1.6128239484e+00 -2.7934930222e+00 1.6128239484e+00 2.7934930222e+00 
900 6.5961541946e+00 -2.2619957055e-02 1.6134887316e+00 -2.7946444605e+00 1.6134887316e+00 2.7946444605e+00 
1000 6.5904285372e+00 -2.3919797658e-02 1.6141897465e+00 -2.7958586540e+00 1.6141897465e+00 2.7958586540e+00 
1100 6.5849350991e+00 -2.5329805432e-02 1.6149307259e+00 -2.7971420680e+00 1.6149307259e+00 2.7971420680e+00 
1200 6.5796680253e+00 -2.6838795963e-02 1.6157150275e+00 -2.7985005182e+00 1.6157150275e+00 2.7985005182e+00 
1300 6.5746205738e+00 -2.8436189141e-02 1.6165456534e+00 -2.7999392044e+00 1.6165456534e+00 2.7999392044e+00 
1400 6.5697852488e+00 -3.0111987003e-02 1.6174252687e+00 -2.8014627428e+00 1.6174252687e+00 2.8014627428e+00 
1500 6.5651539273e+00 -3.1856750755e-02 1.6183562197e+00 -2.8030751972e+00 1.6183562197e+00 2.8030751972e+00 
1600 6.5607179774e+00 -3.3661577084e-02 1.6193405511e+00 -2.8047801093e+00 1.6193405511e+00 2.8047801093e+00 
1700 6.5564683698e+00 -3.5518073935e-02 1.6203800229e+00 -2.8065805272e+00 1.6203800229e+00 2.8065805272e+00 
1800 6.5523957815e+00 -3.7418335923e-02 1.6214761261e+00 -2.8084790337e+00 1.6214761261e+00 2.8084790337e+00 
1900 6.5484906931e+00 -3.9354919549e-02 1.6226300984e+00 -2.8104777723e+00 1.6226300984e+00 2.8104777723e+00 
2000 6.5447434778e+00 -4.1320818424e-02 1.6238429385e+00 -2.8125784730e+00 1.6238429385e+00 2.8125784730e+00 
2100 6.5411444845e+00 -4.3309438659e-02 1.6251154203e+00 -2.8147824761e+00 1.6251154203e+00 2.8147824761e+00 
2200 6.5376841131e+00 -4.5314574599e-02 1.6264481057e+00 -2.8170907549e+00 1.6264481057e+00 2.8170907549e+00 
2300 6.5343528839e+00 -4.7330385063e-02 1.6278413576e+00 -2.8195039380e+00 1.6278413576e+00 2.8195039380e+00 
2400 6.5311414994e+00 -4.9351370212e-02 1.6292953513e+00 -2.8220223291e+00 1.6292953513e+00 2.8220223291e+00 
2500 6.5280409003e+00 -5.1372349206e-02 1.6308100862e+00 -2.8246459268e+00 1.6308100862e+00 2.8246459268e+00 
2600 6.5250423152e+00 -5.3388438717e-02 1.6323853956e+00 -2.8273744428e+00 1.6323853956e+00 2.8273744428e+00 
2700 6.5221373036e+00 -5.5395032430e-02 1.6340209574e+00 -2.8302073189e+00 1.6340209574e+00 2.8302073189e+00 
2800 6.5193177942e+00 -5.7387781572e-02 1.6357163029e+00 -2.8331437433e+00 1.6357163029e+00 2.8331437433e+00 
2900 6.5165761158e+00 -5.9362576549e-02 1.6374708256e+00 -2.8361826658e+00 1.6374708256e+00 2.8361826658e+00 
3000 6.5139050251e+00 -6.1315529721e-02 1.6392837897e+00 -2.8393228118e+00 1.6392837897e+00 2.8393228118e+00 
3100 6.5112977269e+00 -6.3242959343e-02 1.6411543375e+00 -2.8425626957e+00 1.6411543375e+00 2.8425626957e+00 
3200 6.5087478915e+00 -6.5141374683e-02 1.6430814969e+00 -2.8459006336e+00 1.6430814969e+00 2.8459006336e+00 
3300 6.5062496665e+00 -6.7007462312e-02 1.6450641879e+00 -2.8493347552e+00 1.6450641879e+00 2.8493347552e+00 
3400 6.5037976840e+00 -6.8838073557e-02 1.6471012291e+00 -2.8528630140e+00 1.6471012291e+00 2.8528630140e+00 
3500 6.5013870648e+00 -7.0630213096e-02 1.6491913439e+00 -2.8564831990e+00 1.6491913439e+00 2.8564831990e+00 
3600 6.4990134178e+00 -7.2381028653e-02 1.6513331656e+00 -2.8601929431e+00 1.6513331656e+00 2.8601929431e+00 
3700 6.4966728365e+00 -7.4087801760e-02 1.6535252435e+00 -2.8639897333e+00 1.6535252435e+00 2.8639897333e+00 
3800 6.4943618923e+00 -7.5747939549e-02 1.6557660472e+00 -2.8678709191e+00 1.6557660472e+00 2.8678709191e+00 
3900 6.4920776245e+00 -7.7358967501e-02 1.6580539717e+00 -2.8718337207e+00 1.6580539717e+00 2.8718337207e+00 
4000 6.4898175284e+00 -7.8918523120e-02 1.6603873421e+00 -2.8758752368e+00 1.6603873421e+00 2.8758752368e+00 
4100 6.4875795399e+00 -8.0424350469e-02 1.6627644177e+00 -2.8799924524e+00 1.6627644177e+00 2.8799924524e+00 
4200 6.4853620191e+00 -8.1874295496e-02 1.6651833959e+00 -2.8841822456e+00 1.6651833959e+00 2.8841822456e+00 
4300 6.4831637316e+00 -8.3266302114e-02 1.6676424167e+00 -2.8884413945e+00 1.6676424167e+00 2.8884413945e+00 
4400 6.4809838280e+00 -8.4598408951e-02 1.6701395661e+00 -2.8927665842e+00 1.6701395661e+00 2.8927665842e+00 
4500 6.4788218221e+00 -8.5868746736e-02 1.6726728801e+00 -2.8971544127e+00 1.6726728801e+00 2.8971544127e+00 
4600 6.4766775685e+00 -8.7075536236e-02 1.6752403479e+00 -2.9016013974e+00 1.6752403479e+00 2.9016013974e+00 
4700 6.4745512385e+00 -8.8217086714e-02 1.6778399156e+00 -2.9061039808e+00 1.6778399156e+00 2.9061039808e+00 
4800 6.4724432958e+00 -8.9291794828e-02 1.6804694897e+00 -2.9106585367e+00 1.6804694897e+00 2.9106585367e+00 
4900 6.4703544714e+00 -9.0298143946e-02 1.6831269401e+00 -2.9152613758e+00 1.6831269401e+00 2.9152613758e+00 
5000 6.4682857384e+00 -9.1234703804e-02 1.6858101034e+00 -2.9199087511e+00 1.6858101034e+00 2.9199087511e+00 
5100 6.4662382862e+00 -9.2100130476e-02 1.6885167865e+00 -2.9245968636e+00 1.6885167865e+00 2.9245968636e+00 
5200 6.4642134955e+00 -9.2893166597e-02 1.6912447689e+00 -2.9293218678e+00 1.6912447689e+00 2.9293218678e+00 
5300 6.4622129126e+00 -9.3612641826e-02 1.6939918067e+00 -2.9340798769e+00 1.6939918067e+00 2.9340798769e+00 
5400 6.4602382244e+00 -9.4257473472e-02 1.6967556350e+00 -2.9388669679e+00 1.6967556350e+00 2.9388669679e+00 
5500 6.4582912339e+00 -9.4826667291e-02 1.6995339711e+00 -2.9436791871e+00 1.6995339711e+00 2.9436791871e+00 
5600 6.4563738361e+00 -9.5319318383e-02 1.7023245175e+00 -2.9485125553e+00 1.7023245175e+00 2.9485125553e+00 
5700 6.4544879941e+00 -9.5734612198e-02 1.7051249648e+00 -2.9533630723e+00 1.7051249648e+00 2.9533630723e+00 
5800 6.4526357172e+00 -9.6071825590e-02 1.7079329947e+00 -2.9582267228e+00 1.7079329947e+00 2.9582267228e+00 
5900 6.4508190383e+00 -9.6330327928e-02 1.7107462828e+00 -2.9630994806e+00 1.7107462828e+00 2.9630994806e+00 
6000 6.4490399932e+00 -9.6509582223e-02 1.7135625013e+00 -2.9679773142e+00 1.7135625013e+00 2.9679773142e+00 
6100 6.4473006008e+00 -9.6609146259e-02 1.7163793222e+00 -2.9728561911e+00 1.7163793222e+00 2.9728561911e+00 
6200 6.4456028436e+00 -9.6628673720e-02 1.7191944197e+00 -2.9777320830e+00 1.7191944197e+00 2.9777320830e+00 
6300 6.4439486505e+00 -9.6567915286e-02 1.7220054734e+00 -2.9826009709e+00 1.7220054734e+00 2.9826009709e+00 
6400 6.4423398794e+00 -9.6426719706e-02 1.7248101706e+00 -2.9874588490e+00 1.7248101706e+00 2.9874588490e+00 
6500 6.4407783020e+00 -9.6205034813e-02 1.7276062094e+00 -2.9923017302e+00 1.7276062094e+00 2.9923017302e+00 
6600 6.4392655892e+00 -9.5902908503e-02 1.7303913012e+00 -2.9971256506e+00 1.7303913012e+00 2.9971256506e+00 
6700 6.4378032982e+00 -9.5520489641e-02 1.7331631732e+00 -3.0019266738e+00 1.7331631732e+00 3.0019266738e+00 
6800 6.4363928602e+00 -9.5058028919e-02 1.7359195715e+00 -3.0067008957e+00 1.7359195715e+00 3.0067008957e+00 
6900 6.4350355698e+00 -9.4515879629e-02 1.7386582634e+00 -3.0114444493e+00 1.7386582634e+00 3.0114444493e+00 
7000 6.4337325755e+00 -9.3894498377e-02 1.7413770400e+00 -3.0161535085e+00 1.7413770400e+00 3.0161535085e+00 
7100 6.4324848715e+00 -9.3194445718e-02 1.7440737188e+00 -3.0208242930e+00 1.7440737188e+00 3.0208242930e+00 
7200 6.4312932906e+00 -9.2416386704e-02 1.7467461460e+00 -3.0254530728e+00 1.7467461460e+00 3.0254530728e+00 
7300 6.4301584984e+00 -9.1561091363e-02 1.7493921996e+00 -3.0300361721e+00 1.7493921996e+00 3.0300361721e+00 
7400 6.4290809889e+00 -9.0629435083e-02 1.7520097912e+00 -3.0345699737e+00 1.7520097912e+00 3.0345699737e+00 
7500 6.4280610806e+00 -8.9622398914e-02 1.7545968687e+00 -3.0390509233e+00 1.7545968687e+00 3.0390509233e+00 
7600 6.4270989146e+00 -8.8541069773e-02 1.7571514187e+00 -3.0434755337e+00 1.7571514187e+00 3.0434755337e+00 
7700 6.4261944536e+00 -8.7386640556e-02 1.7596714689e+00 -3.0478403888e+00 1.7596714689e+00 3.0478403888e+00 
7800 6.4253474813e+00 -8.6160410149e-02 1.7621550906e+00 -3.0521421477e+00 1.7621550906e+00 3.0521421477e+00 
7900 6.4245576039e+00 -8.4863783329e-02 1.7646004005e+00 -3.0563775487e+00 1.7646004005e+00 3.0563775487e+00 
8000 6.4238242521e+00 -8.3498270559e-02 1.7670055635e+00 -3.0605434132e+00 1.7670055635e+00 3.0605434132e+00 
8100 6.4231466838e+00 -8.2065487658e-02 1.7693687947e+00 -3.0646366497e+00 1.7693687947e+00 3.0646366497e+00 
8200 6.4225239886e+00 -8.0567155344e-02 1.7716883617e+00 -3.0686542576e+00 1.7716883617e+00 3.0686542576e+00 
8300 6.4219550924e+00 -7.9005098639e-02 1.7739625869e+00 -3.0725933312e+00 1.7739625869e+00 3.0725933312e+00 
8400 6.4214387631e+00 -7.7381246134e-02 1.7761898494e+00 -3.0764510630e+00 1.7761898494e+00 3.0764510630e+00 
8500 6.4209736174e+00 -7.5697629087e-02 1.7783685873e+00 -3.0802247478e+00 1.7783685873e+00 3.0802247478e+00 
8600 6.4205581281e+00 -7.3956380356e-02 1.7804972998e+00 -3.0839117860e+00 1.7804972998e+00 3.0839117860e+00 
8700 6.4201906320e+00 -7.2159733152e-02 1.7825745493e+00 -3.0875096877e+00 1.7825745493e+00 3.0875096877e+00 
8800 6.4198693390e+00 -7.0310019594e-02 1.7845989632e+00 -3.0910160754e+00 1.7845989632e+00 3.0910160754e+00 
8900 6.4195923408e+00 -6.8409669055e-02 1.7865692361e+00 -3.0944286882e+00 1.7865692361e+00 3.0944286882e+00 
9000 6.4193576216e+00 -6.6461206286e-02 1.7884841318e+00 -3.0977453848e+00 1.7884841318e+00 3.0977453848e+00 
9100 6.4191630678e+00 -6.4467249294e-02 1.7903424849e+00 -3.1009641468e+00 1.7903424849e+00 3.1009641468e+00 
9200 6.4190064791e+00 -6.2430506978e-02 1.7921432031e+00 -3.1040830821e+00 1.7921432031e+00 3.1040830821e+00 
9300 6.4188855799e+00 -6.0353776489e-02 1.7938852684e+00 -3.1071004277e+00 1.7938852684e+00 3.1071004277e+00 
9400 6.4187980304e+00 -5.8239940300e-02 1.7955677394e+00 -3.1100145531e+00 1.7955677394e+00 3.1100145531e+00 
9500 6.4187414386e+00 -5.6091962989e-02 1.7971897528e+00 -3.1128239627e+00 1.7971897528e+00 3.1128239627e+00 
9600 6.4187133724e+00 -5.3912887701e-02 1.7987505250e+00 -3.1155272994e+00 1.7987505250e+00 3.1155272994e+00 
9700 6.4187113715e+00 -5.1705832289e-02 1.8002493534e+00 -3.1181233463e+00 1.8002493534e+00 3.1181233463e+00 
9800 6.4187329594e+00 -4.9473985111e-02 1.8016856183e+00 -3.1206110302e+00 1.8016856183e+00 3.1206110302e+00 
9900 6.4187756559e+00 -4.7220600485e-02 1.8030587842e+00 -3.1229894233e+00 1.8030587842e+00 3.1229894233e+00 
10000 6.4188369890e+00 -4.4948993780e-02 1.8043684007e+00 -3.1252577456e+00 1.8043684007e+00 3.1252577456e+00 
10100 6.4189145068e+00 -4.2662536154e-02 1.8056141043e+00 -3.1274153674e+00 1.8056141043e+00 3.1274153674e+00 
10200 6.4190057894e+00 -4.0364648909e-02 1.8067956188e+00 -3.1294618106e+00 1.8067956188e+00 3.1294618106e+00 
10300 6.4191084602e+00 -3.8058797486e-02 1.8079127569e+00 -3.1313967506e+00 1.8079127569e+00 3.1313967506e+00 
10400 6.4192201971e+00 -3.5748485087e-02 1.8089654207e+00 -3.1332200179e+00 1.8089654207e+00 3.1332200179e+00 
10500 6.4193387435e+00 -3.3437245929e-02 1.8099536026e+00 -3.1349315991e+00 1.8099536026e+00 3.1349315991e+00 
10600 6.4194619182e+00 -3.1128638140e-02 1.8108773857e+00 -3.1365316383e+00 1.8108773857e+00 3.1365316383e+00 
10700 6.4195876255e+00 -2.8826236309e-02 1.8117369441e+00 -3.1380204372e+00 1.8117369441e+00 3.1380204372e+00 
10800 6.4197138642e+00 -2.6533623699e-02 1.8125325438e+00 -3.1393984562e+00 1.8125325438e+00 3.1393984562e+00 
10900 6.4198387365e+00 -2.4254384139e-02 1.8132645419e+00 -3.1406663141e+00 1.8132645419e+00 3.1406663141e+00 
11000 6.4199604557e+00 -2.1992093634e-02 1.8139333874e+00 -3.1418247884e+00 1.8139333874e+00 3.1418247884e+00 
11100 6.4200773532e+00 -1.9750311689e-02 1.8145396201e+00 -3.1428748144e+00 1.8145396201e+00 3.1428748144e+00 
11200 6.4201878854e+00 -1.7532572406e-02 1.8150838711e+00 -3.1438174848e+00 1.8150838711e+00 3.1438174848e+00 
11300 6.4202906390e+00 -1.5342375368e-02 1.8155668612e+00 -3.1446540481e+00 1.8155668612e+00 3.1446540481e+00 
11400 6.4203843356e+00 -1.3183176357e-02 1.8159894006e+00 -3.1453859078e+00 1.8159894006e+00 3.1453859078e+00 
11500 6.4204678360e+00 -1.1058377939e-02 1.8163523877e+00 -3.1460146199e+00 1.8163523877e+00 3.1460146199e+00 
11600 6.4205401429e+00 -8.9713199670e-03 1.8166568079e+00 -3.1465418912e+00 1.8166568079e+00 3.1465418912e+00 
11700 6.4206004030e+00 -6.9252700429e-03 1.8169037319e+00 -3.1469695761e+00 1.8169037319e+00 3.1469695761e+00 
11800 6.4206479082e+00 -4.9234139953e-03 1.8170943141e+00 -3.1472996742e+00 1.8170943141e+00 3.1472996742e+00 
11900 6.4206820954e+00 -2.9688464167e-03 1.8172297907e+00 -3.1475343265e+00 1.8172297907e+00 3.1475343265e+00 
12000 6.4207025465e+00 -1.0645613196e-03 1.8173114774e+00 -3.1476758120e+00 1.8173114774e+00 3.1476758120e+00 
12100 6.4207089859e+00 7.8655703366e-04 1.8173407669e+00 -3.1477265429e+00 1.8173407669e+00 3.1477265429e+00 
12200 6.4207012785e+00 2.5817430733e-03 1.8173191266e+00 -3.1476890609e+00 1.8173191266e+00 3.1476890609e+00 
12300 6.4206794257e+00 4.3183585777e-03 1.8172480954e+00 -3.1475660313e+00 1.8172480954e+00 3.1475660313e+00 
12400 6.4206435615e+00 5.9939009872e-03 1.8171292809e+00 -3.1473602384e+00 1.8171292809e+00 3.1473602384e+00 
12500 6.4205939470e+00 7.6060113199e-03 1.8169643556e+00 -3.1470745794e+00 1.8169643556e+00 3.1470745794e+00 
12600 6.4205309642e+00 9.1524816357e-03 1.8167550542e+00 -3.1467120587e+00 1.8167550542e+00 3.1467120587e+00 
12700 6.4204551100e+00 1.0631261997e-02 1.8165031691e+00 -3.1462757809e+00 1.8165031691e+00 3.1462757809e+00 
12800 6.4203669881e+00 1.2040466873e-02 1.8162105470e+00 -3.1457689447e+00 1.8162105470e+00 3.1457689447e+00 
12900 6.4202673010e+00 1.3378380950e-02 1.8158790849e+00 -3.1451948355e+00 1.8158790849e+00 3.1451948355e+00 
13000 6.4201568419e+00 1.4643464297e-02 1.8155107253e+00 -3.1445568180e+00 1.8155107253e+00 3.1445568180e+00 
13100 6.4200364852e+00 1.5834356847e-02 1.8151074525e+00 -3.1438583290e+00 1.8151074525e+00 3.1438583290e+00 
13200 6.4199071771e+00 1.6949882176e-02 1.8146712877e+00 -3.1431028693e+00 1.8146712877e+00 3.1431028693e+00 
13300 6.4197699259e+00 1.7989050533e-02 1.8142042842e+00 -3.1422939956e+00 1.8142042842e+00 3.1422939956e+00 
13400 6.4196257918e+00 1.8951061108e-02 1.8137085233e+00 -3.1414353125e+00 1.8137085233e+00 3.1414353125e+00 
13500 6.4194758766e+00 1.9835303527e-02 1.8131861089e+00 -3.1405304641e+00 1.8131861089e+00 3.1405304641e+00 
13600 6.4193213138e+00 2.0641358549e-02 1.8126391626e+00 -3.1395831255e+00 1.8126391626e+00 3.1395831255e+00 
13700 6.4191632575e+00 2.1368997978e-02 1.8120698194e+00 -3.1385969940e+00 1.8120698194e+00 3.1385969940e+00 
13800 6.4190028731e+00 2.2018183780e-02 1.8114802218e+00 -3.1375757811e+00 1.8114802218e+00 3.1375757811e+00 
13900 6.4188413266e+00 2.2589066415e-02 1.8108725157e+00 -3.1365232032e+00 1.8108725157e+00 3.1365232032e+00 
14000 6.4186797749e+00 2.3081982409e-02 1.8102488448e+00 -3.1354429736e+00 1.8102488448e+00 3.1354429736e+00 
14100 6.4185193566e+00 2.3497451174e-02 1.8096113461e+00 -3.1343387934e+00 1.8096113461e+00 3.1343387934e+00 
14200 6.4183611825e+00 2.3836171113e-02 1.8089621447e+00 -3.1332143435e+00 1.8089621447e+00 3.1332143435e+00 
14300 6.4182063271e+00 2.4099015028e-02 1.8083033491e+00 -3.1320732762e+00 1.8083033491e+00 3.1320732762e+00 
14400 6.4180558210e+00 2.4287024889e-02 1.8076370468e+00 -3.1309192067e+00 1.8076370468e+00 3.1309192067e+00 
14500 6.4179106426e+00 2.4401405985e-02 1.8069652991e+00 -3.1297557056e+00 1.8069652991e+00 3.1297557056e+00 
14600 6.4177717116e+00 2.4443520516e-02 1.8062901371e+00 -3.1285862907e+00 1.8062901371e+00 3.1285862907e+00 
14700 6.4176398831e+00 2.4414880661e-02 1.8056135572e+00 -3.1274144198e+00 1.8056135572e+00 3.1274144198e+00 
14800 6.4175159417e+00 2.4317141198e-02 1.8049375167e+00 -3.1262434834e+00 1.8049375167e+00 3.1262434834e+00 
14900 6.4174005968e+00 2.4152091695e-02 1.8042639303e+00 -3.1250767975e+00 1.8042639303e+00 3.1250767975e+00 
15000 6.4172944790e+00 2.3921648365e-02 1.8035946657e+00 -3.1239175973e+00 1.8035946657e+00 3.1239175973e+00 
15100 6.4171981367e+00 2.3627845605e-02 1.8029315405e+00 -3.1227690307e+00 1.8029315405e+00 3.1227690307e+00 
15200 6.4171120336e+00 2.3272827313e-02 1.8022763184e+00 -3.1216341527e+00 1.8022763184e+00 3.1216341527e+00 
15300 6.4170365474e+00 2.2858838004e-02 1.8016307060e+00 -3.1205159193e+00 1.8016307060e+00 3.1205159193e+00 
15400 6.4169719687e+00 2.2388213805e-02 1.8009963503e+00 -3.1194171829e+00 1.8009963503e+00 3.1194171829e+00 
15500 6.4169185013e+00 2.1863373375e-02 1.8003748352e+00 -3.1183406873e+00 1.8003748352e+00 3.1183406873e+00 
15600 6.4168762625e+00 2.1286808801e-02 1.7997676799e+00 -3.1172890634e+00 1.7997676799e+00 3.1172890634e+00 
15700 6.4168452848e+00 2.0661076522e-02 1.7991763357e+00 -3.1162648252e+00 1.7991763357e+00 3.1162648252e+00 
15800 6.4168255178e+00 1.9988788332e-02 1.7986021847e+00 -3.1152703666e+00 1.7986021847e+00 3.1152703666e+00 
15900 6.4168168311e+00 1.9272602496e-02 1.7980465377e+00 -3.1143079577e+00 1.7980465377e+00 3.1143079577e+00 
16000 6.4168190173e+00 1.8515215035e-02 1.7975106327e+00 -3.1133797429e+00 1.7975106327e+00 3.1133797429e+00 
16100 6.4168317963e+00 1.7719351207e-02 1.7969956335e+00 -3.1124877381e+00 1.7969956335e+00 3.1124877381e+00 
16200 6.4168548191e+00 1.6887757214e-02 1.7965026289e+00 -3.1116338292e+00 1.7965026289e+00 3.1116338292e+00 
16300 6.4168876733e+00 1.6023192185e-02 1.7960326318e+00 -3.1108197703e+00 1.7960326318e+00 3.1108197703e+00 
16400 6.4169298873e+00 1.5128420435e-02 1.7955865784e+00 -3.1100471832e+00 1.7955865784e+00 3.1100471832e+00 
16500 6.4169809367e+00 1.4206204044e-02 1.7951653281e+00 -3.1093175562e+00 1.7951653281e+00 3.1093175562e+00 
16600 6.4170402493e+00 1.3259295760e-02 1.7947696631e+00 -3.1086322443e+00 1.7947696631e+00 3.1086322443e+00 
16700 6.4171072115e+00 1.2290432254e-02 1.7944002886e+00 -3.1079924690e+00 1.7944002886e+00 3.1079924690e+00 
16800 6.4171811742e+00 1.1302327723e-02 1.7940578332e+00 -3.1073993189e+00 1.7940578332e+00 3.1073993189e+00 
16900 6.4172614590e+00 1.0297667861e-02 1.7937428490e+00 -3.1068537503e+00 1.7937428490e+00 3.1068537503e+00 
17000 6.4173473642e+00 9.2791042008e-03 1.7934558126e+00 -3.1063565885e+00 1.7934558126e+00 3.1063565885e+00 
17100 6.4174381711e+00 8.2492488234e-03 1.7931971254e+00 -3.1059085291e+00 1.7931971254e+00 3.1059085291e+00 
17200 6.4175331501e+00 7.2106694352e-03 1.7929671152e+00 -3.1055101398e+00 1.7929671152e+00 3.1055101398e+00 
17300 6.4176315666e+00 6.1658848151e-03 1.7927660369e+00 -3.1051618620e+00 1.7927660369e+00 3.1051618620e+00 
17400 6.4177326865e+00 5.1173606186e-03 1.7925940740e+00 -3.1048640134e+00 1.7925940740e+00 3.1048640134e+00 
17500 6.4178357823e+00 4.0675055357e-03 1.7924513397e+00 -3.1046167904e+00 1.7924513397e+00 3.1046167904e+00 
17600 6.4179401378e+00 3.0186677907e-03 1.7923378788e+00 -3.1044202704e+00 1.7923378788e+00 3.1044202704e+00 
17700 6.4180450535e+00 1.9731319747e-03 1.7922536691e+00 -3.1042744149e+00 1.7922536691e+00 3.1042744149e+00 
17800 6.4181498511e+00 9.3311619759e-04 1.7921986233e+00 -3.1041790727e+00 1.7921986233e+00 3.1041790727e+00 
17900 6.4182538777e+00 -9.9230452713e-05 1.7921725906e+00 -3.1041339828e+00 1.7921725906e+00 3.1041339828e+00 
18000 6.4183565101e+00 -1.1218301581e-03 1.7921753590e+00 -3.1041387779e+00 1.7921753590e+00 3.1041387779e+00 
18100 6.4184571581e+00 -2.1326783392e-03 1.7922066571e+00 -3.1041929878e+00 1.7922066571e+00 3.1041929878e+00 
18200 6.4185552679e+00 -3.1298453590e-03 1.7922661561e+00 -3.1042960431e+00 1.7922661561e+00 3.1042960431e+00 
18300 6.4186503244e+00 -4.1114779781e-03 1.7923534721e+00 -3.1044472789e+00 1.7923534721e+00 3.1044472789e+00 
18400 6.4187418544e+00 -5.0758005735e-03 1.7924681683e+00 -3.1046459385e+00 1.7924681683e+00 3.1046459385e+00 
18500 6.4188294275e+00 -6.0211161372e-03 1.7926097571e+00 -3.1048911774e+00 1.7926097571e+00 3.1048911774e+00 
18600 6.4189126586e+00 -6.9458070681e-03 1.7927777025e+00 -3.1051820674e+00 1.7927777025e+00 3.1051820674e+00 
18700 6.4189912083e+00 -7.8483357710e-03 1.7929714223e+00 -3.1055176000e+00 1.7929714223e+00 3.1055176000e+00 
18800 6.4190647840e+00 -8.7272450758e-03 1.7931902907e+00 -3.1058966911e+00 1.7931902907e+00 3.1058966911e+00 
18900 6.4191331401e+00 -9.5811584900e-03 1.7934336403e+00 -3.1063181850e+00 1.7934336403e+00 3.1063181850e+00 
19000 6.4191960783e+00 -1.0408780296e-02 1.7937007646e+00 -3.1067808579e+00 1.7937007646e+00 3.1067808579e+00 
19100 6.4192534464e+00 -1.1208895504e-02 1.7939909207e+00 -3.1072834229e+00 1.7939909207e+00 3.1072834229e+00 
19200 6.4193051385e+00 -1.1980369676e-02 1.7943033308e+00 -3.1078245332e+00 1.7943033308e+00 3.1078245332e+00 
19300 6.4193510933e+00 -1.2722148619e-02 1.7946371858e+00 -3.1084027869e+00 1.7946371858e+00 3.1084027869e+00 
19400 6.4193912933e+00 -1.3433257973e-02 1.7949916465e+00 -3.1090167309e+00 1.7949916465e+00 3.1090167309e+00 
19500 6.4194257625e+00 -1.4112802690e-02 1.7953658467e+00 -3.1096648647e+00 1.7953658467e+00 3.1096648647e+00 
19600 6.4194545652e+00 -1.4759966414e-02 1.7957588952e+00 -3.1103456446e+00 1.7957588952e+00 3.1103456446e+00 
19700 6.4194778036e+00 -1.5374010777e-02 1.7961698783e+00 -3.1110574882e+00 1.7961698783e+00 3.1110574882e+00 
19800 6.4194956155e+00 -1.5954274604e-02 1.7965978617e+00 -3.1117987773e+00 1.7965978617e+00 3.1117987773e+00 
19900 6.4195081719e+00 -1.6500173046e-02 1.7970418935e+00 -3.1125678630e+00 1.7970418935e+00 3.1125678630e+00 
20000 6.4195156747e+00 -1.7011196640e-02 1.7975010057e+00 -3.1133630685e+00 1.7975010057e+00 3.1133630685e+00 
20100 6.4195183533e+00 -1.7486910301e-02 1.7979742166e+00 -3.1141826939e+00 1.7979742166e+00 3.1141826939e+00 
20200 6.4195164625e+00 -1.7926952250e-02 1.7984605334e+00 -3.1150250192e+00 1.7984605334e+00 3.1150250192e+00 
20300 6.4195102793e+00 -1.8331032886e-02 1.7989589535e+00 -3.1158883082e+00 1.7989589535e+00 3.1158883082e+00 
20400 6.4195001000e+00 -1.8698933598e-02 1.7994684676e+00 -3.1167708125e+00 1.7994684676e+00 3.1167708125e+00 
20500 6.4194862372e+00 -1.9030505528e-02 1.7999880608e+00 -3.1176707744e+00 1.7999880608e+00 3.1176707744e+00 
20600 6.4194690171e+00 -1.9325668284e-02 1.8005167154e+00 -3.1185864309e+00 1.8005167154e+00 3.1185864309e+00 
20700 6.4194487764e+00 -1.9584408605e-02 1.8010534121e+00 -3.1195160169e+00 1.8010534121e+00 3.1195160169e+00 
20800 6.4194258594e+00 -1.9806778974e-02 1.8015971326e+00 -3.1204577684e+00 1.8015971326e+00 3.1204577684e+00 
20900 6.4194006154e+00 -1.9992896202e-02 1.8021468611e+00 -3.1214099261e+00 1.8021468611e+00 3.1214099261e+00 
21000 6.4193733957e+00 -2.0142939955e-02 1.8027015862e+00 -3.1223707381e+00 1.8027015862e+00 3.1223707381e+00 
21100 6.4193445511e+00 -2.0257151249e-02 1.8032603026e+00 -3.1233384634e+00 1.8032603026e+00 3.1233384634e+00 
21200 6.4193144295e+00 -2.0335830902e-02 1.8038220130e+00 -3.1243113744e+00 1.8038220130e+00 3.1243113744e+00 
21300 6.4192833733e+00 -2.0379337953e-02 1.8043857297e+00 -3.1252877603e+00 1.8043857297e+00 3.1252877603e+00 
21400 6.4192517174e+00 -2.0388088038e-02 1.8049504759e+00 -3.1262659294e+00 1.8049504759e+00 3.1262659294e+00 
21500 6.4192197867e+00 -2.0362551732e-02 1.8055152878e+00 -3.1272442124e+00 1.8055152878e+00 3.1272442124e+00 
21600 6.4191878944e+00 -2.0303252860e-02 1.8060792158e+00 -3.1282209643e+00 1.8060792158e+00 3.1282209643e+00 
21700 6.4191563402e+00 -2.0210766766e-02 1.8066413259e+00 -3.1291945674e+00 1.8066413259e+00 3.1291945674e+00 
21800 6.4191254087e+00 -2.0085718558e-02 1.8072007011e+00 -3.1301634338e+00 1.8072007011e+00 3.1301634338e+00 
21900 6.4190953678e+00 -1.9928781312e-02 1.8077564431e+00 -3.1311260072e+00 1.8077564431e+00 3.1311260072e+00 
22000 6.4190664674e+00 -1.9740674253e-02 1.8083076732e+00 -3.1320807657e+00 1.8083076732e+00 3.1320807657e+00 
22100 6.4190389385e+00 -1.9522160894e-02 1.8088535335e+00 -3.1330262235e+00 1.8088535335e+00 3.1330262235e+00 
22200 6.4190129922e+00 -1.9274047158e-02 1.8093931883e+00 -3.1339609331e+00 1.8093931883e+00 3.1339609331e+00 
22300 6.4189888188e+00 -1.8997179464e-02 1.8099258253e+00 -3.1348834873e+00 1.8099258253e+00 3.1348834873e+00 
22400 6.4189665873e+00 -1.8692442783e-02 1.8104506561e+00 -3.1357925209e+00 1.8104506561e+00 3.1357925209e+00 
22500 6.4189464453e+00 -1.8360758674e-02 1.8109669179e+00 -3.1366867126e+00 1.8109669179e+00 3.1366867126e+00 
22600 6.4189285181e+00 -1.8003083290e-02 1.8114738740e+00 -3.1375647864e+00 1.8114738740e+00 3.1375647864e+00 
22700 6.4189129093e+00 -1.7620405359e-02 1.8119708148e+00 -3.1384255131e+00 1.8119708148e+00 3.1384255131e+00 
22800 6.4188997006e+00 -1.7213744143e-02 1.8124570587e+00 -3.1392677122e+00 1.8124570587e+00 3.1392677122e+00 
22900 6.4188889520e+00 -1.6784147378e-02 1.8129319526e+00 -3.1400902525e+00 1.8129319526e+00 3.1400902525e+00 
23000 6.4188807022e+00 -1.6332689187e-02 1.8133948729e+00 -3.1408920541e+00 1.8133948729e+00 3.1408920541e+00 
23100 6.4188749693e+00 -1.5860467977e-02 1.8138452261e+00 -3.1416720887e+00 1.8138452261e+00 3.1416720887e+00 
23200 6.4188717511e+00 -1.5368604325e-02 1.8142824494e+00 -3.1424293816e+00 1.8142824494e+00 3.1424293816e+00 
23300 6.4188710263e+00 -1.4858238836e-02 1.8147060108e+00 -3.1431630115e+00 1.8147060108e+00 3.1431630115e+00 
23400 6.4188727550e+00 -1.4330529997e-02 1.8151154104e+00 -3.1438721124e+00 1.8151154104e+00 3.1438721124e+00 
23500 6.4188768797e+00 -1.3786652015e-02 1.8155101800e+00 -3.1445558735e+00 1.8155101800e+00 3.1445558735e+00 
23600 6.4188833268e+00 -1.3227792651e-02 1.8158898841e+00 -3.1452135402e+00 1.8158898841e+00 3.1452135402e+00 
23700 6.4188920069e+00 -1.2655151034e-02 1.8162541197e+00 -3.1458444148e+00 1.8162541197e+00 3.1458444148e+00 
23800 6.4189028171e+00 -1.2069935488e-02 1.8166025169e+00 -3.1464478564e+00 1.8166025169e+00 3.1464478564e+00 
23900 6.4189156411e+00 -1.1473361337e-02 1.8169347388e+00 -3.1470232816e+00 1.8169347388e+00 3.1470232816e+00 
24000 6.4189303515e+00 -1.0866648727e-02 1.8172504819e+00 -3.1475701648e+00 1.8172504819e+00 3.1475701648e+00 
24100 6.4189468105e+00 -1.0251020444e-02 1.8175494761e+00 -3.1480880379e+00 1.8175494761e+00 3.1480880379e+00 
24200 6.4189648716e+00 -9.6276997330e-03 1.8178314845e+00 -3.1485764908e+00 1.8178314845e+00 3.1485764908e+00 
24300 6.4189843806e+00 -8.9979081341e-03 1.8180963037e+00 -3.1490351711e+00 1.8180963037e+00 3.1490351711e+00 
24400 6.4190051776e+00 -8.3628633275e-03 1.8183437635e+00 -3.1494637839e+00 1.8183437635e+00 3.1494637839e+00 
24500 6.4190270978e+00 -7.7237769936e-03 1.8185737266e+00 -3.1498620917e+00 1.8185737266e+00 3.1498620917e+00 
24600 6.4190499732e+00 -7.0818526919e-03 1.8187860888e+00 -3.1502299139e+00 1.8187860888e+00 3.1502299139e+00 
24700 6.4190736339e+00 -6.4382837634e-03 1.8189807785e+00 -3.1505671264e+00 1.8189807785e+00 3.1505671264e+00 
24800 6.4190979092e+00 -5.7942512582e-03 1.8191577564e+00 -3.1508736611e+00 1.8191577564e+00 3.1508736611e+00 
24900 6.4191226292e+00 -5.1509218936e-03 1.8193170152e+00 -3.1511495053e+00 1.8193170152e+00 3.1511495053e+00 
25000 6.4191476258e+00 -4.5094460453e-03 1.8194585790e+00 -3.1513947010e+00 1.8194585790e+00 3.1513947010e+00 
25100 6.4191727339e+00 -3.8709557768e-03 1.8195825031e+00 -3.1516093440e+00 1.8195825031e+00 3.1516093440e+00 
25200 6.4191977926e+00 -3.2365629102e-03 1.8196888735e+00 -3.1517935829e+00 1.8196888735e+00 3.1517935829e+00 
25300 6.4192226463e+00 -2.6073571425e-03 1.8197778060e+00 -3.1519476185e+00 1.8197778060e+00 3.1519476185e+00 
25400 6.4192471454e+00 -1.9844042117e-03 1.8198494459e+00 -3.1520717024e+00 1.8198494459e+00 3.1520717024e+00 
25500 6.4192711474e+00 -1.3687441168e-03 1.8199039673e+00 -3.1521661362e+00 1.8199039673e+00 3.1521661362e+00 
25600 6.4192945177e+00 -7.6138939490e-04 1.8199415723e+00 -3.1522312700e+00 1.8199415723e+00 3.1522312700e+00 
25700 6.4193171305e+00 -1.6332346121e-04 1.8199624903e+00 -3.1522675010e+00 1.8199624903e+00 3.1522675010e+00 
25800 6.4193388690e+00 4.2450098638e-04 1.8199669773e+00 -3.1522752727e+00 1.8199669773e+00 3.1522752727e+00 
25900 6.4193596263e+00 1.0011634924e-03 1.8199553149e+00 -3.1522550730e+00 1.8199553149e+00 3.1522550730e+00 
26000 6.4193793061e+00 1.5657772958e-03 1.8199278098e+00 -3.1522074328e+00 1.8199278098e+00 3.1522074328e+00 
26100 6.4193978223e+00 2.1174907046e-03 1.8198847925e+00 -3.1521329244e+00 1.8198847925e+00 3.1521329244e+00 
26200 6.4194151000e+00 2.6554883906e-03 1.8198266163e+00 -3.1520321603e+00 1.8198266163e+00 3.1520321603e+00 
26300 6.4194310757e+00 3.1789925995e-03 1.8197536568e+00 -3.1519057909e+00 1.8197536568e+00 3.1519057909e+00 
26400 6.4194456967e+00 3.6872642739e-03 1.8196663107e+00 -3.1517545030e+00 1.8196663107e+00 3.1517545030e+00 
26500 6.4194589220e+00 4.1796040873e-03 1.8195649946e+00 -3.1515790184e+00 1.8195649946e+00 3.1515790184e+00 
26600 6.4194707217e+00 4.6553533840e-03 1.8194501441e+00 -3.1513800914e+00 1.8194501441e+00 3.1513800914e+00 
26700 6.4194810770e+00 5.1138950246e-03 1.8193222126e+00 -3.1511585076e+00 1.8193222126e+00 3.1511585076e+00 
26800 6.4194899801e+00 5.5546541340e-03 1.8191816705e+00 -3.1509150814e+00 1.8191816705e+00 3.1509150814e+00 
26900 6.4194974337e+00 5.9770987499e-03 1.8190290036e+00 -3.1506506546e+00 1.8190290036e+00 3.1506506546e+00 
27000 6.4195034507e+00 6.3807403709e-03 1.8188647124e+00 -3.1503660939e+00 1.8188647124e+00 3.1503660939e+00 
27100 6.4195080541e+00 6.7651344014e-03 1.8186893107e+00 -3.1500622893e+00 1.8186893107e+00 3.1500622893e+00 
27200 6.4195112760e+00 7.1298804949e-03 1.8185033246e+00 -3.1497401520e+00 1.8185033246e+00 3.1497401520e+00 
27300 6.4195131573e+00 7.4746227925e-03 1.8183072911e+00 -3.1494006119e+00 1.8183072911e+00 3.1494006119e+00 
27400 6.4195137472e+00 7.7990500578e-03 1.8181017570e+00 -3.1490446165e+00 1.8181017570e+00 3.1490446165e+00 
27500 6.4195131026e+00 8.1028957083e-03 1.8178872779e+00 -3.1486731278e+00 1.8178872779e+00 3.1486731278e+00 
27600 6.4195112870e+00 8.3859377435e-03 1.8176644167e+00 -3.1482871209e+00 1.8176644167e+00 3.1482871209e+00 
27700 6.4195083706e+00 8.6479985700e-03 1.8174337427e+00 -3.1478875817e+00 1.8174337427e+00 3.1478875817e+00 
27800 6.4195044287e+00 8.8889447262e-03 1.8171958300e+00 -3.1474755049e+00 1.8171958300e+00 3.1474755049e+00 
27900 6.4194995415e+00 9.1086865070e-03 1.8169512569e+00 -3.1470518918e+00 1.8169512569e+00 3.1470518918e+00 
28000 6.4194937935e+00 9.3071774911e-03 1.8167006041e+00 -3.1466177485e+00 1.8167006041e+00 3.1466177485e+00 
28100 6.4194872720e+00 9.4844139722e-03 1.8164444541e+00 -3.1461740836e+00 1.8164444541e+00 3.1461740836e+00 
28200 6.4194800671e+00 9.6404342984e-03 1.8161833895e+00 -3.1457219065e+00 1.8161833895e+00 3.1457219065e+00 
28300 6.4194722708e+00 9.7753181212e-03 1.8159179923e+00 -3.1452622250e+00 1.8159179923e+00 3.1452622250e+00 
28400 6.4194639757e+00 9.8891855577e-03 1.8156488426e+00 -3.1447960440e+00 1.8156488426e+00 3.1447960440e+00 
28500 6.4194552750e+00 9.9821962703e-03 1.8153765174e+00 -3.1443243630e+00 1.8153765174e+00 3.1443243630e+00 
28600 6.4194462615e+00 1.0054548467e-02 1.8151015897e+00 -3.1438481743e+00 1.8151015897e+00 3.1438481743e+00 
28700 6.4194370267e+00 1.0106477825e-02 1.8148246275e+00 -3.1433684616e+00 1.8148246275e+00 3.1433684616e+00 
28800 6.4194276607e+00 1.0138256346e-02 1.8145461923e+00 -3.1428861978e+00 1.8145461923e+00 3.1428861978e+00 
28900 6.4194182510e+00 1.0150191143e-02 1.8142668388e+00 -3.1424023433e+00 1.8142668388e+00 3.1424023433e+00 
29000 6.4194088822e+00 1.0142623165e-02 1.8139871134e+00 -3.1419178447e+00 1.8139871134e+00 3.1419178447e+00 
29100 6.4193996356e+00 1.0115925865e-02 1.8137075535e+00 -3.1414336327e+00 1.8137075535e+00 3.1414336327e+00 
29200 6.4193905884e+00 1.0070503815e-02 1.8134286864e+00 -3.1409506208e+00 1.8134286864e+00 3.1409506208e+00 
29300 6.4193818134e+00 1.0006791277e-02 1.8131510288e+00 -3.1404697036e+00 1.8131510288e+00 3.1404697036e+00 
29400 6.4193733789e+00 9.9252507272e-03 1.8128750855e+00 -3.1399917558e+00 1.8128750855e+00 3.1399917558e+00 
29500 6.4193653477e+00 9.8263713443e-03 1.8126013490e+00 -3.1395176303e+00 1.8126013490e+00 3.1395176303e+00 
29600 6.4193577774e+00 9.7106674674e-03 1.8123302986e+00 -3.1390481572e+00 1.8123302986e+00 3.1390481572e+00 
29700 6.4193507198e+00 9.5786770254e-03 1.8120623996e+00 -3.1385841426e+00 1.8120623996e+00 3.1385841426e+00 
29800 6.4193442211e+00 9.4309599449e-03 1.8117981029e+00 -3.1381263672e+00 1.8117981029e+00 3.1381263672e+00 
29900 6.4193383211e+00 9.2680965407e-03 1.8115378439e+00 -3.1376755855e+00 1.8115378439e+00 3.1376755855e+00 
30000 6.4193330539e+00 9.0906858950e-03 1.8112820425e+00 -3.1372325244e+00 1.8112820425e+00 3.1372325244e+00 
30100 6.4193284471e+00 8.8993442285e-03 1.8110311021e+00 -3.1367978830e+00 1.8110311021e+00 3.1367978830e+00 
30200 6.4193245224e+00 8.6947032696e-03 1.8107854094e+00 -3.1363723307e+00 1.8107854094e+00 3.1363723307e+00 
30300 6.4193212953e+00 8.4774086251e-03 1.8105453337e+00 -3.1359565074e+00 1.8105453337e+00 3.1359565074e+00 
30400 6.4193187755e+00 8.2481181576e-03 1.8103112267e+00 -3.1355510222e+00 1.8103112267e+00 3.1355510222e+00 
30500 6.4193169667e+00 8.0075003729e-03 1.8100834221e+00 -3.1351564531e+00 1.8100834221e+00 3.1351564531e+00 
30600 6.4193158669e+00 7.7562328229e-03 1.8098622352e+00 -3.1347733460e+00 1.8098622352e+00 3.1347733460e+00 
30700 6.4193154687e+00 7.4950005260e-03 1.8096479625e+00 -3.1344022149e+00 1.8096479625e+00 3.1344022149e+00 
30800 6.4193157596e+00 7.2244944100e-03 1.8094408820e+00 -3.1340435408e+00 1.8094408820e+00 3.1340435408e+00 
30900 6.4193167220e+00 6.9454097804e-03 1.8092412523e+00 -3.1336977721e+00 1.8092412523e+00 3.1336977721e+00 
31000 6.4193183338e+00 6.6584448170e-03 1.8090493131e+00 -3.1333653236e+00 1.8090493131e+00 3.1333653236e+00 
31100 6.4193205687e+00 6.3642991027e-03 1.8088652846e+00 -3.1330465770e+00 1.8088652846e+00 3.1330465770e+00 
31200 6.4193233962e+00 6.0636721859e-03 1.8086893678e+00 -3.1327418801e+00 1.8086893678e+00 3.1327418801e+00 
31300 6.4193267826e+00 5.7572621803e-03 1.8085217442e+00 -3.1324515476e+00 1.8085217442e+00 3.1324515476e+00 
31400 6.4193306907e+00 5.4457644034e-03 1.8083625762e+00 -3.1321758605e+00 1.8083625762e+00 3.1321758605e+00 
31500 6.4193350807e+00 5.1298700568e-03 1.8082120066e+00 -3.1319150663e+00 1.8082120066e+00 3.1319150663e+00 
31600 6.4193399105e+00 4.8102649483e-03 1.8080701592e+00 -3.1316693794e+00 1.8080701592e+00 3.1316693794e+00 
31700 6.4193451359e+00 4.4876282602e-03 1.8079371388e+00 -3.1314389812e+00 1.8079371388e+00 3.1314389812e+00 
31800 6.4193507111e+00 4.1626313622e-03 1.8078130311e+00 -3.1312240204e+00 1.8078130311e+00 3.1312240204e+00 
31900 6.4193565892e+00 3.8359366727e-03 1.8076979034e+00 -3.1310246134e+00 1.8076979034e+00 3.1310246134e+00 
32000 6.4193627226e+00 3.5081965672e-03 1.8075918044e+00 -3.1308408445e+00 1.8075918044e+00 3.1308408445e+00 
32100 6.4193690634e+00 3.1800523373e-03 1.8074947646e+00 -3.1306727668e+00 1.8074947646e+00 3.1306727668e+00 
32200 6.4193755634e+00 2.8521331976e-03 1.8074067968e+00 -3.1305204021e+00 1.8074067968e+00 3.1305204021e+00 
32300 6.4193821750e+00 2.5250553442e-03 1.8073278962e+00 -3.1303837421e+00 1.8073278962e+00 3.1303837421e+00 
32400 6.4193888514e+00 2.1994210633e-03 1.8072580406e+00 -3.1302627487e+00 1.8072580406e+00 3.1302627487e+00 
32500 6.4193955465e+00 1.8758178901e-03 1.8071971912e+00 -3.1301573545e+00 1.8071971912e+00 3.1301573545e+00 
32600 6.4194022160e+00 1.5548178187e-03 1.8071452930e+00 -3.1300674641e+00 1.8071452930e+00 3.1300674641e+00 
32700 6.4194088169e+00 1.2369765627e-03 1.8071022745e+00 -3.1299929539e+00 1.8071022745e+00 3.1299929539e+00 
32800 6.4194153084e+00 9.2283286561e-04 1.8070680492e+00 -3.1299336740e+00 1.8070680492e+00 3.1299336740e+00 
32900 6.4194216515e+00 6.1290786173e-04 1.8070425153e+00 -3.1298894479e+00 1.8070425153e+00 3.1298894479e+00 
33000 6.4194278098e+00 3.0770448639e-04 1.8070255564e+00 -3.1298600743e+00 1.8070255564e+00 3.1298600743e+00 
33100 6.4194337495e+00 7.7069351201e-06 1.8070170423e+00 -3.1298453275e+00 1.8070170423e+00 3.1298453275e+00 
33200 6.4194394393e+00 -2.8638809385e-04 1.8070170423e+00 -3.1298453275e+00 1.8070170423e+00 3.1298453275e+00 
33300 6.4194448510e+00 -5.7460445223e-04 1.8070249667e+00 -3.1298590528e+00 1.8070249667e+00 3.1298590528e+00 
33400 6.4194499593e+00 -8.5627918810e-04 1.8070408659e+00 -3.1298865911e+00 1.8070408659e+00 3.1298865911e+00 
33500 6.4194547420e+00 -1.1310075409e-03 1.8070645588e+00 -3.1299276284e+00 1.8070645588e+00 3.1299276284e+00 
33600 6.4194591799e+00 -1.3984054821e-03 1.8070958529e+00 -3.1299818314e+00 1.8070958529e+00 3.1299818314e+00 
33700 6.4194632570e+00 -1.6581099774e-03 1.8071345451e+00 -3.1300488483e+00 1.8071345451e+00 3.1300488483e+00 
33800 6.4194669604e+00 -1.9097792060e-03 1.8071804221e+00 -3.1301283095e+00 1.8071804221e+00 3.1301283095e+00 
33900 6.4194702805e+00 -2.1530927367e-03 1.8072332610e+00 -3.1302198292e+00 1.8072332610e+00 3.1302198292e+00 
34000 6.4194732106e+00 -2.3877516637e-03 1.8072928301e+00 -3.1303230059e+00 1.8072928301e+00 3.1303230059e+00 
34100 6.4194757472e+00 -2.6134787010e-03 1.8073588893e+00 -3.1304374237e+00 1.8073588893e+00 3.1304374237e+00 
34200 6.4194778897e+00 -2.8300182386e-03 1.8074311908e+00 -3.1305626537e+00 1.8074311908e+00 3.1305626537e+00 
34300 6.4194796403e+00 -3.0371363592e-03 1.8075094798e+00 -3.1306982541e+00 1.8075094798e+00 3.1306982541e+00 
34400 6.4194810041e+00 -3.2346208194e-03 1.8075934948e+00 -3.1308437725e+00 1.8075934948e+00 3.1308437725e+00 
34500 6.4194819886e+00 -3.4222809931e-03 1.8076829687e+00 -3.1309987457e+00 1.8076829687e+00 3.1309987457e+00 
34600 6.4194826039e+00 -3.5999477811e-03 1.8077776288e+00 -3.1311627019e+00 1.8077776288e+00 3.1311627019e+00 
34700 6.4194828623e+00 -3.7674734864e-03 1.8078771981e+00 -3.1313351609e+00 1.8078771981e+00 3.1313351609e+00 
34800 6.4194827784e+00 -3.9247316563e-03 1.8079813951e+00 -3.1315156355e+00 1.8079813951e+00 3.1315156355e+00 
34900 6.4194823685e+00 -4.0716168934e-03 1.8080899353e+00 -3.1317036325e+00 1.8080899353e+00 3.1317036325e+00 
35000 6.4194816508e+00 -4.2080446352e-03 1.8082025309e+00 -3.1318986538e+00 1.8082025309e+00 3.1318986538e+00 
35100 6.4194806451e+00 -4.3339509046e-03 1.8083188920e+00 -3.1321001972e+00 1.8083188920e+00 3.1321001972e+00 
35200 6.4194793725e+00 -4.4492920312e-03 1.8084387270e+00 -3.1323077576e+00 1.8084387270e+00 3.1323077576e+00 
35300 6.4194778551e+00 -4.5540443458e-03 1.8085617431e+00 -3.1325208277e+00 1.8085617431e+00 3.1325208277e+00 
35400 6.4194761161e+00 -4.6482038475e-03 1.8086876470e+00 -3.1327388996e+00 1.8086876470e+00 3.1327388996e+00 
35500 6.4194741796e+00 -4.7317858461e-03 1.8088161451e+00 -3.1329614648e+00 1.8088161451e+00 3.1329614648e+00 
35600 6.4194720699e+00 -4.8048245798e-03 1.8089469445e+00 -3.1331880161e+00 1.8089469445e+00 3.1331880161e+00 
35700 6.4194698119e+00 -4.8673728089e-03 1.8090797534e+00 -3.1334180478e+00 1.8090797534e+00 3.1334180478e+00 
35800 6.4194674305e+00 -4.9195013881e-03 1.8092142813e+00 -3.1336510569e+00 1.8092142813e+00 3.1336510569e+00 
35900 6.4194649507e+00 -4.9612988168e-03 1.8093502398e+00 -3.1338865440e+00 1.8093502398e+00 3.1338865440e+00 
36000 6.4194623971e+00 -4.9928707689e-03 1.8094873432e+00 -3.1341240141e+00 1.8094873432e+00 3.1341240141e+00 
36100 6.4194597942e+00 -5.0143396033e-03 1.8096253086e+00 -3.1343629772e+00 1.8096253086e+00 3.1343629772e+00 
36200 6.4194571655e+00 -5.0258438568e-03 1.8097638568e+00 -3.1346029496e+00 1.8097638568e+00 3.1346029496e+00 
36300 6.4194545342e+00 -5.0275377181e-03 1.8099027121e+00 -3.1348434542e+00 1.8099027121e+00 3.1348434542e+00 
36400 6.4194519225e+00 -5.0195904869e-03 1.8100416036e+00 -3.1350840213e+00 1.8100416036e+00 3.1350840213e+00 
36500 6.4194493515e+00 -5.0021860165e-03 1.8101802649e+00 -3.1353241897e+00 1.8101802649e+00 3.1353241897e+00 
36600 6.4194468414e+00 -4.9755221431e-03 1.8103184349e+00 -3.1355635070e+00 1.8103184349e+00 3.1355635070e+00 
36700 6.4194444111e+00 -4.9398101003e-03 1.8104558578e+00 -3.1358015305e+00 1.8104558578e+00 3.1358015305e+00 
36800 6.4194420781e+00 -4.8952739225e-03 1.8105922840e+00 -3.1360378276e+00 1.8105922840e+00 3.1360378276e+00 
36900 6.4194398586e+00 -4.8421498364e-03 1.8107274700e+00 -3.1362719767e+00 1.8107274700e+00 3.1362719767e+00 
37000 6.4194377673e+00 -4.7806856417e-03 1.8108611789e+00 -3.1365035674e+00 1.8108611789e+00 3.1365035674e+00 
37100 6.4194358176e+00 -4.7111400833e-03 1.8109931809e+00 -3.1367322014e+00 1.8109931809e+00 3.1367322014e+00 
37200 6.4194340209e+00 -4.6337822140e-03 1.8111232530e+00 -3.1369574931e+00 1.8111232530e+00 3.1369574931e+00 
37300 6.4194323875e+00 -4.5488907510e-03 1.8112511802e+00 -3.1371790694e+00 1.8112511802e+00 3.1371790694e+00 
37400 6.4194309258e+00 -4.4567534251e-03 1.8113767548e+00 -3.1373965710e+00 1.8113767548e+00 3.1373965710e+00 
37500 6.4194296427e+00 -4.3576663251e-03 1.8114997774e+00 -3.1376096523e+00 1.8114997774e+00 3.1376096523e+00 
37600 6.4194285433e+00 -4.2519332374e-03 1.8116200566e+00 -3.1378179820e+00 1.8116200566e+00 3.1378179820e+00 
37700 6.4194276315e+00 -4.1398649826e-03 1.8117374095e+00 -3.1380212432e+00 1.8117374095e+00 3.1380212432e+00 
37800 6.4194269094e+00 -4.0217787501e-03 1.8118516619e+00 -3.1382191343e+00 1.8118516619e+00 3.1382191343e+00 
37900 6.4194263775e+00 -3.8979974304e-03 1.8119626484e+00 -3.1384113685e+00 1.8119626484e+00 3.1384113685e+00 
38000 6.4194260351e+00 -3.7688489484e-03 1.8120702123e+00 -3.1385976746e+00 1.8120702123e+00 3.1385976746e+00 
38100 6.4194258798e+00 -3.6346655965e-03 1.8121742062e+00 -3.1387777973e+00 1.8121742062e+00 3.1387777973e+00 
38200 6.4194259082e+00 -3.4957833698e-03 1.8122744918e+00 -3.1389514971e+00 1.8122744918e+00 3.1389514971e+00 
38300 6.4194261153e+00 -3.3525413045e-03 1.8123709401e+00 -3.1391185504e+00 1.8123709401e+00 3.1391185504e+00 
38400 6.4194264951e+00 -3.2052808195e-03 1.8124634313e+00 -3.1392787499e+00 1.8124634313e+00 3.1392787499e+00 
38500 6.4194270406e+00 -3.0543450629e-03 1.8125518554e+00 -3.1394319049e+00 1.8125518554e+00 3.1394319049e+00 
38600 6.4194277435e+00 -2.9000782653e-03 1.8126361114e+00 -3.1395778406e+00 1.8126361114e+00 3.1395778406e+00 
38700 6.4194285949e+00 -2.7428250981e-03 1.8127161082e+00 -3.1397163990e+00 1.8127161082e+00 3.1397163990e+00 
38800 6.4194295849e+00 -2.5829300415e-03 1.8127917638e+00 -3.1398474385e+00 1.8127917638e+00 3.1398474385e+00 
38900 6.4194307029e+00 -2.4207367603e-03 1.8128630060e+00 -3.1399708336e+00 1.8128630060e+00 3.1399708336e+00 
39000 6.4194319378e+00 -2.2565874895e-03 1.8129297720e+00 -3.1400864757e+00 1.8129297720e+00 3.1400864757e+00 
39100 6.4194332779e+00 -2.0908224308e-03 1.8129920083e+00 -3.1401942721e+00 1.8129920083e+00 3.1401942721e+00 
39200 6.4194347111e+00 -1.9237791610e-03 1.8130496708e+00 -3.1402941465e+00 1.8130496708e+00 3.1402941465e+00 
39300 6.4194362251e+00 -1.7557920524e-03 1.8131027248e+00 -3.1403860386e+00 1.8131027248e+00 3.1403860386e+00 
39400 6.4194378074e+00 -1.5871917070e-03 1.8131511445e+00 -3.1404699041e+00 1.8131511445e+00 3.1404699041e+00 
39500 6.4194394452e+00 -1.4183044053e-03 1.8131949136e+00 -3.1405457143e+00 1.8131949136e+00 3.1405457143e+00 
39600 6.4194411259e+00 -1.2494515696e-03 1.8132340244e+00 -3.1406134562e+00 1.8132340244e+00 3.1406134562e+00 
39700 6.4194428371e+00 -1.0809492443e-03 1.8132684781e+00 -3.1406731319e+00 1.8132684781e+00 3.1406731319e+00 
39800 6.4194445663e+00 -9.1310759186e-04 1.8132982849e+00 -3.1407247587e+00 1.8132982849e+00 3.1407247587e+00 
39900 6.4194463014e+00 -7.4623040712e-04 1.8133234630e+00 -3.1407683685e+00 1.8133234630e+00 3.1407683685e+00 
40000 6.4194480308e+00 -5.8061464992e-04 1.8133440394e+00 -3.1408040078e+00 1.8133440394e+00 3.1408040078e+00 
40100 6.4194497430e+00 -4.1654999636e-04 1.8133600489e+00 -3.1408317371e+00 1.8133600489e+00 3.1408317371e+00 
40200 6.4194514274e+00 -2.5431840997e-04 1.8133715345e+00 -3.1408516308e+00 1.8133715345e+00 3.1408516308e+00 
40300 6.4194530736e+00 -9.4193733035e-05 1.8133785468e+00 -3.1408637764e+00 1.8133785468e+00 3.1408637764e+00 
40400 6.4194546721e+00 6.3558701049e-05 1.8133811440e+00 -3.1408682749e+00 1.8133811440e+00 3.1408682749e+00 
40500 6.4194562145e+00 2.2055808014e-04 1.8133811440e+00 -3.1408682749e+00 1.8133811440e+00 3.1408682749e+00 
40600 6.4194576918e+00 3.7276219455e-04 1.8133750626e+00 -3.1408577416e+00 1.8133750626e+00 3.1408577416e+00 
40700 6.4194590966e+00 5.2185533489e-04 1.8133647845e+00 -3.1408399394e+00 1.8133647845e+00 3.1408399394e+00 
40800 6.4194604220e+00 6.6760944683e-04 1.8133503954e+00 -3.1408150167e+00 1.8133503954e+00 3.1408150167e+00 
40900 6.4194616623e+00 8.0980660256e-04 1.8133319872e+00 -3.1407831328e+00 1.8133319872e+00 3.1407831328e+00 
41000 6.4194628123e+00 9.4823925335e-04 1.8133096580e+00 -3.1407444575e+00 1.8133096580e+00 3.1407444575e+00 
41100 6.4194638676e+00 1.0827104586e-03 1.8132835114e+00 -3.1406991703e+00 1.8132835114e+00 3.1406991703e+00 
41200 6.4194648249e+00 1.2130340910e-03 1.8132536565e+00 -3.1406474601e+00 1.8132536565e+00 3.1406474601e+00 
41300 6.4194656816e+00 1.3390350178e-03 1.8132202075e+00 -3.1405895248e+00 1.8132202075e+00 3.1405895248e+00 
41400 6.4194664357e+00 1.4605492577e-03 1.8131832834e+00 -3.1405255704e+00 1.8131832834e+00 3.1405255704e+00 
41500 6.4194670863e+00 1.5774241145e-03 1.8131430078e+00 -3.1404558108e+00 1.8131430078e+00 3.1404558108e+00 
41600 6.4194676332e+00 1.6895182853e-03 1.8130995082e+00 -3.1403804674e+00 1.8130995082e+00 3.1403804674e+00 
41700 6.4194680769e+00 1.7967019461e-03 1.8130529164e+00 -3.1402997681e+00 1.8130529164e+00 3.1402997681e+00 
41800 6.4194684188e+00 1.8988568126e-03 1.8130033676e+00 -3.1402139469e+00 1.8130033676e+00 3.1402139469e+00 
41900 6.4194686607e+00 1.9958761779e-03 1.8129510001e+00 -3.1401232438e+00 1.8129510001e+00 3.1401232438e+00 
42000 6.4194688053e+00 2.0876649260e-03 1.8128959554e+00 -3.1400279037e+00 1.8128959554e+00 3.1400279037e+00 
42100 6.4194688558e+00 2.1741395228e-03 1.8128383776e+00 -3.1399281759e+00 1.8128383776e+00 3.1399281759e+00 
42200 6.4194688161e+00 2.2552279841e-03 1.8127784128e+00 -3.1398243139e+00 1.8127784128e+00 3.1398243139e+00 
42300 6.4194686905e+00 2.3308698209e-03 1.8127162096e+00 -3.1397165747e+00 1.8127162096e+00 3.1397165747e+00 
42400 6.4194684838e+00 2.4010159627e-03 1.8126519178e+00 -3.1396052180e+00 1.8126519178e+00 3.1396052180e+00 
42500 6.4194682012e+00 2.4656286595e-03 1.8125856888e+00 -3.1394905060e+00 1.8125856888e+00 3.1394905060e+00 
42600 6.4194678484e+00 2.5246813626e-03 1.8125176751e+00 -3.1393727029e+00 1.8125176751e+00 3.1393727029e+00 
42700 6.4194674312e+00 2.5781585849e-03 1.8124480298e+00 -3.1392520737e+00 1.8124480298e+00 3.1392520737e+00 
42800 6.4194669558e+00 2.6260557414e-03 1.8123769066e+00 -3.1391288848e+00 1.8123769066e+00 3.1391288848e+00 
42900 6.4194664285e+00 2.6683789704e-03 1.8123044593e+00 -3.1390034023e+00 1.8123044593e+00 3.1390034023e+00 
43000 6.4194658560e+00 2.7051449366e-03 1.8122308414e+00 -3.1388758923e+00 1.8122308414e+00 3.1388758923e+00 
43100 6.4194652448e+00 2.7363806155e-03 1.8121562061e+00 -3.1387466203e+00 1.8121562061e+00 3.1387466203e+00 
43200 6.4194646016e+00 2.7621230621e-03 1.8120807060e+00 -3.1386158501e+00 1.8120807060e+00 3.1386158501e+00 
43300 6.4194639331e+00 2.7824191617e-03 1.8120044924e+00 -3.1384838443e+00 1.8120044924e+00 3.1384838443e+00 
43400 6.4194632458e+00 2.7973253667e-03 1.8119277155e+00 -3.1383508629e+00 1.8119277155e+00 3.1383508629e+00 
43500 6.4194625462e+00 2.8069074179e-03 1.8118505241e+00 -3.1382171635e+00 1.8118505241e+00 3.1382171635e+00 
43600 6.4194618408e+00 2.8112400525e-03 1.8117730650e+00 -3.1380830003e+00 1.8117730650e+00 3.1380830003e+00 
43700 6.4194611356e+00 2.8104066985e-03 1.8116954830e+00 -3.1379486243e+00 1.8116954830e+00 3.1379486243e+00 
43800 6.4194604367e+00 2.8044991581e-03 1.8116179206e+00 -3.1378142824e+00 1.8116179206e+00 3.1378142824e+00 
43900 6.4194597496e+00 2.7936172793e-03 1.8115405180e+00 -3.1376802172e+00 1.8115405180e+00 3.1376802172e+00 
44000 6.4194590797e+00 2.7778686171e-03 1.8114634124e+00 -3.1375466664e+00 1.8114634124e+00 3.1375466664e+00 
44100 6.4194584322e+00 2.7573680861e-03 1.8113867383e+00 -3.1374138628e+00 1.8113867383e+00 3.1374138628e+00 
44200 6.4194578116e+00 2.7322376042e-03 1.8113106267e+00 -3.1372820338e+00 1.8113106267e+00 3.1372820338e+00 
44300 6.4194572223e+00 2.7026057290e-03 1.8112352057e+00 -3.1371514007e+00 1.8112352057e+00 3.1371514007e+00 
44400 6.4194566682e+00 2.6686072876e-03 1.8111605995e+00 -3.1370221790e+00 1.8111605995e+00 3.1370221790e+00 
44500 6.4194561529e+00 2.6303830011e-03 1.8110869288e+00 -3.1368945776e+00 1.8110869288e+00 3.1368945776e+00 
44600 6.4194556794e+00 2.5880791039e-03 1.8110143104e+00 -3.1367687988e+00 1.8110143104e+00 3.1367687988e+00 
44700 6.4194552503e+00 2.5418469593e-03 1.8109428570e+00 -3.1366450379e+00 1.8109428570e+00 3.1366450379e+00 
44800 6.4194548680e+00 2.4918426727e-03 1.8108726772e+00 -3.1365234830e+00 1.8108726772e+00 3.1365234830e+00 
44900 6.4194545341e+00 2.4382267024e-03 1.8108038754e+00 -3.1364043148e+00 1.8108038754e+00 3.1364043148e+00 
45000 6.4194542501e+00 2.3811634686e-03 1.8107365514e+00 -3.1362877062e+00 1.8107365514e+00 3.1362877062e+00 
45100 6.4194540169e+00 2.3208209636e-03 1.8106708006e+00 -3.1361738224e+00 1.8106708006e+00 3.1361738224e+00 
45200 6.4194538349e+00 2.2573703608e-03 1.8106067136e+00 -3.1360628205e+00 1.8106067136e+00 3.1360628205e+00 
45300 6.4194537043e+00 2.1909856261e-03 1.8105443766e+00 -3.1359548496e+00 1.8105443766e+00 3.1359548496e+00 
45400 6.4194536249e+00 2.1218431315e-03 1.8104838706e+00 -3.1358500502e+00 1.8104838706e+00 3.1358500502e+00 
45500 6.4194535958e+00 2.0501212704e-03 1.8104252722e+00 -3.1357485547e+00 1.8104252722e+00 3.1357485547e+00 
45600 6.4194536161e+00 1.9760000775e-03 1.8103686526e+00 -3.1356504867e+00 1.8103686526e+00 3.1356504867e+00 
45700 6.4194536844e+00 1.8996608532e-03 1.8103140783e+00 -3.1355559613e+00 1.8103140783e+00 3.1355559613e+00 
45800 6.4194537989e+00 1.8212857915e-03 1.8102616109e+00 -3.1354650850e+00 1.8102616109e+00 3.1354650850e+00 
45900 6.4194539579e+00 1.7410576156e-03 1.8102113066e+00 -3.1353779555e+00 1.8102113066e+00 3.1353779555e+00 
46000 6.4194541588e+00 1.6591592178e-03 1.8101632169e+00 -3.1352946617e+00 1.8101632169e+00 3.1352946617e+00 
46100 6.4194543994e+00 1.5757733074e-03 1.8101173881e+00 -3.1352152839e+00 1.8101173881e+00 3.1352152839e+00 
46200 6.4194546768e+00 1.4910820656e-03 1.8100738615e+00 -3.1351398935e+00 1.8100738615e+00 3.1351398935e+00 
46300 6.4194549881e+00 1.4052668086e-03 1.8100326732e+00 -3.1350685534e+00 1.8100326732e+00 3.1350685534e+00 
46400 6.4194553304e+00 1.3185076589e-03 1.8099938545e+00 -3.1350013174e+00 1.8099938545e+00 3.1350013174e+00 
46500 6.4194557004e+00 1.2309832252e-03 1.8099574317e+00 -3.1349382312e+00 1.8099574317e+00 3.1349382312e+00 
46600 6.4194560948e+00 1.1428702923e-03 1.8099234259e+00 -3.1348793315e+00 1.8099234259e+00 3.1348793315e+00 
46700 6.4194565103e+00 1.0543435204e-03 1.8098918537e+00 -3.1348246467e+00 1.8098918537e+00 3.1348246467e+00 
46800 6.4194569434e+00 9.6557515447e-04 1.8098627265e+00 -3.1347741970e+00 1.8098627265e+00 3.1347741970e+00 
46900 6.4194573908e+00 8.7673474416e-04 1.8098360512e+00 -3.1347279940e+00 1.8098360512e+00 3.1347279940e+00 
47000 6.4194578491e+00 7.8798887440e-04 1.8098118298e+00 -3.1346860414e+00 1.8098118298e+00 3.1346860414e+00 
47100 6.4194583147e+00 6.9950090726e-04 1.8097900600e+00 -3.1346483349e+00 1.8097900600e+00 3.1346483349e+00 
47200 6.4194587845e+00 6.1143073487e-04 1.8097707345e+00 -3.1346148623e+00 1.8097707345e+00 3.1346148623e+00 
47300 6.4194592552e+00 5.2393454407e-04 1.8097538421e+00 -3.1345856037e+00 1.8097538421e+00 3.1345856037e+00 
47400 6.4194597235e+00 4.3716459264e-04 1.8097393668e+00 -3.1345605317e+00 1.8097393668e+00 3.1345605317e+00 
47500 6.4194601867e+00 3.5126899754e-04 1.8097272887e+00 -3.1345396119e+00 1.8097272887e+00 3.1345396119e+00 
47600 6.4194606416e+00 2.6639153510e-04 1.8097175837e+00 -3.1345228023e+00 1.8097175837e+00 3.1345228023e+00 
47700 6.4194610856e+00 1.8267145334e-04 1.8097102237e+00 -3.1345100544e+00 1.8097102237e+00 3.1345100544e+00 
47800 6.4194615162e+00 1.0024329663e-04 1.8097051767e+00 -3.1345013127e+00 1.8097051767e+00 3.1345013127e+00 
47900 6.4194619310e+00 1.9236742472e-05 1.8097024071e+00 -3.1344965156e+00 1.8097024071e+00 3.1344965156e+00 
48000 6.4194623277e+00 -5.9650017144e-05 1.8097024071e+00 -3.1344965156e+00 1.8097024071e+00 3.1344965156e+00 
48100 6.4194627049e+00 -1.3923653685e-04 1.8097024071e+00 -3.1344965156e+00 1.8097024071e+00 3.1344965156e+00 
48200 6.4194630602e+00 -2.1522149184e-04 1.8097062540e+00 -3.1345031787e+00 1.8097062540e+00 3.1345031787e+00 
48300 6.4194633923e+00 -2.8931941901e-04 1.8097122003e+00 -3.1345134781e+00 1.8097122003e+00 3.1345134781e+00 
48400 6.4194636998e+00 -3.6142686175e-04 1.8097201939e+00 -3.1345273233e+00 1.8097201939e+00 3.1345273233e+00 
48500 6.4194639817e+00 -4.3144595671e-04 1.8097301796e+00 -3.1345446190e+00 1.8097301796e+00 3.1345446190e+00 
48600 6.4194642370e+00 -4.9928451111e-04 1.8097420998e+00 -3.1345652654e+00 1.8097420998e+00 3.1345652654e+00 
48700 6.4194644651e+00 -5.6485606812e-04 1.8097558941e+00 -3.1345891580e+00 1.8097558941e+00 3.1345891580e+00 
48800 6.4194646656e+00 -6.2807996041e-04 1.8097715000e+00 -3.1346161881e+00 1.8097715000e+00 3.1346161881e+00 
48900 6.4194648383e+00 -6.8888135211e-04 1.8097888525e+00 -3.1346462435e+00 1.8097888525e+00 3.1346462435e+00 
49000 6.4194649832e+00 -7.4719126924e-04 1.8098078846e+00 -3.1346792081e+00 1.8098078846e+00 3.1346792081e+00 
49100 6.4194651005e+00 -8.0294661891e-04 1.8098285275e+00 -3.1347149627e+00 1.8098285275e+00 3.1347149627e+00 
49200 6.4194651906e+00 -8.5609019737e-04 1.8098507105e+00 -3.1347533847e+00 1.8098507105e+00 3.1347533847e+00 
49300 6.4194652541e+00 -9.0657068718e-04 1.8098743614e+00 -3.1347943493e+00 1.8098743614e+00 3.1347943493e+00 
49400 6.4194652916e+00 -9.5434264378e-04 1.8098994066e+00 -3.1348377288e+00 1.8098994066e+00 3.1348377288e+00 
49500 6.4194653042e+00 -9.9936647160e-04 1.8099257712e+00 -3.1348833936e+00 1.8099257712e+00 3.1348833936e+00 
49600 6.4194652928e+00 -1.0416083900e-03 1.8099533792e+00 -3.1349312121e+00 1.8099533792e+00 3.1349312121e+00 
49700 6.4194652588e+00 -1.0810403892e-03 1.8099821537e+00 -3.1349810510e+00 1.8099821537e+00 3.1349810510e+00 
49800 6.4194652033e+00 -1.1176401770e-03 1.8100120171e+00 -3.1350327759e+00 1.8100120171e+00 3.1350327759e+00 
49900 6.4194651279e+00 -1.1513911155e-03 1.8100428910e+00 -3.1350862511e+00 1.8100428910e+00 3.1350862511e+00 
50000 6.4194650340e+00 -1.1822821492e-03 1.8100746967e+00 -3.1351413403e+00 1.8100746967e+00 3.1351413403e+00 
50100 6.4194649233e+00 -1.2103077245e-03 1.8101073552e+00 -3.1351979064e+00 1.8101073552e+00 3.1351979064e+00 
50200 6.4194647974e+00 -1.2354676999e-03 1.8101407873e+00 -3.1352558124e+00 1.8101407873e+00 3.1352558124e+00 
50300 6.4194646580e+00 -1.2577672492e-03 1.8101749137e+00 -3.1353149210e+00 1.8101749137e+00 3.1353149210e+00 
50400 6.4194645068e+00 -1.2772167562e-03 1.8102096554e+00 -3.1353750954e+00 1.8102096554e+00 3.1353750954e+00 
50500 6.4194643458e+00 -1.2938317019e-03 1.8102449336e+00 -3.1354361992e+00 1.8102449336e+00 3.1354361992e+00 
50600 6.4194641765e+00 -1.3076325448e-03 1.8102806701e+00 -3.1354980966e+00 1.8102806701e+00 3.1354980966e+00 
50700 6.4194640009e+00 -1.3186445942e-03 1.8103167871e+00 -3.1355606530e+00 1.8103167871e+00 3.1355606530e+00 
50800 6.4194638206e+00 -1.3268978771e-03 1.8103532075e+00 -3.1356237350e+00 1.8103532075e+00 3.1356237350e+00 
50900 6.4194636374e+00 -1.3324269991e-03 1.8103898551e+00 -3.1356872105e+00 1.8103898551e+00 3.1356872105e+00 
51000 6.4194634530e+00 -1.3352709995e-03 1.8104266546e+00 -3.1357509492e+00 1.8104266546e+00 3.1357509492e+00 
51100 6.4194632689e+00 -1.3354732004e-03 1.8104635320e+00 -3.1358148227e+00 1.8104635320e+00 3.1358148227e+00 
51200 6.4194630868e+00 -1.3330810518e-03 1.8105004142e+00 -3.1358787046e+00 1.8105004142e+00 3.1358787046e+00 
51300 6.4194629082e+00 -1.3281459710e-03 1.8105372296e+00 -3.1359424707e+00 1.8105372296e+00 3.1359424707e+00 
51400 6.4194627344e+00 -1.3207231784e-03 1.8105739080e+00 -3.1360059995e+00 1.8105739080e+00 3.1360059995e+00 
51500 6.4194625668e+00 -1.3108715286e-03 1.8106103806e+00 -3.1360691719e+00 1.8106103806e+00 3.1360691719e+00 
51600 6.4194624065e+00 -1.2986533385e-03 1.8106465804e+00 -3.1361318718e+00 1.8106465804e+00 3.1361318718e+00 
51700 6.4194622548e+00 -1.2841342121e-03 1.8106824421e+00 -3.1361939861e+00 1.8106824421e+00 3.1361939861e+00 
51800 6.4194621127e+00 -1.2673828616e-03 1.8107179022e+00 -3.1362554048e+00 1.8107179022e+00 3.1362554048e+00 
51900 6.4194619810e+00 -1.2484709270e-03 1.8107528990e+00 -3.1363160210e+00 1.8107528990e+00 3.1363160210e+00 
52000 6.4194618606e+00 -1.2274727930e-03 1.8107873729e+00 -3.1363757316e+00 1.8107873729e+00 3.1363757316e+00 
52100 6.4194617521e+00 -1.2044654038e-03 1.8108212664e+00 -3.1364344368e+00 1.8108212664e+00 3.1364344368e+00 
52200 6.4194616561e+00 -1.1795280773e-03 1.8108545239e+00 -3.1364920405e+00 1.8108545239e+00 3.1364920405e+00 
52300 6.4194615730e+00 -1.1527423169e-03 1.8108870923e+00 -3.1365484506e+00 1.8108870923e+00 3.1365484506e+00 
52400 6.4194615032e+00 -1.1241916240e-03 1.8109189205e+00 -3.1366035787e+00 1.8109189205e+00 3.1366035787e+00 
52500 6.4194614470e+00 -1.0939613084e-03 1.8109499598e+00 -3.1366573404e+00 1.8109499598e+00 3.1366573404e+00 
52600 6.4194614044e+00 -1.0621383004e-03 1.8109801640e+00 -3.1367096555e+00 1.8109801640e+00 3.1367096555e+00 
52700 6.4194613754e+00 -1.0288109616e-03 1.8110094890e+00 -3.1367604480e+00 1.8110094890e+00 3.1367604480e+00 
52800 6.4194613600e+00 -9.9406889711e-04 1.8110378935e+00 -3.1368096459e+00 1.8110378935e+00 3.1368096459e+00 
52900 6.4194613579e+00 -9.5800276844e-04 1.8110653382e+00 -3.1368571817e+00 1.8110653382e+00 3.1368571817e+00 
53000 6.4194613688e+00 -9.2070410754e-04 1.8110917869e+00 -3.1369029921e+00 1.8110917869e+00 3.1369029921e+00 
53100 6.4194613924e+00 -8.8226513246e-04 1.8111172055e+00 -3.1369470183e+00 1.8111172055e+00 3.1369470183e+00 
53200 6.4194614283e+00 -8.4277856478e-04 1.8111415624e+00 -3.1369892058e+00 1.8111415624e+00 3.1369892058e+00 
53300 6.4194614757e+00 -8.0233744913e-04 1.8111648290e+00 -3.1370295047e+00 1.8111648290e+00 3.1370295047e+00 
53400 6.4194615343e+00 -7.6103497523e-04 1.8111869788e+00 -3.1370678693e+00 1.8111869788e+00 3.1370678693e+00 
53500 6.4194616032e+00 -7.1896430253e-04 1.8112079881e+00 -3.1371042585e+00 1.8112079881e+00 3.1371042585e+00 
53600 6.4194616818e+00 -6.7621838787e-04 1.8112278358e+00 -3.1371386357e+00 1.8112278358e+00 3.1371386357e+00 
53700 6.4194617693e+00 -6.3288981634e-04 1.8112465032e+00 -3.1371709687e+00 1.8112465032e+00 3.1371709687e+00 
53800 6.4194618648e+00 -5.8907063571e-04 1.8112639744e+00 -3.1372012296e+00 1.8112639744e+00 3.1372012296e+00 
53900 6.4194619675e+00 -5.4485219449e-04 1.8112802357e+00 -3.1372293950e+00 1.8112802357e+00 3.1372293950e+00 
54000 6.4194620766e+00 -5.0032498407e-04 1.8112952763e+00 -3.1372554460e+00 1.8112952763e+00 3.1372554460e+00 
54100 6.4194621911e+00 -4.5557848497e-04 1.8113090875e+00 -3.1372793678e+00 1.8113090875e+00 3.1372793678e+00 
54200 6.4194623102e+00 -4.1070101761e-04 1.8113216635e+00 -3.1373011500e+00 1.8113216635e+00 3.1373011500e+00 
54300 6.4194624329e+00 -3.6577959760e-04 1.8113330006e+00 -3.1373207864e+00 1.8113330006e+00 3.1373207864e+00 
54400 6.4194625583e+00 -3.2089979594e-04 1.8113430975e+00 -3.1373382749e+00 1.8113430975e+00 3.1373382749e+00 
54500 6.4194626855e+00 -2.7614560418e-04 1.8113519556e+00 -3.1373536175e+00 1.8113519556e+00 3.1373536175e+00 
54600 6.4194628137e+00 -2.3159930474e-04 1.8113595783e+00 -3.1373668203e+00 1.8113595783e+00 3.1373668203e+00 
54700 6.4194629420e+00 -1.8734134663e-04 1.8113659712e+00 -3.1373778933e+00 1.8113659712e+00 3.1373778933e+00 
54800 6.4194630695e+00 -1.4345022656e-04 1.8113711425e+00 -3.1373868502e+00 1.8113711425e+00 3.1373868502e+00 
54900 6.4194631954e+00 -1.0000237574e-04 1.8113751022e+00 -3.1373937086e+00 1.8113751022e+00 3.1373937086e+00 
55000 6.4194633191e+00 -5.7072052446e-05 1.8113778626e+00 -3.1373984898e+00 1.8113778626e+00 3.1373984898e+00 
55100 6.4194634397e+00 -1.6424674014e-05 1.8113778626e+00 -3.1373984898e+00 1.8113778626e+00 3.1373984898e+00 
55200 6.4194635565e+00 2.4809577642e-05 1.8113778626e+00 -3.1373984898e+00 1.8113778626e+00 3.1373984898e+00 
55300 6.4194636690e+00 6.6550202111e-05 1.8113778626e+00 -3.1373984898e+00 1.8113778626e+00 3.1373984898e+00 
55400 6.4194637769e+00 1.0871834068e-04 1.8113778626e+00 -3.1373984898e+00 1.8113778626e+00 3.1373984898e+00 
55500 6.4194638793e+00 1.4801049975e-04 1.8113748616e+00 -3.1373932919e+00 1.8113748616e+00 3.1373932919e+00 
55600 6.4194639758e+00 1.8639176983e-04 1.8113707761e+00 -3.1373862155e+00 1.8113707761e+00 3.1373862155e+00 
55700 6.4194640661e+00 2.2380552952e-04 1.8113656310e+00 -3.1373773040e+00 1.8113656310e+00 3.1373773040e+00 
55800 6.4194641497e+00 2.6019797589e-04 1.8113594532e+00 -3.1373666037e+00 1.8113594532e+00 3.1373666037e+00 
55900 6.4194642264e+00 2.9551817669e-04 1.8113522708e+00 -3.1373541634e+00 1.8113522708e+00 3.1373541634e+00 
56000 6.4194642960e+00 3.2971811615e-04 1.8113441134e+00 -3.1373400344e+00 1.8113441134e+00 3.1373400344e+00 
56100 6.4194643583e+00 3.6275273465e-04 1.8113350120e+00 -3.1373242702e+00 1.8113350120e+00 3.1373242702e+00 
56200 6.4194644132e+00 3.9457996198e-04 1.8113249986e+00 -3.1373069265e+00 1.8113249986e+00 3.1373069265e+00 
56300 6.4194644607e+00 4.2516074453e-04 1.8113141065e+00 -3.1372880610e+00 1.8113141065e+00 3.1372880610e+00 
56400 6.4194645007e+00 4.5445906619e-04 1.8113023703e+00 -3.1372677332e+00 1.8113023703e+00 3.1372677332e+00 
56500 6.4194645333e+00 4.8244196323e-04 1.8112898252e+00 -3.1372460045e+00 1.8112898252e+00 3.1372460045e+00 
56600 6.4194645587e+00 5.0907953312e-04 1.8112765076e+00 -3.1372229377e+00 1.8112765076e+00 3.1372229377e+00 
56700 6.4194645769e+00 5.3434493733e-04 1.8112624546e+00 -3.1371985972e+00 1.8112624546e+00 3.1371985972e+00 
56800 6.4194645883e+00 5.5821439836e-04 1.8112477040e+00 -3.1371730484e+00 1.8112477040e+00 3.1371730484e+00 
56900 6.4194645930e+00 5.8066719097e-04 1.8112322943e+00 -3.1371463581e+00 1.8112322943e+00 3.1371463581e+00 
57000 6.4194645913e+00 6.0168562775e-04 1.8112162647e+00 -3.1371185940e+00 1.8112162647e+00 3.1371185940e+00 
57100 6.4194645835e+00 6.2125503916e-04 1.8111996548e+00 -3.1370898247e+00 1.8111996548e+00 3.1370898247e+00 
57200 6.4194645701e+00 6.3936374825e-04 1.8111825044e+00 -3.1370601194e+00 1.8111825044e+00 3.1370601194e+00 
57300 6.4194645513e+00 6.5600303999e-04 1.8111648540e+00 -3.1370295480e+00 1.8111648540e+00 3.1370295480e+00 
57400 6.4194645276e+00 6.7116712562e-04 1.8111467441e+00 -3.1369981807e+00 1.8111467441e+00 3.1369981807e+00 
57500 6.4194644995e+00 6.8485310198e-04 1.8111282153e+00 -3.1369660879e+00 1.8111282153e+00 3.1369660879e+00 
57600 6.4194644673e+00 6.9706090607e-04 1.8111093085e+00 -3.1369333404e+00 1.8111093085e+00 3.1369333404e+00 
57700 6.4194644316e+00 7.0779326501e-04 1.8110900645e+00 -3.1369000088e+00 1.8110900645e+00 3.1369000088e+00 
57800 6.4194643928e+00 7.1705564151e-04 1.8110705240e+00 -3.1368661637e+00 1.8110705240e+00 3.1368661637e+00 
57900 6.4194643513e+00 7.2485617512e-04 1.8110507276e+00 -3.1368318753e+00 1.8110507276e+00 3.1368318753e+00 
58000 6.4194643077e+00 7.3120561945e-04 1.8110307156e+00 -3.1367972135e+00 1.8110307156e+00 3.1367972135e+00 
58100 6.4194642624e+00 7.3611727537e-04 1.8110105281e+00 -3.1367622477e+00 1.8110105281e+00 3.1367622477e+00 
58200 6.4194642159e+00 7.3960692072e-04 1.8109902047e+00 -3.1367270466e+00 1.8109902047e+00 3.1367270466e+00 
58300 6.4194641686e+00 7.4169273637e-04 1.8109697848e+00 -3.1366916783e+00 1.8109697848e+00 3.1366916783e+00 
58400 6.4194641211e+00 7.4239522914e-04 1.8109493071e+00 -3.1366562098e+00 1.8109493071e+00 3.1366562098e+00 
58500 6.4194640737e+00 7.4173715155e-04 1.8109288097e+00 -3.1366207073e+00 1.8109288097e+00 3.1366207073e+00 
58600 6.4194640268e+00 7.3974341879e-04 1.8109083303e+00 -3.1365852359e+00 1.8109083303e+00 3.1365852359e+00 
58700 6.4194639809e+00 7.3644102301e-04 1.8108879057e+00 -3.1365498594e+00 1.8108879057e+00 3.1365498594e+00 
58800 6.4194639363e+00 7.3185894518e-04 1.8108675720e+00 -3.1365146405e+00 1.8108675720e+00 3.1365146405e+00 
58900 6.4194638933e+00 7.2602806477e-04 1.8108473646e+00 -3.1364796403e+00 1.8108473646e+00 3.1364796403e+00 
59000 6.4194638524e+00 7.1898106735e-04 1.8108273180e+00 -3.1364449186e+00 1.8108273180e+00 3.1364449186e+00 
59100 6.4194638138e+00 7.1075235053e-04 1.8108074658e+00 -3.1364105335e+00 1.8108074658e+00 3.1364105335e+00 
59200 6.4194637777e+00 7.0137792823e-04 1.8107878405e+00 -3.1363765415e+00 1.8107878405e+00 3.1363765415e+00 
59300 6.4194637444e+00 6.9089533364e-04 1.8107684739e+00 -3.1363429976e+00 1.8107684739e+00 3.1363429976e+00 
59400 6.4194637142e+00 6.7934352099e-04 1.8107493965e+00 -3.1363099546e+00 1.8107493965e+00 3.1363099546e+00 
59500 6.4194636871e+00 6.6676276650e-04 1.8107306380e+00 -3.1362774638e+00 1.8107306380e+00 3.1362774638e+00 
59600 6.4194636634e+00 6.5319456849e-04 1.8107122266e+00 -3.1362455743e+00 1.8107122266e+00 3.1362455743e+00 
59700 6.4194636432e+00 6.3868154703e-04 1.8106941896e+00 -3.1362143334e+00 1.8106941896e+00 3.1362143334e+00 
59800 6.4194636264e+00 6.2326734327e-04 1.8106765533e+00 -3.1361837864e+00 1.8106765533e+00 3.1361837864e+00 
59900 6.4194636133e+00 6.0699651866e-04 1.8106593424e+00 -3.1361539763e+00 1.8106593424e+00 3.1361539763e+00 
60000 6.4194636038e+00 5.8991445429e-04 1.8106425807e+00 -3.1361249441e+00 1.8106425807e+00 3.1361249441e+00 
60100 6.4194635980e+00 5.7206725042e-04 1.8106262905e+00 -3.1360967287e+00 1.8106262905e+00 3.1360967287e+00 
60200 6.4194635957e+00 5.5350162655e-04 1.8106104930e+00 -3.1360693667e+00 1.8106104930e+00 3.1360693667e+00 
60300 6.4194635970e+00 5.3426482214e-04 1.8105952081e+00 -3.1360428924e+00 1.8105952081e+00 3.1360428924e+00 
60400 6.4194636018e+00 5.1440449812e-04 1.8105804543e+00 -3.1360173380e+00 1.8105804543e+00 3.1360173380e+00 
60500 6.4194636098e+00 4.9396863942e-04 1.8105662488e+00 -3.1359927334e+00 1.8105662488e+00 3.1359927334e+00 
60600 6.4194636212e+00 4.7300545867e-04 1.8105526075e+00 -3.1359691060e+00 1.8105526075e+00 3.1359691060e+00 
60700 6.4194636356e+00 4.5156330123e-04 1.8105395451e+00 -3.1359464812e+00 1.8105395451e+00 3.1359464812e+00 
60800 6.4194636529e+00 4.2969055173e-04 1.8105270747e+00 -3.1359248819e+00 1.8105270747e+00 3.1359248819e+00 
60900 6.4194636730e+00 4.0743554221e-04 1.8105152083e+00 -3.1359043286e+00 1.8105152083e+00 3.1359043286e+00 
61000 6.4194636955e+00 3.8484646206e-04 1.8105039564e+00 -3.1358848397e+00 1.8105039564e+00 3.1358848397e+00 
61100 6.4194637205e+00 3.6197126992e-04 1.8104933282e+00 -3.1358664312e+00 1.8104933282e+00 3.1358664312e+00 
61200 6.4194637475e+00 3.3885760755e-04 1.8104833317e+00 -3.1358491168e+00 1.8104833317e+00 3.1358491168e+00 
61300 6.4194637764e+00 3.1555271599e-04 1.8104739735e+00 -3.1358329079e+00 1.8104739735e+00 3.1358329079e+00 
61400 6.4194638070e+00 2.9210335391e-04 1.8104652589e+00 -3.1358178138e+00 1.8104652589e+00 3.1358178138e+00 
61500 6.4194638389e+00 2.6855571842e-04 1.8104571918e+00 -3.1358038412e+00 1.8104571918e+00 3.1358038412e+00 
61600 6.4194638720e+00 2.4495536840e-04 1.8104497750e+00 -3.1357909949e+00 1.8104497750e+00 3.1357909949e+00 
61700 6.4194639061e+00 2.2134715042e-04 1.8104430100e+00 -3.1357792775e+00 1.8104430100e+00 3.1357792775e+00 
61800 6.4194639408e+00 1.9777512738e-04 1.8104368969e+00 -3.1357686894e+00 1.8104368969e+00 3.1357686894e+00 
61900 6.4194639759e+00 1.7428250988e-04 1.8104314349e+00 -3.1357592288e+00 1.8104314349e+00 3.1357592288e+00 
62000 6.4194640113e+00 1.5091159053e-04 1.8104266216e+00 -3.1357508919e+00 1.8104266216e+00 3.1357508919e+00 
62100 6.4194640466e+00 1.2770368114e-04 1.8104224537e+00 -3.1357436730e+00 1.8104224537e+00 3.1357436730e+00 
62200 6.4194640817e+00 1.0469905294e-04 1.8104189268e+00 -3.1357375643e+00 1.8104189268e+00 3.1357375643e+00 
62300 6.4194641163e+00 8.1936879749e-05 1.8104160353e+00 -3.1357325559e+00 1.8104160353e+00 3.1357325559e+00 
62400 6.4194641503e+00 5.9455184408e-05 1.8104137723e+00 -3.1357286364e+00 1.8104137723e+00 3.1357286364e+00 
62500 6.4194641834e+00 3.9059850203e-05 1.8104137723e+00 -3.1357286364e+00 1.8104137723e+00 3.1357286364e+00 
62600 6.4194642154e+00 1.8368530595e-05 1.8104137723e+00 -3.1357286364e+00 1.8104137723e+00 3.1357286364e+00 
62700 6.4194642462e+00 -2.5763560307e-06 1.8104137723e+00 -3.1357286364e+00 1.8104137723e+00 3.1357286364e+00 
62800 6.4194642756e+00 -2.3733304156e-05 1.8104137723e+00 -3.1357286364e+00 1.8104137723e+00 3.1357286364e+00 
62900 6.4194643036e+00 -4.5061756551e-05 1.8104137723e+00 -3.1357286364e+00 1.8104137723e+00 3.1357286364e+00 
63000 6.4194643301e+00 -6.6522137289e-05 1.8104137723e+00 -3.1357286364e+00 1.8104137723e+00 3.1357286364e+00 
63100 6.4194643550e+00 -8.8075882361e-05 1.8104137723e+00 -3.1357286364e+00 1.8104137723e+00 3.1357286364e+00 
63200 6.4194643780e+00 -1.0706516090e-04 1.8104162048e+00 -3.1357328496e+00 1.8104162048e+00 3.1357328496e+00 
63300 6.4194643992e+00 -1.2549317731e-04 1.8104191617e+00 -3.1357379711e+00 1.8104191617e+00 3.1357379711e+00 
63400 6.4194644184e+00 -1.4333553205e-04 1.8104226276e+00 -3.1357439742e+00 1.8104226276e+00 3.1357439742e+00 
63500 6.4194644357e+00 -1.6056936006e-04 1.8104265862e+00 -3.1357508307e+00 1.8104265862e+00 3.1357508307e+00 
63600 6.4194644510e+00 -1.7717334570e-04 1.8104310208e+00 -3.1357585116e+00 1.8104310208e+00 3.1357585116e+00 
63700 6.4194644643e+00 -1.9312773447e-04 1.8104359139e+00 -3.1357669868e+00 1.8104359139e+00 3.1357669868e+00 
63800 6.4194644756e+00 -2.0841434170e-04 1.8104412477e+00 -3.1357762251e+00 1.8104412477e+00 3.1357762251e+00 
63900 6.4194644849e+00 -2.2301655813e-04 1.8104470036e+00 -3.1357861946e+00 1.8104470036e+00 3.1357861946e+00 
64000 6.4194644922e+00 -2.3691935246e-04 1.8104531627e+00 -3.1357968626e+00 1.8104531627e+00 3.1357968626e+00 
64100 6.4194644977e+00 -2.5010927098e-04 1.8104597058e+00 -3.1358081955e+00 1.8104597058e+00 3.1358081955e+00 
64200 6.4194645013e+00 -2.6257443421e-04 1.8104666132e+00 -3.1358201594e+00 1.8104666132e+00 3.1358201594e+00 
64300 6.4194645031e+00 -2.7430453078e-04 1.8104738647e+00 -3.1358327195e+00 1.8104738647e+00 3.1358327195e+00 
64400 6.4194645033e+00 -2.8529080842e-04 1.8104814402e+00 -3.1358458406e+00 1.8104814402e+00 3.1358458406e+00 
64500 6.4194645018e+00 -2.9552606228e-04 1.8104893191e+00 -3.1358594872e+00 1.8104893191e+00 3.1358594872e+00 
64600 6.4194644988e+00 -3.0500462064e-04 1.8104974806e+00 -3.1358736234e+00 1.8104974806e+00 3.1358736234e+00 
64700 6.4194644944e+00 -3.1372232790e-04 1.8105059038e+00 -3.1358882129e+00 1.8105059038e+00 3.1358882129e+00 
64800 6.4194644887e+00 -3.2167652520e-04 1.8105145678e+00 -3.1359032193e+00 1.8105145678e+00 3.1359032193e+00 
64900 6.4194644818e+00 -3.2886602857e-04 1.8105234514e+00 -3.1359186061e+00 1.8105234514e+00 3.1359186061e+00 
65000 6.4194644739e+00 -3.3529110475e-04 1.8105325334e+00 -3.1359343367e+00 1.8105325334e+00 3.1359343367e+00 
65100 6.4194644650e+00 -3.4095344471e-04 1.8105417929e+00 -3.1359503745e+00 1.8105417929e+00 3.1359503745e+00 
65200 6.4194644553e+00 -3.4585613511e-04 1.8105512087e+00 -3.1359666832e+00 1.8105512087e+00 3.1359666832e+00 
65300 6.4194644449e+00 -3.5000362757e-04 1.8105607598e+00 -3.1359832262e+00 1.8105607598e+00 3.1359832262e+00 
65400 6.4194644339e+00 -3.5340170603e-04 1.8105704255e+00 -3.1359999676e+00 1.8105704255e+00 3.1359999676e+00 
65500 6.4194644225e+00 -3.5605745225e-04 1.8105801849e+00 -3.1360168714e+00 1.8105801849e+00 3.1360168714e+00 
65600 6.4194644108e+00 -3.5797920944e-04 1.8105900176e+00 -3.1360339021e+00 1.8105900176e+00 3.1360339021e+00 
65700 6.4194643989e+00 -3.5917654424e-04 1.8105999033e+00 -3.1360510247e+00 1.8105999033e+00 3.1360510247e+00 
65800 6.4194643869e+00 -3.5966020717e-04 1.8106098220e+00 -3.1360682044e+00 1.8106098220e+00 3.1360682044e+00 
65900 6.4194643750e+00 -3.5944209149e-04 1.8106197540e+00 -3.1360854072e+00 1.8106197540e+00 3.1360854072e+00 
66000 6.4194643632e+00 -3.5853519075e-04 1.8106296800e+00 -3.1361025994e+00 1.8106296800e+00 3.1361025994e+00 
66100 6.4194643517e+00 -3.5695355499e-04 1.8106395808e+00 -3.1361197482e+00 1.8106395808e+00 3.1361197482e+00 
66200 6.4194643405e+00 -3.5471224583e-04 1.8106494380e+00 -3.1361368212e+00 1.8106494380e+00 3.1361368212e+00 
66300 6.4194643298e+00 -3.5182729043e-04 1.8106592331e+00 -3.1361537870e+00 1.8106592331e+00 3.1361537870e+00 
66400 6.4194643197e+00 -3.4831563448e-04 1.8106689486e+00 -3.1361706147e+00 1.8106689486e+00 3.1361706147e+00 
66500 6.4194643101e+00 -3.4419509434e-04 1.8106785670e+00 -3.1361872743e+00 1.8106785670e+00 3.1361872743e+00 
66600 6.4194643013e+00 -3.3948430840e-04 1.8106880716e+00 -3.1362037367e+00 1.8106880716e+00 3.1362037367e+00 
66700 6.4194642931e+00 -3.3420268774e-04 1.8106974461e+00 -3.1362199738e+00 1.8106974461e+00 3.1362199738e+00 
66800 6.4194642858e+00 -3.2837036630e-04 1.8107066747e+00 -3.1362359581e+00 1.8107066747e+00 3.1362359581e+00 
66900 6.4194642794e+00 -3.2200815049e-04 1.8107157421e+00 -3.1362516634e+00 1.8107157421e+00 3.1362516634e+00 
67000 6.4194642738e+00 -3.1513746856e-04 1.8107246339e+00 -3.1362670644e+00 1.8107246339e+00 3.1362670644e+00 
67100 6.4194642692e+00 -3.0778031955e-04 1.8107333359e+00 -3.1362821367e+00 1.8107333359e+00 3.1362821367e+00 
67200 6.4194642654e+00 -2.9995922225e-04 1.8107418346e+00 -3.1362968570e+00 1.8107418346e+00 3.1362968570e+00 
67300 6.4194642627e+00 -2.9169716392e-04 1.8107501174e+00 -3.1363112032e+00 1.8107501174e+00 3.1363112032e+00 
67400 6.4194642609e+00 -2.8301754919e-04 1.8107581720e+00 -3.1363251541e+00 1.8107581720e+00 3.1363251541e+00 
67500 6.4194642601e+00 -2.7394414897e-04 1.8107659869e+00 -3.1363386899e+00 1.8107659869e+00 3.1363386899e+00 
67600 6.4194642602e+00 -2.6450104965e-04 1.8107735512e+00 -3.1363517917e+00 1.8107735512e+00 3.1363517917e+00 
67700 6.4194642612e+00 -2.5471260254e-04 1.8107808548e+00 -3.1363644418e+00 1.8107808548e+00 3.1363644418e+00 
67800 6.4194642632e+00 -2.4460337374e-04 1.8107878880e+00 -3.1363766238e+00 1.8107878880e+00 3.1363766238e+00 
67900 6.4194642660e+00 -2.3419809448e-04 1.8107946421e+00 -3.1363883221e+00 1.8107946421e+00 3.1363883221e+00 
68000 6.4194642697e+00 -2.2352161203e-04 1.8108011088e+00 -3.1363995228e+00 1.8108011088e+00 3.1363995228e+00 
68100 6.4194642743e+00 -2.1259884124e-04 1.8108072807e+00 -3.1364102129e+00 1.8108072807e+00 3.1364102129e+00 
68200 6.4194642795e+00 -2.0145471677e-04 1.8108131510e+00 -3.1364203805e+00 1.8108131510e+00 3.1364203805e+00 
68300 6.4194642855e+00 -1.9011414619e-04 1.8108187135e+00 -3.1364300151e+00 1.8108187135e+00 3.1364300151e+00 
68400 6.4194642922e+00 -1.7860196391e-04 1.8108239629e+00 -3.1364391074e+00 1.8108239629e+00 3.1364391074e+00 
68500 6.4194642994e+00 -1.6694288599e-04 1.8108288944e+00 -3.1364476490e+00 1.8108288944e+00 3.1364476490e+00 
68600 6.4194643072e+00 -1.5516146610e-04 1.8108335040e+00 -3.1364556330e+00 1.8108335040e+00 3.1364556330e+00 
68700 6.4194643155e+00 -1.4328205243e-04 1.8108377883e+00 -3.1364630535e+00 1.8108377883e+00 3.1364630535e+00 
68800 6.4194643242e+00 -1.3132874575e-04 1.8108417445e+00 -3.1364699060e+00 1.8108417445e+00 3.1364699060e+00 
68900 6.4194643333e+00 -1.1932535875e-04 1.8108453707e+00 -3.1364761867e+00 1.8108453707e+00 3.1364761867e+00 
69000 6.4194643427e+00 -1.0729537650e-04 1.8108486654e+00 -3.1364818933e+00 1.8108486654e+00 3.1364818933e+00 
69100 6.4194643523e+00 -9.5261918336e-05 1.8108516280e+00 -3.1364870247e+00 1.8108516280e+00 3.1364870247e+00 
69200 6.4194643621e+00 -8.3247700996e-05 1.8108542583e+00 -3.1364915805e+00 1.8108542583e+00 3.1364915805e+00 
69300 6.4194643719e+00 -7.1275003208e-05 1.8108565569e+00 -3.1364955617e+00 1.8108565569e+00 3.1364955617e+00 
69400 6.4194643819e+00 -5.9365631691e-05 1.8108585249e+00 -3.1364989704e+00 1.8108585249e+00 3.1364989704e+00 
69500 6.4194643918e+00 -4.9304875771e-05 1.8108585249e+00 -3.1364989704e+00 1.8108585249e+00 3.1364989704e+00 
69600 6.4194644016e+00 -3.9008855173e-05 1.8108585249e+00 -3.1364989704e+00 1.8108585249e+00 3.1364989704e+00 
69700 6.4194644112e+00 -2.8500358883e-05 1.8108585249e+00 -3.1364989704e+00 1.8108585249e+00 3.1364989704e+00 
69800 6.4194644206e+00 -1.7801813926e-05 1.8108585249e+00 -3.1364989704e+00 1.8108585249e+00 3.1364989704e+00 
69900 6.4194644298e+00 -6.9352623035e-06 1.8108585249e+00 -3.1364989704e+00 1.8108585249e+00 3.1364989704e+00 
70000 6.4194644386e+00 4.0776608536e-06 1.8108585249e+00 -3.1364989704e+00 1.8108585249e+00 3.1364989704e+00 
70100 6.4194644471e+00 1.5215747926e-05 1.8108585249e+00 -3.1364989704e+00 1.8108585249e+00 3.1364989704e+00 
70200 6.4194644553e+00 2.6458238247e-05 1.8108585249e+00 -3.1364989704e+00 1.8108585249e+00 3.1364989704e+00 
70300 6.4194644631e+00 3.7784836312e-05 1.8108585249e+00 -3.1364989704e+00 1.8108585249e+00 3.1364989704e+00 
70400 6.4194644706e+00 4.9175728816e-05 1.8108585249e+00 -3.1364989704e+00 1.8108585249e+00 3.1364989704e+00 
70500 6.4194644776e+00 6.0611600471e-05 1.8108585249e+00 -3.1364989704e+00 1.8108585249e+00 3.1364989704e+00 
70600 6.4194644842e+00 7.2073648658e-05 1.8108585249e+00 -3.1364989704e+00 1.8108585249e+00 3.1364989704e+00 
70700 6.4194644902e+00 8.1401753586e-05 1.8108565348e+00 -3.1364955236e+00 1.8108565348e+00 3.1364955236e+00 
70800 6.4194644957e+00 9.0429798034e-05 1.8108542872e+00 -3.1364916306e+00 1.8108542872e+00 3.1364916306e+00 
70900 6.4194645007e+00 9.9145893585e-05 1.8108517904e+00 -3.1364873059e+00 1.8108517904e+00 3.1364873059e+00 
71000 6.4194645051e+00 1.0753895564e-04 1.8108490528e+00 -3.1364825643e+00 1.8108490528e+00 3.1364825643e+00 
71100 6.4194645090e+00 1.1559870970e-04 1.8108460835e+00 -3.1364774213e+00 1.8108460835e+00 3.1364774213e+00 
71200 6.4194645123e+00 1.2331569595e-04 1.8108428917e+00 -3.1364718929e+00 1.8108428917e+00 3.1364718929e+00 
71300 6.4194645152e+00 1.3068127229e-04 1.8108394867e+00 -3.1364659954e+00 1.8108394867e+00 3.1364659954e+00 
71400 6.4194645175e+00 1.3768761581e-04 1.8108358784e+00 -3.1364597456e+00 1.8108358784e+00 3.1364597456e+00 
71500 6.4194645192e+00 1.4432772267e-04 1.8108320767e+00 -3.1364531608e+00 1.8108320767e+00 3.1364531608e+00 
71600 6.4194645205e+00 1.5059540650e-04 1.8108280915e+00 -3.1364462583e+00 1.8108280915e+00 3.1364462583e+00 
71700 6.4194645214e+00 1.5648529524e-04 1.8108239334e+00 -3.1364390561e+00 1.8108239334e+00 3.1364390561e+00 
71800 6.4194645217e+00 1.6199282660e-04 1.8108196125e+00 -3.1364315722e+00 1.8108196125e+00 3.1364315722e+00 
71900 6.4194645216e+00 1.6711424205e-04 1.8108151396e+00 -3.1364238249e+00 1.8108151396e+00 3.1364238249e+00 
72000 6.4194645212e+00 1.7184657937e-04 1.8108105253e+00 -3.1364158327e+00 1.8108105253e+00 3.1364158327e+00 
72100 6.4194645203e+00 1.7618766391e-04 1.8108057803e+00 -3.1364076141e+00 1.8108057803e+00 3.1364076141e+00 
72200 6.4194645191e+00 1.8013609855e-04 1.8108009154e+00 -3.1363991878e+00 1.8108009154e+00 3.1363991878e+00 
72300 6.4194645176e+00 1.8369125228e-04 1.8107959414e+00 -3.1363905727e+00 1.8107959414e+00 3.1363905727e+00 
72400 6.4194645158e+00 1.8685324766e-04 1.8107908693e+00 -3.1363817876e+00 1.8107908693e+00 3.1363817876e+00 
72500 6.4194645137e+00 1.8962294702e-04 1.8107857099e+00 -3.1363728512e+00 1.8107857099e+00 3.1363728512e+00 
72600 6.4194645114e+00 1.9200193758e-04 1.8107804740e+00 -3.1363637823e+00 1.8107804740e+00 3.1363637823e+00 
72700 6.4194645090e+00 1.9399251541e-04 1.8107751723e+00 -3.1363545996e+00 1.8107751723e+00 3.1363545996e+00 
72800 6.4194645063e+00 1.9559766842e-04 1.8107698157e+00 -3.1363453216e+00 1.8107698157e+00 3.1363453216e+00 
72900 6.4194645036e+00 1.9682105828e-04 1.8107644148e+00 -3.1363359669e+00 1.8107644148e+00 3.1363359669e+00 
73000 6.4194645008e+00 1.9766700148e-04 1.8107589800e+00 -3.1363265537e+00 1.8107589800e+00 3.1363265537e+00 
73100 6.4194644979e+00 1.9814044943e-04 1.8107535219e+00 -3.1363170999e+00 1.8107535219e+00 3.1363170999e+00 
73200 6.4194644950e+00 1.9824696779e-04 1.8107480507e+00 -3.1363076235e+00 1.8107480507e+00 3.1363076235e+00 
73300 6.4194644921e+00 1.9799271491e-04 1.8107425765e+00 -3.1362981420e+00 1.8107425765e+00 3.1362981420e+00 
73400 6.4194644893e+00 1.9738441973e-04 1.8107371093e+00 -3.1362886725e+00 1.8107371093e+00 3.1362886725e+00 
73500 6.4194644865e+00 1.9642935878e-04 1.8107316590e+00 -3.1362792322e+00 1.8107316590e+00 3.1362792322e+00 
73600 6.4194644838e+00 1.9513533273e-04 1.8107262349e+00 -3.1362698375e+00 1.8107262349e+00 3.1362698375e+00 
73700 6.4194644813e+00 1.9351064233e-04 1.8107208466e+00 -3.1362605047e+00 1.8107208466e+00 3.1362605047e+00 
73800 6.4194644788e+00 1.9156406379e-04 1.8107155032e+00 -3.1362512495e+00 1.8107155032e+00 3.1362512495e+00 
73900 6.4194644766e+00 1.8930482378e-04 1.8107102134e+00 -3.1362420874e+00 1.8107102134e+00 3.1362420874e+00 
74000 6.4194644745e+00 1.8674257399e-04 1.8107049861e+00 -3.1362330334e+00 1.8107049861e+00 3.1362330334e+00 
74100 6.4194644726e+00 1.8388736539e-04 1.8106998294e+00 -3.1362241018e+00 1.8106998294e+00 3.1362241018e+00 
74200 6.4194644709e+00 1.8074962214e-04 1.8106947516e+00 -3.1362153068e+00 1.8106947516e+00 3.1362153068e+00 
74300 6.4194644695e+00 1.7734011530e-04 1.8106897605e+00 -3.1362066619e+00 1.8106897605e+00 3.1362066619e+00 
74400 6.4194644683e+00 1.7366993638e-04 1.8106848634e+00 -3.1361981800e+00 1.8106848634e+00 3.1361981800e+00 
74500 6.4194644673e+00 1.6975047075e-04 1.8106800677e+00 -3.1361898736e+00 1.8106800677e+00 3.1361898736e+00 
74600 6.4194644666e+00 1.6559337093e-04 1.8106753803e+00 -3.1361817546e+00 1.8106753803e+00 3.1361817546e+00 
74700 6.4194644661e+00 1.6121052995e-04 1.8106708076e+00 -3.1361738345e+00 1.8106708076e+00 3.1361738345e+00 
74800 6.4194644659e+00 1.5661405463e-04 1.8106663559e+00 -3.1361661240e+00 1.8106663559e+00 3.1361661240e+00 
74900 6.4194644659e+00 1.5181623903e-04 1.8106620311e+00 -3.1361586333e+00 1.8106620311e+00 3.1361586333e+00 
75000 6.4194644662e+00 1.4682953798e-04 1.8106578389e+00 -3.1361513720e+00 1.8106578389e+00 3.1361513720e+00 
75100 6.4194644668e+00 1.4166654079e-04 1.8106537843e+00 -3.1361443493e+00 1.8106537843e+00 3.1361443493e+00 
75200 6.4194644675e+00 1.3633994518e-04 1.8106498722e+00 -3.1361375734e+00 1.8106498722e+00 3.1361375734e+00 
75300 6.4194644685e+00 1.3086253147e-04 1.8106461073e+00 -3.1361310524e+00 1.8106461073e+00 3.1361310524e+00 
75400 6.4194644698e+00 1.2524713710e-04 1.8106424936e+00 -3.1361247933e+00 1.8106424936e+00 3.1361247933e+00 
75500 6.4194644712e+00 1.1950663149e-04 1.8106390350e+00 -3.1361188027e+00 1.8106390350e+00 3.1361188027e+00 
75600 6.4194644728e+00 1.1365389126e-04 1.8106357348e+00 -3.1361130867e+00 1.8106357348e+00 3.1361130867e+00 
75700 6.4194644747e+00 1.0770177595e-04 1.8106325963e+00 -3.1361076507e+00 1.8106325963e+00 3.1361076507e+00 
75800 6.4194644767e+00 1.0166310414e-04 1.8106296222e+00 -3.1361024993e+00 1.8106296222e+00 3.1361024993e+00 
75900 6.4194644788e+00 9.5550630122e-05 1.8106268148e+00 -3.1360976368e+00 1.8106268148e+00 3.1360976368e+00 
76000 6.4194644811e+00 8.9377021083e-05 1.8106241762e+00 -3.1360930666e+00 1.8106241762e+00 3.1360930666e+00 
76100 6.4194644835e+00 8.3154834886e-05 1.8106217081e+00 -3.1360887916e+00 1.8106217081e+00 3.1360887916e+00 
76200 6.4194644861e+00 7.6896498442e-05 1.8106194118e+00 -3.1360848143e+00 1.8106194118e+00 3.1360848143e+00 
76300 6.4194644887e+00 7.0614286710e-05 1.8106172883e+00 -3.1360811363e+00 1.8106172883e+00 3.1360811363e+00 
76400 6.4194644915e+00 6.6420199651e-05 1.8106172883e+00 -3.1360811363e+00 1.8106172883e+00 3.1360811363e+00 
76500 6.4194644944e+00 6.2051771563e-05 1.8106172883e+00 -3.1360811363e+00 1.8106172883e+00 3.1360811363e+00 
76600 6.4194644972e+00 5.7521463424e-05 1.8106172883e+00 -3.1360811363e+00 1.8106172883e+00 3.1360811363e+00 
76700 6.4194645001e+00 5.2841602540e-05 1.8106172883e+00 -3.1360811363e+00 1.8106172883e+00 3.1360811363e+00 
76800 6.4194645029e+00 4.8024368097e-05 1.8106172883e+00 -3.1360811363e+00 1.8106172883e+00 3.1360811363e+00 
76900 6.4194645056e+00 4.3081777344e-05 1.8106172883e+00 -3.1360811363e+00 1.8106172883e+00 3.1360811363e+00 
77000 6.4194645083e+00 3.8025672395e-05 1.8106172883e+00 -3.1360811363e+00 1.8106172883e+00 3.1360811363e+00 
77100 6.4194645110e+00 3.2867707653e-05 1.8106172883e+00 -3.1360811363e+00 1.8106172883e+00 3.1360811363e+00 
77200 6.4194645136e+00 2.7619337865e-05 1.8106172883e+00 -3.1360811363e+00 1.8106172883e+00 3.1360811363e+00 
77300 6.4194645161e+00 2.2291806793e-05 1.8106172883e+00 -3.1360811363e+00 1.8106172883e+00 3.1360811363e+00 
77400 6.4194645185e+00 1.6896136531e-05 1.8106172883e+00 -3.1360811363e+00 1.8106172883e+00 3.1360811363e+00 
77500 6.4194645208e+00 1.1443117431e-05 1.8106172883e+00 -3.1360811363e+00 1.8106172883e+00 3.1360811363e+00 
77600 6.4194645230e+00 5.9432986679e-06 1.8106172883e+00 -3.1360811363e+00 1.8106172883e+00 3.1360811363e+00 
77700 6.4194645251e+00 4.0697942076e-07 1.8106172883e+00 -3.1360811363e+00 1.8106172883e+00 3.1360811363e+00 
77800 6.4194645271e+00 -5.1557993239e-06 1.8106172883e+00 -3.1360811363e+00 1.8106172883e+00 3.1360811363e+00 
77900 6.4194645290e+00 -1.0735262348e-05 1.8106172883e+00 -3.1360811363e+00 1.8106172883e+00 3.1360811363e+00 
78000 6.4194645308e+00 -1.6321907183e-05 1.8106172883e+00 -3.1360811363e+00 1.8106172883e+00 3.1360811363e+00 
78100 6.4194645325e+00 -2.1906510460e-05 1.8106172883e+00 -3.1360811363e+00 1.8106172883e+00 3.1360811363e+00 
78200 6.4194645341e+00 -2.7480133689e-05 1.8106172883e+00 -3.1360811363e+00 1.8106172883e+00 3.1360811363e+00 
78300 6.4194645355e+00 -3.3034128439e-05 1.8106172883e+00 -3.1360811363e+00 1.8106172883e+00 3.1360811363e+00 
78400 6.4194645368e+00 -3.8560140917e-05 1.8106172883e+00 -3.1360811363e+00 1.8106172883e+00 3.1360811363e+00 
78500 6.4194645381e+00 -4.4050115998e-05 1.8106172883e+00 -3.1360811363e+00 1.8106172883e+00 3.1360811363e+00 
78600 6.4194645392e+00 -4.9496300685e-05 1.8106172883e+00 -3.1360811363e+00 1.8106172883e+00 3.1360811363e+00 
78700 6.4194645402e+00 -5.4891247006e-05 1.8106172883e+00 -3.1360811363e+00 1.8106172883e+00 3.1360811363e+00 
78800 6.4194645411e+00 -6.0227814377e-05 1.8106172883e+00 -3.1360811363e+00 1.8106172883e+00 3.1360811363e+00 
78900 6.4194645419e+00 -6.5499171432e-05 1.8106172883e+00 -3.1360811363e+00 1.8106172883e+00 3.1360811363e+00 
79000 6.4194645426e+00 -7.0698797321e-05 1.8106172883e+00 -3.1360811363e+00 1.8106172883e+00 3.1360811363e+00 
79100 6.4194645432e+00 -7.5820482519e-05 1.8106172883e+00 -3.1360811363e+00 1.8106172883e+00 3.1360811363e+00 
79200 6.4194645435e+00 -7.8603901053e-05 1.8106193820e+00 -3.1360847629e+00 1.8106193820e+00 3.1360847629e+00 
79300 6.4194645437e+00 -8.1201527790e-05 1.8106215527e+00 -3.1360885225e+00 1.8106215527e+00 3.1360885225e+00 
79400 6.4194645438e+00 -8.3611084268e-05 1.8106237950e+00 -3.1360924064e+00 1.8106237950e+00 3.1360924064e+00 
79500 6.4194645438e+00 -8.5830718974e-05 1.8106261039e+00 -3.1360964056e+00 1.8106261039e+00 3.1360964056e+00 
79600 6.4194645437e+00 -8.7859001641e-05 1.8106284741e+00 -3.1361005108e+00 1.8106284741e+00 3.1361005108e+00 
79700 6.4194645435e+00 -8.9694916898e-05 1.8106309003e+00 -3.1361047132e+00 1.8106309003e+00 3.1361047132e+00 
79800 6.4194645432e+00 -9.1337857325e-05 1.8106333772e+00 -3.1361090033e+00 1.8106333772e+00 3.1361090033e+00 
79900 6.4194645429e+00 -9.2787615983e-05 1.8106358995e+00 -3.1361133720e+00 1.8106358995e+00 3.1361133720e+00 
80000 6.4194645424e+00 -9.4044378321e-05 1.8106384618e+00 -3.1361178100e+00 1.8106384618e+00 3.1361178100e+00 
80100 6.4194645420e+00 -9.5108713620e-05 1.8106410588e+00 -3.1361223081e+00 1.8106410588e+00 3.1361223081e+00 
80200 6.4194645415e+00 -9.5981565883e-05 1.8106436852e+00 -3.1361268571e+00 1.8106436852e+00 3.1361268571e+00 
80300 6.4194645409e+00 -9.6664244272e-05 1.8106463357e+00 -3.1361314479e+00 1.8106463357e+00 3.1361314479e+00 
80400 6.4194645403e+00 -9.7158413060e-05 1.8106490050e+00 -3.1361360713e+00 1.8106490050e+00 3.1361360713e+00 
80500 6.4194645397e+00 -9.7466081193e-05 1.8106516880e+00 -3.1361407184e+00 1.8106516880e+00 3.1361407184e+00 
80600 6.4194645391e+00 -9.7589591356e-05 1.8106543794e+00 -3.1361453801e+00 1.8106543794e+00 3.1361453801e+00 
80700 6.4194645384e+00 -9.7531608779e-05 1.8106570743e+00 -3.1361500478e+00 1.8106570743e+00 3.1361500478e+00 
80800 6.4194645378e+00 -9.7295109563e-05 1.8106597676e+00 -3.1361547126e+00 1.8106597676e+00 3.1361547126e+00 
80900 6.4194645372e+00 -9.6883368748e-05 1.8106624543e+00 -3.1361593662e+00 1.8106624543e+00 3.1361593662e+00 
81000 6.4194645366e+00 -9.6299948050e-05 1.8106651297e+00 -3.1361640001e+00 1.8106651297e+00 3.1361640001e+00 
81100 6.4194645360e+00 -9.5548683319e-05 1.8106677889e+00 -3.1361686060e+00 1.8106677889e+00 3.1361686060e+00 
81200 6.4194645355e+00 -9.4633671753e-05 1.8106704274e+00 -3.1361731760e+00 1.8106704274e+00 3.1361731760e+00 
81300 6.4194645350e+00 -9.3559258874e-05 1.8106730406e+00 -3.1361777022e+00 1.8106730406e+00 3.1361777022e+00 
81400 6.4194645345e+00 -9.2330025309e-05 1.8106756242e+00 -3.1361821771e+00 1.8106756242e+00 3.1361821771e+00 
81500 6.4194645341e+00 -9.0950773391e-05 1.8106781738e+00 -3.1361865931e+00 1.8106781738e+00 3.1361865931e+00 
81600 6.4194645337e+00 -8.9426513636e-05 1.8106806853e+00 -3.1361909432e+00 1.8106806853e+00 3.1361909432e+00 
81700 6.4194645334e+00 -8.7762451069e-05 1.8106831547e+00 -3.1361952203e+00 1.8106831547e+00 3.1361952203e+00 
81800 6.4194645332e+00 -8.5963971486e-05 1.8106855782e+00 -3.1361994179e+00 1.8106855782e+00 3.1361994179e+00 
81900 6.4194645330e+00 -8.4036627618e-05 1.8106879520e+00 -3.1362035294e+00 1.8106879520e+00 3.1362035294e+00 
82000 6.4194645328e+00 -8.1986125279e-05 1.8106902725e+00 -3.1362075488e+00 1.8106902725e+00 3.1362075488e+00 
82100 6.4194645328e+00 -7.9818309488e-05 1.8106925365e+00 -3.1362114701e+00 1.8106925365e+00 3.1362114701e+00 
82200 6.4194645328e+00 -7.7539150585e-05 1.8106947406e+00 -3.1362152876e+00 1.8106947406e+00 3.1362152876e+00 
82300 6.4194645328e+00 -7.5154730417e-05 1.8106968817e+00 -3.1362189962e+00 1.8106968817e+00 3.1362189962e+00 
82400 6.4194645330e+00 -7.2671228529e-05 1.8106989570e+00 -3.1362225907e+00 1.8106989570e+00 3.1362225907e+00 
82500 6.4194645332e+00 -7.0094908490e-05 1.8107009637e+00 -3.1362260665e+00 1.8107009637e+00 3.1362260665e+00 
82600 6.4194645335e+00 -6.9515804153e-05 1.8107009637e+00 -3.1362260665e+00 1.8107009637e+00 3.1362260665e+00 
82700 6.4194645340e+00 -6.8790051811e-05 1.8107009637e+00 -3.1362260665e+00 1.8107009637e+00 3.1362260665e+00 
82800 6.4194645345e+00 -6.7923102329e-05 1.8107009637e+00 -3.1362260665e+00 1.8107009637e+00 3.1362260665e+00 
82900 6.4194645350e+00 -6.6920458727e-05 1.8107009637e+00 -3.1362260665e+00 1.8107009637e+00 3.1362260665e+00 
83000 6.4194645356e+00 -6.5787666490e-05 1.8107009637e+00 -3.1362260665e+00 1.8107009637e+00 3.1362260665e+00 
83100 6.4194645361e+00 -6.4530304108e-05 1.8107009637e+00 -3.1362260665e+00 1.8107009637e+00 3.1362260665e+00 
83200 6.4194645368e+00 -6.3153973791e-05 1.8107009637e+00 -3.1362260665e+00 1.8107009637e+00 3.1362260665e+00 
83300 6.4194645374e+00 -6.1664292419e-05 1.8107009637e+00 -3.1362260665e+00 1.8107009637e+00 3.1362260665e+00 
83400 6.4194645381e+00 -6.0066882716e-05 1.8107009637e+00 -3.1362260665e+00 1.8107009637e+00 3.1362260665e+00 
83500 6.4194645387e+00 -5.8367364644e-05 1.8107009637e+00 -3.1362260665e+00 1.8107009637e+00 3.1362260665e+00 
83600 6.4194645394e+00 -5.6571347049e-05 1.8107009637e+00 -3.1362260665e+00 1.8107009637e+00 3.1362260665e+00 
83700 6.4194645401e+00 -5.4684419548e-05 1.8107009637e+00 -3.1362260665e+00 1.8107009637e+00 3.1362260665e+00 
83800 6.4194645408e+00 -5.2712144670e-05 1.8107009637e+00 -3.1362260665e+00 1.8107009637e+00 3.1362260665e+00 
83900 6.4194645415e+00 -5.0660050245e-05 1.8107009637e+00 -3.1362260665e+00 1.8107009637e+00 3.1362260665e+00 
84000 6.4194645422e+00 -4.8533622061e-05 1.8107009637e+00 -3.1362260665e+00 1.8107009637e+00 3.1362260665e+00 
84100 6.4194645429e+00 -4.6338296789e-05 1.8107009637e+00 -3.1362260665e+00 1.8107009637e+00 3.1362260665e+00 
84200 6.4194645436e+00 -4.4079455170e-05 1.8107009637e+00 -3.1362260665e+00 1.8107009637e+00 3.1362260665e+00 
84300 6.4194645443e+00 -4.1762415489e-05 1.8107009637e+00 -3.1362260665e+00 1.8107009637e+00 3.1362260665e+00 
84400 6.4194645450e+00 -3.9392427302e-05 1.8107009637e+00 -3.1362260665e+00 1.8107009637e+00 3.1362260665e+00 
84500 6.4194645457e+00 -3.6974665458e-05 1.8107009637e+00 -3.1362260665e+00 1.8107009637e+00 3.1362260665e+00 
84600 6.4194645463e+00 -3.4514224403e-05 1.8107009637e+00 -3.1362260665e+00 1.8107009637e+00 3.1362260665e+00 
84700 6.4194645470e+00 -3.2016112740e-05 1.8107009637e+00 -3.1362260665e+00 1.8107009637e+00 3.1362260665e+00 
84800 6.4194645476e+00 -2.9485248106e-05 1.8107009637e+00 -3.1362260665e+00 1.8107009637e+00 3.1362260665e+00 
84900 6.4194645482e+00 -2.6926452293e-05 1.8107009637e+00 -3.1362260665e+00 1.8107009637e+00 3.1362260665e+00 
85000 6.4194645487e+00 -2.4344446686e-05 1.8107009637e+00 -3.1362260665e+00 1.8107009637e+00 3.1362260665e+00 
85100 6.4194645493e+00 -2.1743847955e-05 1.8107009637e+00 -3.1362260665e+00 1.8107009637e+00 3.1362260665e+00 
85200 6.4194645498e+00 -1.9129164035e-05 1.8107009637e+00 -3.1362260665e+00 1.8107009637e+00 3.1362260665e+00 
85300 6.4194645504e+00 -1.6504790399e-05 1.8107009637e+00 -3.1362260665e+00 1.8107009637e+00 3.1362260665e+00 
85400 6.4194645508e+00 -1.3875006576e-05 1.8107009637e+00 -3.1362260665e+00 1.8107009637e+00 3.1362260665e+00 
85500 6.4194645513e+00 -1.1243972977e-05 1.8107009637e+00 -3.1362260665e+00 1.8107009637e+00 3.1362260665e+00 
85600 6.4194645517e+00 -8.6157279698e-06 1.8107009637e+00 -3.1362260665e+00 1.8107009637e+00 3.1362260665e+00 
85700 6.4194645522e+00 -5.9941852320e-06 1.8107009637e+00 -3.1362260665e+00 1.8107009637e+00 3.1362260665e+00 
85800 6.4194645525e+00 -3.3831313762e-06 1.8107009637e+00 -3.1362260665e+00 1.8107009637e+00 3.1362260665e+00 
85900 6.4194645529e+00 -7.8622381372e-07 1.8107009637e+00 -3.1362260665e+00 1.8107009637e+00 3.1362260665e+00 
86000 6.4194645533e+00 1.7930110918e-06 1.8107009637e+00 -3.1362260665e+00 1.8107009637e+00 3.1362260665e+00 
86100 6.4194645536e+00 4.3511796422e-06 1.8107009637e+00 -3.1362260665e+00 1.8107009637e+00 3.1362260665e+00 
86200 6.4194645539e+00 6.8850221639e-06 1.8107009637e+00 -3.1362260665e+00 1.8107009637e+00 3.1362260665e+00 
86300 6.4194645542e+00 9.3914141153e-06 1.8107009637e+00 -3.1362260665e+00 1.8107009637e+00 3.1362260665e+00 
86400 6.4194645544e+00 1.1867366976e-05 1.8107009637e+00 -3.1362260665e+00 1.8107009637e+00 3.1362260665e+00 
86500 6.4194645546e+00 1.4310028874e-05 1.8107009637e+00 -3.1362260665e+00 1.8107009637e+00 3.1362260665e+00 
86600 6.4194645549e+00 1.6716684999e-05 1.8107009637e+00 -3.1362260665e+00 1.8107009637e+00 3.1362260665e+00 
86700 6.4194645551e+00 1.9084757799e-05 1.8107009637e+00 -3.1362260665e+00 1.8107009637e+00 3.1362260665e+00 
86800 6.4194645552e+00 2.1411806946e-05 1.8107009637e+00 -3.1362260665e+00 1.8107009637e+00 3.1362260665e+00 
86900 6.4194645554e+00 2.3695529093e-05 1.8107009637e+00 -3.1362260665e+00 1.8107009637e+00 3.1362260665e+00 
87000 6.4194645555e+00 2.5933757444e-05 1.8107009637e+00 -3.1362260665e+00 1.8107009637e+00 3.1362260665e+00 
87100 6.4194645557e+00 2.8124461087e-05 1.8107009637e+00 -3.1362260665e+00 1.8107009637e+00 3.1362260665e+00 
87200 6.4194645558e+00 3.0265744184e-05 1.8107009637e+00 -3.1362260665e+00 1.8107009637e+00 3.1362260665e+00 
87300 6.4194645559e+00 3.2355844930e-05 1.8107009637e+00 -3.1362260665e+00 1.8107009637e+00 3.1362260665e+00 
87400 6.4194645560e+00 3.4393134363e-05 1.8107009637e+00 -3.1362260665e+00 1.8107009637e+00 3.1362260665e+00 
87500 6.4194645561e+00 3.6376114994e-05 1.8107009637e+00 -3.1362260665e+00 1.8107009637e+00 3.1362260665e+00 
87600 6.4194645562e+00 3.8303419271e-05 1.8107009637e+00 -3.1362260665e+00 1.8107009637e+00 3.1362260665e+00 
87700 6.4194645562e+00 4.0173807877e-05 1.8107009637e+00 -3.1362260665e+00 1.8107009637e+00 3.1362260665e+00 
87800 6.4194645563e+00 4.1986167898e-05 1.8107009637e+00 -3.1362260665e+00 1.8107009637e+00 3.1362260665e+00 
87900 6.4194645564e+00 4.3739510825e-05 1.8107009637e+00 -3.1362260665e+00 1.8107009637e+00 3.1362260665e+00 
88000 6.4194645564e+00 4.5432970434e-05 1.8107009637e+00 -3.1362260665e+00 1.8107009637e+00 3.1362260665e+00 
88100 6.4194645565e+00 4.7065800533e-05 1.8107009637e+00 -3.1362260665e+00 1.8107009637e+00 3.1362260665e+00 
88200 6.4194645565e+00 4.8637372585e-05 1.8107009637e+00 -3.1362260665e+00 1.8107009637e+00 3.1362260665e+00 
88300 6.4194645566e+00 5.0147173212e-05 1.8107009637e+00 -3.1362260665e+00 1.8107009637e+00 3.1362260665e+00 
88400 6.4194645566e+00 5.1594801602e-05 1.8107009637e+00 -3.1362260665e+00 1.8107009637e+00 3.1362260665e+00 
88500 6.4194645566e+00 5.2979966810e-05 1.8107009637e+00 -3.1362260665e+00 1.8107009637e+00 3.1362260665e+00 
88600 6.4194645567e+00 5.4302484962e-05 1.8107009637e+00 -3.1362260665e+00 1.8107009637e+00 3.1362260665e+00 
88700 6.4194645567e+00 5.5562276373e-05 1.8107009637e+00 -3.1362260665e+00 1.8107009637e+00 3.1362260665e+00 
88800 6.4194645568e+00 5.6759362594e-05 1.8107009637e+00 -3.1362260665e+00 1.8107009637e+00 3.1362260665e+00 
88900 6.4194645568e+00 5.7893863369e-05 1.8107009637e+00 -3.1362260665e+00 1.8107009637e+00 3.1362260665e+00 
89000 6.4194645569e+00 5.8965993549e-05 1.8107009637e+00 -3.1362260665e+00 1.8107009637e+00 3.1362260665e+00 
89100 6.4194645569e+00 5.9976059926e-05 1.8107009637e+00 -3.1362260665e+00 1.8107009637e+00 3.1362260665e+00 
89200 6.4194645570e+00 6.0924458021e-05 1.8107009637e+00 -3.1362260665e+00 1.8107009637e+00 3.1362260665e+00 
89300 6.4194645570e+00 6.1811668836e-05 1.8107009637e+00 -3.1362260665e+00 1.8107009637e+00 3.1362260665e+00 
89400 6.4194645571e+00 6.2638255556e-05 1.8107009637e+00 -3.1362260665e+00 1.8107009637e+00 3.1362260665e+00 
89500 6.4194645572e+00 6.3404860212e-05 1.8107009637e+00 -3.1362260665e+00 1.8107009637e+00 3.1362260665e+00 
89600 6.4194645572e+00 6.4112200333e-05 1.8107009637e+00 -3.1362260665e+00 1.8107009637e+00 3.1362260665e+00 
89700 6.4194645573e+00 6.4761065562e-05 1.8107009637e+00 -3.1362260665e+00 1.8107009637e+00 3.1362260665e+00 
89800 6.4194645574e+00 6.5352314272e-05 1.8107009637e+00 -3.1362260665e+00 1.8107009637e+00 3.1362260665e+00 
89900 6.4194645575e+00 6.5886870159e-05 1.8107009637e+00 -3.1362260665e+00 1.8107009637e+00 3.1362260665e+00 
90000 6.4194645576e+00 6.6365718832e-05 1.8107009637e+00 -3.1362260665e+00 1.8107009637e+00 3.1362260665e+00 
90100 6.4194645577e+00 6.6789904421e-05 1.8107009637e+00 -3.1362260665e+00 1.8107009637e+00 3.1362260665e+00 
90200 6.4194645577e+00 6.7160526165e-05 1.8107009637e+00 -3.1362260665e+00 1.8107009637e+00 3.1362260665e+00 
90300 6.4194645578e+00 6.7478735049e-05 1.8107009637e+00 -3.1362260665e+00 1.8107009637e+00 3.1362260665e+00 
90400 6.4194645580e+00 6.7745730406e-05 1.8107009637e+00 -3.1362260665e+00 1.8107009637e+00 3.1362260665e+00 
90500 6.4194645581e+00 6.7962756600e-05 1.8107009637e+00 -3.1362260665e+00 1.8107009637e+00 3.1362260665e+00 
90600 6.4194645582e+00 6.8131099694e-05 1.8107009637e+00 -3.1362260665e+00 1.8107009637e+00 3.1362260665e+00 
90700 6.4194645583e+00 6.8252084162e-05 1.8107009637e+00 -3.1362260665e+00 1.8107009637e+00 3.1362260665e+00 
90800 6.4194645584e+00 6.8327069643e-05 1.8107009637e+00 -3.1362260665e+00 1.8107009637e+00 3.1362260665e+00 
90900 6.4194645585e+00 6.8357447725e-05 1.8107009637e+00 -3.1362260665e+00 1.8107009637e+00 3.1362260665e+00 
91000 6.4194645586e+00 6.8344638774e-05 1.8107009637e+00 -3.1362260665e+00 1.8107009637e+00 3.1362260665e+00 
91100 6.4194645588e+00 6.8290088822e-05 1.8107009637e+00 -3.1362260665e+00 1.8107009637e+00 3.1362260665e+00 
91200 6.4194645589e+00 6.8195266480e-05 1.8107009637e+00 -3.1362260665e+00 1.8107009637e+00 3.1362260665e+00 
91300 6.4194645590e+00 6.8061659941e-05 1.8107009637e+00 -3.1362260665e+00 1.8107009637e+00 3.1362260665e+00 
91400 6.4194645592e+00 6.7890774005e-05 1.8107009637e+00 -3.1362260665e+00 1.8107009637e+00 3.1362260665e+00 
91500 6.4194645593e+00 6.7684127190e-05 1.8107009637e+00 -3.1362260665e+00 1.8107009637e+00 3.1362260665e+00 
91600 6.4194645594e+00 6.7443248895e-05 1.8107009637e+00 -3.1362260665e+00 1.8107009637e+00 3.1362260665e+00 
91700 6.4194645596e+00 6.7169676629e-05 1.8107009637e+00 -3.1362260665e+00 1.8107009637e+00 3.1362260665e+00 
91800 6.4194645597e+00 6.6864953316e-05 1.8107009637e+00 -3.1362260665e+00 1.8107009637e+00 3.1362260665e+00 
91900 6.4194645598e+00 6.6530624656e-05 1.8107009637e+00 -3.1362260665e+00 1.8107009637e+00 3.1362260665e+00 
92000 6.4194645600e+00 6.6168236582e-05 1.8107009637e+00 -3.1362260665e+00 1.8107009637e+00 3.1362260665e+00 
92100 6.4194645601e+00 6.5779332771e-05 1.8107009637e+00 -3.1362260665e+00 1.8107009637e+00 3.1362260665e+00 
92200 6.4194645602e+00 6.5365452234e-05 1.8107009637e+00 -3.1362260665e+00 1.8107009637e+00 3.1362260665e+00 
92300 6.4194645604e+00 6.4928127002e-05 1.8107009637e+00 -3.1362260665e+00 1.8107009637e+00 3.1362260665e+00 
92400 6.4194645605e+00 6.4468879863e-05 1.8107009637e+00 -3.1362260665e+00 1.8107009637e+00 3.1362260665e+00 
92500 6.4194645606e+00 6.3989222217e-05 1.8107009637e+00 -3.1362260665e+00 1.8107009637e+00 3.1362260665e+00 
92600 6.4194645607e+00 6.3490651976e-05 1.8107009637e+00 -3.1362260665e+00 1.8107009637e+00 3.1362260665e+00 
92700 6.4194645609e+00 6.2974651568e-05 1.8107009637e+00 -3.1362260665e+00 1.8107009637e+00 3.1362260665e+00 
92800 6.4194645610e+00 6.2442686025e-05 1.8107009637e+00 -3.1362260665e+00 1.8107009637e+00 3.1362260665e+00 
92900 6.4194645611e+00 6.1896201142e-05 1.8107009637e+00 -3.1362260665e+00 1.8107009637e+00 3.1362260665e+00 
93000 6.4194645612e+00 6.1336621735e-05 1.8107009637e+00 -3.1362260665e+00 1.8107009637e+00 3.1362260665e+00 
93100 6.4194645614e+00 6.0765349984e-05 1.8107009637e+00 -3.1362260665e+00 1.8107009637e+00 3.1362260665e+00 
93200 6.4194645615e+00 6.0183763843e-05 1.8107009637e+00 -3.1362260665e+00 1.8107009637e+00 3.1362260665e+00 
93300 6.4194645616e+00 5.9593215560e-05 1.8107009637e+00 -3.1362260665e+00 1.8107009637e+00 3.1362260665e+00 
93400 6.4194645617e+00 5.8995030268e-05 1.8107009637e+00 -3.1362260665e+00 1.8107009637e+00 3.1362260665e+00 
93500 6.4194645618e+00 5.8390504656e-05 1.8107009637e+00 -3.1362260665e+00 1.8107009637e+00 3.1362260665e+00 
93600 6.4194645619e+00 5.7780905748e-05 1.8107009637e+00 -3.1362260665e+00 1.8107009637e+00 3.1362260665e+00 
93700 6.4194645620e+00 5.7167469737e-05 1.8107009637e+00 -3.1362260665e+00 1.8107009637e+00 3.1362260665e+00 
93800 6.4194645621e+00 5.6551400925e-05 1.8107009637e+00 -3.1362260665e+00 1.8107009637e+00 3.1362260665e+00 
93900 6.4194645622e+00 5.5933870732e-05 1.8107009637e+00 -3.1362260665e+00 1.8107009637e+00 3.1362260665e+00 
94000 6.4194645623e+00 5.5316016795e-05 1.8107009637e+00 -3.1362260665e+00 1.8107009637e+00 3.1362260665e+00 
94100 6.4194645624e+00 5.4698942148e-05 1.8107009637e+00 -3.1362260665e+00 1.8107009637e+00 3.1362260665e+00 
94200 6.4194645625e+00 5.4083714468e-05 1.8107009637e+00 -3.1362260665e+00 1.8107009637e+00 3.1362260665e+00 
94300 6.4194645626e+00 5.3471365430e-05 1.8107009637e+00 -3.1362260665e+00 1.8107009637e+00 3.1362260665e+00 
94400 6.4194645626e+00 5.2862890105e-05 1.8107009637e+00 -3.1362260665e+00 1.8107009637e+00 3.1362260665e+00 
94500 6.4194645627e+00 5.2259246455e-05 1.8107009637e+00 -3.1362260665e+00 1.8107009637e+00 3.1362260665e+00 
94600 6.4194645628e+00 5.1661354904e-05 1.8107009637e+00 -3.1362260665e+00 1.8107009637e+00 3.1362260665e+00 
94700 6.4194645629e+00 5.1070097967e-05 1.8107009637e+00 -3.1362260665e+00 1.8107009637e+00 3.1362260665e+00 
94800 6.4194645629e+00 5.0486319966e-05 1.8107009637e+00 -3.1362260665e+00 1.8107009637e+00 3.1362260665e+00 
94900 6.4194645630e+00 4.9910826804e-05 1.8107009637e+00 -3.1362260665e+00 1.8107009637e+00 3.1362260665e+00 
95000 6.4194645631e+00 4.9344385829e-05 1.8107009637e+00 -3.1362260665e+00 1.8107009637e+00 3.1362260665e+00 
95100 6.4194645631e+00 4.8787725734e-05 1.8107009637e+00 -3.1362260665e+00 1.8107009637e+00 3.1362260665e+00 
95200 6.4194645632e+00 4.8241536540e-05 1.8107009637e+00 -3.1362260665e+00 1.8107009637e+00 3.1362260665e+00 
95300 6.4194645633e+00 4.7706469649e-05 1.8107009637e+00 -3.1362260665e+00 1.8107009637e+00 3.1362260665e+00 
95400 6.4194645633e+00 4.7183137936e-05 1.8107009637e+00 -3.1362260665e+00 1.8107009637e+00 3.1362260665e+00 
95500 6.4194645634e+00 4.6672115923e-05 1.8107009637e+00 -3.1362260665e+00 1.8107009637e+00 3.1362260665e+00 
95600 6.4194645634e+00 4.6173939996e-05 1.8107009637e+00 -3.1362260665e+00 1.8107009637e+00 3.1362260665e+00 
95700 6.4194645635e+00 4.5689108676e-05 1.8107009637e+00 -3.1362260665e+00 1.8107009637e+00 3.1362260665e+00 
95800 6.4194645636e+00 4.5218082958e-05 1.8107009637e+00 -3.1362260665e+00 1.8107009637e+00 3.1362260665e+00 
95900 6.4194645636e+00 4.4761286682e-05 1.8107009637e+00 -3.1362260665e+00 1.8107009637e+00 3.1362260665e+00 
96000 6.4194645637e+00 4.4319106967e-05 1.8107009637e+00 -3.1362260665e+00 1.8107009637e+00 3.1362260665e+00 
96100 6.4194645637e+00 4.3891894685e-05 1.8107009637e+00 -3.1362260665e+00 1.8107009637e+00 3.1362260665e+00 
96200 6.4194645638e+00 4.3479964977e-05 1.8107009637e+00 -3.1362260665e+00 1.8107009637e+00 3.1362260665e+00 
96300 6.4194645638e+00 4.3083597823e-05 1.8107009637e+00 -3.1362260665e+00 1.8107009637e+00 3.1362260665e+00 
96400 6.4194645639e+00 4.2703038639e-05 1.8107009637e+00 -3.1362260665e+00 1.8107009637e+00 3.1362260665e+00 
96500 6.4194645639e+00 4.2338498923e-05 1.8107009637e+00 -3.1362260665e+00 1.8107009637e+00 3.1362260665e+00 
96600 6.4194645639e+00 4.1990156925e-05 1.8107009637e+00 -3.1362260665e+00 1.8107009637e+00 3.1362260665e+00 
96700 6.4194645640e+00 4.1658158362e-05 1.8107009637e+00 -3.1362260665e+00 1.8107009637e+00 3.1362260665e+00 
96800 6.4194645640e+00 4.1342617160e-05 1.8107009637e+00 -3.1362260665e+00 1.8107009637e+00 3.1362260665e+00 
96900 6.4194645641e+00 4.1043616219e-05 1.8107009637e+00 -3.1362260665e+00 1.8107009637e+00 3.1362260665e+00 
97000 6.4194645641e+00 4.0761208230e-05 1.8107009637e+00 -3.1362260665e+00 1.8107009637e+00 3.1362260665e+00 
97100 6.4194645642e+00 4.0495416476e-05 1.8107009637e+00 -3.1362260665e+00 1.8107009637e+00 3.1362260665e+00 
97200 6.4194645642e+00 4.0246235700e-05 1.8107009637e+00 -3.1362260665e+00 1.8107009637e+00 3.1362260665e+00 
97300 6.4194645643e+00 4.0013632956e-05 1.8107009637e+00 -3.1362260665e+00 1.8107009637e+00 3.1362260665e+00 
97400 6.4194645643e+00 3.9797548516e-05 1.8107009637e+00 -3.1362260665e+00 1.8107009637e+00 3.1362260665e+00 
97500 6.4194645643e+00 3.9597896756e-05 1.8107009637e+00 -3.1362260665e+00 1.8107009637e+00 3.1362260665e+00 
97600 6.4194645644e+00 3.9414567093e-05 1.8107009637e+00 -3.1362260665e+00 1.8107009637e+00 3.1362260665e+00 
97700 6.4194645644e+00 3.9247424907e-05 1.8107009637e+00 -3.1362260665e+00 1.8107009637e+00 3.1362260665e+00 
97800 6.4194645645e+00 3.9096312491e-05 1.8107009637e+00 -3.1362260665e+00 1.8107009637e+00 3.1362260665e+00 
97900 6.4194645645e+00 3.8961050003e-05 1.8107009637e+00 -3.1362260665e+00 1.8107009637e+00 3.1362260665e+00 
98000 6.4194645646e+00 3.8841436430e-05 1.8107009637e+00 -3.1362260665e+00 1.8107009637e+00 3.1362260665e+00 
98100 6.4194645646e+00 3.8737250553e-05 1.8107009637e+00 -3.1362260665e+00 1.8107009637e+00 3.1362260665e+00 
98200 6.4194645646e+00 3.8648251926e-05 1.8107009637e+00 -3.1362260665e+00 1.8107009637e+00 3.1362260665e+00 
98300 6.4194645647e+00 3.8574181840e-05 1.8107009637e+00 -3.1362260665e+00 1.8107009637e+00 3.1362260665e+00 
98400 6.4194645647e+00 3.8514764303e-05 1.8107009637e+00 -3.1362260665e+00 1.8107009637e+00 3.1362260665e+00 
98500 6.4194645648e+00 3.8469707022e-05 1.8107009637e+00 -3.1362260665e+00 1.8107009637e+00 3.1362260665e+00 
98600 6.4194645648e+00 3.8438702357e-05 1.8107009637e+00 -3.1362260665e+00 1.8107009637e+00 3.1362260665e+00 
98700 6.4194645648e+00 3.8421428306e-05 1.8107009637e+00 -3.1362260665e+00 1.8107009637e+00 3.1362260665e+00 
98800 6.4194645649e+00 3.8417549459e-05 1.8107009637e+00 -3.1362260665e+00 1.8107009637e+00 3.1362260665e+00 
98900 6.4194645649e+00 3.8422618606e-05 1.8107009637e+00 -3.1362260665e+00 1.8107009637e+00 3.1362260665e+00 
98900 6.4194645649e+00 3.8422618606e-05 1.8107009637e+00 -3.1362260665e+00 1.8107009637e+00 3.1362260665e+00 
