# step Hamiltonian StressXX CellTensor1 CellTensor2 CellTensor3 CellTensor4 
0 4.9846884633e+00 -2.2404391215e-01 1.6795071085e+00 -2.9089916436e+00 1.6795071085e+00 2.9089916436e+00 
100 4.9741343004e+00 -2.2328764886e-01 1.6795071085e+00 -2.9089916436e+00 1.6795071085e+00 2.9089916436e+00 
200 4.9628024376e+00 -2.1689347185e-01 1.6861588922e+00 -2.9205128710e+00 1.6861588922e+00 2.9205128710e+00 
300 4.9524577879e+00 -2.1085938559e-01 1.6925945500e+00 -2.9316597573e+00 1.6925945500e+00 2.9316597573e+00 
400 4.9430059667e+00 -2.0515452265e-01 1.6988272370e+00 -2.9424550878e+00 1.6988272370e+00 2.9424550878e+00 
500 4.9343580296e+00 -1.9975178026e-01 1.7048689232e+00 -2.9529195953e+00 1.7048689232e+00 2.9529195953e+00 
600 4.9264306143e+00 -1.9462723213e-01 1.7107305406e+00 -2.9630722144e+00 1.7107305406e+00 2.9630722144e+00 
700 4.9191460578e+00 -1.8975961674e-01 1.7164221072e+00 -2.9729302969e+00 1.7164221072e+00 2.9729302969e+00 
800 4.9124324761e+00 -1.8512989612e-01 1.7219528313e+00 -2.9825097921e+00 1.7219528313e+00 2.9825097921e+00 
900 4.9062237983e+00 -1.8072087924e-01 1.7273311993e+00 -2.9918253987e+00 1.7273311993e+00 2.9918253987e+00 
1000 4.9004597506e+00 -1.7651690427e-01 1.7325650486e+00 -3.0008906916e+00 1.7325650486e+00 3.0008906916e+00 
1100 4.8950857879e+00 -1.7250357383e-01 1.7376616292e+00 -3.0097182282e+00 1.7376616292e+00 3.0097182282e+00 
1200 4.8900529725e+00 -1.6866753771e-01 1.7426276555e+00 -3.0183196380e+00 1.7426276555e+00 3.0183196380e+00 
1300 4.8853178032e+00 -1.6499631757e-01 1.7474693493e+00 -3.0267056976e+00 1.7474693493e+00 3.0267056976e+00 
1400 4.8808419992e+00 -1.6147816830e-01 1.7521924768e+00 -3.0348863944e+00 1.7521924768e+00 3.0348863944e+00 
1500 4.8765922420e+00 -1.5810197102e-01 1.7568023801e+00 -3.0428709812e+00 1.7568023801e+00 3.0428709812e+00 
1600 4.8725398836e+00 -1.5485715300e-01 1.7613040045e+00 -3.0506680234e+00 1.7613040045e+00 3.0506680234e+00 
1700 4.8686606264e+00 -1.5173362997e-01 1.7657019225e+00 -3.0582854408e+00 1.7657019225e+00 3.0582854408e+00 
1800 4.8649341822e+00 -1.4872176683e-01 1.7700003552e+00 -3.0657305447e+00 1.7700003552e+00 3.0657305447e+00 
1900 4.8613439163e+00 -1.4581235302e-01 1.7742031923e+00 -3.0730100719e+00 1.7742031923e+00 3.0730100719e+00 
2000 4.8578764847e+00 -1.4299658918e-01 1.7783140097e+00 -3.0801302166e+00 1.7783140097e+00 3.0801302166e+00 
2100 4.8545214702e+00 -1.4026608236e-01 1.7823360876e+00 -3.0870966600e+00 1.7823360876e+00 3.0870966600e+00 
2200 4.8512710215e+00 -1.3761284711e-01 1.7862724266e+00 -3.0939145991e+00 1.7862724266e+00 3.0939145991e+00 
2300 4.8481195035e+00 -1.3502931033e-01 1.7901257638e+00 -3.1005887748e+00 1.7901257638e+00 3.1005887748e+00 
2400 4.8450631609e+00 -1.3250831831e-01 1.7938985888e+00 -3.1071234994e+00 1.7938985888e+00 3.1071234994e+00 
2500 4.8420997986e+00 -1.3004314430e-01 1.7975931592e+00 -3.1135226831e+00 1.7975931592e+00 3.1135226831e+00 
2600 4.8392284839e+00 -1.2762749565e-01 1.8012115160e+00 -3.1197898610e+00 1.8012115160e+00 3.1197898610e+00 
2700 4.8364492708e+00 -1.2525551958e-01 1.8047554988e+00 -3.1259282192e+00 1.8047554988e+00 3.1259282192e+00 
2800 4.8337629488e+00 -1.2292180715e-01 1.8082267608e+00 -3.1319406213e+00 1.8082267608e+00 3.1319406213e+00 
2900 4.8311708166e+00 -1.2062139480e-01 1.8116267836e+00 -3.1378296335e+00 1.8116267836e+00 3.1378296335e+00 
3000 4.8286744822e+00 -1.1834976344e-01 1.8149568920e+00 -3.1435975504e+00 1.8149568920e+00 3.1435975504e+00 
3100 4.8262756876e+00 -1.1610283487e-01 1.8182182679e+00 -3.1492464192e+00 1.8182182679e+00 3.1492464192e+00 
3200 4.8239761590e+00 -1.1387696567e-01 1.8214119646e+00 -3.1547780642e+00 1.8214119646e+00 3.1547780642e+00 
3300 4.8217774811e+00 -1.1166893854e-01 1.8245389201e+00 -3.1601941100e+00 1.8245389201e+00 3.1601941100e+00 
3400 4.8196809934e+00 -1.0947595136e-01 1.8275999703e+00 -3.1654960044e+00 1.8275999703e+00 3.1654960044e+00 
3500 4.8176877090e+00 -1.0729560412e-01 1.8305958612e+00 -3.1706850397e+00 1.8305958612e+00 3.1706850397e+00 
3600 4.8157982521e+00 -1.0512588402e-01 1.8335272615e+00 -3.1757623741e+00 1.8335272615e+00 3.1757623741e+00 
3700 4.8140128143e+00 -1.0296514888e-01 1.8363947737e+00 -3.1807290509e+00 1.8363947737e+00 3.1807290509e+00 
3800 4.8123311266e+00 -1.0081210924e-01 1.8391989449e+00 -3.1855860179e+00 1.8391989449e+00 3.1855860179e+00 
3900 4.8107524462e+00 -9.8665809227e-02 1.8419402772e+00 -3.1903341447e+00 1.8419402772e+00 3.1903341447e+00 
4000 4.8092755563e+00 -9.6525606643e-02 1.8446192372e+00 -3.1949742395e+00 1.8446192372e+00 3.1949742395e+00 
4100 4.8078987757e+00 -9.4391152270e-02 1.8472362649e+00 -3.1995070644e+00 1.8472362649e+00 3.1995070644e+00 
4200 4.8066199787e+00 -9.2262368743e-02 1.8497917821e+00 -3.2039333501e+00 1.8497917821e+00 3.2039333501e+00 
4300 4.8054366227e+00 -9.0139429109e-02 1.8522862000e+00 -3.2082538085e+00 1.8522862000e+00 3.2082538085e+00 
4400 4.8043457806e+00 -8.8022735271e-02 1.8547199259e+00 -3.2124691454e+00 1.8547199259e+00 3.2124691454e+00 
4500 4.8033441798e+00 -8.5912896440e-02 1.8570933699e+00 -3.2165800711e+00 1.8570933699e+00 3.2165800711e+00 
4600 4.8024282430e+00 -8.3810707767e-02 1.8594069507e+00 -3.2205873105e+00 1.8594069507e+00 3.2205873105e+00 
4700 4.8015941326e+00 -8.1717129241e-02 1.8616611000e+00 -3.2244916116e+00 1.8616611000e+00 3.2244916116e+00 
4800 4.8008377953e+00 -7.9633264989e-02 1.8638562677e+00 -3.2282937536e+00 1.8638562677e+00 3.2282937536e+00 
4900 4.8001550077e+00 -7.7560343065e-02 1.8659929255e+00 -3.2319945535e+00 1.8659929255e+00 3.2319945535e+00 
5000 4.7995414213e+00 -7.5499695820e-02 1.8680715701e+00 -3.2355948716e+00 1.8680715701e+00 3.2355948716e+00 
5100 4.7989926062e+00 -7.3452740930e-02 1.8700927264e+00 -3.2390956170e+00 1.8700927264e+00 3.2390956170e+00 
5200 4.7985040926e+00 -7.1420963155e-02 1.8720569494e+00 -3.2424977511e+00 1.8720569494e+00 3.2424977511e+00 
5300 4.7980714111e+00 -6.9405896891e-02 1.8739648262e+00 -3.2458022906e+00 1.8739648262e+00 3.2458022906e+00 
5400 4.7976901293e+00 -6.7409109586e-02 1.8758169772e+00 -3.2490103103e+00 1.8758169772e+00 3.2490103103e+00 
5500 4.7973558860e+00 -6.5432186041e-02 1.8776140572e+00 -3.2521229440e+00 1.8776140572e+00 3.2521229440e+00 
5600 4.7970644218e+00 -6.3476713683e-02 1.8793567555e+00 -3.2551413860e+00 1.8793567555e+00 3.2551413860e+00 
5700 4.7968116067e+00 -6.1544268805e-02 1.8810457965e+00 -3.2580668908e+00 1.8810457965e+00 3.2580668908e+00 
5800 4.7965934639e+00 -5.9636403834e-02 1.8826819390e+00 -3.2609007729e+00 1.8826819390e+00 3.2609007729e+00 
5900 4.7964061907e+00 -5.7754635641e-02 1.8842659761e+00 -3.2636444055e+00 1.8842659761e+00 3.2636444055e+00 
6000 4.7962461749e+00 -5.5900434909e-02 1.8857987336e+00 -3.2662992195e+00 1.8857987336e+00 3.2662992195e+00 
6100 4.7961100093e+00 -5.4075216567e-02 1.8872810697e+00 -3.2688667010e+00 1.8872810697e+00 3.2688667010e+00 
6200 4.7959945016e+00 -5.2280331295e-02 1.8887138731e+00 -3.2713483892e+00 1.8887138731e+00 3.2713483892e+00 
6300 4.7958966819e+00 -5.0517058092e-02 1.8900980614e+00 -3.2737458736e+00 1.8900980614e+00 3.2737458736e+00 
6400 4.7958138070e+00 -4.8786597890e-02 1.8914345795e+00 -3.2760607909e+00 1.8914345795e+00 3.2760607909e+00 
6500 4.7957433626e+00 -4.7090068191e-02 1.8927243978e+00 -3.2782948217e+00 1.8927243978e+00 3.2782948217e+00 
6600 4.7956830621e+00 -4.5428498698e-02 1.8939685098e+00 -3.2804496869e+00 1.8939685098e+00 3.2804496869e+00 
6700 4.7956308437e+00 -4.3802827903e-02 1.8951679302e+00 -3.2825271440e+00 1.8951679302e+00 3.2825271440e+00 
6800 4.7955848653e+00 -4.2213900585e-02 1.8963236926e+00 -3.2845289832e+00 1.8963236926e+00 3.2845289832e+00 
6900 4.7955434982e+00 -4.0662466166e-02 1.8974368472e+00 -3.2864570235e+00 1.8974368472e+00 3.2864570235e+00 
7000 4.7955053181e+00 -3.9149177875e-02 1.8985084584e+00 -3.2883131085e+00 1.8985084584e+00 3.2883131085e+00 
7100 4.7954690961e+00 -3.7674592654e-02 1.8995396026e+00 -3.2900991026e+00 1.8995396026e+00 3.2900991026e+00 
7200 4.7954337877e+00 -3.6239171753e-02 1.9005313658e+00 -3.2918168869e+00 1.9005313658e+00 3.2918168869e+00 
7300 4.7953985216e+00 -3.4843281937e-02 1.9014848412e+00 -3.2934683548e+00 1.9014848412e+00 3.2934683548e+00 
7400 4.7953625877e+00 -3.3487197249e-02 1.9024011272e+00 -3.2950554087e+00 1.9024011272e+00 3.2950554087e+00 
7500 4.7953254241e+00 -3.2171101262e-02 1.9032813248e+00 -3.2965799557e+00 1.9032813248e+00 3.2965799557e+00 
7600 4.7952866054e+00 -3.0895089752e-02 1.9041265357e+00 -3.2980439038e+00 1.9041265357e+00 3.2980439038e+00 
7700 4.7952458288e+00 -2.9659173736e-02 1.9049378600e+00 -3.2994491587e+00 1.9049378600e+00 3.2994491587e+00 
7800 4.7952029023e+00 -2.8463282805e-02 1.9057163944e+00 -3.3007976199e+00 1.9057163944e+00 3.3007976199e+00 
7900 4.7951577319e+00 -2.7307268709e-02 1.9064632301e+00 -3.3020911773e+00 1.9064632301e+00 3.3020911773e+00 
8000 4.7951103094e+00 -2.6190909129e-02 1.9071794510e+00 -3.3033317083e+00 1.9071794510e+00 3.3033317083e+00 
8100 4.7950607009e+00 -2.5113911593e-02 1.9078661321e+00 -3.3045210748e+00 1.9078661321e+00 3.3045210748e+00 
8200 4.7950090355e+00 -2.4075917495e-02 1.9085243375e+00 -3.3056611200e+00 1.9085243375e+00 3.3056611200e+00 
8300 4.7949554948e+00 -2.3076506163e-02 1.9091551191e+00 -3.3067536659e+00 1.9091551191e+00 3.3067536659e+00 
8400 4.7949003030e+00 -2.2115198962e-02 1.9097595154e+00 -3.3078005108e+00 1.9097595154e+00 3.3078005108e+00 
8500 4.7948437173e+00 -2.1191463381e-02 1.9103385494e+00 -3.3088034273e+00 1.9103385494e+00 3.3088034273e+00 
8600 4.7947860196e+00 -2.0304717086e-02 1.9108932283e+00 -3.3097641592e+00 1.9108932283e+00 3.3097641592e+00 
8700 4.7947275089e+00 -1.9454331917e-02 1.9114245415e+00 -3.3106844208e+00 1.9114245415e+00 3.3106844208e+00 
8800 4.7946684934e+00 -1.8639637810e-02 1.9119334603e+00 -3.3115658939e+00 1.9119334603e+00 3.3115658939e+00 
8900 4.7946092852e+00 -1.7859926616e-02 1.9124209362e+00 -3.3124102269e+00 1.9124209362e+00 3.3124102269e+00 
9000 4.7945501935e+00 -1.7114455825e-02 1.9128879007e+00 -3.3132190331e+00 1.9128879007e+00 3.3132190331e+00 
9100 4.7944915206e+00 -1.6402452168e-02 1.9133352641e+00 -3.3139938893e+00 1.9133352641e+00 3.3139938893e+00 
9200 4.7944335570e+00 -1.5723115093e-02 1.9137639152e+00 -3.3147363348e+00 1.9137639152e+00 3.3147363348e+00 
9300 4.7943765781e+00 -1.5075620117e-02 1.9141747202e+00 -3.3154478700e+00 1.9141747202e+00 3.3154478700e+00 
9400 4.7943208411e+00 -1.4459122039e-02 1.9145685228e+00 -3.3161299560e+00 1.9145685228e+00 3.3161299560e+00 
9500 4.7942665824e+00 -1.3872758019e-02 1.9149461430e+00 -3.3167840135e+00 1.9149461430e+00 3.3167840135e+00 
9600 4.7942140161e+00 -1.3315650519e-02 1.9153083776e+00 -3.3174114222e+00 1.9153083776e+00 3.3174114222e+00 
9700 4.7941633325e+00 -1.2786910109e-02 1.9156559993e+00 -3.3180135206e+00 1.9156559993e+00 3.3180135206e+00 
9800 4.7941146972e+00 -1.2285638133e-02 1.9159897565e+00 -3.3185916051e+00 1.9159897565e+00 3.3185916051e+00 
9900 4.7940682505e+00 -1.1810929243e-02 1.9163103736e+00 -3.3191469301e+00 1.9163103736e+00 3.3191469301e+00 
10000 4.7940241078e+00 -1.1361873798e-02 1.9166185503e+00 -3.3196807079e+00 1.9166185503e+00 3.3196807079e+00 
10100 4.7939823593e+00 -1.0937560135e-02 1.9169149621e+00 -3.3201941082e+00 1.9169149621e+00 3.3201941082e+00 
10200 4.7939430713e+00 -1.0537076710e-02 1.9172002599e+00 -3.3206882584e+00 1.9172002599e+00 3.3206882584e+00 
10300 4.7939062863e+00 -1.0159514117e-02 1.9174750702e+00 -3.3211642439e+00 1.9174750702e+00 3.3211642439e+00 
10400 4.7938720249e+00 -9.8039669846e-03 1.9177399954e+00 -3.3216231077e+00 1.9177399954e+00 3.3216231077e+00 
10500 4.7938402863e+00 -9.4695357552e-03 1.9179956136e+00 -3.3220658514e+00 1.9179956136e+00 3.3220658514e+00 
10600 4.7938110507e+00 -9.1553283519e-03 1.9182424791e+00 -3.3224934350e+00 1.9182424791e+00 3.3224934350e+00 
10700 4.7937842797e+00 -8.8604617328e-03 1.9184811225e+00 -3.3229067775e+00 1.9184811225e+00 3.3229067775e+00 
10800 4.7937599192e+00 -8.5840633403e-03 1.9187120510e+00 -3.3233067574e+00 1.9187120510e+00 3.3233067574e+00 
10900 4.7937379000e+00 -8.3252724473e-03 1.9189357487e+00 -3.3236942132e+00 1.9189357487e+00 3.3236942132e+00 
11000 4.7937181405e+00 -8.0832414038e-03 1.9191526770e+00 -3.3240699440e+00 1.9191526770e+00 3.3240699440e+00 
11100 4.7937005478e+00 -7.8571367880e-03 1.9193632749e+00 -3.3244347103e+00 1.9193632749e+00 3.3244347103e+00 
11200 4.7936850198e+00 -7.6461404659e-03 1.9195679593e+00 -3.3247892341e+00 1.9195679593e+00 3.3247892341e+00 
11300 4.7936714468e+00 -7.4494505617e-03 1.9197671258e+00 -3.3251342006e+00 1.9197671258e+00 3.3251342006e+00 
11400 4.7936597131e+00 -7.2662823440e-03 1.9199611487e+00 -3.3254702582e+00 1.9199611487e+00 3.3254702582e+00 
11500 4.7936496988e+00 -7.0958690293e-03 1.9201503818e+00 -3.3257980194e+00 1.9201503818e+00 3.3257980194e+00 
11600 4.7936412809e+00 -6.9374625082e-03 1.9203351585e+00 -3.3261180621e+00 1.9203351585e+00 3.3261180621e+00 
11700 4.7936343353e+00 -6.7903339955e-03 1.9205157929e+00 -3.3264309300e+00 1.9205157929e+00 3.3264309300e+00 
11800 4.7936287377e+00 -6.6537746086e-03 1.9206925797e+00 -3.3267371338e+00 1.9206925797e+00 3.3267371338e+00 
11900 4.7936243647e+00 -6.5270958763e-03 1.9208657952e+00 -3.3270371519e+00 1.9208657952e+00 3.3270371519e+00 
12000 4.7936210952e+00 -6.4096301815e-03 1.9210356976e+00 -3.3273314314e+00 1.9210356976e+00 3.3273314314e+00 
12100 4.7936188114e+00 -6.3007311395e-03 1.9212025275e+00 -3.3276203892e+00 1.9212025275e+00 3.3276203892e+00 
12200 4.7936173992e+00 -6.1997739161e-03 1.9213665086e+00 -3.3279044129e+00 1.9213665086e+00 3.3279044129e+00 
12300 4.7936167495e+00 -6.1061554859e-03 1.9215278485e+00 -3.3281838618e+00 1.9215278485e+00 3.3281838618e+00 
12400 4.7936167583e+00 -6.0192948350e-03 1.9216867387e+00 -3.3284590677e+00 1.9216867387e+00 3.3284590677e+00 
12500 4.7936173277e+00 -5.9386331093e-03 1.9218433557e+00 -3.3287303363e+00 1.9218433557e+00 3.3287303363e+00 
12600 4.7936183658e+00 -5.8636337109e-03 1.9219978614e+00 -3.3289979479e+00 1.9219978614e+00 3.3289979479e+00 
12700 4.7936197874e+00 -5.7937823448e-03 1.9221504035e+00 -3.3292621586e+00 1.9221504035e+00 3.3292621586e+00 
12800 4.7936215141e+00 -5.7285870170e-03 1.9223011164e+00 -3.3295232010e+00 1.9223011164e+00 3.3295232010e+00 
12900 4.7936234740e+00 -5.6675779879e-03 1.9224501217e+00 -3.3297812858e+00 1.9224501217e+00 3.3297812858e+00 
13000 4.7936256024e+00 -5.6103076802e-03 1.9225975286e+00 -3.3300366021e+00 1.9225975286e+00 3.3300366021e+00 
13100 4.7936278413e+00 -5.5563505457e-03 1.9227434349e+00 -3.3302893191e+00 1.9227434349e+00 3.3302893191e+00 
13200 4.7936301393e+00 -5.5053028906e-03 1.9228879268e+00 -3.3305395865e+00 1.9228879268e+00 3.3305395865e+00 
13300 4.7936324514e+00 -5.4567826624e-03 1.9230310806e+00 -3.3307875361e+00 1.9230310806e+00 3.3307875361e+00 
13400 4.7936347391e+00 -5.4104292002e-03 1.9231729620e+00 -3.3310332820e+00 1.9231729620e+00 3.3310332820e+00 
13500 4.7936369697e+00 -5.3659029485e-03 1.9233136279e+00 -3.3312769224e+00 1.9233136279e+00 3.3312769224e+00 
13600 4.7936391161e+00 -5.3228851387e-03 1.9234531259e+00 -3.3315185400e+00 1.9234531259e+00 3.3315185400e+00 
13700 4.7936411567e+00 -5.2810774369e-03 1.9235914955e+00 -3.3317582032e+00 1.9235914955e+00 3.3317582032e+00 
13800 4.7936430745e+00 -5.2402015631e-03 1.9237287684e+00 -3.3319959668e+00 1.9237287684e+00 3.3319959668e+00 
13900 4.7936448572e+00 -5.1999988809e-03 1.9238649691e+00 -3.3322318733e+00 1.9238649691e+00 3.3322318733e+00 
14000 4.7936464968e+00 -5.1602299602e-03 1.9240001152e+00 -3.3324659534e+00 1.9240001152e+00 3.3324659534e+00 
14100 4.7936479885e+00 -5.1206741153e-03 1.9241342184e+00 -3.3326982269e+00 1.9241342184e+00 3.3326982269e+00 
14200 4.7936493314e+00 -5.0811289192e-03 1.9242672843e+00 -3.3329287038e+00 1.9242672843e+00 3.3329287038e+00 
14300 4.7936505271e+00 -5.0414096967e-03 1.9243993134e+00 -3.3331573849e+00 1.9243993134e+00 3.3331573849e+00 
14400 4.7936515799e+00 -5.0013489975e-03 1.9245303015e+00 -3.3333842629e+00 1.9245303015e+00 3.3333842629e+00 
14500 4.7936524961e+00 -4.9607960510e-03 1.9246602398e+00 -3.3336093227e+00 1.9246602398e+00 3.3336093227e+00 
14600 4.7936532840e+00 -4.9196162055e-03 1.9247891159e+00 -3.3338325426e+00 1.9247891159e+00 3.3338325426e+00 
14700 4.7936539531e+00 -4.8776903528e-03 1.9249169135e+00 -3.3340538946e+00 1.9249169135e+00 3.3340538946e+00 
14800 4.7936545141e+00 -4.8349143400e-03 1.9250436136e+00 -3.3342733456e+00 1.9250436136e+00 3.3342733456e+00 
14900 4.7936549786e+00 -4.7911983714e-03 1.9251691944e+00 -3.3344908578e+00 1.9251691944e+00 3.3344908578e+00 
15000 4.7936553585e+00 -4.7464664008e-03 1.9252936315e+00 -3.3347063892e+00 1.9252936315e+00 3.3347063892e+00 
15100 4.7936556663e+00 -4.7006555168e-03 1.9254168988e+00 -3.3349198945e+00 1.9254168988e+00 3.3349198945e+00 
15200 4.7936559143e+00 -4.6537153239e-03 1.9255389686e+00 -3.3351313256e+00 1.9255389686e+00 3.3351313256e+00 
15300 4.7936561148e+00 -4.6056073186e-03 1.9256598118e+00 -3.3353406321e+00 1.9256598118e+00 3.3353406321e+00 
15400 4.7936562797e+00 -4.5563042650e-03 1.9257793982e+00 -3.3355477618e+00 1.9257793982e+00 3.3355477618e+00 
15500 4.7936564205e+00 -4.5057895703e-03 1.9258976971e+00 -3.3357526615e+00 1.9258976971e+00 3.3357526615e+00 
15600 4.7936565481e+00 -4.4540566610e-03 1.9260146772e+00 -3.3359552770e+00 1.9260146772e+00 3.3359552770e+00 
15700 4.7936566725e+00 -4.4011083641e-03 1.9261303072e+00 -3.3361555541e+00 1.9261303072e+00 3.3361555541e+00 
15800 4.7936568033e+00 -4.3469562913e-03 1.9262445557e+00 -3.3363534383e+00 1.9262445557e+00 3.3363534383e+00 
15900 4.7936569490e+00 -4.2916202312e-03 1.9263573918e+00 -3.3365488762e+00 1.9263573918e+00 3.3365488762e+00 
16000 4.7936571171e+00 -4.2351275485e-03 1.9264687850e+00 -3.3367418149e+00 1.9264687850e+00 3.3367418149e+00 
16100 4.7936573144e+00 -4.1775125923e-03 1.9265787055e+00 -3.3369322027e+00 1.9265787055e+00 3.3369322027e+00 
16200 4.7936575467e+00 -4.1188161157e-03 1.9266871244e+00 -3.3371199898e+00 1.9266871244e+00 3.3371199898e+00 
16300 4.7936578188e+00 -4.0590847065e-03 1.9267940140e+00 -3.3373051279e+00 1.9267940140e+00 3.3373051279e+00 
16400 4.7936581347e+00 -3.9983702308e-03 1.9268993476e+00 -3.3374875710e+00 1.9268993476e+00 3.3374875710e+00 
16500 4.7936584974e+00 -3.9367292909e-03 1.9270030999e+00 -3.3376672753e+00 1.9270030999e+00 3.3376672753e+00 
16600 4.7936589092e+00 -3.8742226981e-03 1.9271052472e+00 -3.3378441997e+00 1.9271052472e+00 3.3378441997e+00 
16700 4.7936593714e+00 -3.8109149613e-03 1.9272057673e+00 -3.3380183056e+00 1.9272057673e+00 3.3380183056e+00 
16800 4.7936598846e+00 -3.7468737918e-03 1.9273046397e+00 -3.3381895576e+00 1.9273046397e+00 3.3381895576e+00 
16900 4.7936604488e+00 -3.6821696265e-03 1.9274018455e+00 -3.3383579230e+00 1.9274018455e+00 3.3383579230e+00 
17000 4.7936610633e+00 -3.6168751682e-03 1.9274973679e+00 -3.3385233726e+00 1.9274973679e+00 3.3385233726e+00 
17100 4.7936617268e+00 -3.5510649447e-03 1.9275911917e+00 -3.3386858803e+00 1.9275911917e+00 3.3386858803e+00 
17200 4.7936624375e+00 -3.4848148871e-03 1.9276833039e+00 -3.3388454233e+00 1.9276833039e+00 3.3388454233e+00 
17300 4.7936631931e+00 -3.4182019277e-03 1.9277736933e+00 -3.3390019823e+00 1.9277736933e+00 3.3390019823e+00 
17400 4.7936639910e+00 -3.3513036169e-03 1.9278623507e+00 -3.3391555414e+00 1.9278623507e+00 3.3391555414e+00 
17500 4.7936648282e+00 -3.2841977608e-03 1.9279492690e+00 -3.3393060883e+00 1.9279492690e+00 3.3393060883e+00 
17600 4.7936657015e+00 -3.2169620782e-03 1.9280344429e+00 -3.3394536139e+00 1.9280344429e+00 3.3394536139e+00 
17700 4.7936666075e+00 -3.1496738781e-03 1.9281178695e+00 -3.3395981129e+00 1.9281178695e+00 3.3395981129e+00 
17800 4.7936675426e+00 -3.0824097574e-03 1.9281995475e+00 -3.3397395834e+00 1.9281995475e+00 3.3397395834e+00 
17900 4.7936685031e+00 -3.0152453184e-03 1.9282794778e+00 -3.3398780267e+00 1.9282794778e+00 3.3398780267e+00 
18000 4.7936694853e+00 -2.9482549057e-03 1.9283576632e+00 -3.3400134478e+00 1.9283576632e+00 3.3400134478e+00 
18100 4.7936704854e+00 -2.8815113643e-03 1.9284341084e+00 -3.3401458548e+00 1.9284341084e+00 3.3401458548e+00 
18200 4.7936714999e+00 -2.8150858151e-03 1.9285088200e+00 -3.3402752592e+00 1.9285088200e+00 3.3402752592e+00 
18300 4.7936725251e+00 -2.7490474512e-03 1.9285818066e+00 -3.3404016756e+00 1.9285818066e+00 3.3404016756e+00 
18400 4.7936735575e+00 -2.6834633520e-03 1.9286530782e+00 -3.3405251217e+00 1.9286530782e+00 3.3405251217e+00 
18500 4.7936745938e+00 -2.6183983158e-03 1.9287226470e+00 -3.3406456183e+00 1.9287226470e+00 3.3406456183e+00 
18600 4.7936756308e+00 -2.5539147102e-03 1.9287905265e+00 -3.3407631890e+00 1.9287905265e+00 3.3407631890e+00 
18700 4.7936766655e+00 -2.4900723406e-03 1.9288567319e+00 -3.3408778602e+00 1.9288567319e+00 3.3408778602e+00 
18800 4.7936776950e+00 -2.4269283340e-03 1.9289212802e+00 -3.3409896610e+00 1.9289212802e+00 3.3409896610e+00 
18900 4.7936787168e+00 -2.3645370409e-03 1.9289841895e+00 -3.3410986231e+00 1.9289841895e+00 3.3410986231e+00 
19000 4.7936797286e+00 -2.3029499514e-03 1.9290454795e+00 -3.3412047806e+00 1.9290454795e+00 3.3412047806e+00 
19100 4.7936807281e+00 -2.2422156273e-03 1.9291051712e+00 -3.3413081697e+00 1.9291051712e+00 3.3413081697e+00 
19200 4.7936817134e+00 -2.1823796483e-03 1.9291632869e+00 -3.3414088291e+00 1.9291632869e+00 3.3414088291e+00 
19300 4.7936826829e+00 -2.1234845721e-03 1.9292198501e+00 -3.3415067993e+00 1.9292198501e+00 3.3415067993e+00 
19400 4.7936836350e+00 -2.0655699080e-03 1.9292748851e+00 -3.3416021228e+00 1.9292748851e+00 3.3416021228e+00 
19500 4.7936845685e+00 -2.0086721021e-03 1.9293284177e+00 -3.3416948439e+00 1.9293284177e+00 3.3416948439e+00 
19600 4.7936854824e+00 -1.9528245356e-03 1.9293804742e+00 -3.3417850084e+00 1.9293804742e+00 3.3417850084e+00 
19700 4.7936863758e+00 -1.8980575334e-03 1.9294310819e+00 -3.3418726636e+00 1.9294310819e+00 3.3418726636e+00 
19800 4.7936872481e+00 -1.8443983835e-03 1.9294802691e+00 -3.3419578583e+00 1.9294802691e+00 3.3419578583e+00 
19900 4.7936880988e+00 -1.7918713663e-03 1.9295280645e+00 -3.3420406424e+00 1.9295280645e+00 3.3420406424e+00 
20000 4.7936889275e+00 -1.7404977929e-03 1.9295744976e+00 -3.3421210668e+00 1.9295744976e+00 3.3421210668e+00 
20100 4.7936897342e+00 -1.6902960523e-03 1.9296195983e+00 -3.3421991836e+00 1.9296195983e+00 3.3421991836e+00 
20200 4.7936905189e+00 -1.6412816660e-03 1.9296633972e+00 -3.3422750454e+00 1.9296633972e+00 3.3422750454e+00 
20300 4.7936912816e+00 -1.5934673501e-03 1.9297059250e+00 -3.3423487058e+00 1.9297059250e+00 3.3423487058e+00 
20400 4.7936920227e+00 -1.5468630842e-03 1.9297472130e+00 -3.3424202187e+00 1.9297472130e+00 3.3424202187e+00 
20500 4.7936927424e+00 -1.5014761859e-03 1.9297872926e+00 -3.3424896385e+00 1.9297872926e+00 3.3424896385e+00 
20600 4.7936934412e+00 -1.4573113912e-03 1.9298261953e+00 -3.3425570201e+00 1.9298261953e+00 3.3425570201e+00 
20700 4.7936941197e+00 -1.4143709392e-03 1.9298639530e+00 -3.3426224183e+00 1.9298639530e+00 3.3426224183e+00 
20800 4.7936947783e+00 -1.3726546613e-03 1.9299005975e+00 -3.3426858883e+00 1.9299005975e+00 3.3426858883e+00 
20900 4.7936954177e+00 -1.3321600746e-03 1.9299361604e+00 -3.3427474852e+00 1.9299361604e+00 3.3427474852e+00 
21000 4.7936960386e+00 -1.2928824777e-03 1.9299706736e+00 -3.3428072637e+00 1.9299706736e+00 3.3428072637e+00 
21100 4.7936966416e+00 -1.2548150494e-03 1.9300041685e+00 -3.3428652787e+00 1.9300041685e+00 3.3428652787e+00 
21200 4.7936972275e+00 -1.2179489505e-03 1.9300366767e+00 -3.3429215845e+00 1.9300366767e+00 3.3429215845e+00 
21300 4.7936977969e+00 -1.1822734258e-03 1.9300682293e+00 -3.3429762352e+00 1.9300682293e+00 3.3429762352e+00 
21400 4.7936983507e+00 -1.1477759087e-03 1.9300988571e+00 -3.3430292842e+00 1.9300988571e+00 3.3430292842e+00 
21500 4.7936988895e+00 -1.1144421264e-03 1.9301285908e+00 -3.3430807844e+00 1.9301285908e+00 3.3430807844e+00 
21600 4.7936994140e+00 -1.0822562048e-03 1.9301574605e+00 -3.3431307882e+00 1.9301574605e+00 3.3431307882e+00 
21700 4.7936999250e+00 -1.0512007746e-03 1.9301854960e+00 -3.3431793471e+00 1.9301854960e+00 3.3431793471e+00 
21800 4.7937004230e+00 -1.0212570767e-03 1.9302127266e+00 -3.3432265120e+00 1.9302127266e+00 3.3432265120e+00 
21900 4.7937009087e+00 -9.9240506643e-04 1.9302391812e+00 -3.3432723326e+00 1.9302391812e+00 3.3432723326e+00 
22000 4.7937013827e+00 -9.6462351813e-04 1.9302648881e+00 -3.3433168582e+00 1.9302648881e+00 3.3433168582e+00 
22100 4.7937018457e+00 -9.3789012726e-04 1.9302898749e+00 -3.3433601367e+00 1.9302898749e+00 3.3433601367e+00 
22200 4.7937022981e+00 -9.1218161186e-04 1.9303141690e+00 -3.3434022153e+00 1.9303141690e+00 3.3434022153e+00 
22300 4.7937027405e+00 -8.8747381195e-04 1.9303377969e+00 -3.3434431399e+00 1.9303377969e+00 3.3434431399e+00 
22400 4.7937031732e+00 -8.6374178700e-04 1.9303607844e+00 -3.3434829556e+00 1.9303607844e+00 3.3434829556e+00 
22500 4.7937035969e+00 -8.4095991134e-04 1.9303831570e+00 -3.3435217061e+00 1.9303831570e+00 3.3435217061e+00 
22600 4.7937040117e+00 -8.1910196705e-04 1.9304049393e+00 -3.3435594340e+00 1.9304049393e+00 3.3435594340e+00 
22700 4.7937044182e+00 -7.9814123442e-04 1.9304261551e+00 -3.3435961809e+00 1.9304261551e+00 3.3435961809e+00 
22800 4.7937048167e+00 -7.7805057964e-04 1.9304468278e+00 -3.3436319871e+00 1.9304468278e+00 3.3436319871e+00 
22900 4.7937052074e+00 -7.5880253966e-04 1.9304669799e+00 -3.3436668916e+00 1.9304669799e+00 3.3436668916e+00 
23000 4.7937055906e+00 -7.4036940410e-04 1.9304866333e+00 -3.3437009322e+00 1.9304866333e+00 3.3437009322e+00 
23100 4.7937059665e+00 -7.2272329407e-04 1.9305058091e+00 -3.3437341456e+00 1.9305058091e+00 3.3437341456e+00 
23200 4.7937063354e+00 -7.0583623778e-04 1.9305245276e+00 -3.3437665671e+00 1.9305245276e+00 3.3437665671e+00 
23300 4.7937066973e+00 -6.8968024299e-04 1.9305428086e+00 -3.3437982306e+00 1.9305428086e+00 3.3437982306e+00 
23400 4.7937070526e+00 -6.7422736606e-04 1.9305606709e+00 -3.3438291692e+00 1.9305606709e+00 3.3438291692e+00 
23500 4.7937074013e+00 -6.5944977767e-04 1.9305781329e+00 -3.3438594142e+00 1.9305781329e+00 3.3438594142e+00 
23600 4.7937077434e+00 -6.4531982519e-04 1.9305952120e+00 -3.3438889961e+00 1.9305952120e+00 3.3438889961e+00 
23700 4.7937080792e+00 -6.3181009157e-04 1.9306119250e+00 -3.3439179438e+00 1.9306119250e+00 3.3439179438e+00 
23800 4.7937084087e+00 -6.1889345081e-04 1.9306282880e+00 -3.3439462853e+00 1.9306282880e+00 3.3439462853e+00 
23900 4.7937087320e+00 -6.0654312004e-04 1.9306443163e+00 -3.3439740472e+00 1.9306443163e+00 3.3439740472e+00 
24000 4.7937090491e+00 -5.9473270815e-04 1.9306600246e+00 -3.3440012548e+00 1.9306600246e+00 3.3440012548e+00 
24100 4.7937093601e+00 -5.8343626103e-04 1.9306754270e+00 -3.3440279324e+00 1.9306754270e+00 3.3440279324e+00 
24200 4.7937096651e+00 -5.7262830341e-04 1.9306905366e+00 -3.3440541031e+00 1.9306905366e+00 3.3440541031e+00 
24300 4.7937099640e+00 -5.6228387746e-04 1.9307053663e+00 -3.3440797888e+00 1.9307053663e+00 3.3440797888e+00 
24400 4.7937102569e+00 -5.5237857800e-04 1.9307199279e+00 -3.3441050103e+00 1.9307199279e+00 3.3441050103e+00 
24500 4.7937105438e+00 -5.4288858459e-04 1.9307342329e+00 -3.3441297873e+00 1.9307342329e+00 3.3441297873e+00 
24600 4.7937108248e+00 -5.3379069037e-04 1.9307482921e+00 -3.3441541385e+00 1.9307482921e+00 3.3441541385e+00 
24700 4.7937110999e+00 -5.2506232784e-04 1.9307621155e+00 -3.3441780814e+00 1.9307621155e+00 3.3441780814e+00 
24800 4.7937113692e+00 -5.1668159167e-04 1.9307757128e+00 -3.3442016326e+00 1.9307757128e+00 3.3442016326e+00 
24900 4.7937116326e+00 -5.0862725850e-04 1.9307890930e+00 -3.3442248077e+00 1.9307890930e+00 3.3442248077e+00 
25000 4.7937118903e+00 -5.0087880390e-04 1.9308022645e+00 -3.3442476214e+00 1.9308022645e+00 3.3442476214e+00 
25100 4.7937121422e+00 -4.9341641662e-04 1.9308152352e+00 -3.3442700874e+00 1.9308152352e+00 3.3442700874e+00 
25200 4.7937123885e+00 -4.8622101012e-04 1.9308280126e+00 -3.3442922186e+00 1.9308280126e+00 3.3442922186e+00 
25300 4.7937126291e+00 -4.7927423154e-04 1.9308406037e+00 -3.3443140269e+00 1.9308406037e+00 3.3443140269e+00 
25400 4.7937128641e+00 -4.7255846821e-04 1.9308530147e+00 -3.3443355234e+00 1.9308530147e+00 3.3443355234e+00 
25500 4.7937130936e+00 -4.6605685178e-04 1.9308652517e+00 -3.3443567186e+00 1.9308652517e+00 3.3443567186e+00 
25600 4.7937133176e+00 -4.5975326009e-04 1.9308773204e+00 -3.3443776221e+00 1.9308773204e+00 3.3443776221e+00 
25700 4.7937135363e+00 -4.5363231690e-04 1.9308892257e+00 -3.3443982426e+00 1.9308892257e+00 3.3443982426e+00 
25800 4.7937137497e+00 -4.4767938951e-04 1.9309009724e+00 -3.3444185886e+00 1.9309009724e+00 3.3444185886e+00 
25900 4.7937139578e+00 -4.4188058452e-04 1.9309125649e+00 -3.3444386674e+00 1.9309125649e+00 3.3444386674e+00 
26000 4.7937141609e+00 -4.3622274170e-04 1.9309240072e+00 -3.3444584860e+00 1.9309240072e+00 3.3444584860e+00 
26100 4.7937143588e+00 -4.3069342613e-04 1.9309353029e+00 -3.3444780508e+00 1.9309353029e+00 3.3444780508e+00 
26200 4.7937145519e+00 -4.2528091879e-04 1.9309464554e+00 -3.3444973674e+00 1.9309464554e+00 3.3444973674e+00 
26300 4.7937147400e+00 -4.1997420556e-04 1.9309574676e+00 -3.3445164412e+00 1.9309574676e+00 3.3445164412e+00 
26400 4.7937149234e+00 -4.1476296489e-04 1.9309683424e+00 -3.3445352768e+00 1.9309683424e+00 3.3445352768e+00 
26500 4.7937151022e+00 -4.0963755410e-04 1.9309790822e+00 -3.3445538787e+00 1.9309790822e+00 3.3445538787e+00 
26600 4.7937152764e+00 -4.0458899457e-04 1.9309896892e+00 -3.3445722506e+00 1.9309896892e+00 3.3445722506e+00 
26700 4.7937154462e+00 -3.9960895581e-04 1.9310001654e+00 -3.3445903959e+00 1.9310001654e+00 3.3445903959e+00 
26800 4.7937156116e+00 -3.9468973852e-04 1.9310105126e+00 -3.3446083178e+00 1.9310105126e+00 3.3446083178e+00 
26900 4.7937157727e+00 -3.8982425679e-04 1.9310207324e+00 -3.3446260190e+00 1.9310207324e+00 3.3446260190e+00 
27000 4.7937159298e+00 -3.8500601956e-04 1.9310308261e+00 -3.3446435018e+00 1.9310308261e+00 3.3446435018e+00 
27100 4.7937160828e+00 -3.8022911125e-04 1.9310407951e+00 -3.3446607685e+00 1.9310407951e+00 3.3446607685e+00 
27200 4.7937162319e+00 -3.7548817195e-04 1.9310506403e+00 -3.3446778209e+00 1.9310506403e+00 3.3446778209e+00 
27300 4.7937163772e+00 -3.7077837698e-04 1.9310603626e+00 -3.3446946606e+00 1.9310603626e+00 3.3446946606e+00 
27400 4.7937165188e+00 -3.6609541608e-04 1.9310699630e+00 -3.3447112890e+00 1.9310699630e+00 3.3447112890e+00 
27500 4.7937166568e+00 -3.6143547221e-04 1.9310794421e+00 -3.3447277072e+00 1.9310794421e+00 3.3447277072e+00 
27600 4.7937167913e+00 -3.5679520017e-04 1.9310888005e+00 -3.3447439164e+00 1.9310888005e+00 3.3447439164e+00 
27700 4.7937169224e+00 -3.5217170494e-04 1.9310980387e+00 -3.3447599174e+00 1.9310980387e+00 3.3447599174e+00 
27800 4.7937170502e+00 -3.4756251994e-04 1.9311071571e+00 -3.3447757110e+00 1.9311071571e+00 3.3447757110e+00 
27900 4.7937171748e+00 -3.4296558528e-04 1.9311161562e+00 -3.3447912979e+00 1.9311161562e+00 3.3447912979e+00 
28000 4.7937172963e+00 -3.3837922597e-04 1.9311250362e+00 -3.3448066785e+00 1.9311250362e+00 3.3448066785e+00 
28100 4.7937174147e+00 -3.3380213029e-04 1.9311337974e+00 -3.3448218533e+00 1.9311337974e+00 3.3448218533e+00 
28200 4.7937175303e+00 -3.2923332822e-04 1.9311424400e+00 -3.3448368228e+00 1.9311424400e+00 3.3448368228e+00 
28300 4.7937176429e+00 -3.2467217016e-04 1.9311509644e+00 -3.3448515874e+00 1.9311509644e+00 3.3448515874e+00 
28400 4.7937177529e+00 -3.2011830584e-04 1.9311593706e+00 -3.3448661473e+00 1.9311593706e+00 3.3448661473e+00 
28500 4.7937178601e+00 -3.1557166359e-04 1.9311676588e+00 -3.3448805030e+00 1.9311676588e+00 3.3448805030e+00 
28600 4.7937179647e+00 -3.1103242987e-04 1.9311758293e+00 -3.3448946547e+00 1.9311758293e+00 3.3448946547e+00 
28700 4.7937180668e+00 -3.0650102930e-04 1.9311838822e+00 -3.3449086028e+00 1.9311838822e+00 3.3449086028e+00 
28800 4.7937181664e+00 -3.0197810507e-04 1.9311918178e+00 -3.3449223476e+00 1.9311918178e+00 3.3449223476e+00 
28900 4.7937182637e+00 -2.9746449980e-04 1.9311996363e+00 -3.3449358896e+00 1.9311996363e+00 3.3449358896e+00 
29000 4.7937183586e+00 -2.9296123696e-04 1.9312073378e+00 -3.3449492290e+00 1.9312073378e+00 3.3449492290e+00 
29100 4.7937184512e+00 -2.8846950272e-04 1.9312149227e+00 -3.3449623665e+00 1.9312149227e+00 3.3449623665e+00 
29200 4.7937185417e+00 -2.8399062848e-04 1.9312223913e+00 -3.3449753025e+00 1.9312223913e+00 3.3449753025e+00 
29300 4.7937186300e+00 -2.7952607389e-04 1.9312297440e+00 -3.3449880376e+00 1.9312297440e+00 3.3449880376e+00 
29400 4.7937187162e+00 -2.7507741051e-04 1.9312369810e+00 -3.3450005725e+00 1.9312369810e+00 3.3450005725e+00 
29500 4.7937188004e+00 -2.7064630605e-04 1.9312441028e+00 -3.3450129078e+00 1.9312441028e+00 3.3450129078e+00 
29600 4.7937188826e+00 -2.6623450928e-04 1.9312511098e+00 -3.3450250444e+00 1.9312511098e+00 3.3450250444e+00 
29700 4.7937189629e+00 -2.6184383558e-04 1.9312580026e+00 -3.3450369831e+00 1.9312580026e+00 3.3450369831e+00 
29800 4.7937190413e+00 -2.5747615312e-04 1.9312647817e+00 -3.3450487248e+00 1.9312647817e+00 3.3450487248e+00 
29900 4.7937191179e+00 -2.5313336970e-04 1.9312714477e+00 -3.3450602707e+00 1.9312714477e+00 3.3450602707e+00 
30000 4.7937191927e+00 -2.4881742030e-04 1.9312780013e+00 -3.3450716217e+00 1.9312780013e+00 3.3450716217e+00 
30100 4.7937192657e+00 -2.4453025521e-04 1.9312844431e+00 -3.3450827792e+00 1.9312844431e+00 3.3450827792e+00 
30200 4.7937193370e+00 -2.4027382893e-04 1.9312907738e+00 -3.3450937445e+00 1.9312907738e+00 3.3450937445e+00 
30300 4.7937194067e+00 -2.3605008965e-04 1.9312969944e+00 -3.3451045188e+00 1.9312969944e+00 3.3451045188e+00 
30400 4.7937194748e+00 -2.3186096942e-04 1.9313031056e+00 -3.3451151036e+00 1.9313031056e+00 3.3451151036e+00 
30500 4.7937195412e+00 -2.2770837500e-04 1.9313091083e+00 -3.3451255006e+00 1.9313091083e+00 3.3451255006e+00 
30600 4.7937196061e+00 -2.2359417931e-04 1.9313150035e+00 -3.3451357114e+00 1.9313150035e+00 3.3451357114e+00 
30700 4.7937196695e+00 -2.1952021356e-04 1.9313207921e+00 -3.3451457377e+00 1.9313207921e+00 3.3451457377e+00 
30800 4.7937197314e+00 -2.1548825995e-04 1.9313264753e+00 -3.3451555812e+00 1.9313264753e+00 3.3451555812e+00 
30900 4.7937197919e+00 -2.1150004509e-04 1.9313320540e+00 -3.3451652439e+00 1.9313320540e+00 3.3451652439e+00 
31000 4.7937198509e+00 -2.0755723388e-04 1.9313375295e+00 -3.3451747277e+00 1.9313375295e+00 3.3451747277e+00 
31100 4.7937199086e+00 -2.0366142412e-04 1.9313429030e+00 -3.3451840347e+00 1.9313429030e+00 3.3451840347e+00 
31200 4.7937199649e+00 -1.9981414158e-04 1.9313481755e+00 -3.3451931671e+00 1.9313481755e+00 3.3451931671e+00 
31300 4.7937200199e+00 -1.9601683570e-04 1.9313533484e+00 -3.3452021268e+00 1.9313533484e+00 3.3452021268e+00 
31400 4.7937200736e+00 -1.9227087577e-04 1.9313584230e+00 -3.3452109163e+00 1.9313584230e+00 3.3452109163e+00 
31500 4.7937201260e+00 -1.8857754772e-04 1.9313634006e+00 -3.3452195378e+00 1.9313634006e+00 3.3452195378e+00 
31600 4.7937201773e+00 -1.8493805126e-04 1.9313682826e+00 -3.3452279936e+00 1.9313682826e+00 3.3452279936e+00 
31700 4.7937202273e+00 -1.8135349771e-04 1.9313730703e+00 -3.3452362862e+00 1.9313730703e+00 3.3452362862e+00 
31800 4.7937202761e+00 -1.7782490808e-04 1.9313777653e+00 -3.3452444181e+00 1.9313777653e+00 3.3452444181e+00 
31900 4.7937203238e+00 -1.7435321175e-04 1.9313823689e+00 -3.3452523917e+00 1.9313823689e+00 3.3452523917e+00 
32000 4.7937203703e+00 -1.7093924551e-04 1.9313868826e+00 -3.3452602097e+00 1.9313868826e+00 3.3452602097e+00 
32100 4.7937204158e+00 -1.6758375298e-04 1.9313913079e+00 -3.3452678745e+00 1.9313913079e+00 3.3452678745e+00 
32200 4.7937204602e+00 -1.6428738448e-04 1.9313956463e+00 -3.3452753889e+00 1.9313956463e+00 3.3452753889e+00 
32300 4.7937205035e+00 -1.6105069720e-04 1.9313998994e+00 -3.3452827554e+00 1.9313998994e+00 3.3452827554e+00 
32400 4.7937205459e+00 -1.5787415573e-04 1.9314040686e+00 -3.3452899768e+00 1.9314040686e+00 3.3452899768e+00 
32500 4.7937205872e+00 -1.5475813289e-04 1.9314081557e+00 -3.3452970558e+00 1.9314081557e+00 3.3452970558e+00 
32600 4.7937206276e+00 -1.5170291093e-04 1.9314121620e+00 -3.3453039950e+00 1.9314121620e+00 3.3453039950e+00 
32700 4.7937206670e+00 -1.4870868292e-04 1.9314160893e+00 -3.3453107972e+00 1.9314160893e+00 3.3453107972e+00 
32800 4.7937207055e+00 -1.4577555443e-04 1.9314199390e+00 -3.3453174651e+00 1.9314199390e+00 3.3453174651e+00 
32900 4.7937207430e+00 -1.4290354548e-04 1.9314237128e+00 -3.3453240015e+00 1.9314237128e+00 3.3453240015e+00 
33000 4.7937207797e+00 -1.4009259265e-04 1.9314274122e+00 -3.3453304091e+00 1.9314274122e+00 3.3453304091e+00 
33100 4.7937208156e+00 -1.3734255143e-04 1.9314310389e+00 -3.3453366907e+00 1.9314310389e+00 3.3453366907e+00 
33200 4.7937208506e+00 -1.3465319876e-04 1.9314345944e+00 -3.3453428489e+00 1.9314345944e+00 3.3453428489e+00 
33300 4.7937208848e+00 -1.3202423566e-04 1.9314380802e+00 -3.3453488866e+00 1.9314380802e+00 3.3453488866e+00 
33400 4.7937209182e+00 -1.2945529011e-04 1.9314414980e+00 -3.3453548063e+00 1.9314414980e+00 3.3453548063e+00 
33500 4.7937209508e+00 -1.2694591997e-04 1.9314448492e+00 -3.3453606109e+00 1.9314448492e+00 3.3453606109e+00 
33600 4.7937209826e+00 -1.2449561604e-04 1.9314481355e+00 -3.3453663029e+00 1.9314481355e+00 3.3453663029e+00 
33700 4.7937210137e+00 -1.2210380524e-04 1.9314513584e+00 -3.3453718851e+00 1.9314513584e+00 3.3453718851e+00 
33800 4.7937210441e+00 -1.1976985379e-04 1.9314545193e+00 -3.3453773600e+00 1.9314545193e+00 3.3453773600e+00 
33900 4.7937210738e+00 -1.1749307054e-04 1.9314576198e+00 -3.3453827302e+00 1.9314576198e+00 3.3453827302e+00 
34000 4.7937211028e+00 -1.1527271032e-04 1.9314606614e+00 -3.3453879984e+00 1.9314606614e+00 3.3453879984e+00 
34100 4.7937211311e+00 -1.1310797727e-04 1.9314636455e+00 -3.3453931669e+00 1.9314636455e+00 3.3453931669e+00 
34200 4.7937211588e+00 -1.1099802830e-04 1.9314665735e+00 -3.3453982384e+00 1.9314665735e+00 3.3453982384e+00 
34300 4.7937211859e+00 -1.0894197642e-04 1.9314694469e+00 -3.3454032153e+00 1.9314694469e+00 3.3454032153e+00 
34400 4.7937212123e+00 -1.0693889418e-04 1.9314722671e+00 -3.3454081000e+00 1.9314722671e+00 3.3454081000e+00 
34500 4.7937212381e+00 -1.0498781707e-04 1.9314750354e+00 -3.3454128949e+00 1.9314750354e+00 3.3454128949e+00 
34600 4.7937212634e+00 -1.0308774685e-04 1.9314777533e+00 -3.3454176023e+00 1.9314777533e+00 3.3454176023e+00 
34700 4.7937212880e+00 -1.0123765487e-04 1.9314804219e+00 -3.3454222245e+00 1.9314804219e+00 3.3454222245e+00 
34800 4.7937213121e+00 -9.9436485376e-05 1.9314830426e+00 -3.3454267637e+00 1.9314830426e+00 3.3454267637e+00 
34900 4.7937213357e+00 -9.7683158707e-05 1.9314856167e+00 -3.3454312222e+00 1.9314856167e+00 3.3454312222e+00 
35000 4.7937213587e+00 -9.5976574479e-05 1.9314881454e+00 -3.3454356021e+00 1.9314881454e+00 3.3454356021e+00 
35100 4.7937213812e+00 -9.4315614667e-05 1.9314906299e+00 -3.3454399054e+00 1.9314906299e+00 3.3454399054e+00 
35200 4.7937214032e+00 -9.2699146632e-05 1.9314930715e+00 -3.3454441342e+00 1.9314930715e+00 3.3454441342e+00 
35300 4.7937214247e+00 -9.1126026048e-05 1.9314954711e+00 -3.3454482906e+00 1.9314954711e+00 3.3454482906e+00 
35400 4.7937214458e+00 -8.9595099759e-05 1.9314978301e+00 -3.3454523764e+00 1.9314978301e+00 3.3454523764e+00 
35500 4.7937214663e+00 -8.8105208536e-05 1.9315001494e+00 -3.3454563936e+00 1.9315001494e+00 3.3454563936e+00 
35600 4.7937214864e+00 -8.6655189728e-05 1.9315024301e+00 -3.3454603440e+00 1.9315024301e+00 3.3454603440e+00 
35700 4.7937215060e+00 -8.5243879829e-05 1.9315046734e+00 -3.3454642293e+00 1.9315046734e+00 3.3454642293e+00 
35800 4.7937215253e+00 -8.3870116936e-05 1.9315068800e+00 -3.3454680514e+00 1.9315068800e+00 3.3454680514e+00 
35900 4.7937215440e+00 -8.2532743087e-05 1.9315090511e+00 -3.3454718118e+00 1.9315090511e+00 3.3454718118e+00 
36000 4.7937215624e+00 -8.1230606508e-05 1.9315111876e+00 -3.3454755123e+00 1.9315111876e+00 3.3454755123e+00 
36100 4.7937215804e+00 -7.9962563735e-05 1.9315132904e+00 -3.3454791544e+00 1.9315132904e+00 3.3454791544e+00 
36200 4.7937215979e+00 -7.8727481632e-05 1.9315153603e+00 -3.3454827397e+00 1.9315153603e+00 3.3454827397e+00 
36300 4.7937216151e+00 -7.7524239298e-05 1.9315173983e+00 -3.3454862696e+00 1.9315173983e+00 3.3454862696e+00 
36400 4.7937216319e+00 -7.6351729842e-05 1.9315194051e+00 -3.3454897455e+00 1.9315194051e+00 3.3454897455e+00 
36500 4.7937216484e+00 -7.5208862067e-05 1.9315213816e+00 -3.3454931688e+00 1.9315213816e+00 3.3454931688e+00 
36600 4.7937216644e+00 -7.4094562022e-05 1.9315233285e+00 -3.3454965409e+00 1.9315233285e+00 3.3454965409e+00 
36700 4.7937216801e+00 -7.3007774457e-05 1.9315252465e+00 -3.3454998631e+00 1.9315252465e+00 3.3454998631e+00 
36800 4.7937216955e+00 -7.1947464147e-05 1.9315271364e+00 -3.3455031365e+00 1.9315271364e+00 3.3455031365e+00 
36900 4.7937217106e+00 -7.0912617121e-05 1.9315289989e+00 -3.3455063623e+00 1.9315289989e+00 3.3455063623e+00 
37000 4.7937217253e+00 -6.9902241767e-05 1.9315308345e+00 -3.3455095418e+00 1.9315308345e+00 3.3455095418e+00 
37100 4.7937217398e+00 -6.9656201851e-05 1.9315308345e+00 -3.3455095418e+00 1.9315308345e+00 3.3455095418e+00 
37200 4.7937217540e+00 -6.9427400356e-05 1.9315308345e+00 -3.3455095418e+00 1.9315308345e+00 3.3455095418e+00 
37300 4.7937217679e+00 -6.9214995335e-05 1.9315308345e+00 -3.3455095418e+00 1.9315308345e+00 3.3455095418e+00 
37400 4.7937217815e+00 -6.9018162829e-05 1.9315308345e+00 -3.3455095418e+00 1.9315308345e+00 3.3455095418e+00 
37500 4.7937217948e+00 -6.8836097096e-05 1.9315308345e+00 -3.3455095418e+00 1.9315308345e+00 3.3455095418e+00 
37600 4.7937218078e+00 -6.8668010857e-05 1.9315308345e+00 -3.3455095418e+00 1.9315308345e+00 3.3455095418e+00 
37700 4.7937218205e+00 -6.8513135569e-05 1.9315308345e+00 -3.3455095418e+00 1.9315308345e+00 3.3455095418e+00 
37800 4.7937218329e+00 -6.8370721708e-05 1.9315308345e+00 -3.3455095418e+00 1.9315308345e+00 3.3455095418e+00 
37900 4.7937218451e+00 -6.8240039054e-05 1.9315308345e+00 -3.3455095418e+00 1.9315308345e+00 3.3455095418e+00 
38000 4.7937218570e+00 -6.8120376978e-05 1.9315308345e+00 -3.3455095418e+00 1.9315308345e+00 3.3455095418e+00 
38100 4.7937218687e+00 -6.8011044711e-05 1.9315308345e+00 -3.3455095418e+00 1.9315308345e+00 3.3455095418e+00 
38200 4.7937218801e+00 -6.7911371597e-05 1.9315308345e+00 -3.3455095418e+00 1.9315308345e+00 3.3455095418e+00 
38300 4.7937218913e+00 -6.7820707340e-05 1.9315308345e+00 -3.3455095418e+00 1.9315308345e+00 3.3455095418e+00 
38400 4.7937219022e+00 -6.7738422209e-05 1.9315308345e+00 -3.3455095418e+00 1.9315308345e+00 3.3455095418e+00 
38500 4.7937219129e+00 -6.7663907222e-05 1.9315308345e+00 -3.3455095418e+00 1.9315308345e+00 3.3455095418e+00 
38600 4.7937219233e+00 -6.7596574308e-05 1.9315308345e+00 -3.3455095418e+00 1.9315308345e+00 3.3455095418e+00 
38700 4.7937219336e+00 -6.7535856422e-05 1.9315308345e+00 -3.3455095418e+00 1.9315308345e+00 3.3455095418e+00 
38800 4.7937219436e+00 -6.7481207634e-05 1.9315308345e+00 -3.3455095418e+00 1.9315308345e+00 3.3455095418e+00 
38900 4.7937219534e+00 -6.7432103187e-05 1.9315308345e+00 -3.3455095418e+00 1.9315308345e+00 3.3455095418e+00 
39000 4.7937219630e+00 -6.7388039505e-05 1.9315308345e+00 -3.3455095418e+00 1.9315308345e+00 3.3455095418e+00 
39100 4.7937219724e+00 -6.7348534180e-05 1.9315308345e+00 -3.3455095418e+00 1.9315308345e+00 3.3455095418e+00 
39200 4.7937219816e+00 -6.7313125906e-05 1.9315308345e+00 -3.3455095418e+00 1.9315308345e+00 3.3455095418e+00 
39300 4.7937219906e+00 -6.7281374392e-05 1.9315308345e+00 -3.3455095418e+00 1.9315308345e+00 3.3455095418e+00 
39400 4.7937219994e+00 -6.7252860224e-05 1.9315308345e+00 -3.3455095418e+00 1.9315308345e+00 3.3455095418e+00 
39500 4.7937220080e+00 -6.7227184705e-05 1.9315308345e+00 -3.3455095418e+00 1.9315308345e+00 3.3455095418e+00 
39600 4.7937220164e+00 -6.7203969644e-05 1.9315308345e+00 -3.3455095418e+00 1.9315308345e+00 3.3455095418e+00 
39700 4.7937220247e+00 -6.7182857127e-05 1.9315308345e+00 -3.3455095418e+00 1.9315308345e+00 3.3455095418e+00 
39800 4.7937220328e+00 -6.7163509244e-05 1.9315308345e+00 -3.3455095418e+00 1.9315308345e+00 3.3455095418e+00 
39900 4.7937220407e+00 -6.7145607792e-05 1.9315308345e+00 -3.3455095418e+00 1.9315308345e+00 3.3455095418e+00 
40000 4.7937220485e+00 -6.7128853940e-05 1.9315308345e+00 -3.3455095418e+00 1.9315308345e+00 3.3455095418e+00 
40100 4.7937220561e+00 -6.7112967875e-05 1.9315308345e+00 -3.3455095418e+00 1.9315308345e+00 3.3455095418e+00 
40200 4.7937220635e+00 -6.7097688414e-05 1.9315308345e+00 -3.3455095418e+00 1.9315308345e+00 3.3455095418e+00 
40300 4.7937220708e+00 -6.7082772595e-05 1.9315308345e+00 -3.3455095418e+00 1.9315308345e+00 3.3455095418e+00 
40400 4.7937220779e+00 -6.7067995241e-05 1.9315308345e+00 -3.3455095418e+00 1.9315308345e+00 3.3455095418e+00 
40500 4.7937220849e+00 -6.7053148509e-05 1.9315308345e+00 -3.3455095418e+00 1.9315308345e+00 3.3455095418e+00 
40600 4.7937220917e+00 -6.7038041411e-05 1.9315308345e+00 -3.3455095418e+00 1.9315308345e+00 3.3455095418e+00 
40700 4.7937220984e+00 -6.7022499328e-05 1.9315308345e+00 -3.3455095418e+00 1.9315308345e+00 3.3455095418e+00 
40800 4.7937221049e+00 -6.7006363496e-05 1.9315308345e+00 -3.3455095418e+00 1.9315308345e+00 3.3455095418e+00 
40900 4.7937221114e+00 -6.6989490486e-05 1.9315308345e+00 -3.3455095418e+00 1.9315308345e+00 3.3455095418e+00 
41000 4.7937221177e+00 -6.6971751674e-05 1.9315308345e+00 -3.3455095418e+00 1.9315308345e+00 3.3455095418e+00 
41100 4.7937221238e+00 -6.6953032694e-05 1.9315308345e+00 -3.3455095418e+00 1.9315308345e+00 3.3455095418e+00 
41200 4.7937221298e+00 -6.6933232884e-05 1.9315308345e+00 -3.3455095418e+00 1.9315308345e+00 3.3455095418e+00 
41300 4.7937221357e+00 -6.6912264731e-05 1.9315308345e+00 -3.3455095418e+00 1.9315308345e+00 3.3455095418e+00 
41400 4.7937221415e+00 -6.6890053305e-05 1.9315308345e+00 -3.3455095418e+00 1.9315308345e+00 3.3455095418e+00 
41500 4.7937221472e+00 -6.6866535689e-05 1.9315308345e+00 -3.3455095418e+00 1.9315308345e+00 3.3455095418e+00 
41600 4.7937221527e+00 -6.6841660415e-05 1.9315308345e+00 -3.3455095418e+00 1.9315308345e+00 3.3455095418e+00 
41700 4.7937221582e+00 -6.6815386893e-05 1.9315308345e+00 -3.3455095418e+00 1.9315308345e+00 3.3455095418e+00 
41800 4.7937221635e+00 -6.6787684841e-05 1.9315308345e+00 -3.3455095418e+00 1.9315308345e+00 3.3455095418e+00 
41900 4.7937221687e+00 -6.6758533724e-05 1.9315308345e+00 -3.3455095418e+00 1.9315308345e+00 3.3455095418e+00 
42000 4.7937221738e+00 -6.6727922191e-05 1.9315308345e+00 -3.3455095418e+00 1.9315308345e+00 3.3455095418e+00 
42100 4.7937221789e+00 -6.6695847519e-05 1.9315308345e+00 -3.3455095418e+00 1.9315308345e+00 3.3455095418e+00 
42200 4.7937221838e+00 -6.6662315067e-05 1.9315308345e+00 -3.3455095418e+00 1.9315308345e+00 3.3455095418e+00 
42300 4.7937221886e+00 -6.6627337732e-05 1.9315308345e+00 -3.3455095418e+00 1.9315308345e+00 3.3455095418e+00 
42400 4.7937221933e+00 -6.6590935422e-05 1.9315308345e+00 -3.3455095418e+00 1.9315308345e+00 3.3455095418e+00 
42500 4.7937221979e+00 -6.6553134529e-05 1.9315308345e+00 -3.3455095418e+00 1.9315308345e+00 3.3455095418e+00 
42600 4.7937222024e+00 -6.6513967418e-05 1.9315308345e+00 -3.3455095418e+00 1.9315308345e+00 3.3455095418e+00 
42700 4.7937222069e+00 -6.6473471936e-05 1.9315308345e+00 -3.3455095418e+00 1.9315308345e+00 3.3455095418e+00 
42800 4.7937222112e+00 -6.6431690911e-05 1.9315308345e+00 -3.3455095418e+00 1.9315308345e+00 3.3455095418e+00 
42900 4.7937222155e+00 -6.6388671693e-05 1.9315308345e+00 -3.3455095418e+00 1.9315308345e+00 3.3455095418e+00 
43000 4.7937222196e+00 -6.6344465684e-05 1.9315308345e+00 -3.3455095418e+00 1.9315308345e+00 3.3455095418e+00 
43100 4.7937222237e+00 -6.6299127896e-05 1.9315308345e+00 -3.3455095418e+00 1.9315308345e+00 3.3455095418e+00 
43200 4.7937222278e+00 -6.6252716520e-05 1.9315308345e+00 -3.3455095418e+00 1.9315308345e+00 3.3455095418e+00 
43300 4.7937222317e+00 -6.6205292516e-05 1.9315308345e+00 -3.3455095418e+00 1.9315308345e+00 3.3455095418e+00 
43400 4.7937222355e+00 -6.6156919202e-05 1.9315308345e+00 -3.3455095418e+00 1.9315308345e+00 3.3455095418e+00 
43500 4.7937222393e+00 -6.6107661883e-05 1.9315308345e+00 -3.3455095418e+00 1.9315308345e+00 3.3455095418e+00 
43600 4.7937222430e+00 -6.6057587476e-05 1.9315308345e+00 -3.3455095418e+00 1.9315308345e+00 3.3455095418e+00 
43700 4.7937222466e+00 -6.6006764164e-05 1.9315308345e+00 -3.3455095418e+00 1.9315308345e+00 3.3455095418e+00 
43800 4.7937222502e+00 -6.5955261058e-05 1.9315308345e+00 -3.3455095418e+00 1.9315308345e+00 3.3455095418e+00 
43900 4.7937222537e+00 -6.5903147885e-05 1.9315308345e+00 -3.3455095418e+00 1.9315308345e+00 3.3455095418e+00 
44000 4.7937222571e+00 -6.5850494680e-05 1.9315308345e+00 -3.3455095418e+00 1.9315308345e+00 3.3455095418e+00 
44100 4.7937222605e+00 -6.5797371511e-05 1.9315308345e+00 -3.3455095418e+00 1.9315308345e+00 3.3455095418e+00 
44200 4.7937222637e+00 -6.5743848204e-05 1.9315308345e+00 -3.3455095418e+00 1.9315308345e+00 3.3455095418e+00 
44300 4.7937222670e+00 -6.5689994097e-05 1.9315308345e+00 -3.3455095418e+00 1.9315308345e+00 3.3455095418e+00 
44400 4.7937222701e+00 -6.5635877803e-05 1.9315308345e+00 -3.3455095418e+00 1.9315308345e+00 3.3455095418e+00 
44500 4.7937222732e+00 -6.5581566993e-05 1.9315308345e+00 -3.3455095418e+00 1.9315308345e+00 3.3455095418e+00 
44600 4.7937222763e+00 -6.5527128194e-05 1.9315308345e+00 -3.3455095418e+00 1.9315308345e+00 3.3455095418e+00 
44700 4.7937222792e+00 -6.5472626602e-05 1.9315308345e+00 -3.3455095418e+00 1.9315308345e+00 3.3455095418e+00 
44800 4.7937222822e+00 -6.5418125908e-05 1.9315308345e+00 -3.3455095418e+00 1.9315308345e+00 3.3455095418e+00 
44900 4.7937222850e+00 -6.5363688145e-05 1.9315308345e+00 -3.3455095418e+00 1.9315308345e+00 3.3455095418e+00 
45000 4.7937222878e+00 -6.5309373547e-05 1.9315308345e+00 -3.3455095418e+00 1.9315308345e+00 3.3455095418e+00 
45100 4.7937222906e+00 -6.5255240417e-05 1.9315308345e+00 -3.3455095418e+00 1.9315308345e+00 3.3455095418e+00 
45200 4.7937222933e+00 -6.5201345016e-05 1.9315308345e+00 -3.3455095418e+00 1.9315308345e+00 3.3455095418e+00 
45300 4.7937222959e+00 -6.5147741464e-05 1.9315308345e+00 -3.3455095418e+00 1.9315308345e+00 3.3455095418e+00 
45400 4.7937222985e+00 -6.5094481651e-05 1.9315308345e+00 -3.3455095418e+00 1.9315308345e+00 3.3455095418e+00 
45500 4.7937223011e+00 -6.5041615162e-05 1.9315308345e+00 -3.3455095418e+00 1.9315308345e+00 3.3455095418e+00 
45600 4.7937223036e+00 -6.4989189217e-05 1.9315308345e+00 -3.3455095418e+00 1.9315308345e+00 3.3455095418e+00 
45700 4.7937223060e+00 -6.4937248616e-05 1.9315308345e+00 -3.3455095418e+00 1.9315308345e+00 3.3455095418e+00 
45800 4.7937223085e+00 -6.4885835704e-05 1.9315308345e+00 -3.3455095418e+00 1.9315308345e+00 3.3455095418e+00 
45900 4.7937223108e+00 -6.4834990336e-05 1.9315308345e+00 -3.3455095418e+00 1.9315308345e+00 3.3455095418e+00 
46000 4.7937223131e+00 -6.4784749861e-05 1.9315308345e+00 -3.3455095418e+00 1.9315308345e+00 3.3455095418e+00 
46100 4.7937223154e+00 -6.4735149113e-05 1.9315308345e+00 -3.3455095418e+00 1.9315308345e+00 3.3455095418e+00 
46200 4.7937223176e+00 -6.4686220409e-05 1.9315308345e+00 -3.3455095418e+00 1.9315308345e+00 3.3455095418e+00 
46300 4.7937223198e+00 -6.4637993557e-05 1.9315308345e+00 -3.3455095418e+00 1.9315308345e+00 3.3455095418e+00 
46400 4.7937223220e+00 -6.4590495871e-05 1.9315308345e+00 -3.3455095418e+00 1.9315308345e+00 3.3455095418e+00 
46500 4.7937223241e+00 -6.4543752199e-05 1.9315308345e+00 -3.3455095418e+00 1.9315308345e+00 3.3455095418e+00 
46600 4.7937223261e+00 -6.4497784948e-05 1.9315308345e+00 -3.3455095418e+00 1.9315308345e+00 3.3455095418e+00 
46700 4.7937223281e+00 -6.4452614123e-05 1.9315308345e+00 -3.3455095418e+00 1.9315308345e+00 3.3455095418e+00 
46800 4.7937223301e+00 -6.4408257373e-05 1.9315308345e+00 -3.3455095418e+00 1.9315308345e+00 3.3455095418e+00 
46900 4.7937223321e+00 -6.4364730036e-05 1.9315308345e+00 -3.3455095418e+00 1.9315308345e+00 3.3455095418e+00 
47000 4.7937223340e+00 -6.4322045195e-05 1.9315308345e+00 -3.3455095418e+00 1.9315308345e+00 3.3455095418e+00 
47100 4.7937223359e+00 -6.4280213739e-05 1.9315308345e+00 -3.3455095418e+00 1.9315308345e+00 3.3455095418e+00 
47200 4.7937223377e+00 -6.4239244418e-05 1.9315308345e+00 -3.3455095418e+00 1.9315308345e+00 3.3455095418e+00 
47300 4.7937223395e+00 -6.4199143920e-05 1.9315308345e+00 -3.3455095418e+00 1.9315308345e+00 3.3455095418e+00 
47400 4.7937223413e+00 -6.4159916934e-05 1.9315308345e+00 -3.3455095418e+00 1.9315308345e+00 3.3455095418e+00 
47500 4.7937223430e+00 -6.4121566225e-05 1.9315308345e+00 -3.3455095418e+00 1.9315308345e+00 3.3455095418e+00 
47600 4.7937223447e+00 -6.4084092708e-05 1.9315308345e+00 -3.3455095418e+00 1.9315308345e+00 3.3455095418e+00 
47700 4.7937223464e+00 -6.4047495529e-05 1.9315308345e+00 -3.3455095418e+00 1.9315308345e+00 3.3455095418e+00 
47800 4.7937223481e+00 -6.4011772141e-05 1.9315308345e+00 -3.3455095418e+00 1.9315308345e+00 3.3455095418e+00 
47900 4.7937223497e+00 -6.3976918387e-05 1.9315308345e+00 -3.3455095418e+00 1.9315308345e+00 3.3455095418e+00 
48000 4.7937223512e+00 -6.3942928581e-05 1.9315308345e+00 -3.3455095418e+00 1.9315308345e+00 3.3455095418e+00 
48100 4.7937223528e+00 -6.3909795592e-05 1.9315308345e+00 -3.3455095418e+00 1.9315308345e+00 3.3455095418e+00 
48200 4.7937223543e+00 -6.3877510924e-05 1.9315308345e+00 -3.3455095418e+00 1.9315308345e+00 3.3455095418e+00 
48300 4.7937223558e+00 -6.3846064803e-05 1.9315308345e+00 -3.3455095418e+00 1.9315308345e+00 3.3455095418e+00 
48400 4.7937223573e+00 -6.3815446257e-05 1.9315308345e+00 -3.3455095418e+00 1.9315308345e+00 3.3455095418e+00 
48500 4.7937223587e+00 -6.3785643202e-05 1.9315308345e+00 -3.3455095418e+00 1.9315308345e+00 3.3455095418e+00 
48600 4.7937223602e+00 -6.3756642522e-05 1.9315308345e+00 -3.3455095418e+00 1.9315308345e+00 3.3455095418e+00 
48700 4.7937223615e+00 -6.3728430151e-05 1.9315308345e+00 -3.3455095418e+00 1.9315308345e+00 3.3455095418e+00 
48800 4.7937223629e+00 -6.3700991152e-05 1.9315308345e+00 -3.3455095418e+00 1.9315308345e+00 3.3455095418e+00 
48900 4.7937223642e+00 -6.3674309799e-05 1.9315308345e+00 -3.3455095418e+00 1.9315308345e+00 3.3455095418e+00 
49000 4.7937223656e+00 -6.3648369651e-05 1.9315308345e+00 -3.3455095418e+00 1.9315308345e+00 3.3455095418e+00 
49100 4.7937223669e+00 -6.3623153630e-05 1.9315308345e+00 -3.3455095418e+00 1.9315308345e+00 3.3455095418e+00 
49200 4.7937223681e+00 -6.3598644092e-05 1.9315308345e+00 -3.3455095418e+00 1.9315308345e+00 3.3455095418e+00 
49300 4.7937223694e+00 -6.3574822906e-05 1.9315308345e+00 -3.3455095418e+00 1.9315308345e+00 3.3455095418e+00 
49400 4.7937223706e+00 -6.3551671515e-05 1.9315308345e+00 -3.3455095418e+00 1.9315308345e+00 3.3455095418e+00 
49500 4.7937223718e+00 -6.3529171012e-05 1.9315308345e+00 -3.3455095418e+00 1.9315308345e+00 3.3455095418e+00 
49600 4.7937223730e+00 -6.3507302200e-05 1.9315308345e+00 -3.3455095418e+00 1.9315308345e+00 3.3455095418e+00 
49700 4.7937223741e+00 -6.3486045657e-05 1.9315308345e+00 -3.3455095418e+00 1.9315308345e+00 3.3455095418e+00 
49800 4.7937223752e+00 -6.3465381797e-05 1.9315308345e+00 -3.3455095418e+00 1.9315308345e+00 3.3455095418e+00 
49900 4.7937223764e+00 -6.3445290928e-05 1.9315308345e+00 -3.3455095418e+00 1.9315308345e+00 3.3455095418e+00 
50000 4.7937223775e+00 -6.3425753310e-05 1.9315308345e+00 -3.3455095418e+00 1.9315308345e+00 3.3455095418e+00 
50100 4.7937223785e+00 -6.3406749204e-05 1.9315308345e+00 -3.3455095418e+00 1.9315308345e+00 3.3455095418e+00 
50200 4.7937223796e+00 -6.3388258923e-05 1.9315308345e+00 -3.3455095418e+00 1.9315308345e+00 3.3455095418e+00 
50300 4.7937223806e+00 -6.3370262882e-05 1.9315308345e+00 -3.3455095418e+00 1.9315308345e+00 3.3455095418e+00 
50400 4.7937223816e+00 -6.3352741644e-05 1.9315308345e+00 -3.3455095418e+00 1.9315308345e+00 3.3455095418e+00 
50500 4.7937223826e+00 -6.3335675959e-05 1.9315308345e+00 -3.3455095418e+00 1.9315308345e+00 3.3455095418e+00 
50600 4.7937223836e+00 -6.3319046805e-05 1.9315308345e+00 -3.3455095418e+00 1.9315308345e+00 3.3455095418e+00 
50700 4.7937223846e+00 -6.3302835426e-05 1.9315308345e+00 -3.3455095418e+00 1.9315308345e+00 3.3455095418e+00 
50800 4.7937223855e+00 -6.3287023366e-05 1.9315308345e+00 -3.3455095418e+00 1.9315308345e+00 3.3455095418e+00 
50900 4.7937223865e+00 -6.3271592500e-05 1.9315308345e+00 -3.3455095418e+00 1.9315308345e+00 3.3455095418e+00 
51000 4.7937223874e+00 -6.3256525066e-05 1.9315308345e+00 -3.3455095418e+00 1.9315308345e+00 3.3455095418e+00 
51100 4.7937223883e+00 -6.3241803685e-05 1.9315308345e+00 -3.3455095418e+00 1.9315308345e+00 3.3455095418e+00 
51200 4.7937223891e+00 -6.3227411397e-05 1.9315308345e+00 -3.3455095418e+00 1.9315308345e+00 3.3455095418e+00 
51300 4.7937223900e+00 -6.3213331671e-05 1.9315308345e+00 -3.3455095418e+00 1.9315308345e+00 3.3455095418e+00 
51400 4.7937223909e+00 -6.3199548432e-05 1.9315308345e+00 -3.3455095418e+00 1.9315308345e+00 3.3455095418e+00 
51500 4.7937223917e+00 -6.3186046075e-05 1.9315308345e+00 -3.3455095418e+00 1.9315308345e+00 3.3455095418e+00 
51600 4.7937223925e+00 -6.3172809478e-05 1.9315308345e+00 -3.3455095418e+00 1.9315308345e+00 3.3455095418e+00 
51700 4.7937223933e+00 -6.3159824023e-05 1.9315308345e+00 -3.3455095418e+00 1.9315308345e+00 3.3455095418e+00 
51800 4.7937223941e+00 -6.3147075598e-05 1.9315308345e+00 -3.3455095418e+00 1.9315308345e+00 3.3455095418e+00 
51900 4.7937223949e+00 -6.3134550608e-05 1.9315308345e+00 -3.3455095418e+00 1.9315308345e+00 3.3455095418e+00 
52000 4.7937223957e+00 -6.3122235985e-05 1.9315308345e+00 -3.3455095418e+00 1.9315308345e+00 3.3455095418e+00 
52100 4.7937223964e+00 -6.3110119189e-05 1.9315308345e+00 -3.3455095418e+00 1.9315308345e+00 3.3455095418e+00 
52200 4.7937223971e+00 -6.3098188212e-05 1.9315308345e+00 -3.3455095418e+00 1.9315308345e+00 3.3455095418e+00 
52300 4.7937223979e+00 -6.3086431584e-05 1.9315308345e+00 -3.3455095418e+00 1.9315308345e+00 3.3455095418e+00 
52400 4.7937223986e+00 -6.3074838365e-05 1.9315308345e+00 -3.3455095418e+00 1.9315308345e+00 3.3455095418e+00 
52500 4.7937223993e+00 -6.3063398148e-05 1.9315308345e+00 -3.3455095418e+00 1.9315308345e+00 3.3455095418e+00 
52600 4.7937224000e+00 -6.3052101056e-05 1.9315308345e+00 -3.3455095418e+00 1.9315308345e+00 3.3455095418e+00 
52700 4.7937224006e+00 -6.3040937736e-05 1.9315308345e+00 -3.3455095418e+00 1.9315308345e+00 3.3455095418e+00 
52800 4.7937224013e+00 -6.3029899356e-05 1.9315308345e+00 -3.3455095418e+00 1.9315308345e+00 3.3455095418e+00 
52900 4.7937224019e+00 -6.3018977590e-05 1.9315308345e+00 -3.3455095418e+00 1.9315308345e+00 3.3455095418e+00 
53000 4.7937224026e+00 -6.3008164622e-05 1.9315308345e+00 -3.3455095418e+00 1.9315308345e+00 3.3455095418e+00 
53100 4.7937224032e+00 -6.2997453128e-05 1.9315308345e+00 -3.3455095418e+00 1.9315308345e+00 3.3455095418e+00 
53200 4.7937224038e+00 -6.2986836267e-05 1.9315308345e+00 -3.3455095418e+00 1.9315308345e+00 3.3455095418e+00 
53300 4.7937224044e+00 -6.2976307675e-05 1.9315308345e+00 -3.3455095418e+00 1.9315308345e+00 3.3455095418e+00 
53400 4.7937224050e+00 -6.2965861448e-05 1.9315308345e+00 -3.3455095418e+00 1.9315308345e+00 3.3455095418e+00 
53500 4.7937224056e+00 -6.2955492132e-05 1.9315308345e+00 -3.3455095418e+00 1.9315308345e+00 3.3455095418e+00 
53600 4.7937224062e+00 -6.2945194709e-05 1.9315308345e+00 -3.3455095418e+00 1.9315308345e+00 3.3455095418e+00 
53700 4.7937224068e+00 -6.2934964584e-05 1.9315308345e+00 -3.3455095418e+00 1.9315308345e+00 3.3455095418e+00 
53800 4.7937224073e+00 -6.2924797572e-05 1.9315308345e+00 -3.3455095418e+00 1.9315308345e+00 3.3455095418e+00 
53900 4.7937224079e+00 -6.2914689881e-05 1.9315308345e+00 -3.3455095418e+00 1.9315308345e+00 3.3455095418e+00 
54000 4.7937224084e+00 -6.2904638100e-05 1.9315308345e+00 -3.3455095418e+00 1.9315308345e+00 3.3455095418e+00 
54100 4.7937224089e+00 -6.2894639181e-05 1.9315308345e+00 -3.3455095418e+00 1.9315308345e+00 3.3455095418e+00 
54200 4.7937224094e+00 -6.2884690425e-05 1.9315308345e+00 -3.3455095418e+00 1.9315308345e+00 3.3455095418e+00 
54300 4.7937224099e+00 -6.2874789469e-05 1.9315308345e+00 -3.3455095418e+00 1.9315308345e+00 3.3455095418e+00 
54400 4.7937224104e+00 -6.2864934263e-05 1.9315308345e+00 -3.3455095418e+00 1.9315308345e+00 3.3455095418e+00 
54500 4.7937224109e+00 -6.2855123063e-05 1.9315308345e+00 -3.3455095418e+00 1.9315308345e+00 3.3455095418e+00 
54600 4.7937224114e+00 -6.2845354411e-05 1.9315308345e+00 -3.3455095418e+00 1.9315308345e+00 3.3455095418e+00 
54700 4.7937224119e+00 -6.2835627118e-05 1.9315308345e+00 -3.3455095418e+00 1.9315308345e+00 3.3455095418e+00 
54800 4.7937224124e+00 -6.2825940251e-05 1.9315308345e+00 -3.3455095418e+00 1.9315308345e+00 3.3455095418e+00 
54900 4.7937224128e+00 -6.2816293117e-05 1.9315308345e+00 -3.3455095418e+00 1.9315308345e+00 3.3455095418e+00 
55000 4.7937224133e+00 -6.2806685246e-05 1.9315308345e+00 -3.3455095418e+00 1.9315308345e+00 3.3455095418e+00 
55100 4.7937224137e+00 -6.2797116377e-05 1.9315308345e+00 -3.3455095418e+00 1.9315308345e+00 3.3455095418e+00 
55200 4.7937224141e+00 -6.2787586445e-05 1.9315308345e+00 -3.3455095418e+00 1.9315308345e+00 3.3455095418e+00 
55300 4.7937224146e+00 -6.2778095564e-05 1.9315308345e+00 -3.3455095418e+00 1.9315308345e+00 3.3455095418e+00 
55400 4.7937224150e+00 -6.2768644011e-05 1.9315308345e+00 -3.3455095418e+00 1.9315308345e+00 3.3455095418e+00 
55500 4.7937224154e+00 -6.2759232219e-05 1.9315308345e+00 -3.3455095418e+00 1.9315308345e+00 3.3455095418e+00 
55600 4.7937224158e+00 -6.2749860754e-05 1.9315308345e+00 -3.3455095418e+00 1.9315308345e+00 3.3455095418e+00 
55700 4.7937224162e+00 -6.2740530309e-05 1.9315308345e+00 -3.3455095418e+00 1.9315308345e+00 3.3455095418e+00 
55800 4.7937224166e+00 -6.2731241687e-05 1.9315308345e+00 -3.3455095418e+00 1.9315308345e+00 3.3455095418e+00 
55900 4.7937224170e+00 -6.2721995794e-05 1.9315308345e+00 -3.3455095418e+00 1.9315308345e+00 3.3455095418e+00 
56000 4.7937224174e+00 -6.2712793617e-05 1.9315308345e+00 -3.3455095418e+00 1.9315308345e+00 3.3455095418e+00 
56100 4.7937224177e+00 -6.2703636225e-05 1.9315308345e+00 -3.3455095418e+00 1.9315308345e+00 3.3455095418e+00 
56200 4.7937224181e+00 -6.2694524746e-05 1.9315308345e+00 -3.3455095418e+00 1.9315308345e+00 3.3455095418e+00 
56300 4.7937224185e+00 -6.2685460366e-05 1.9315308345e+00 -3.3455095418e+00 1.9315308345e+00 3.3455095418e+00 
56400 4.7937224188e+00 -6.2676444312e-05 1.9315308345e+00 -3.3455095418e+00 1.9315308345e+00 3.3455095418e+00 
56500 4.7937224192e+00 -6.2667477847e-05 1.9315308345e+00 -3.3455095418e+00 1.9315308345e+00 3.3455095418e+00 
56600 4.7937224195e+00 -6.2658562256e-05 1.9315308345e+00 -3.3455095418e+00 1.9315308345e+00 3.3455095418e+00 
56700 4.7937224199e+00 -6.2649698842e-05 1.9315308345e+00 -3.3455095418e+00 1.9315308345e+00 3.3455095418e+00 
56800 4.7937224202e+00 -6.2640888914e-05 1.9315308345e+00 -3.3455095418e+00 1.9315308345e+00 3.3455095418e+00 
56900 4.7937224205e+00 -6.2632133784e-05 1.9315308345e+00 -3.3455095418e+00 1.9315308345e+00 3.3455095418e+00 
57000 4.7937224208e+00 -6.2623434754e-05 1.9315308345e+00 -3.3455095418e+00 1.9315308345e+00 3.3455095418e+00 
57100 4.7937224212e+00 -6.2614793112e-05 1.9315308345e+00 -3.3455095418e+00 1.9315308345e+00 3.3455095418e+00 
57200 4.7937224215e+00 -6.2606210125e-05 1.9315308345e+00 -3.3455095418e+00 1.9315308345e+00 3.3455095418e+00 
57300 4.7937224218e+00 -6.2597687035e-05 1.9315308345e+00 -3.3455095418e+00 1.9315308345e+00 3.3455095418e+00 
57400 4.7937224221e+00 -6.2589225050e-05 1.9315308345e+00 -3.3455095418e+00 1.9315308345e+00 3.3455095418e+00 
57500 4.7937224224e+00 -6.2580825344e-05 1.9315308345e+00 -3.3455095418e+00 1.9315308345e+00 3.3455095418e+00 
57600 4.7937224226e+00 -6.2572489045e-05 1.9315308345e+00 -3.3455095418e+00 1.9315308345e+00 3.3455095418e+00 
57700 4.7937224229e+00 -6.2564217239e-05 1.9315308345e+00 -3.3455095418e+00 1.9315308345e+00 3.3455095418e+00 
57800 4.7937224232e+00 -6.2556010962e-05 1.9315308345e+00 -3.3455095418e+00 1.9315308345e+00 3.3455095418e+00 
57900 4.7937224235e+00 -6.2547871195e-05 1.9315308345e+00 -3.3455095418e+00 1.9315308345e+00 3.3455095418e+00 
58000 4.7937224238e+00 -6.2539798866e-05 1.9315308345e+00 -3.3455095418e+00 1.9315308345e+00 3.3455095418e+00 
58100 4.7937224240e+00 -6.2531794843e-05 1.9315308345e+00 -3.3455095418e+00 1.9315308345e+00 3.3455095418e+00 
58200 4.7937224243e+00 -6.2523859936e-05 1.9315308345e+00 -3.3455095418e+00 1.9315308345e+00 3.3455095418e+00 
58300 4.7937224245e+00 -6.2515994888e-05 1.9315308345e+00 -3.3455095418e+00 1.9315308345e+00 3.3455095418e+00 
58400 4.7937224248e+00 -6.2508200383e-05 1.9315308345e+00 -3.3455095418e+00 1.9315308345e+00 3.3455095418e+00 
58500 4.7937224250e+00 -6.2500477039e-05 1.9315308345e+00 -3.3455095418e+00 1.9315308345e+00 3.3455095418e+00 
58600 4.7937224253e+00 -6.2492825407e-05 1.9315308345e+00 -3.3455095418e+00 1.9315308345e+00 3.3455095418e+00 
58700 4.7937224255e+00 -6.2485245971e-05 1.9315308345e+00 -3.3455095418e+00 1.9315308345e+00 3.3455095418e+00 
58800 4.7937224258e+00 -6.2477739153e-05 1.9315308345e+00 -3.3455095418e+00 1.9315308345e+00 3.3455095418e+00 
58900 4.7937224260e+00 -6.2470305301e-05 1.9315308345e+00 -3.3455095418e+00 1.9315308345e+00 3.3455095418e+00 
59000 4.7937224262e+00 -6.2462944704e-05 1.9315308345e+00 -3.3455095418e+00 1.9315308345e+00 3.3455095418e+00 
59100 4.7937224265e+00 -6.2455657580e-05 1.9315308345e+00 -3.3455095418e+00 1.9315308345e+00 3.3455095418e+00 
59200 4.7937224267e+00 -6.2448444085e-05 1.9315308345e+00 -3.3455095418e+00 1.9315308345e+00 3.3455095418e+00 
59300 4.7937224269e+00 -6.2441304308e-05 1.9315308345e+00 -3.3455095418e+00 1.9315308345e+00 3.3455095418e+00 
59400 4.7937224271e+00 -6.2434238277e-05 1.9315308345e+00 -3.3455095418e+00 1.9315308345e+00 3.3455095418e+00 
59500 4.7937224273e+00 -6.2427245957e-05 1.9315308345e+00 -3.3455095418e+00 1.9315308345e+00 3.3455095418e+00 
59600 4.7937224275e+00 -6.2420327253e-05 1.9315308345e+00 -3.3455095418e+00 1.9315308345e+00 3.3455095418e+00 
59700 4.7937224277e+00 -6.2413482009e-05 1.9315308345e+00 -3.3455095418e+00 1.9315308345e+00 3.3455095418e+00 
59800 4.7937224279e+00 -6.2406710015e-05 1.9315308345e+00 -3.3455095418e+00 1.9315308345e+00 3.3455095418e+00 
59900 4.7937224281e+00 -6.2400011003e-05 1.9315308345e+00 -3.3455095418e+00 1.9315308345e+00 3.3455095418e+00 
60000 4.7937224283e+00 -6.2393384652e-05 1.9315308345e+00 -3.3455095418e+00 1.9315308345e+00 3.3455095418e+00 
60100 4.7937224285e+00 -6.2386830592e-05 1.9315308345e+00 -3.3455095418e+00 1.9315308345e+00 3.3455095418e+00 
60200 4.7937224287e+00 -6.2380348399e-05 1.9315308345e+00 -3.3455095418e+00 1.9315308345e+00 3.3455095418e+00 
60300 4.7937224289e+00 -6.2373937606e-05 1.9315308345e+00 -3.3455095418e+00 1.9315308345e+00 3.3455095418e+00 
60400 4.7937224291e+00 -6.2367597699e-05 1.9315308345e+00 -3.3455095418e+00 1.9315308345e+00 3.3455095418e+00 
60500 4.7937224293e+00 -6.2361328120e-05 1.9315308345e+00 -3.3455095418e+00 1.9315308345e+00 3.3455095418e+00 
60600 4.7937224294e+00 -6.2355128276e-05 1.9315308345e+00 -3.3455095418e+00 1.9315308345e+00 3.3455095418e+00 
60700 4.7937224296e+00 -6.2348997531e-05 1.9315308345e+00 -3.3455095418e+00 1.9315308345e+00 3.3455095418e+00 
60800 4.7937224298e+00 -6.2342935214e-05 1.9315308345e+00 -3.3455095418e+00 1.9315308345e+00 3.3455095418e+00 
60900 4.7937224299e+00 -6.2336940624e-05 1.9315308345e+00 -3.3455095418e+00 1.9315308345e+00 3.3455095418e+00 
61000 4.7937224301e+00 -6.2331013026e-05 1.9315308345e+00 -3.3455095418e+00 1.9315308345e+00 3.3455095418e+00 
61100 4.7937224303e+00 -6.2325151659e-05 1.9315308345e+00 -3.3455095418e+00 1.9315308345e+00 3.3455095418e+00 
61200 4.7937224304e+00 -6.2319355734e-05 1.9315308345e+00 -3.3455095418e+00 1.9315308345e+00 3.3455095418e+00 
61300 4.7937224306e+00 -6.2313624439e-05 1.9315308345e+00 -3.3455095418e+00 1.9315308345e+00 3.3455095418e+00 
61400 4.7937224307e+00 -6.2307956942e-05 1.9315308345e+00 -3.3455095418e+00 1.9315308345e+00 3.3455095418e+00 
61500 4.7937224309e+00 -6.2302352391e-05 1.9315308345e+00 -3.3455095418e+00 1.9315308345e+00 3.3455095418e+00 
61600 4.7937224310e+00 -6.2296809918e-05 1.9315308345e+00 -3.3455095418e+00 1.9315308345e+00 3.3455095418e+00 
61700 4.7937224312e+00 -6.2291328638e-05 1.9315308345e+00 -3.3455095418e+00 1.9315308345e+00 3.3455095418e+00 
61800 4.7937224313e+00 -6.2285907658e-05 1.9315308345e+00 -3.3455095418e+00 1.9315308345e+00 3.3455095418e+00 
61900 4.7937224315e+00 -6.2280546070e-05 1.9315308345e+00 -3.3455095418e+00 1.9315308345e+00 3.3455095418e+00 
62000 4.7937224316e+00 -6.2275242962e-05 1.9315308345e+00 -3.3455095418e+00 1.9315308345e+00 3.3455095418e+00 
62100 4.7937224317e+00 -6.2269997412e-05 1.9315308345e+00 -3.3455095418e+00 1.9315308345e+00 3.3455095418e+00 
62200 4.7937224319e+00 -6.2264808497e-05 1.9315308345e+00 -3.3455095418e+00 1.9315308345e+00 3.3455095418e+00 
62300 4.7937224320e+00 -6.2259675289e-05 1.9315308345e+00 -3.3455095418e+00 1.9315308345e+00 3.3455095418e+00 
62400 4.7937224321e+00 -6.2254596862e-05 1.9315308345e+00 -3.3455095418e+00 1.9315308345e+00 3.3455095418e+00 
62500 4.7937224323e+00 -6.2249572288e-05 1.9315308345e+00 -3.3455095418e+00 1.9315308345e+00 3.3455095418e+00 
62600 4.7937224324e+00 -6.2244600643e-05 1.9315308345e+00 -3.3455095418e+00 1.9315308345e+00 3.3455095418e+00 
62700 4.7937224325e+00 -6.2239681009e-05 1.9315308345e+00 -3.3455095418e+00 1.9315308345e+00 3.3455095418e+00 
62800 4.7937224327e+00 -6.2234812470e-05 1.9315308345e+00 -3.3455095418e+00 1.9315308345e+00 3.3455095418e+00 
62900 4.7937224328e+00 -6.2229994120e-05 1.9315308345e+00 -3.3455095418e+00 1.9315308345e+00 3.3455095418e+00 
63000 4.7937224329e+00 -6.2225225060e-05 1.9315308345e+00 -3.3455095418e+00 1.9315308345e+00 3.3455095418e+00 
63100 4.7937224330e+00 -6.2220504400e-05 1.9315308345e+00 -3.3455095418e+00 1.9315308345e+00 3.3455095418e+00 
63200 4.7937224331e+00 -6.2215831263e-05 1.9315308345e+00 -3.3455095418e+00 1.9315308345e+00 3.3455095418e+00 
63300 4.7937224332e+00 -6.2211204782e-05 1.9315308345e+00 -3.3455095418e+00 1.9315308345e+00 3.3455095418e+00 
63400 4.7937224334e+00 -6.2206624103e-05 1.9315308345e+00 -3.3455095418e+00 1.9315308345e+00 3.3455095418e+00 
63500 4.7937224335e+00 -6.2202088386e-05 1.9315308345e+00 -3.3455095418e+00 1.9315308345e+00 3.3455095418e+00 
63600 4.7937224336e+00 -6.2197596806e-05 1.9315308345e+00 -3.3455095418e+00 1.9315308345e+00 3.3455095418e+00 
63700 4.7937224337e+00 -6.2193148553e-05 1.9315308345e+00 -3.3455095418e+00 1.9315308345e+00 3.3455095418e+00 
63800 4.7937224338e+00 -6.2188742832e-05 1.9315308345e+00 -3.3455095418e+00 1.9315308345e+00 3.3455095418e+00 
63900 4.7937224339e+00 -6.2184378866e-05 1.9315308345e+00 -3.3455095418e+00 1.9315308345e+00 3.3455095418e+00 
64000 4.7937224340e+00 -6.2180055895e-05 1.9315308345e+00 -3.3455095418e+00 1.9315308345e+00 3.3455095418e+00 
64100 4.7937224341e+00 -6.2175773175e-05 1.9315308345e+00 -3.3455095418e+00 1.9315308345e+00 3.3455095418e+00 
64200 4.7937224342e+00 -6.2171529984e-05 1.9315308345e+00 -3.3455095418e+00 1.9315308345e+00 3.3455095418e+00 
64300 4.7937224343e+00 -6.2167325613e-05 1.9315308345e+00 -3.3455095418e+00 1.9315308345e+00 3.3455095418e+00 
64400 4.7937224344e+00 -6.2163159376e-05 1.9315308345e+00 -3.3455095418e+00 1.9315308345e+00 3.3455095418e+00 
64500 4.7937224345e+00 -6.2159030604e-05 1.9315308345e+00 -3.3455095418e+00 1.9315308345e+00 3.3455095418e+00 
64600 4.7937224346e+00 -6.2154938647e-05 1.9315308345e+00 -3.3455095418e+00 1.9315308345e+00 3.3455095418e+00 
64700 4.7937224347e+00 -6.2150882875e-05 1.9315308345e+00 -3.3455095418e+00 1.9315308345e+00 3.3455095418e+00 
64800 4.7937224347e+00 -6.2146862677e-05 1.9315308345e+00 -3.3455095418e+00 1.9315308345e+00 3.3455095418e+00 
64900 4.7937224348e+00 -6.2142877460e-05 1.9315308345e+00 -3.3455095418e+00 1.9315308345e+00 3.3455095418e+00 
65000 4.7937224349e+00 -6.2138926653e-05 1.9315308345e+00 -3.3455095418e+00 1.9315308345e+00 3.3455095418e+00 
65100 4.7937224350e+00 -6.2135009700e-05 1.9315308345e+00 -3.3455095418e+00 1.9315308345e+00 3.3455095418e+00 
65200 4.7937224351e+00 -6.2131126067e-05 1.9315308345e+00 -3.3455095418e+00 1.9315308345e+00 3.3455095418e+00 
65300 4.7937224352e+00 -6.2127275238e-05 1.9315308345e+00 -3.3455095418e+00 1.9315308345e+00 3.3455095418e+00 
65400 4.7937224353e+00 -6.2123456715e-05 1.9315308345e+00 -3.3455095418e+00 1.9315308345e+00 3.3455095418e+00 
65500 4.7937224353e+00 -6.2119670018e-05 1.9315308345e+00 -3.3455095418e+00 1.9315308345e+00 3.3455095418e+00 
65600 4.7937224354e+00 -6.2115914686e-05 1.9315308345e+00 -3.3455095418e+00 1.9315308345e+00 3.3455095418e+00 
65700 4.7937224355e+00 -6.2112190275e-05 1.9315308345e+00 -3.3455095418e+00 1.9315308345e+00 3.3455095418e+00 
65800 4.7937224356e+00 -6.2108496358e-05 1.9315308345e+00 -3.3455095418e+00 1.9315308345e+00 3.3455095418e+00 
65900 4.7937224356e+00 -6.2104832526e-05 1.9315308345e+00 -3.3455095418e+00 1.9315308345e+00 3.3455095418e+00 
66000 4.7937224357e+00 -6.2101198385e-05 1.9315308345e+00 -3.3455095418e+00 1.9315308345e+00 3.3455095418e+00 
66100 4.7937224358e+00 -6.2097593559e-05 1.9315308345e+00 -3.3455095418e+00 1.9315308345e+00 3.3455095418e+00 
66200 4.7937224359e+00 -6.2094017683e-05 1.9315308345e+00 -3.3455095418e+00 1.9315308345e+00 3.3455095418e+00 
66300 4.7937224359e+00 -6.2090470416e-05 1.9315308345e+00 -3.3455095418e+00 1.9315308345e+00 3.3455095418e+00 
66400 4.7937224360e+00 -6.2086951422e-05 1.9315308345e+00 -3.3455095418e+00 1.9315308345e+00 3.3455095418e+00 
66500 4.7937224361e+00 -6.2083460385e-05 1.9315308345e+00 -3.3455095418e+00 1.9315308345e+00 3.3455095418e+00 
66600 4.7937224361e+00 -6.2079997002e-05 1.9315308345e+00 -3.3455095418e+00 1.9315308345e+00 3.3455095418e+00 
66700 4.7937224362e+00 -6.2076560981e-05 1.9315308345e+00 -3.3455095418e+00 1.9315308345e+00 3.3455095418e+00 
66800 4.7937224363e+00 -6.2073152045e-05 1.9315308345e+00 -3.3455095418e+00 1.9315308345e+00 3.3455095418e+00 
66900 4.7937224363e+00 -6.2069769927e-05 1.9315308345e+00 -3.3455095418e+00 1.9315308345e+00 3.3455095418e+00 
67000 4.7937224364e+00 -6.2066414375e-05 1.9315308345e+00 -3.3455095418e+00 1.9315308345e+00 3.3455095418e+00 
67100 4.7937224365e+00 -6.2063085145e-05 1.9315308345e+00 -3.3455095418e+00 1.9315308345e+00 3.3455095418e+00 
67200 4.7937224365e+00 -6.2059782005e-05 1.9315308345e+00 -3.3455095418e+00 1.9315308345e+00 3.3455095418e+00 
67300 4.7937224366e+00 -6.2056504733e-05 1.9315308345e+00 -3.3455095418e+00 1.9315308345e+00 3.3455095418e+00 
67400 4.7937224366e+00 -6.2053253116e-05 1.9315308345e+00 -3.3455095418e+00 1.9315308345e+00 3.3455095418e+00 
67500 4.7937224367e+00 -6.2050026951e-05 1.9315308345e+00 -3.3455095418e+00 1.9315308345e+00 3.3455095418e+00 
67600 4.7937224368e+00 -6.2046826042e-05 1.9315308345e+00 -3.3455095418e+00 1.9315308345e+00 3.3455095418e+00 
67700 4.7937224368e+00 -6.2043650204e-05 1.9315308345e+00 -3.3455095418e+00 1.9315308345e+00 3.3455095418e+00 
67800 4.7937224369e+00 -6.2040499256e-05 1.9315308345e+00 -3.3455095418e+00 1.9315308345e+00 3.3455095418e+00 
67900 4.7937224369e+00 -6.2037373026e-05 1.9315308345e+00 -3.3455095418e+00 1.9315308345e+00 3.3455095418e+00 
68000 4.7937224370e+00 -6.2034271350e-05 1.9315308345e+00 -3.3455095418e+00 1.9315308345e+00 3.3455095418e+00 
68100 4.7937224370e+00 -6.2031194067e-05 1.9315308345e+00 -3.3455095418e+00 1.9315308345e+00 3.3455095418e+00 
68200 4.7937224371e+00 -6.2028141023e-05 1.9315308345e+00 -3.3455095418e+00 1.9315308345e+00 3.3455095418e+00 
68300 4.7937224371e+00 -6.2025112071e-05 1.9315308345e+00 -3.3455095418e+00 1.9315308345e+00 3.3455095418e+00 
68400 4.7937224372e+00 -6.2022107067e-05 1.9315308345e+00 -3.3455095418e+00 1.9315308345e+00 3.3455095418e+00 
68500 4.7937224372e+00 -6.2019125870e-05 1.9315308345e+00 -3.3455095418e+00 1.9315308345e+00 3.3455095418e+00 
68600 4.7937224372e+00 -6.2018413911e-05 1.9315308345e+00 -3.3455095418e+00 1.9315308345e+00 3.3455095418e+00 
68600 4.7937224372e+00 -6.2018413911e-05 1.9315308345e+00 -3.3455095418e+00 1.9315308345e+00 3.3455095418e+00 
