# step Hamiltonian StressXX CellTensor1 CellTensor2 CellTensor3 CellTensor4 
0 5.7678156837e+00 2.4736889081e-01 2.8237630504e+00 -4.8909010719e+00 2.8237630504e+00 4.8909010719e+00 
100 5.7919959294e+00 2.8983258926e-01 2.8237630504e+00 -4.8909010719e+00 2.8237630504e+00 4.8909010719e+00 
200 5.8149197127e+00 3.2855960341e-01 2.8186325803e+00 -4.8820148370e+00 2.8186325803e+00 4.8820148370e+00 
300 5.8374864468e+00 3.6402771801e-01 2.8128062421e+00 -4.8719233231e+00 2.8128062421e+00 4.8719233231e+00 
400 5.8598181194e+00 3.9661423075e-01 2.8063378296e+00 -4.8607197041e+00 2.8063378296e+00 4.8607197041e+00 
500 5.8820111525e+00 4.2669114225e-01 2.7992744005e+00 -4.8484854860e+00 2.7992744005e+00 4.8484854860e+00 
600 5.9041306576e+00 4.5461491606e-01 2.7916564087e+00 -4.8352907371e+00 2.7916564087e+00 4.8352907371e+00 
700 5.9262074040e+00 4.8071800819e-01 2.7835179918e+00 -4.8211945855e+00 2.7835179918e+00 4.8211945855e+00 
800 5.9482367482e+00 5.0530182664e-01 2.7748873903e+00 -4.8062459454e+00 2.7748873903e+00 4.8062459454e+00 
900 5.9701783995e+00 5.2862960339e-01 2.7657874790e+00 -4.7904844365e+00 2.7657874790e+00 4.7904844365e+00 
1000 5.9919554174e+00 5.5091582162e-01 2.7562364176e+00 -4.7739415129e+00 2.7562364176e+00 4.7739415129e+00 
1100 6.0134499965e+00 5.7230553652e-01 2.7462484921e+00 -4.7566419186e+00 2.7462484921e+00 4.7566419186e+00 
1200 6.0344920805e+00 5.9283087250e-01 2.7358353366e+00 -4.7386058041e+00 2.7358353366e+00 4.7386058041e+00 
1300 6.0548344524e+00 6.1232196210e-01 2.7250079666e+00 -4.7198522493e+00 2.7250079666e+00 4.7198522493e+00 
1400 6.0741055003e+00 6.3023792020e-01 2.7137804866e+00 -4.7004056834e+00 2.7137804866e+00 4.7004056834e+00 
1500 6.0917332426e+00 6.4538903043e-01 2.7021769957e+00 -4.6803078476e+00 2.7021769957e+00 4.6803078476e+00 
1600 6.1068575135e+00 6.5561284728e-01 2.6902438109e+00 -4.6596389653e+00 2.6902438109e+00 4.6596389653e+00 
1700 6.1183219036e+00 6.5778053031e-01 2.6780680431e+00 -4.6385499167e+00 2.6780680431e+00 4.6385499167e+00 
1800 6.1249497776e+00 6.4897144973e-01 2.6657965946e+00 -4.6172951444e+00 2.6657965946e+00 4.6172951444e+00 
1900 6.1262156874e+00 6.2910184664e-01 2.6536337140e+00 -4.5962284173e+00 2.6536337140e+00 4.5962284173e+00 
2000 6.1228146304e+00 6.0250264081e-01 2.6417889861e+00 -4.5757127468e+00 2.6417889861e+00 4.5757127468e+00 
2100 6.1163235303e+00 5.7533966126e-01 2.6303939179e+00 -4.5559759098e+00 2.6303939179e+00 4.5559759098e+00 
2200 6.1082582736e+00 5.5155334505e-01 2.6194651496e+00 -4.5370467277e+00 2.6194651496e+00 4.5370467277e+00 
2300 6.0995612702e+00 5.3191572524e-01 2.6089442539e+00 -4.5188240018e+00 2.6089442539e+00 4.5188240018e+00 
2400 6.0906809246e+00 5.1553501930e-01 2.5987568386e+00 -4.5011788810e+00 2.5987568386e+00 4.5011788810e+00 
2500 6.0818042993e+00 5.0124031490e-01 2.5888442949e+00 -4.4840098516e+00 2.5888442949e+00 4.4840098516e+00 
2600 6.0730098878e+00 4.8812692379e-01 2.5791695772e+00 -4.4672527491e+00 2.5791695772e+00 4.4672527491e+00 
2700 6.0643358483e+00 4.7561712107e-01 2.5697125151e+00 -4.4508726370e+00 2.5697125151e+00 4.4508726370e+00 
2800 6.0558054416e+00 4.6337635288e-01 2.5604638032e+00 -4.4348533980e+00 2.5604638032e+00 4.4348533980e+00 
2900 6.0474357199e+00 4.5122354703e-01 2.5514204717e+00 -4.4191898885e+00 2.5514204717e+00 4.4191898885e+00 
3000 6.0392404013e+00 4.3906760780e-01 2.5425830024e+00 -4.4038829426e+00 2.5425830024e+00 4.4038829426e+00 
3100 6.0312308441e+00 4.2686820835e-01 2.5339536232e+00 -4.3889364194e+00 2.5339536232e+00 4.3889364194e+00 
3200 6.0234164204e+00 4.1461298685e-01 2.5255353371e+00 -4.3743555201e+00 2.5255353371e+00 4.3743555201e+00 
3300 6.0158047053e+00 4.0230465046e-01 2.5173313802e+00 -4.3601458499e+00 2.5173313802e+00 4.3601458499e+00 
3400 6.0084016135e+00 3.8995378030e-01 2.5093449240e+00 -4.3463129021e+00 2.5093449240e+00 4.3463129021e+00 
3500 6.0012115214e+00 3.7757484502e-01 2.5015789149e+00 -4.3328617797e+00 2.5015789149e+00 4.3328617797e+00 
3600 5.9942373873e+00 3.6518400319e-01 2.4940359902e+00 -4.3197970509e+00 2.4940359902e+00 4.3197970509e+00 
3700 5.9874808708e+00 3.5279789969e-01 2.4867184371e+00 -4.3071226772e+00 2.4867184371e+00 4.3071226772e+00 
3800 5.9809424515e+00 3.4043301436e-01 2.4796281755e+00 -4.2948419838e+00 2.4796281755e+00 4.2948419838e+00 
3900 5.9746215450e+00 3.2810531763e-01 2.4727667536e+00 -4.2829576524e+00 2.4727667536e+00 4.2829576524e+00 
4000 5.9685166168e+00 3.1583009681e-01 2.4661353516e+00 -4.2714717273e+00 2.4661353516e+00 4.2714717273e+00 
4100 5.9626252907e+00 3.0362187710e-01 2.4597347892e+00 -4.2603856280e+00 2.4597347892e+00 4.2603856280e+00 
4200 5.9569444537e+00 2.9149439481e-01 2.4535655349e+00 -4.2497001662e+00 2.4535655349e+00 4.2497001662e+00 
4300 5.9514703543e+00 2.7946059887e-01 2.4476277174e+00 -4.2394155646e+00 2.4476277174e+00 4.2394155646e+00 
4400 5.9461986956e+00 2.6753266737e-01 2.4419211365e+00 -4.2295314765e+00 2.4419211365e+00 4.2295314765e+00 
4500 5.9411247219e+00 2.5572203144e-01 2.4364452755e+00 -4.2200470070e+00 2.4364452755e+00 4.2200470070e+00 
4600 5.9362432992e+00 2.4403940232e-01 2.4311993125e+00 -4.2109607326e+00 2.4311993125e+00 4.2109607326e+00 
4700 5.9315489894e+00 2.3249479914e-01 2.4261821331e+00 -4.2022707229e+00 2.4261821331e+00 4.2022707229e+00 
4800 5.9270361185e+00 2.2109757624e-01 2.4213923417e+00 -4.1939745609e+00 2.4213923417e+00 4.1939745609e+00 
4900 5.9226988381e+00 2.0985644920e-01 2.4168282742e+00 -4.1860693640e+00 2.4168282742e+00 4.1860693640e+00 
5000 5.9185311819e+00 1.9877951934e-01 2.4124880091e+00 -4.1785518044e+00 2.4124880091e+00 4.1785518044e+00 
5100 5.9145271153e+00 1.8787429637e-01 2.4083693804e+00 -4.1714181303e+00 2.4083693804e+00 4.1714181303e+00 
5200 5.9106805805e+00 1.7714771938e-01 2.4044699889e+00 -4.1646641861e+00 2.4044699889e+00 4.1646641861e+00 
5300 5.9069855361e+00 1.6660617598e-01 2.4007872144e+00 -4.1582854334e+00 2.4007872144e+00 4.1582854334e+00 
5400 5.9034359910e+00 1.5625551984e-01 2.3973182275e+00 -4.1522769719e+00 2.3973182275e+00 4.1522769719e+00 
5500 5.9000260347e+00 1.4610108663e-01 2.3940600020e+00 -4.1466335598e+00 2.3940600020e+00 4.1466335598e+00 
5600 5.8967498626e+00 1.3614770852e-01 2.3910093263e+00 -4.1413496345e+00 2.3910093263e+00 4.1413496345e+00 
5700 5.8936017972e+00 1.2639972733e-01 2.3881628159e+00 -4.1364193340e+00 2.3881628159e+00 4.1364193340e+00 
5800 5.8905763056e+00 1.1686100660e-01 2.3855169252e+00 -4.1318365168e+00 2.3855169252e+00 4.1318365168e+00 
5900 5.8876680135e+00 1.0753494258e-01 2.3830679594e+00 -4.1275947836e+00 2.3830679594e+00 4.1275947836e+00 
6000 5.8848717158e+00 9.8424474410e-02 2.3808120867e+00 -4.1236874975e+00 2.3808120867e+00 4.1236874975e+00 
6100 5.8821823846e+00 8.9532093632e-02 2.3787453503e+00 -4.1201078050e+00 2.3787453503e+00 4.1201078050e+00 
6200 5.8795951741e+00 8.0859853155e-02 2.3768636803e+00 -4.1168486569e+00 2.3768636803e+00 4.1168486569e+00 
6300 5.8771054232e+00 7.2409375934e-02 2.3751629054e+00 -4.1139028283e+00 2.3751629054e+00 4.1139028283e+00 
6400 5.8747086566e+00 6.4181863456e-02 2.3736387651e+00 -4.1112629400e+00 2.3736387651e+00 4.1112629400e+00 
6500 5.8724005829e+00 5.6178104233e-02 2.3722869215e+00 -4.1089214783e+00 2.3722869215e+00 4.1089214783e+00 
6600 5.8701770921e+00 4.8398482445e-02 2.3711029706e+00 -4.1068708150e+00 2.3711029706e+00 4.1068708150e+00 
6700 5.8680342513e+00 4.0842986890e-02 2.3700824538e+00 -4.1051032280e+00 2.3700824538e+00 4.1051032280e+00 
6800 5.8659682992e+00 3.3511220365e-02 2.3692208696e+00 -4.1036109204e+00 2.3692208696e+00 4.1036109204e+00 
6900 5.8639756397e+00 2.6402409603e-02 2.3685136845e+00 -4.1023860400e+00 2.3685136845e+00 4.1023860400e+00 
7000 5.8620528349e+00 1.9515415867e-02 2.3679563440e+00 -4.1014206978e+00 2.3679563440e+00 4.1014206978e+00 
7100 5.8601965977e+00 1.2848746282e-02 2.3675442829e+00 -4.1007069872e+00 2.3675442829e+00 4.1007069872e+00 
7200 5.8584037833e+00 6.4005659726e-03 2.3672729364e+00 -4.1002370012e+00 2.3672729364e+00 4.1002370012e+00 
7300 5.8566713815e+00 1.6871104643e-04 2.3671377491e+00 -4.1000028499e+00 2.3671377491e+00 4.1000028499e+00 
7400 5.8549965085e+00 -5.8492975594e-03 2.3671341854e+00 -4.0999966775e+00 2.3671341854e+00 4.0999966775e+00 
7500 5.8533763983e+00 -1.1656239361e-02 2.3672577388e+00 -4.1002106783e+00 2.3672577388e+00 4.1002106783e+00 
7600 5.8518083952e+00 -1.7255178765e-02 2.3675039402e+00 -4.1006371115e+00 2.3675039402e+00 4.1006371115e+00 
7700 5.8502899459e+00 -2.2649448704e-02 2.3678683666e+00 -4.1012683167e+00 2.3678683666e+00 4.1012683167e+00 
7800 5.8488185923e+00 -2.7842633522e-02 2.3683466494e+00 -4.1020967266e+00 2.3683466494e+00 4.1020967266e+00 
7900 5.8473919648e+00 -3.2838551187e-02 2.3689344811e+00 -4.1031148810e+00 2.3689344811e+00 4.1031148810e+00 
8000 5.8460077757e+00 -3.7641234931e-02 2.3696276229e+00 -4.1043154379e+00 2.3696276229e+00 4.1043154379e+00 
8100 5.8446638135e+00 -4.2254914400e-02 2.3704219109e+00 -4.1056911851e+00 2.3704219109e+00 4.1056911851e+00 
8200 5.8433579378e+00 -4.6683996448e-02 2.3713132620e+00 -4.1072350504e+00 2.3713132620e+00 4.1072350504e+00 
8300 5.8420880745e+00 -5.0933045675e-02 2.3722976791e+00 -4.1089401108e+00 2.3722976791e+00 4.1089401108e+00 
8400 5.8408522117e+00 -5.5006764841e-02 2.3733712561e+00 -4.1107996007e+00 2.3733712561e+00 4.1107996007e+00 
8500 5.8396483962e+00 -5.8909975290e-02 2.3745301822e+00 -4.1128069197e+00 2.3745301822e+00 4.1128069197e+00 
8600 5.8384747308e+00 -6.2647597493e-02 2.3757707455e+00 -4.1149556384e+00 2.3757707455e+00 4.1149556384e+00 
8700 5.8373293712e+00 -6.6224631839e-02 2.3770893363e+00 -4.1172395047e+00 2.3770893363e+00 4.1172395047e+00 
8800 5.8362105250e+00 -6.9646139802e-02 2.3784824496e+00 -4.1196524477e+00 2.3784824496e+00 4.1196524477e+00 
8900 5.8351164493e+00 -7.2917225576e-02 2.3799466875e+00 -4.1221885820e+00 2.3799466875e+00 4.1221885820e+00 
9000 5.8340454501e+00 -7.6043018304e-02 2.3814787605e+00 -4.1248422104e+00 2.3814787605e+00 4.1248422104e+00 
9100 5.8329958817e+00 -7.9028654966e-02 2.3830754892e+00 -4.1276078256e+00 2.3830754892e+00 4.1276078256e+00 
9200 5.8319661458e+00 -8.1879264043e-02 2.3847338046e+00 -4.1304801120e+00 2.3847338046e+00 4.1304801120e+00 
9300 5.8309546919e+00 -8.4599949999e-02 2.3864507484e+00 -4.1334539460e+00 2.3864507484e+00 4.1334539460e+00 
9400 5.8299600173e+00 -8.7195778661e-02 2.3882234734e+00 -4.1365243957e+00 2.3882234734e+00 4.1365243957e+00 
9500 5.8289806670e+00 -8.9671763533e-02 2.3900492422e+00 -4.1396867200e+00 2.3900492422e+00 4.1396867200e+00 
9600 5.8280152349e+00 -9.2032853095e-02 2.3919254270e+00 -4.1429363676e+00 2.3919254270e+00 4.1429363676e+00 
9700 5.8270623635e+00 -9.4283919100e-02 2.3938495084e+00 -4.1462689741e+00 2.3938495084e+00 4.1462689741e+00 
9800 5.8261207451e+00 -9.6429745885e-02 2.3958190732e+00 -4.1496803605e+00 2.3958190732e+00 4.1496803605e+00 
9900 5.8251891223e+00 -9.8475020717e-02 2.3978318135e+00 -4.1531665290e+00 2.3978318135e+00 4.1531665290e+00 
10000 5.8242662884e+00 -1.0042432514e-01 2.3998855244e+00 -4.1567236606e+00 2.3998855244e+00 4.1567236606e+00 
10100 5.8233510881e+00 -1.0228212735e-01 2.4019781014e+00 -4.1603481102e+00 2.4019781014e+00 4.1603481102e+00 
10200 5.8224424182e+00 -1.0405277553e-01 2.4041075384e+00 -4.1640364034e+00 2.4041075384e+00 4.1640364034e+00 
10300 5.8215392276e+00 -1.0574049211e-01 2.4062719252e+00 -4.1677852313e+00 2.4062719252e+00 4.1677852313e+00 
10400 5.8206405182e+00 -1.0734936907e-01 2.4084694443e+00 -4.1715914460e+00 2.4084694443e+00 4.1715914460e+00 
10500 5.8197453444e+00 -1.0888336396e-01 2.4106983684e+00 -4.1754520557e+00 2.4106983684e+00 4.1754520557e+00 
10600 5.8188528139e+00 -1.1034629688e-01 2.4129570572e+00 -4.1793642195e+00 2.4129570572e+00 4.1793642195e+00 
10700 5.8179620872e+00 -1.1174184818e-01 2.4152439546e+00 -4.1833252421e+00 2.4152439546e+00 4.1833252421e+00 
10800 5.8170723777e+00 -1.1307355697e-01 2.4175575857e+00 -4.1873325686e+00 2.4175575857e+00 4.1873325686e+00 
10900 5.8161829510e+00 -1.1434482026e-01 2.4198965531e+00 -4.1913837791e+00 2.4198965531e+00 4.1913837791e+00 
11000 5.8152931249e+00 -1.1555889275e-01 2.4222595345e+00 -4.1954765828e+00 2.4222595345e+00 4.1954765828e+00 
11100 5.8144022683e+00 -1.1671888730e-01 2.4246452788e+00 -4.1996088133e+00 2.4246452788e+00 4.1996088133e+00 
11200 5.8135098009e+00 -1.1782777579e-01 2.4270526037e+00 -4.2037784223e+00 2.4270526037e+00 4.2037784223e+00 
11300 5.8126151922e+00 -1.1888839059e-01 2.4294803920e+00 -4.2079834749e+00 2.4294803920e+00 4.2079834749e+00 
11400 5.8117179604e+00 -1.1990342645e-01 2.4319275887e+00 -4.2122221439e+00 2.4319275887e+00 4.2122221439e+00 
11500 5.8108176713e+00 -1.2087544271e-01 2.4343931979e+00 -4.2164927044e+00 2.4343931979e+00 4.2164927044e+00 
11600 5.8099139373e+00 -1.2180686597e-01 2.4368762801e+00 -4.2207935289e+00 2.4368762801e+00 4.2207935289e+00 
11700 5.8090064159e+00 -1.2269999296e-01 2.4393759488e+00 -4.2251230820e+00 2.4393759488e+00 4.2251230820e+00 
11800 5.8080948084e+00 -1.2355699379e-01 2.4418913678e+00 -4.2294799156e+00 2.4418913678e+00 4.2294799156e+00 
11900 5.8071788586e+00 -1.2437991528e-01 2.4444217487e+00 -4.2338626640e+00 2.4444217487e+00 4.2338626640e+00 
12000 5.8062583509e+00 -1.2517068459e-01 2.4469663479e+00 -4.2382700389e+00 2.4469663479e+00 4.2382700389e+00 
12100 5.8053331091e+00 -1.2593111301e-01 2.4495244637e+00 -4.2427008255e+00 2.4495244637e+00 4.2427008255e+00 
12200 5.8044029945e+00 -1.2666289977e-01 2.4520954345e+00 -4.2471538775e+00 2.4520954345e+00 4.2471538775e+00 
12300 5.8034679047e+00 -1.2736763606e-01 2.4546786355e+00 -4.2516281130e+00 2.4546786355e+00 4.2516281130e+00 
12400 5.8025277712e+00 -1.2804680902e-01 2.4572734772e+00 -4.2561225106e+00 2.4572734772e+00 4.2561225106e+00 
12500 5.8015825584e+00 -1.2870180587e-01 2.4598794023e+00 -4.2606361053e+00 2.4598794023e+00 4.2606361053e+00 
12600 5.8006322616e+00 -1.2933391798e-01 2.4624958841e+00 -4.2651679847e+00 2.4624958841e+00 4.2651679847e+00 
12700 5.7996769052e+00 -1.2994434500e-01 2.4651224242e+00 -4.2697172855e+00 2.4651224242e+00 4.2697172855e+00 
12800 5.7987165412e+00 -1.3053419891e-01 2.4677585504e+00 -4.2742831900e+00 2.4677585504e+00 4.2742831900e+00 
12900 5.7977512476e+00 -1.3110450812e-01 2.4704038150e+00 -4.2788649229e+00 2.4704038150e+00 4.2788649229e+00 
13000 5.7967811262e+00 -1.3165622143e-01 2.4730577932e+00 -4.2834617478e+00 2.4730577932e+00 4.2834617478e+00 
13100 5.7958063019e+00 -1.3219021204e-01 2.4757200806e+00 -4.2880729649e+00 2.4757200806e+00 4.2880729649e+00 
13200 5.7948269202e+00 -1.3270728138e-01 2.4783902925e+00 -4.2926979076e+00 2.4783902925e+00 4.2926979076e+00 
13300 5.7938431461e+00 -1.3320816294e-01 2.4810680618e+00 -4.2973359400e+00 2.4810680618e+00 4.2973359400e+00 
13400 5.7928551625e+00 -1.3369352598e-01 2.4837530377e+00 -4.3019864547e+00 2.4837530377e+00 4.3019864547e+00 
13500 5.7918631686e+00 -1.3416397915e-01 2.4864448843e+00 -4.3066488698e+00 2.4864448843e+00 4.3066488698e+00 
13600 5.7908673788e+00 -1.3462007404e-01 2.4891432794e+00 -4.3113226273e+00 2.4891432794e+00 4.3113226273e+00 
13700 5.7898680208e+00 -1.3506230856e-01 2.4918479133e+00 -4.3160071905e+00 2.4918479133e+00 4.3160071905e+00 
13800 5.7888653346e+00 -1.3549113028e-01 2.4945584873e+00 -4.3207020424e+00 2.4945584873e+00 4.3207020424e+00 
13900 5.7878595711e+00 -1.3590693962e-01 2.4972747132e+00 -4.3254066837e+00 2.4972747132e+00 4.3254066837e+00 
14000 5.7868509910e+00 -1.3631009297e-01 2.4999963119e+00 -4.3301206310e+00 2.4999963119e+00 4.3301206310e+00 
14100 5.7858398635e+00 -1.3670090565e-01 2.5027230127e+00 -4.3348434153e+00 2.5027230127e+00 4.3348434153e+00 
14200 5.7848264649e+00 -1.3707965477e-01 2.5054545523e+00 -4.3395745807e+00 2.5054545523e+00 4.3395745807e+00 
14300 5.7838110780e+00 -1.3744658200e-01 2.5081906741e+00 -4.3443136825e+00 2.5081906741e+00 4.3443136825e+00 
14400 5.7827939909e+00 -1.3780189619e-01 2.5109311272e+00 -4.3490602866e+00 2.5109311272e+00 4.3490602866e+00 
14500 5.7817754958e+00 -1.3814577592e-01 2.5136756662e+00 -4.3538139676e+00 2.5136756662e+00 4.3538139676e+00 
14600 5.7807558882e+00 -1.3847837191e-01 2.5164240501e+00 -4.3585743082e+00 2.5164240501e+00 4.3585743082e+00 
14700 5.7797354662e+00 -1.3879980930e-01 2.5191760422e+00 -4.3633408983e+00 2.5191760422e+00 4.3633408983e+00 
14800 5.7787145294e+00 -1.3911018990e-01 2.5219314090e+00 -4.3681133336e+00 2.5219314090e+00 4.3681133336e+00 
14900 5.7776933783e+00 -1.3940959421e-01 2.5246899201e+00 -4.3728912150e+00 2.5246899201e+00 4.3728912150e+00 
15000 5.7766723134e+00 -1.3969808348e-01 2.5274513479e+00 -4.3776741481e+00 2.5274513479e+00 4.3776741481e+00 
15100 5.7756516348e+00 -1.3997570156e-01 2.5302154666e+00 -4.3824617423e+00 2.5302154666e+00 4.3824617423e+00 
15200 5.7746316411e+00 -1.4024247669e-01 2.5329820527e+00 -4.3872536099e+00 2.5329820527e+00 4.3872536099e+00 
15300 5.7736126292e+00 -1.4049842319e-01 2.5357508839e+00 -4.3920493662e+00 2.5357508839e+00 4.3920493662e+00 
15400 5.7725948935e+00 -1.4074354307e-01 2.5385217392e+00 -4.3968486285e+00 2.5385217392e+00 4.3968486285e+00 
15500 5.7715787256e+00 -1.4097782752e-01 2.5412943988e+00 -4.4016510157e+00 2.5412943988e+00 4.4016510157e+00 
15600 5.7705644135e+00 -1.4120125837e-01 2.5440686434e+00 -4.4064561483e+00 2.5440686434e+00 4.4064561483e+00 
15700 5.7695522414e+00 -1.4141380936e-01 2.5468442545e+00 -4.4112636477e+00 2.5468442545e+00 4.4112636477e+00 
15800 5.7685424891e+00 -1.4161544745e-01 2.5496210138e+00 -4.4160731360e+00 2.5496210138e+00 4.4160731360e+00 
15900 5.7675354318e+00 -1.4180613396e-01 2.5523987037e+00 -4.4208842360e+00 2.5523987037e+00 4.4208842360e+00 
16000 5.7665313396e+00 -1.4198582568e-01 2.5551771064e+00 -4.4256965706e+00 2.5551771064e+00 4.4256965706e+00 
16100 5.7655304773e+00 -1.4215447592e-01 2.5579560043e+00 -4.4305097631e+00 2.5579560043e+00 4.4305097631e+00 
16200 5.7645331039e+00 -1.4231203540e-01 2.5607351801e+00 -4.4353234366e+00 2.5607351801e+00 4.4353234366e+00 
16300 5.7635394727e+00 -1.4245845319e-01 2.5635144160e+00 -4.4401372145e+00 2.5635144160e+00 4.4401372145e+00 
16400 5.7625498304e+00 -1.4259367753e-01 2.5662934946e+00 -4.4449507198e+00 2.5662934946e+00 4.4449507198e+00 
16500 5.7615644178e+00 -1.4271765655e-01 2.5690721982e+00 -4.4497635756e+00 2.5690721982e+00 4.4497635756e+00 
16600 5.7605834687e+00 -1.4283033901e-01 2.5718503090e+00 -4.4545754047e+00 2.5718503090e+00 4.4545754047e+00 
16700 5.7596072103e+00 -1.4293167494e-01 2.5746276093e+00 -4.4593858299e+00 2.5746276093e+00 4.4593858299e+00 
16800 5.7586358628e+00 -1.4302161619e-01 2.5774038813e+00 -4.4641944740e+00 2.5774038813e+00 4.4641944740e+00 
16900 5.7576696395e+00 -1.4310011703e-01 2.5801789072e+00 -4.4690009598e+00 2.5801789072e+00 4.4690009598e+00 
17000 5.7567087463e+00 -1.4316713458e-01 2.5829524692e+00 -4.4738049101e+00 2.5829524692e+00 4.4738049101e+00 
17100 5.7557533821e+00 -1.4322262930e-01 2.5857243496e+00 -4.4786059479e+00 2.5857243496e+00 4.4786059479e+00 
17200 5.7548037381e+00 -1.4326656535e-01 2.5884943310e+00 -4.4834036965e+00 2.5884943310e+00 4.4834036965e+00 
17300 5.7538599984e+00 -1.4329891099e-01 2.5912621962e+00 -4.4881977796e+00 2.5912621962e+00 4.4881977796e+00 
17400 5.7529223394e+00 -1.4331963884e-01 2.5940277282e+00 -4.4929878214e+00 2.5940277282e+00 4.4929878214e+00 
17500 5.7519909302e+00 -1.4332872623e-01 2.5967907104e+00 -4.4977734470e+00 2.5967907104e+00 4.4977734470e+00 
17600 5.7510659323e+00 -1.4332615537e-01 2.5995509268e+00 -4.5025542821e+00 2.5995509268e+00 4.5025542821e+00 
17700 5.7501474995e+00 -1.4331191363e-01 2.6023081619e+00 -4.5073299533e+00 2.6023081619e+00 4.5073299533e+00 
17800 5.7492357782e+00 -1.4328599365e-01 2.6050622008e+00 -4.5121000887e+00 2.6050622008e+00 4.5121000887e+00 
17900 5.7483309074e+00 -1.4324839358e-01 2.6078128295e+00 -4.5168643174e+00 2.6078128295e+00 4.5168643174e+00 
18000 5.7474330186e+00 -1.4319911709e-01 2.6105598348e+00 -4.5216222701e+00 2.6105598348e+00 4.5216222701e+00 
18100 5.7465422355e+00 -1.4313817358e-01 2.6133030044e+00 -4.5263735791e+00 2.6133030044e+00 4.5263735791e+00 
18200 5.7456586748e+00 -1.4306557817e-01 2.6160421270e+00 -4.5311178787e+00 2.6160421270e+00 4.5311178787e+00 
18300 5.7447824456e+00 -1.4298135178e-01 2.6187769926e+00 -4.5358548050e+00 2.6187769926e+00 4.5358548050e+00 
18400 5.7439136498e+00 -1.4288552118e-01 2.6215073925e+00 -4.5405839963e+00 2.6215073925e+00 4.5405839963e+00 
18500 5.7430523822e+00 -1.4277811896e-01 2.6242331192e+00 -4.5453050933e+00 2.6242331192e+00 4.5453050933e+00 
18600 5.7421987302e+00 -1.4265918356e-01 2.6269539667e+00 -4.5500177394e+00 2.6269539667e+00 4.5500177394e+00 
18700 5.7413527743e+00 -1.4252875920e-01 2.6296697306e+00 -4.5547215805e+00 2.6296697306e+00 4.5547215805e+00 
18800 5.7405145881e+00 -1.4238689589e-01 2.6323802081e+00 -4.5594162653e+00 2.6323802081e+00 4.5594162653e+00 
18900 5.7396842382e+00 -1.4223364935e-01 2.6350851983e+00 -4.5641014457e+00 2.6350851983e+00 4.5641014457e+00 
19000 5.7388617845e+00 -1.4206908094e-01 2.6377845020e+00 -4.5687767768e+00 2.6377845020e+00 4.5687767768e+00 
19100 5.7380472805e+00 -1.4189325759e-01 2.6404779219e+00 -4.5734419171e+00 2.6404779219e+00 4.5734419171e+00 
19200 5.7372407727e+00 -1.4170625172e-01 2.6431652631e+00 -4.5780965284e+00 2.6431652631e+00 4.5780965284e+00 
19300 5.7364423017e+00 -1.4150814112e-01 2.6458463323e+00 -4.5827402765e+00 2.6458463323e+00 4.5827402765e+00 
19400 5.7356519016e+00 -1.4129900887e-01 2.6485209387e+00 -4.5873728308e+00 2.6485209387e+00 4.5873728308e+00 
19500 5.7348696004e+00 -1.4107894318e-01 2.6511888939e+00 -4.5919938647e+00 2.6511888939e+00 4.5919938647e+00 
19600 5.7340954202e+00 -1.4084803733e-01 2.6538500117e+00 -4.5966030559e+00 2.6538500117e+00 4.5966030559e+00 
19700 5.7333293771e+00 -1.4060638952e-01 2.6565041083e+00 -4.6012000861e+00 2.6565041083e+00 4.6012000861e+00 
19800 5.7325714817e+00 -1.4035410269e-01 2.6591510026e+00 -4.6057846415e+00 2.6591510026e+00 4.6057846415e+00 
19900 5.7318217389e+00 -1.4009128447e-01 2.6617905160e+00 -4.6103564129e+00 2.6617905160e+00 4.6103564129e+00 
20000 5.7310801484e+00 -1.3981804697e-01 2.6644224727e+00 -4.6149150955e+00 2.6644224727e+00 4.6149150955e+00 
20100 5.7303467045e+00 -1.3953450667e-01 2.6670466994e+00 -4.6194603895e+00 2.6670466994e+00 4.6194603895e+00 
20200 5.7296213965e+00 -1.3924078426e-01 2.6696630258e+00 -4.6239919997e+00 2.6696630258e+00 4.6239919997e+00 
20300 5.7289042089e+00 -1.3893700451e-01 2.6722712844e+00 -4.6285096362e+00 2.6722712844e+00 4.6285096362e+00 
20400 5.7281951214e+00 -1.3862329609e-01 2.6748713106e+00 -4.6330130137e+00 2.6748713106e+00 4.6330130137e+00 
20500 5.7274941090e+00 -1.3829979147e-01 2.6774629429e+00 -4.6375018525e+00 2.6774629429e+00 4.6375018525e+00 
20600 5.7268011425e+00 -1.3796662672e-01 2.6800460226e+00 -4.6419758778e+00 2.6800460226e+00 4.6419758778e+00 
20700 5.7261161885e+00 -1.3762394138e-01 2.6826203942e+00 -4.6464348203e+00 2.6826203942e+00 4.6464348203e+00 
20800 5.7254392093e+00 -1.3727187830e-01 2.6851859054e+00 -4.6508784160e+00 2.6851859054e+00 4.6508784160e+00 
20900 5.7247701635e+00 -1.3691058353e-01 2.6877424069e+00 -4.6553064065e+00 2.6877424069e+00 4.6553064065e+00 
21000 5.7241090062e+00 -1.3654020609e-01 2.6902897527e+00 -4.6597185388e+00 2.6902897527e+00 4.6597185388e+00 
21100 5.7234556885e+00 -1.3616089792e-01 2.6928278000e+00 -4.6641145657e+00 2.6928278000e+00 4.6641145657e+00 
21200 5.7228101586e+00 -1.3577281366e-01 2.6953564092e+00 -4.6684942453e+00 2.6953564092e+00 4.6684942453e+00 
21300 5.7221723612e+00 -1.3537611051e-01 2.6978754442e+00 -4.6728573418e+00 2.6978754442e+00 4.6728573418e+00 
21400 5.7215422383e+00 -1.3497094815e-01 2.7003847719e+00 -4.6772036249e+00 2.7003847719e+00 4.6772036249e+00 
21500 5.7209197288e+00 -1.3455748851e-01 2.7028842629e+00 -4.6815328703e+00 2.7028842629e+00 4.6815328703e+00 
21600 5.7203047692e+00 -1.3413589569e-01 2.7053737909e+00 -4.6858448593e+00 2.7053737909e+00 4.6858448593e+00 
21700 5.7196972934e+00 -1.3370633580e-01 2.7078532332e+00 -4.6901393793e+00 2.7078532332e+00 4.6901393793e+00 
21800 5.7190972329e+00 -1.3326897682e-01 2.7103224703e+00 -4.6944162235e+00 2.7103224703e+00 4.6944162235e+00 
21900 5.7185045173e+00 -1.3282398848e-01 2.7127813863e+00 -4.6986751909e+00 2.7127813863e+00 4.6986751909e+00 
22000 5.7179190740e+00 -1.3237154212e-01 2.7152298687e+00 -4.7029160868e+00 2.7152298687e+00 4.7029160868e+00 
22100 5.7173408289e+00 -1.3191181056e-01 2.7176678083e+00 -4.7071387221e+00 2.7176678083e+00 4.7071387221e+00 
22200 5.7167697060e+00 -1.3144496794e-01 2.7200950996e+00 -4.7113429139e+00 2.7200950996e+00 4.7113429139e+00 
22300 5.7162056279e+00 -1.3097118968e-01 2.7225116403e+00 -4.7155284852e+00 2.7225116403e+00 4.7155284852e+00 
22400 5.7156485161e+00 -1.3049065225e-01 2.7249173317e+00 -4.7196952650e+00 2.7249173317e+00 4.7196952650e+00 
22500 5.7150982906e+00 -1.3000353314e-01 2.7273120786e+00 -4.7238430882e+00 2.7273120786e+00 4.7238430882e+00 
22600 5.7145548706e+00 -1.2951001066e-01 2.7296957892e+00 -4.7279717960e+00 2.7296957892e+00 4.7279717960e+00 
22700 5.7140181746e+00 -1.2901026388e-01 2.7320683750e+00 -4.7320812353e+00 2.7320683750e+00 4.7320812353e+00 
22800 5.7134881202e+00 -1.2850447251e-01 2.7344297513e+00 -4.7361712590e+00 2.7344297513e+00 4.7361712590e+00 
22900 5.7129646245e+00 -1.2799281675e-01 2.7367798366e+00 -4.7402417261e+00 2.7367798366e+00 4.7402417261e+00 
23000 5.7124476042e+00 -1.2747547720e-01 2.7391185528e+00 -4.7442925014e+00 2.7391185528e+00 4.7442925014e+00 
23100 5.7119369758e+00 -1.2695263475e-01 2.7414458254e+00 -4.7483234557e+00 2.7414458254e+00 4.7483234557e+00 
23200 5.7114326554e+00 -1.2642447049e-01 2.7437615832e+00 -4.7523344659e+00 2.7437615832e+00 4.7523344659e+00 
23300 5.7109345595e+00 -1.2589116554e-01 2.7460657584e+00 -4.7563254144e+00 2.7460657584e+00 4.7563254144e+00 
23400 5.7104426044e+00 -1.2535290102e-01 2.7483582866e+00 -4.7602961898e+00 2.7483582866e+00 4.7602961898e+00 
23500 5.7099567067e+00 -1.2480985791e-01 2.7506391068e+00 -4.7642466863e+00 2.7506391068e+00 4.7642466863e+00 
23600 5.7094767834e+00 -1.2426221692e-01 2.7529081613e+00 -4.7681768039e+00 2.7529081613e+00 4.7681768039e+00 
23700 5.7090027520e+00 -1.2371015846e-01 2.7551653957e+00 -4.7720864487e+00 2.7551653957e+00 4.7720864487e+00 
23800 5.7085345303e+00 -1.2315386246e-01 2.7574107590e+00 -4.7759755320e+00 2.7574107590e+00 4.7759755320e+00 
23900 5.7080720370e+00 -1.2259350832e-01 2.7596442034e+00 -4.7798439712e+00 2.7596442034e+00 4.7798439712e+00 
24000 5.7076151916e+00 -1.2202927481e-01 2.7618656844e+00 -4.7836916890e+00 2.7618656844e+00 4.7836916890e+00 
24100 5.7071639142e+00 -1.2146133995e-01 2.7640751606e+00 -4.7875186141e+00 2.7640751606e+00 4.7875186141e+00 
24200 5.7067181261e+00 -1.2088988094e-01 2.7662725939e+00 -4.7913246803e+00 2.7662725939e+00 4.7913246803e+00 
24300 5.7062777492e+00 -1.2031507404e-01 2.7684579495e+00 -4.7951098271e+00 2.7684579495e+00 4.7951098271e+00 
24400 5.7058427070e+00 -1.1973709450e-01 2.7706311955e+00 -4.7988739996e+00 2.7706311955e+00 4.7988739996e+00 
24500 5.7054129236e+00 -1.1915611644e-01 2.7727923031e+00 -4.8026171478e+00 2.7727923031e+00 4.8026171478e+00 
24600 5.7049883248e+00 -1.1857231280e-01 2.7749412469e+00 -4.8063392276e+00 2.7749412469e+00 4.8063392276e+00 
24700 5.7045688373e+00 -1.1798585521e-01 2.7770780041e+00 -4.8100401997e+00 2.7770780041e+00 4.8100401997e+00 
24800 5.7041543892e+00 -1.1739691392e-01 2.7792025553e+00 -4.8137200302e+00 2.7792025553e+00 4.8137200302e+00 
24900 5.7037449101e+00 -1.1680565770e-01 2.7813148837e+00 -4.8173786904e+00 2.7813148837e+00 4.8173786904e+00 
25000 5.7033403309e+00 -1.1621225378e-01 2.7834149757e+00 -4.8210161565e+00 2.7834149757e+00 4.8210161565e+00 
25100 5.7029405837e+00 -1.1561686772e-01 2.7855028205e+00 -4.8246324098e+00 2.7855028205e+00 4.8246324098e+00 
25200 5.7025456025e+00 -1.1501966336e-01 2.7875784101e+00 -4.8282274364e+00 2.7875784101e+00 4.8282274364e+00 
25300 5.7021553225e+00 -1.1442080273e-01 2.7896417394e+00 -4.8318012275e+00 2.7896417394e+00 4.8318012275e+00 
25400 5.7017696803e+00 -1.1382044597e-01 2.7916928058e+00 -4.8353537788e+00 2.7916928058e+00 4.8353537788e+00 
25500 5.7013886144e+00 -1.1321875121e-01 2.7937316098e+00 -4.8388850909e+00 2.7937316098e+00 4.8388850909e+00 
25600 5.7010120644e+00 -1.1261587457e-01 2.7957581543e+00 -4.8423951689e+00 2.7957581543e+00 4.8423951689e+00 
25700 5.7006399718e+00 -1.1201196999e-01 2.7977724449e+00 -4.8458840225e+00 2.7977724449e+00 4.8458840225e+00 
25800 5.7002722793e+00 -1.1140718922e-01 2.7997744897e+00 -4.8493516659e+00 2.7997744897e+00 4.8493516659e+00 
25900 5.6999089313e+00 -1.1080168173e-01 2.8017642995e+00 -4.8527981176e+00 2.8017642995e+00 4.8527981176e+00 
26000 5.6995498738e+00 -1.1019559461e-01 2.8037418874e+00 -4.8562234004e+00 2.8037418874e+00 4.8562234004e+00 
26100 5.6991950541e+00 -1.0958907253e-01 2.8057072691e+00 -4.8596275413e+00 2.8057072691e+00 4.8596275413e+00 
26200 5.6988444211e+00 -1.0898225766e-01 2.8076604625e+00 -4.8630105714e+00 2.8076604625e+00 4.8630105714e+00 
26300 5.6984979252e+00 -1.0837528960e-01 2.8096014879e+00 -4.8663725260e+00 2.8096014879e+00 4.8663725260e+00 
26400 5.6981555182e+00 -1.0776830531e-01 2.8115303678e+00 -4.8697134441e+00 2.8115303678e+00 4.8697134441e+00 
26500 5.6978171533e+00 -1.0716143906e-01 2.8134471272e+00 -4.8730333687e+00 2.8134471272e+00 4.8730333687e+00 
26600 5.6974827851e+00 -1.0655482236e-01 2.8153517928e+00 -4.8763323463e+00 2.8153517928e+00 4.8763323463e+00 
26700 5.6971523695e+00 -1.0594858391e-01 2.8172443938e+00 -4.8796104274e+00 2.8172443938e+00 4.8796104274e+00 
26800 5.6968258638e+00 -1.0534284954e-01 2.8191249612e+00 -4.8828676657e+00 2.8191249612e+00 4.8828676657e+00 
26900 5.6965032266e+00 -1.0473774214e-01 2.8209935282e+00 -4.8861041187e+00 2.8209935282e+00 4.8861041187e+00 
27000 5.6961844177e+00 -1.0413338166e-01 2.8228501298e+00 -4.8893198470e+00 2.8228501298e+00 4.8893198470e+00 
27100 5.6958693980e+00 -1.0352988500e-01 2.8246948029e+00 -4.8925149146e+00 2.8246948029e+00 4.8925149146e+00 
27200 5.6955581297e+00 -1.0292736602e-01 2.8265275863e+00 -4.8956893884e+00 2.8265275863e+00 4.8956893884e+00 
27300 5.6952505760e+00 -1.0232593545e-01 2.8283485204e+00 -4.8988433388e+00 2.8283485204e+00 4.8988433388e+00 
27400 5.6949467013e+00 -1.0172570090e-01 2.8301576474e+00 -4.9019768388e+00 2.8301576474e+00 4.9019768388e+00 
27500 5.6946464709e+00 -1.0112676680e-01 2.8319550113e+00 -4.9050899643e+00 2.8319550113e+00 4.9050899643e+00 
27600 5.6943498509e+00 -1.0052923438e-01 2.8337406573e+00 -4.9081827940e+00 2.8337406573e+00 4.9081827940e+00 
27700 5.6940568088e+00 -9.9933201608e-02 2.8355146326e+00 -4.9112554092e+00 2.8355146326e+00 4.9112554092e+00 
27800 5.6937673124e+00 -9.9338763234e-02 2.8372769854e+00 -4.9143078939e+00 2.8372769854e+00 4.9143078939e+00 
27900 5.6934813308e+00 -9.8746010708e-02 2.8390277657e+00 -4.9173403343e+00 2.8390277657e+00 4.9173403343e+00 
28000 5.6931988334e+00 -9.8155032196e-02 2.8407670246e+00 -4.9203528191e+00 2.8407670246e+00 4.9203528191e+00 
28100 5.6929197908e+00 -9.7565912556e-02 2.8424948146e+00 -4.9233454391e+00 2.8424948146e+00 4.9233454391e+00 
28200 5.6926441740e+00 -9.6978733333e-02 2.8442111893e+00 -4.9263182873e+00 2.8442111893e+00 4.9263182873e+00 
28300 5.6923719545e+00 -9.6393572755e-02 2.8459162036e+00 -4.9292714587e+00 2.8459162036e+00 4.9292714587e+00 
28400 5.6921031046e+00 -9.5810505729e-02 2.8476099135e+00 -4.9322050503e+00 2.8476099135e+00 4.9322050503e+00 
28500 5.6918375971e+00 -9.5229603848e-02 2.8492923759e+00 -4.9351191607e+00 2.8492923759e+00 4.9351191607e+00 
28600 5.6915754051e+00 -9.4650935395e-02 2.8509636489e+00 -4.9380138904e+00 2.8509636489e+00 4.9380138904e+00 
28700 5.6913165024e+00 -9.4074565355e-02 2.8526237913e+00 -4.9408893415e+00 2.8526237913e+00 4.9408893415e+00 
28800 5.6910608629e+00 -9.3500555429e-02 2.8542728630e+00 -4.9437456174e+00 2.8542728630e+00 4.9437456174e+00 
28900 5.6908084611e+00 -9.2928964053e-02 2.8559109246e+00 -4.9465828233e+00 2.8559109246e+00 4.9465828233e+00 
29000 5.6905592715e+00 -9.2359846423e-02 2.8575380373e+00 -4.9494010652e+00 2.8575380373e+00 4.9494010652e+00 
29100 5.6903132693e+00 -9.1793254515e-02 2.8591542634e+00 -4.9522004508e+00 2.8591542634e+00 4.9522004508e+00 
29200 5.6900704295e+00 -9.1229237121e-02 2.8607596654e+00 -4.9549810887e+00 2.8607596654e+00 4.9549810887e+00 
29300 5.6898307276e+00 -9.0667839880e-02 2.8623543066e+00 -4.9577430883e+00 2.8623543066e+00 4.9577430883e+00 
29400 5.6895941391e+00 -9.0109105316e-02 2.8639382509e+00 -4.9604865603e+00 2.8639382509e+00 4.9604865603e+00 
29500 5.6893606396e+00 -8.9553072877e-02 2.8655115626e+00 -4.9632116161e+00 2.8655115626e+00 4.9632116161e+00 
29600 5.6891302049e+00 -8.8999778982e-02 2.8670743064e+00 -4.9659183677e+00 2.8670743064e+00 4.9659183677e+00 
29700 5.6889028108e+00 -8.8449257067e-02 2.8686265474e+00 -4.9686069280e+00 2.8686265474e+00 4.9686069280e+00 
29800 5.6886784333e+00 -8.7901537635e-02 2.8701683510e+00 -4.9712774102e+00 2.8701683510e+00 4.9712774102e+00 
29900 5.6884570481e+00 -8.7356648311e-02 2.8716997829e+00 -4.9739299281e+00 2.8716997829e+00 4.9739299281e+00 
30000 5.6882386311e+00 -8.6814613901e-02 2.8732209091e+00 -4.9765645960e+00 2.8732209091e+00 4.9765645960e+00 
30100 5.6880231583e+00 -8.6275456448e-02 2.8747317957e+00 -4.9791815283e+00 2.8747317957e+00 4.9791815283e+00 
30200 5.6878106054e+00 -8.5739195295e-02 2.8762325089e+00 -4.9817808398e+00 2.8762325089e+00 4.9817808398e+00 
30300 5.6876009481e+00 -8.5205847154e-02 2.8777231150e+00 -4.9843626453e+00 2.8777231150e+00 4.9843626453e+00 
30400 5.6873941622e+00 -8.4675426169e-02 2.8792036805e+00 -4.9869270599e+00 2.8792036805e+00 4.9869270599e+00 
30500 5.6871902233e+00 -8.4147943989e-02 2.8806742716e+00 -4.9894741985e+00 2.8806742716e+00 4.9894741985e+00 
30600 5.6869891067e+00 -8.3623409839e-02 2.8821349549e+00 -4.9920041761e+00 2.8821349549e+00 4.9920041761e+00 
30700 5.6867907879e+00 -8.3101830594e-02 2.8835857964e+00 -4.9945171073e+00 2.8835857964e+00 4.9945171073e+00 
30800 5.6865952422e+00 -8.2583210853e-02 2.8850268624e+00 -4.9970131068e+00 2.8850268624e+00 4.9970131068e+00 
30900 5.6864024447e+00 -8.2067553022e-02 2.8864582188e+00 -4.9994922889e+00 2.8864582188e+00 4.9994922889e+00 
31000 5.6862123703e+00 -8.1554857386e-02 2.8878799315e+00 -5.0019547675e+00 2.8878799315e+00 5.0019547675e+00 
31100 5.6860249940e+00 -8.1045122193e-02 2.8892920661e+00 -5.0044006563e+00 2.8892920661e+00 5.0044006563e+00 
31200 5.6858402905e+00 -8.0538343736e-02 2.8906946878e+00 -5.0068300684e+00 2.8906946878e+00 5.0068300684e+00 
31300 5.6856582344e+00 -8.0034516435e-02 2.8920878617e+00 -5.0092431164e+00 2.8920878617e+00 5.0092431164e+00 
31400 5.6854788003e+00 -7.9533632915e-02 2.8934716526e+00 -5.0116399125e+00 2.8934716526e+00 5.0116399125e+00 
31500 5.6853019623e+00 -7.9035684099e-02 2.8948461248e+00 -5.0140205682e+00 2.8948461248e+00 5.0140205682e+00 
31600 5.6851276948e+00 -7.8540659285e-02 2.8962113423e+00 -5.0163851943e+00 2.8962113423e+00 5.0163851943e+00 
31700 5.6849559719e+00 -7.8048546230e-02 2.8975673687e+00 -5.0187339010e+00 2.8975673687e+00 5.0187339010e+00 
31800 5.6847867675e+00 -7.7559331240e-02 2.8989142674e+00 -5.0210667979e+00 2.8989142674e+00 5.0210667979e+00 
31900 5.6846200556e+00 -7.7072999250e-02 2.9002521009e+00 -5.0233839935e+00 2.9002521009e+00 5.0233839935e+00 
32000 5.6844558098e+00 -7.6589533909e-02 2.9015809316e+00 -5.0256855958e+00 2.9015809316e+00 5.0256855958e+00 
32100 5.6842940038e+00 -7.6108917662e-02 2.9029008213e+00 -5.0279717119e+00 2.9029008213e+00 5.0279717119e+00 
32200 5.6841346113e+00 -7.5631131837e-02 2.9042118314e+00 -5.0302424479e+00 2.9042118314e+00 5.0302424479e+00 
32300 5.6839776056e+00 -7.5156156723e-02 2.9055140226e+00 -5.0324979092e+00 2.9055140226e+00 5.0324979092e+00 
32400 5.6838229604e+00 -7.4683971655e-02 2.9068074551e+00 -5.0347382001e+00 2.9068074551e+00 5.0347382001e+00 
32500 5.6836706488e+00 -7.4214555090e-02 2.9080921888e+00 -5.0369634242e+00 2.9080921888e+00 5.0369634242e+00 
32600 5.6835206443e+00 -7.3747884691e-02 2.9093682829e+00 -5.0391736838e+00 2.9093682829e+00 5.0391736838e+00 
32700 5.6833729201e+00 -7.3283937401e-02 2.9106357958e+00 -5.0413690806e+00 2.9106357958e+00 5.0413690806e+00 
32800 5.6832274494e+00 -7.2822689521e-02 2.9118947856e+00 -5.0435497149e+00 2.9118947856e+00 5.0435497149e+00 
32900 5.6830842055e+00 -7.2364116786e-02 2.9131453098e+00 -5.0457156864e+00 2.9131453098e+00 5.0457156864e+00 
33000 5.6829431616e+00 -7.1908194435e-02 2.9143874253e+00 -5.0478670935e+00 2.9143874253e+00 5.0478670935e+00 
33100 5.6828042910e+00 -7.1454897285e-02 2.9156211882e+00 -5.0500040337e+00 2.9156211882e+00 5.0500040337e+00 
33200 5.6826675668e+00 -7.1004199799e-02 2.9168466544e+00 -5.0521266033e+00 2.9168466544e+00 5.0521266033e+00 
33300 5.6825329624e+00 -7.0556076154e-02 2.9180638787e+00 -5.0542348977e+00 2.9180638787e+00 5.0542348977e+00 
33400 5.6824004510e+00 -7.0110500307e-02 2.9192729158e+00 -5.0563290113e+00 2.9192729158e+00 5.0563290113e+00 
33500 5.6822700061e+00 -6.9667446057e-02 2.9204738193e+00 -5.0584090373e+00 2.9204738193e+00 5.0584090373e+00 
33600 5.6821416009e+00 -6.9226887108e-02 2.9216666427e+00 -5.0604750679e+00 2.9216666427e+00 5.0604750679e+00 
33700 5.6820152091e+00 -6.8788797123e-02 2.9228514384e+00 -5.0625271943e+00 2.9228514384e+00 5.0625271943e+00 
33800 5.6818908041e+00 -6.8353149789e-02 2.9240282586e+00 -5.0645655066e+00 2.9240282586e+00 5.0645655066e+00 
33900 5.6817683597e+00 -6.7919918861e-02 2.9251971546e+00 -5.0665900940e+00 2.9251971546e+00 5.0665900940e+00 
34000 5.6816478495e+00 -6.7489078220e-02 2.9263581774e+00 -5.0686010444e+00 2.9263581774e+00 5.0686010444e+00 
34100 5.6815292476e+00 -6.7060601922e-02 2.9275113771e+00 -5.0705984449e+00 2.9275113771e+00 5.0705984449e+00 
34200 5.6814125278e+00 -6.6634464240e-02 2.9286568035e+00 -5.0725823815e+00 2.9286568035e+00 5.0725823815e+00 
34300 5.6812976643e+00 -6.6210639715e-02 2.9297945055e+00 -5.0745529393e+00 2.9297945055e+00 5.0745529393e+00 
34400 5.6811846313e+00 -6.5789103191e-02 2.9309245318e+00 -5.0765102022e+00 2.9309245318e+00 5.0765102022e+00 
34500 5.6810734034e+00 -6.5369829857e-02 2.9320469302e+00 -5.0784542532e+00 2.9320469302e+00 5.0784542532e+00 
34600 5.6809639550e+00 -6.4952795284e-02 2.9331617481e+00 -5.0803851745e+00 2.9331617481e+00 5.0803851745e+00 
34700 5.6808562609e+00 -6.4537975458e-02 2.9342690324e+00 -5.0823030472e+00 2.9342690324e+00 5.0823030472e+00 
34800 5.6807502961e+00 -6.4125346812e-02 2.9353688294e+00 -5.0842079515e+00 2.9353688294e+00 5.0842079515e+00 
34900 5.6806460356e+00 -6.3714886255e-02 2.9364611849e+00 -5.0860999666e+00 2.9364611849e+00 5.0860999666e+00 
35000 5.6805434547e+00 -6.3306571196e-02 2.9375461440e+00 -5.0879791710e+00 2.9375461440e+00 5.0879791710e+00 
35100 5.6804425289e+00 -6.2900379575e-02 2.9386237516e+00 -5.0898456421e+00 2.9386237516e+00 5.0898456421e+00 
35200 5.6803432339e+00 -6.2496289874e-02 2.9396940519e+00 -5.0916994565e+00 2.9396940519e+00 5.0916994565e+00 
35300 5.6802455456e+00 -6.2094281148e-02 2.9407570886e+00 -5.0935406901e+00 2.9407570886e+00 5.0935406901e+00 
35400 5.6801494401e+00 -6.1694333031e-02 2.9418129051e+00 -5.0953694179e+00 2.9418129051e+00 5.0953694179e+00 
35500 5.6800548938e+00 -6.1296425761e-02 2.9428615441e+00 -5.0971857140e+00 2.9428615441e+00 5.0971857140e+00 
35600 5.6799618831e+00 -6.0900540183e-02 2.9439030481e+00 -5.0989896518e+00 2.9439030481e+00 5.0989896518e+00 
35700 5.6798703850e+00 -6.0506657768e-02 2.9449374589e+00 -5.1007813039e+00 2.9449374589e+00 5.1007813039e+00 
35800 5.6797803763e+00 -6.0114760614e-02 2.9459648182e+00 -5.1025607424e+00 2.9459648182e+00 5.1025607424e+00 
35900 5.6796918344e+00 -5.9724831458e-02 2.9469851669e+00 -5.1043280382e+00 2.9469851669e+00 5.1043280382e+00 
36000 5.6796047367e+00 -5.9336853675e-02 2.9479985458e+00 -5.1060832620e+00 2.9479985458e+00 5.1060832620e+00 
36100 5.6795190611e+00 -5.8950811286e-02 2.9490049952e+00 -5.1078264835e+00 2.9490049952e+00 5.1078264835e+00 
36200 5.6794347855e+00 -5.8566688953e-02 2.9500045551e+00 -5.1095577720e+00 2.9500045551e+00 5.1095577720e+00 
36300 5.6793518880e+00 -5.8184471984e-02 2.9509972649e+00 -5.1112771959e+00 2.9509972649e+00 5.1112771959e+00 
36400 5.6792703474e+00 -5.7804146324e-02 2.9519831640e+00 -5.1129848232e+00 2.9519831640e+00 5.1129848232e+00 
36500 5.6791901422e+00 -5.7425698554e-02 2.9529622912e+00 -5.1146807213e+00 2.9529622912e+00 5.1146807213e+00 
36600 5.6791112515e+00 -5.7049115886e-02 2.9539346851e+00 -5.1163649569e+00 2.9539346851e+00 5.1163649569e+00 
36700 5.6790336546e+00 -5.6674386153e-02 2.9549003839e+00 -5.1180375962e+00 2.9549003839e+00 5.1180375962e+00 
36800 5.6789573310e+00 -5.6301497801e-02 2.9558594256e+00 -5.1196987051e+00 2.9558594256e+00 5.1196987051e+00 
36900 5.6788822605e+00 -5.5930439881e-02 2.9568118477e+00 -5.1213483487e+00 2.9568118477e+00 5.1213483487e+00 
37000 5.6788084231e+00 -5.5561202036e-02 2.9577576878e+00 -5.1229865917e+00 2.9577576878e+00 5.1229865917e+00 
37100 5.6787357992e+00 -5.5193774489e-02 2.9586969828e+00 -5.1246134984e+00 2.9586969828e+00 5.1246134984e+00 
37200 5.6786643693e+00 -5.4828148031e-02 2.9596297697e+00 -5.1262291326e+00 2.9596297697e+00 5.1262291326e+00 
37300 5.6785941143e+00 -5.4464314004e-02 2.9605560850e+00 -5.1278335578e+00 2.9605560850e+00 5.1278335578e+00 
37400 5.6785250153e+00 -5.4102264289e-02 2.9614759651e+00 -5.1294268369e+00 2.9614759651e+00 5.1294268369e+00 
37500 5.6784570536e+00 -5.3741991289e-02 2.9623894461e+00 -5.1310090325e+00 2.9623894461e+00 5.1310090325e+00 
37600 5.6783902110e+00 -5.3383487912e-02 2.9632965641e+00 -5.1325802069e+00 2.9632965641e+00 5.1325802069e+00 
37700 5.6783244692e+00 -5.3026747554e-02 2.9641973547e+00 -5.1341404219e+00 2.9641973547e+00 5.1341404219e+00 
37800 5.6782598105e+00 -5.2671764082e-02 2.9650918534e+00 -5.1356897391e+00 2.9650918534e+00 5.1356897391e+00 
37900 5.6781962172e+00 -5.2318531815e-02 2.9659800955e+00 -5.1372282197e+00 2.9659800955e+00 5.1372282197e+00 
38000 5.6781336721e+00 -5.1967045504e-02 2.9668621164e+00 -5.1387559246e+00 2.9668621164e+00 5.1387559246e+00 
38100 5.6780721580e+00 -5.1617300317e-02 2.9677379508e+00 -5.1402729144e+00 2.9677379508e+00 5.1402729144e+00 
38200 5.6780116582e+00 -5.1269291816e-02 2.9686076337e+00 -5.1417792494e+00 2.9686076337e+00 5.1417792494e+00 
38300 5.6779521561e+00 -5.0923015936e-02 2.9694711998e+00 -5.1432749897e+00 2.9694711998e+00 5.1432749897e+00 
38400 5.6778936354e+00 -5.0578468973e-02 2.9703286836e+00 -5.1447601951e+00 2.9703286836e+00 5.1447601951e+00 
38500 5.6778360801e+00 -5.0235647555e-02 2.9711801194e+00 -5.1462349252e+00 2.9711801194e+00 5.1462349252e+00 
38600 5.6777794743e+00 -4.9894548627e-02 2.9720255415e+00 -5.1476992393e+00 2.9720255415e+00 5.1476992393e+00 
38700 5.6777238025e+00 -4.9555169433e-02 2.9728649841e+00 -5.1491531965e+00 2.9728649841e+00 5.1491531965e+00 
38800 5.6776690494e+00 -4.9217507489e-02 2.9736984812e+00 -5.1505968558e+00 2.9736984812e+00 5.1505968558e+00 
38900 5.6776151999e+00 -4.8881560573e-02 2.9745260666e+00 -5.1520302758e+00 2.9745260666e+00 5.1520302758e+00 
39000 5.6775622392e+00 -4.8547326697e-02 2.9753477741e+00 -5.1534535150e+00 2.9753477741e+00 5.1534535150e+00 
39100 5.6775101526e+00 -4.8214804094e-02 2.9761636375e+00 -5.1548666318e+00 2.9761636375e+00 5.1548666318e+00 
39200 5.6774589260e+00 -4.7883991193e-02 2.9769736902e+00 -5.1562696843e+00 2.9769736902e+00 5.1562696843e+00 
39300 5.6774085450e+00 -4.7554886607e-02 2.9777779658e+00 -5.1576627305e+00 2.9777779658e+00 5.1576627305e+00 
39400 5.6773589959e+00 -4.7227489108e-02 2.9785764977e+00 -5.1590458282e+00 2.9785764977e+00 5.1590458282e+00 
39500 5.6773102649e+00 -4.6901797615e-02 2.9793693191e+00 -5.1604190352e+00 2.9793693191e+00 5.1604190352e+00 
39600 5.6772623386e+00 -4.6577811170e-02 2.9801564632e+00 -5.1617824088e+00 2.9801564632e+00 5.1617824088e+00 
39700 5.6772152039e+00 -4.6255528926e-02 2.9809379633e+00 -5.1631360066e+00 2.9809379633e+00 5.1631360066e+00 
39800 5.6771688476e+00 -4.5934950130e-02 2.9817138522e+00 -5.1644798856e+00 2.9817138522e+00 5.1644798856e+00 
39900 5.6771232571e+00 -4.5616074101e-02 2.9824841630e+00 -5.1658141030e+00 2.9824841630e+00 5.1658141030e+00 
40000 5.6770784197e+00 -4.5298900221e-02 2.9832489285e+00 -5.1671387158e+00 2.9832489285e+00 5.1671387158e+00 
40100 5.6770343230e+00 -4.4983427916e-02 2.9840081816e+00 -5.1684537808e+00 2.9840081816e+00 5.1684537808e+00 
40200 5.6769909550e+00 -4.4669656642e-02 2.9847619551e+00 -5.1697593547e+00 2.9847619551e+00 5.1697593547e+00 
40300 5.6769483037e+00 -4.4357585870e-02 2.9855102815e+00 -5.1710554940e+00 2.9855102815e+00 5.1710554940e+00 
40400 5.6769063573e+00 -4.4047215073e-02 2.9862531934e+00 -5.1723422552e+00 2.9862531934e+00 5.1723422552e+00 
40500 5.6768651042e+00 -4.3738543715e-02 2.9869907234e+00 -5.1736196947e+00 2.9869907234e+00 5.1736196947e+00 
40600 5.6768245332e+00 -4.3431571232e-02 2.9877229040e+00 -5.1748878686e+00 2.9877229040e+00 5.1748878686e+00 
40700 5.6767846330e+00 -4.3126297029e-02 2.9884497674e+00 -5.1761468330e+00 2.9884497674e+00 5.1761468330e+00 
40800 5.6767453926e+00 -4.2822720460e-02 2.9891713461e+00 -5.1773966440e+00 2.9891713461e+00 5.1773966440e+00 
40900 5.6767068013e+00 -4.2520840824e-02 2.9898876722e+00 -5.1786373572e+00 2.9898876722e+00 5.1786373572e+00 
41000 5.6766688485e+00 -4.2220657348e-02 2.9905987780e+00 -5.1798690285e+00 2.9905987780e+00 5.1798690285e+00 
41100 5.6766315236e+00 -4.1922169185e-02 2.9913046954e+00 -5.1810917134e+00 2.9913046954e+00 5.1810917134e+00 
41200 5.6765948166e+00 -4.1625375400e-02 2.9920054566e+00 -5.1823054674e+00 2.9920054566e+00 5.1823054674e+00 
41300 5.6765587172e+00 -4.1330274960e-02 2.9927010935e+00 -5.1835103458e+00 2.9927010935e+00 5.1835103458e+00 
41400 5.6765232156e+00 -4.1036866732e-02 2.9933916380e+00 -5.1847064039e+00 2.9933916380e+00 5.1847064039e+00 
41500 5.6764883021e+00 -4.0745149471e-02 2.9940771218e+00 -5.1858936968e+00 2.9940771218e+00 5.1858936968e+00 
41600 5.6764539669e+00 -4.0455121815e-02 2.9947575768e+00 -5.1870722794e+00 2.9947575768e+00 5.1870722794e+00 
41700 5.6764202009e+00 -4.0166782276e-02 2.9954330345e+00 -5.1882422064e+00 2.9954330345e+00 5.1882422064e+00 
41800 5.6763869946e+00 -3.9880129241e-02 2.9961035266e+00 -5.1894035327e+00 2.9961035266e+00 5.1894035327e+00 
41900 5.6763543390e+00 -3.9595160959e-02 2.9967690844e+00 -5.1905563128e+00 2.9967690844e+00 5.1905563128e+00 
42000 5.6763222251e+00 -3.9311875541e-02 2.9974297395e+00 -5.1917006010e+00 2.9974297395e+00 5.1917006010e+00 
42100 5.6762906441e+00 -3.9030270955e-02 2.9980855232e+00 -5.1928364516e+00 2.9980855232e+00 5.1928364516e+00 
42200 5.6762595875e+00 -3.8750345023e-02 2.9987364666e+00 -5.1939639187e+00 2.9987364666e+00 5.1939639187e+00 
42300 5.6762290466e+00 -3.8472095416e-02 2.9993826010e+00 -5.1950830563e+00 2.9993826010e+00 5.1950830563e+00 
42400 5.6761990131e+00 -3.8195519653e-02 3.0000239575e+00 -5.1961939183e+00 3.0000239575e+00 5.1961939183e+00 
42500 5.6761694788e+00 -3.7920615098e-02 3.0006605669e+00 -5.1972965581e+00 3.0006605669e+00 5.1972965581e+00 
42600 5.6761404357e+00 -3.7647378959e-02 3.0012924602e+00 -5.1983910294e+00 3.0012924602e+00 5.1983910294e+00 
42700 5.6761118757e+00 -3.7375808287e-02 3.0019196681e+00 -5.1994773854e+00 3.0019196681e+00 5.1994773854e+00 
42800 5.6760837910e+00 -3.7105899971e-02 3.0025422214e+00 -5.2005556794e+00 3.0025422214e+00 5.2005556794e+00 
42900 5.6760561740e+00 -3.6837650745e-02 3.0031601507e+00 -5.2016259642e+00 3.0031601507e+00 5.2016259642e+00 
43000 5.6760290171e+00 -3.6571057181e-02 3.0037734863e+00 -5.2026882927e+00 3.0037734863e+00 5.2026882927e+00 
43100 5.6760023129e+00 -3.6306115693e-02 3.0043822588e+00 -5.2037427176e+00 3.0043822588e+00 5.2037427176e+00 
43200 5.6759760540e+00 -3.6042822535e-02 3.0049864984e+00 -5.2047892912e+00 3.0049864984e+00 5.2047892912e+00 
43300 5.6759502333e+00 -3.5781173804e-02 3.0055862352e+00 -5.2058280659e+00 3.0055862352e+00 5.2058280659e+00 
43400 5.6759248437e+00 -3.5521165441e-02 3.0061814993e+00 -5.2068590936e+00 3.0061814993e+00 5.2068590936e+00 
43500 5.6758998782e+00 -3.5262793230e-02 3.0067723208e+00 -5.2078824263e+00 3.0067723208e+00 5.2078824263e+00 
43600 5.6758753300e+00 -3.5006052803e-02 3.0073587293e+00 -5.2088981157e+00 3.0073587293e+00 5.2088981157e+00 
43700 5.6758511924e+00 -3.4750939641e-02 3.0079407547e+00 -5.2099062132e+00 3.0079407547e+00 5.2099062132e+00 
43800 5.6758274587e+00 -3.4497449074e-02 3.0085184265e+00 -5.2109067702e+00 3.0085184265e+00 5.2109067702e+00 
43900 5.6758041224e+00 -3.4245576285e-02 3.0090917742e+00 -5.2118998376e+00 3.0090917742e+00 5.2118998376e+00 
44000 5.6757811772e+00 -3.3995316315e-02 3.0096608272e+00 -5.2128854663e+00 3.0096608272e+00 5.2128854663e+00 
44100 5.6757586166e+00 -3.3746664063e-02 3.0102256148e+00 -5.2138637070e+00 3.0102256148e+00 5.2138637070e+00 
44200 5.6757364346e+00 -3.3499614287e-02 3.0107861660e+00 -5.2148346102e+00 3.0107861660e+00 5.2148346102e+00 
44300 5.6757146250e+00 -3.3254161613e-02 3.0113425098e+00 -5.2157982260e+00 3.0113425098e+00 5.2157982260e+00 
44400 5.6756931818e+00 -3.3010300533e-02 3.0118946751e+00 -5.2167546043e+00 3.0118946751e+00 5.2167546043e+00 
44500 5.6756720991e+00 -3.2768025413e-02 3.0124426906e+00 -5.2177037951e+00 3.0124426906e+00 5.2177037951e+00 
44600 5.6756513711e+00 -3.2527330492e-02 3.0129865850e+00 -5.2186458477e+00 3.0129865850e+00 5.2186458477e+00 
44700 5.6756309921e+00 -3.2288209887e-02 3.0135263866e+00 -5.2195808116e+00 3.0135263866e+00 5.2195808116e+00 
44800 5.6756109564e+00 -3.2050657601e-02 3.0140621239e+00 -5.2205087357e+00 3.0140621239e+00 5.2205087357e+00 
44900 5.6755912586e+00 -3.1814667521e-02 3.0145938249e+00 -5.2214296689e+00 3.0145938249e+00 5.2214296689e+00 
45000 5.6755718931e+00 -3.1580233423e-02 3.0151215178e+00 -5.2223436599e+00 3.0151215178e+00 5.2223436599e+00 
45100 5.6755528546e+00 -3.1347348981e-02 3.0156452305e+00 -5.2232507568e+00 3.0156452305e+00 5.2232507568e+00 
45200 5.6755341378e+00 -3.1116007764e-02 3.0161649907e+00 -5.2241510080e+00 3.0161649907e+00 5.2241510080e+00 
45300 5.6755157375e+00 -3.0886203245e-02 3.0166808262e+00 -5.2250444611e+00 3.0166808262e+00 5.2250444611e+00 
45400 5.6754976486e+00 -3.0657928803e-02 3.0171927643e+00 -5.2259311639e+00 3.0171927643e+00 5.2259311639e+00 
45500 5.6754798661e+00 -3.0431177726e-02 3.0177008324e+00 -5.2268111637e+00 3.0177008324e+00 5.2268111637e+00 
45600 5.6754623851e+00 -3.0205943219e-02 3.0182050577e+00 -5.2276845076e+00 3.0182050577e+00 5.2276845076e+00 
45700 5.6754452005e+00 -2.9982218403e-02 3.0187054674e+00 -5.2285512425e+00 3.0187054674e+00 5.2285512425e+00 
45800 5.6754283078e+00 -2.9759996323e-02 3.0192020882e+00 -5.2294114150e+00 3.0192020882e+00 5.2294114150e+00 
45900 5.6754117020e+00 -2.9539269950e-02 3.0196949470e+00 -5.2302650715e+00 3.0196949470e+00 5.2302650715e+00 
46000 5.6753953787e+00 -2.9320032187e-02 3.0201840703e+00 -5.2311122580e+00 3.0201840703e+00 5.2311122580e+00 
46100 5.6753793332e+00 -2.9102275869e-02 3.0206694848e+00 -5.2319530205e+00 3.0206694848e+00 5.2319530205e+00 
46200 5.6753635609e+00 -2.8885993770e-02 3.0211512165e+00 -5.2327874044e+00 3.0211512165e+00 5.2327874044e+00 
46300 5.6753480575e+00 -2.8671178608e-02 3.0216292918e+00 -5.2336154551e+00 3.0216292918e+00 5.2336154551e+00 
46400 5.6753328187e+00 -2.8457823046e-02 3.0221037367e+00 -5.2344372177e+00 3.0221037367e+00 5.2344372177e+00 
46500 5.6753178400e+00 -2.8245919696e-02 3.0225745769e+00 -5.2352527369e+00 3.0225745769e+00 5.2352527369e+00 
46600 5.6753031173e+00 -2.8035461125e-02 3.0230418383e+00 -5.2360620573e+00 3.0230418383e+00 5.2360620573e+00 
46700 5.6752886464e+00 -2.7826439855e-02 3.0235055464e+00 -5.2368652233e+00 3.0235055464e+00 5.2368652233e+00 
46800 5.6752744232e+00 -2.7618848370e-02 3.0239657265e+00 -5.2376622787e+00 3.0239657265e+00 5.2376622787e+00 
46900 5.6752604437e+00 -2.7412679118e-02 3.0244224041e+00 -5.2384532674e+00 3.0244224041e+00 5.2384532674e+00 
47000 5.6752467039e+00 -2.7207924514e-02 3.0248756040e+00 -5.2392382328e+00 3.0248756040e+00 5.2392382328e+00 
47100 5.6752331999e+00 -2.7004576944e-02 3.0253253514e+00 -5.2400172181e+00 3.0253253514e+00 5.2400172181e+00 
47200 5.6752199279e+00 -2.6802628767e-02 3.0257716710e+00 -5.2407902664e+00 3.0257716710e+00 5.2407902664e+00 
47300 5.6752068840e+00 -2.6602072320e-02 3.0262145875e+00 -5.2415574202e+00 3.0262145875e+00 5.2415574202e+00 
47400 5.6751940645e+00 -2.6402899920e-02 3.0266541254e+00 -5.2423187221e+00 3.0266541254e+00 5.2423187221e+00 
47500 5.6751814657e+00 -2.6205103865e-02 3.0270903089e+00 -5.2430742141e+00 3.0270903089e+00 5.2430742141e+00 
47600 5.6751690841e+00 -2.6008676441e-02 3.0275231623e+00 -5.2438239382e+00 3.0275231623e+00 5.2438239382e+00 
47700 5.6751569160e+00 -2.5813609922e-02 3.0279527097e+00 -5.2445679361e+00 3.0279527097e+00 5.2445679361e+00 
47800 5.6751449580e+00 -2.5619896572e-02 3.0283789748e+00 -5.2453062490e+00 3.0283789748e+00 5.2453062490e+00 
47900 5.6751332066e+00 -2.5427528650e-02 3.0288019816e+00 -5.2460389181e+00 3.0288019816e+00 5.2460389181e+00 
48000 5.6751216584e+00 -2.5236498410e-02 3.0292217534e+00 -5.2467659843e+00 3.0292217534e+00 5.2467659843e+00 
48100 5.6751103101e+00 -2.5046798106e-02 3.0296383138e+00 -5.2474874881e+00 3.0296383138e+00 5.2474874881e+00 
48200 5.6750991583e+00 -2.4858419990e-02 3.0300516861e+00 -5.2482034698e+00 3.0300516861e+00 5.2482034698e+00 
48300 5.6750881999e+00 -2.4671356321e-02 3.0304618933e+00 -5.2489139695e+00 3.0304618933e+00 5.2489139695e+00 
48400 5.6750774316e+00 -2.4485599359e-02 3.0308689584e+00 -5.2496190271e+00 3.0308689584e+00 5.2496190271e+00 
48500 5.6750668503e+00 -2.4301141374e-02 3.0312729043e+00 -5.2503186819e+00 3.0312729043e+00 5.2503186819e+00 
48600 5.6750564529e+00 -2.4117974643e-02 3.0316737537e+00 -5.2510129734e+00 3.0316737537e+00 5.2510129734e+00 
48700 5.6750462363e+00 -2.3936091455e-02 3.0320715291e+00 -5.2517019405e+00 3.0320715291e+00 5.2517019405e+00 
48800 5.6750361976e+00 -2.3755484110e-02 3.0324662528e+00 -5.2523856220e+00 3.0324662528e+00 5.2523856220e+00 
48900 5.6750263338e+00 -2.3576144924e-02 3.0328579471e+00 -5.2530640565e+00 3.0328579471e+00 5.2530640565e+00 
49000 5.6750166420e+00 -2.3398066227e-02 3.0332466341e+00 -5.2537372821e+00 3.0332466341e+00 5.2537372821e+00 
49100 5.6750071194e+00 -2.3221240367e-02 3.0336323357e+00 -5.2544053369e+00 3.0336323357e+00 5.2544053369e+00 
49200 5.6749977630e+00 -2.3045659711e-02 3.0340150737e+00 -5.2550682586e+00 3.0340150737e+00 5.2550682586e+00 
49300 5.6749885703e+00 -2.2871316644e-02 3.0343948698e+00 -5.2557260847e+00 3.0343948698e+00 5.2557260847e+00 
49400 5.6749795383e+00 -2.2698203575e-02 3.0347717454e+00 -5.2563788524e+00 3.0347717454e+00 5.2563788524e+00 
49500 5.6749706645e+00 -2.2526312932e-02 3.0351457220e+00 -5.2570265988e+00 3.0351457220e+00 5.2570265988e+00 
49600 5.6749619461e+00 -2.2355637168e-02 3.0355168207e+00 -5.2576693606e+00 3.0355168207e+00 5.2576693606e+00 
49700 5.6749533807e+00 -2.2186168762e-02 3.0358850625e+00 -5.2583071743e+00 3.0358850625e+00 5.2583071743e+00 
49800 5.6749449656e+00 -2.2017900214e-02 3.0362504686e+00 -5.2589400761e+00 3.0362504686e+00 5.2589400761e+00 
49900 5.6749366983e+00 -2.1850824055e-02 3.0366130595e+00 -5.2595681020e+00 3.0366130595e+00 5.2595681020e+00 
50000 5.6749285763e+00 -2.1684932841e-02 3.0369728560e+00 -5.2601912878e+00 3.0369728560e+00 5.2601912878e+00 
50100 5.6749205973e+00 -2.1520219154e-02 3.0373298786e+00 -5.2608096691e+00 3.0373298786e+00 5.2608096691e+00 
50200 5.6749127587e+00 -2.1356675607e-02 3.0376841476e+00 -5.2614232810e+00 3.0376841476e+00 5.2614232810e+00 
50300 5.6749050582e+00 -2.1194294843e-02 3.0380356833e+00 -5.2620321587e+00 3.0380356833e+00 5.2620321587e+00 
50400 5.6748974935e+00 -2.1033069531e-02 3.0383845057e+00 -5.2626363369e+00 3.0383845057e+00 5.2626363369e+00 
50500 5.6748900623e+00 -2.0872992374e-02 3.0387306349e+00 -5.2632358501e+00 3.0387306349e+00 5.2632358501e+00 
50600 5.6748827623e+00 -2.0714056105e-02 3.0390740906e+00 -5.2638307328e+00 3.0390740906e+00 5.2638307328e+00 
50700 5.6748755914e+00 -2.0556253486e-02 3.0394148924e+00 -5.2644210190e+00 3.0394148924e+00 5.2644210190e+00 
50800 5.6748685473e+00 -2.0399577314e-02 3.0397530601e+00 -5.2650067425e+00 3.0397530601e+00 5.2650067425e+00 
50900 5.6748616279e+00 -2.0244020416e-02 3.0400886129e+00 -5.2655879370e+00 3.0400886129e+00 5.2655879370e+00 
51000 5.6748548310e+00 -2.0089575653e-02 3.0404215701e+00 -5.2661646358e+00 3.0404215701e+00 5.2661646358e+00 
51100 5.6748481547e+00 -1.9936235917e-02 3.0407519509e+00 -5.2667368722e+00 3.0407519509e+00 5.2667368722e+00 
51200 5.6748415968e+00 -1.9783994133e-02 3.0410797743e+00 -5.2673046790e+00 3.0410797743e+00 5.2673046790e+00 
51300 5.6748351553e+00 -1.9632843261e-02 3.0414050592e+00 -5.2678680890e+00 3.0414050592e+00 5.2678680890e+00 
51400 5.6748288283e+00 -1.9482776294e-02 3.0417278244e+00 -5.2684271346e+00 3.0417278244e+00 5.2684271346e+00 
51500 5.6748226137e+00 -1.9333786256e-02 3.0420480884e+00 -5.2689818481e+00 3.0420480884e+00 5.2689818481e+00 
51600 5.6748165097e+00 -1.9185866209e-02 3.0423658697e+00 -5.2695322616e+00 3.0423658697e+00 5.2695322616e+00 
51700 5.6748105144e+00 -1.9039009244e-02 3.0426811868e+00 -5.2700784068e+00 3.0426811868e+00 5.2700784068e+00 
51800 5.6748046260e+00 -1.8893208490e-02 3.0429940578e+00 -5.2706203153e+00 3.0429940578e+00 5.2706203153e+00 
51900 5.6747988425e+00 -1.8748457107e-02 3.0433045009e+00 -5.2711580185e+00 3.0433045009e+00 5.2711580185e+00 
52000 5.6747931622e+00 -1.8604748292e-02 3.0436125341e+00 -5.2716915475e+00 3.0436125341e+00 5.2716915475e+00 
52100 5.6747875833e+00 -1.8462075273e-02 3.0439181751e+00 -5.2722209334e+00 3.0439181751e+00 5.2722209334e+00 
52200 5.6747821041e+00 -1.8320431314e-02 3.0442214418e+00 -5.2727462068e+00 3.0442214418e+00 5.2727462068e+00 
52300 5.6747767229e+00 -1.8179809711e-02 3.0445223518e+00 -5.2732673982e+00 3.0445223518e+00 5.2732673982e+00 
52400 5.6747714380e+00 -1.8040203798e-02 3.0448209226e+00 -5.2737845379e+00 3.0448209226e+00 5.2737845379e+00 
52500 5.6747662477e+00 -1.7901606938e-02 3.0451171715e+00 -5.2742976560e+00 3.0451171715e+00 5.2742976560e+00 
52600 5.6747611504e+00 -1.7764012531e-02 3.0454111158e+00 -5.2748067824e+00 3.0454111158e+00 5.2748067824e+00 
52700 5.6747561444e+00 -1.7627414011e-02 3.0457027725e+00 -5.2753119468e+00 3.0457027725e+00 5.2753119468e+00 
52800 5.6747512283e+00 -1.7491804844e-02 3.0459921588e+00 -5.2758131786e+00 3.0459921588e+00 5.2758131786e+00 
52900 5.6747464004e+00 -1.7357178531e-02 3.0462792915e+00 -5.2763105070e+00 3.0462792915e+00 5.2763105070e+00 
53000 5.6747416593e+00 -1.7223528606e-02 3.0465641874e+00 -5.2768039612e+00 3.0465641874e+00 5.2768039612e+00 
53100 5.6747370034e+00 -1.7090848638e-02 3.0468468632e+00 -5.2772935699e+00 3.0468468632e+00 5.2772935699e+00 
53200 5.6747324312e+00 -1.6959132227e-02 3.0471273353e+00 -5.2777793618e+00 3.0471273353e+00 5.2777793618e+00 
53300 5.6747279413e+00 -1.6828373008e-02 3.0474056202e+00 -5.2782613654e+00 3.0474056202e+00 5.2782613654e+00 
53400 5.6747235323e+00 -1.6698564650e-02 3.0476817342e+00 -5.2787396089e+00 3.0476817342e+00 5.2787396089e+00 
53500 5.6747192028e+00 -1.6569700854e-02 3.0479556935e+00 -5.2792141203e+00 3.0479556935e+00 5.2792141203e+00 
53600 5.6747149513e+00 -1.6441775353e-02 3.0482275141e+00 -5.2796849275e+00 3.0482275141e+00 5.2796849275e+00 
53700 5.6747107766e+00 -1.6314781915e-02 3.0484972121e+00 -5.2801520581e+00 3.0484972121e+00 5.2801520581e+00 
53800 5.6747066772e+00 -1.6188714340e-02 3.0487648033e+00 -5.2806155397e+00 3.0487648033e+00 5.2806155397e+00 
53900 5.6747026519e+00 -1.6063566460e-02 3.0490303035e+00 -5.2810753994e+00 3.0490303035e+00 5.2810753994e+00 
54000 5.6746986994e+00 -1.5939332141e-02 3.0492937282e+00 -5.2815316644e+00 3.0492937282e+00 5.2815316644e+00 
54100 5.6746948184e+00 -1.5816005281e-02 3.0495550929e+00 -5.2819843615e+00 3.0495550929e+00 5.2819843615e+00 
54200 5.6746910076e+00 -1.5693579809e-02 3.0498144132e+00 -5.2824335174e+00 3.0498144132e+00 5.2824335174e+00 
54300 5.6746872659e+00 -1.5572049689e-02 3.0500717043e+00 -5.2828791586e+00 3.0500717043e+00 5.2828791586e+00 
54400 5.6746835919e+00 -1.5451408915e-02 3.0503269814e+00 -5.2833213114e+00 3.0503269814e+00 5.2833213114e+00 
54500 5.6746799846e+00 -1.5331651513e-02 3.0505802595e+00 -5.2837600020e+00 3.0505802595e+00 5.2837600020e+00 
54600 5.6746764428e+00 -1.5212771543e-02 3.0508315537e+00 -5.2841952563e+00 3.0508315537e+00 5.2841952563e+00 
54700 5.6746729652e+00 -1.5094763094e-02 3.0510808788e+00 -5.2846271001e+00 3.0510808788e+00 5.2846271001e+00 
54800 5.6746695509e+00 -1.4977620290e-02 3.0513282496e+00 -5.2850555589e+00 3.0513282496e+00 5.2850555589e+00 
54900 5.6746661985e+00 -1.4861337283e-02 3.0515736808e+00 -5.2854806582e+00 3.0515736808e+00 5.2854806582e+00 
55000 5.6746629072e+00 -1.4745908260e-02 3.0518171869e+00 -5.2859024231e+00 3.0518171869e+00 5.2859024231e+00 
55100 5.6746596758e+00 -1.4631327438e-02 3.0520587823e+00 -5.2863208786e+00 3.0520587823e+00 5.2863208786e+00 
55200 5.6746565032e+00 -1.4517589065e-02 3.0522984815e+00 -5.2867360498e+00 3.0522984815e+00 5.2867360498e+00 
55300 5.6746533884e+00 -1.4404687421e-02 3.0525362986e+00 -5.2871479611e+00 3.0525362986e+00 5.2871479611e+00 
55400 5.6746503304e+00 -1.4292616816e-02 3.0527722479e+00 -5.2875566372e+00 3.0527722479e+00 5.2875566372e+00 
55500 5.6746473281e+00 -1.4181371594e-02 3.0530063433e+00 -5.2879621024e+00 3.0530063433e+00 5.2879621024e+00 
55600 5.6746443807e+00 -1.4070946126e-02 3.0532385988e+00 -5.2883643807e+00 3.0532385988e+00 5.2883643807e+00 
55700 5.6746414871e+00 -1.3961334818e-02 3.0534690283e+00 -5.2887634963e+00 3.0534690283e+00 5.2887634963e+00 
55800 5.6746386464e+00 -1.3852532104e-02 3.0536976454e+00 -5.2891594728e+00 3.0536976454e+00 5.2891594728e+00 
55900 5.6746358575e+00 -1.3744532450e-02 3.0539244639e+00 -5.2895523340e+00 3.0539244639e+00 5.2895523340e+00 
56000 5.6746331198e+00 -1.3637330353e-02 3.0541494974e+00 -5.2899421034e+00 3.0541494974e+00 5.2899421034e+00 
56100 5.6746304321e+00 -1.3530920341e-02 3.0543727591e+00 -5.2903288041e+00 3.0543727591e+00 5.2903288041e+00 
56200 5.6746277936e+00 -1.3425296972e-02 3.0545942626e+00 -5.2907124594e+00 3.0545942626e+00 5.2907124594e+00 
56300 5.6746252035e+00 -1.3320454834e-02 3.0548140211e+00 -5.2910930922e+00 3.0548140211e+00 5.2910930922e+00 
56400 5.6746226609e+00 -1.3216388547e-02 3.0550320476e+00 -5.2914707253e+00 3.0550320476e+00 5.2914707253e+00 
56500 5.6746201649e+00 -1.3113092760e-02 3.0552483554e+00 -5.2918453814e+00 3.0552483554e+00 5.2918453814e+00 
56600 5.6746177147e+00 -1.3010562154e-02 3.0554629574e+00 -5.2922170829e+00 3.0554629574e+00 5.2922170829e+00 
56700 5.6746153095e+00 -1.2908791439e-02 3.0556758664e+00 -5.2925858521e+00 3.0556758664e+00 5.2925858521e+00 
56800 5.6746129486e+00 -1.2807775356e-02 3.0558870953e+00 -5.2929517113e+00 3.0558870953e+00 5.2929517113e+00 
56900 5.6746106310e+00 -1.2707508677e-02 3.0560966568e+00 -5.2933146823e+00 3.0560966568e+00 5.2933146823e+00 
57000 5.6746083560e+00 -1.2607986202e-02 3.0563045634e+00 -5.2936747871e+00 3.0563045634e+00 5.2936747871e+00 
57100 5.6746061230e+00 -1.2509202764e-02 3.0565108276e+00 -5.2940320473e+00 3.0565108276e+00 5.2940320473e+00 
57200 5.6746039310e+00 -1.2411153224e-02 3.0567154620e+00 -5.2943864844e+00 3.0567154620e+00 5.2943864844e+00 
57300 5.6746017794e+00 -1.2313832473e-02 3.0569184787e+00 -5.2947381198e+00 3.0569184787e+00 5.2947381198e+00 
57400 5.6745996675e+00 -1.2217235434e-02 3.0571198902e+00 -5.2950869746e+00 3.0571198902e+00 5.2950869746e+00 
57500 5.6745975946e+00 -1.2121357059e-02 3.0573197085e+00 -5.2954330701e+00 3.0573197085e+00 5.2954330701e+00 
57600 5.6745955598e+00 -1.2026192328e-02 3.0575179456e+00 -5.2957764269e+00 3.0575179456e+00 5.2957764269e+00 
57700 5.6745935627e+00 -1.1931736254e-02 3.0577146137e+00 -5.2961170659e+00 3.0577146137e+00 5.2961170659e+00 
57800 5.6745916025e+00 -1.1837983878e-02 3.0579097245e+00 -5.2964550078e+00 3.0579097245e+00 5.2964550078e+00 
57900 5.6745896785e+00 -1.1744930271e-02 3.0581032899e+00 -5.2967902728e+00 3.0581032899e+00 5.2967902728e+00 
58000 5.6745877901e+00 -1.1652570534e-02 3.0582953215e+00 -5.2971228814e+00 3.0582953215e+00 5.2971228814e+00 
58100 5.6745859366e+00 -1.1560899798e-02 3.0584858311e+00 -5.2974528537e+00 3.0584858311e+00 5.2974528537e+00 
58200 5.6745841174e+00 -1.1469913222e-02 3.0586748302e+00 -5.2977802097e+00 3.0586748302e+00 5.2977802097e+00 
58300 5.6745823320e+00 -1.1379605997e-02 3.0588623302e+00 -5.2981049692e+00 3.0588623302e+00 5.2981049692e+00 
58400 5.6745805796e+00 -1.1289973342e-02 3.0590483425e+00 -5.2984271520e+00 3.0590483425e+00 5.2984271520e+00 
58500 5.6745788598e+00 -1.1201010506e-02 3.0592328784e+00 -5.2987467776e+00 3.0592328784e+00 5.2987467776e+00 
58600 5.6745771718e+00 -1.1112712766e-02 3.0594159492e+00 -5.2990638655e+00 3.0594159492e+00 5.2990638655e+00 
58700 5.6745755152e+00 -1.1025075431e-02 3.0595975659e+00 -5.2993784349e+00 3.0595975659e+00 5.2993784349e+00 
58800 5.6745738894e+00 -1.0938093836e-02 3.0597777397e+00 -5.2996905050e+00 3.0597777397e+00 5.2996905050e+00 
58900 5.6745722937e+00 -1.0851763348e-02 3.0599564814e+00 -5.3000000948e+00 3.0599564814e+00 5.3000000948e+00 
59000 5.6745707278e+00 -1.0766079363e-02 3.0601338020e+00 -5.3003072231e+00 3.0601338020e+00 5.3003072231e+00 
59100 5.6745691910e+00 -1.0681037303e-02 3.0603097124e+00 -5.3006119087e+00 3.0603097124e+00 5.3006119087e+00 
59200 5.6745676827e+00 -1.0596632622e-02 3.0604842231e+00 -5.3009141702e+00 3.0604842231e+00 5.3009141702e+00 
59300 5.6745662026e+00 -1.0512860803e-02 3.0606573449e+00 -5.3012140260e+00 3.0606573449e+00 5.3012140260e+00 
59400 5.6745647501e+00 -1.0429717356e-02 3.0608290884e+00 -5.3015114944e+00 3.0608290884e+00 5.3015114944e+00 
59500 5.6745633247e+00 -1.0347197822e-02 3.0609994641e+00 -5.3018065937e+00 3.0609994641e+00 5.3018065937e+00 
59600 5.6745619258e+00 -1.0265297768e-02 3.0611684823e+00 -5.3020993418e+00 3.0611684823e+00 5.3020993418e+00 
59700 5.6745605531e+00 -1.0184012791e-02 3.0613361534e+00 -5.3023897567e+00 3.0613361534e+00 5.3023897567e+00 
59800 5.6745592060e+00 -1.0103338517e-02 3.0615024877e+00 -5.3026778562e+00 3.0615024877e+00 5.3026778562e+00 
59900 5.6745578840e+00 -1.0023270601e-02 3.0616674954e+00 -5.3029636579e+00 3.0616674954e+00 5.3029636579e+00 
60000 5.6745565868e+00 -9.9438047241e-03 3.0618311866e+00 -5.3032471794e+00 3.0618311866e+00 5.3032471794e+00 
60100 5.6745553139e+00 -9.8649365975e-03 3.0619935713e+00 -5.3035284380e+00 3.0619935713e+00 5.3035284380e+00 
60200 5.6745540648e+00 -9.7866619600e-03 3.0621546596e+00 -5.3038074510e+00 3.0621546596e+00 5.3038074510e+00 
60300 5.6745528391e+00 -9.7089765786e-03 3.0623144612e+00 -5.3040842356e+00 3.0623144612e+00 5.3040842356e+00 
60400 5.6745516363e+00 -9.6318762480e-03 3.0624729861e+00 -5.3043588087e+00 3.0624729861e+00 5.3043588087e+00 
60500 5.6745504562e+00 -9.5553567912e-03 3.0626302439e+00 -5.3046311873e+00 3.0626302439e+00 5.3046311873e+00 
60600 5.6745492981e+00 -9.4794140586e-03 3.0627862445e+00 -5.3049013881e+00 3.0627862445e+00 5.3049013881e+00 
60700 5.6745481618e+00 -9.4040439284e-03 3.0629409972e+00 -5.3051694278e+00 3.0629409972e+00 5.3051694278e+00 
60800 5.6745470468e+00 -9.3292423065e-03 3.0630945118e+00 -5.3054353229e+00 3.0630945118e+00 5.3054353229e+00 
60900 5.6745459528e+00 -9.2550051260e-03 3.0632467977e+00 -5.3056990897e+00 3.0632467977e+00 5.3056990897e+00 
61000 5.6745448794e+00 -9.1813283475e-03 3.0633978642e+00 -5.3059607446e+00 3.0633978642e+00 5.3059607446e+00 
61100 5.6745438262e+00 -9.1082079587e-03 3.0635477207e+00 -5.3062203037e+00 3.0635477207e+00 5.3062203037e+00 
61200 5.6745427928e+00 -9.0356399746e-03 3.0636963765e+00 -5.3064777831e+00 3.0636963765e+00 5.3064777831e+00 
61300 5.6745417789e+00 -8.9636204370e-03 3.0638438408e+00 -5.3067331986e+00 3.0638438408e+00 5.3067331986e+00 
61400 5.6745407840e+00 -8.8921454145e-03 3.0639901226e+00 -5.3069865662e+00 3.0639901226e+00 5.3069865662e+00 
61500 5.6745398080e+00 -8.8212110026e-03 3.0641352310e+00 -5.3072379013e+00 3.0641352310e+00 5.3072379013e+00 
61600 5.6745388503e+00 -8.7508133234e-03 3.0642791750e+00 -5.3074872197e+00 3.0642791750e+00 5.3074872197e+00 
61700 5.6745379108e+00 -8.6809485252e-03 3.0644219636e+00 -5.3077345368e+00 3.0644219636e+00 5.3077345368e+00 
61800 5.6745369890e+00 -8.6116127830e-03 3.0645636056e+00 -5.3079798679e+00 3.0645636056e+00 5.3079798679e+00 
61900 5.6745360846e+00 -8.5428022979e-03 3.0647041097e+00 -5.3082232282e+00 3.0647041097e+00 5.3082232282e+00 
62000 5.6745351974e+00 -8.4745132969e-03 3.0648434848e+00 -5.3084646329e+00 3.0648434848e+00 5.3084646329e+00 
62100 5.6745343269e+00 -8.4067420330e-03 3.0649817394e+00 -5.3087040970e+00 3.0649817394e+00 5.3087040970e+00 
62200 5.6745334729e+00 -8.3394847853e-03 3.0651188823e+00 -5.3089416353e+00 3.0651188823e+00 5.3089416353e+00 
62300 5.6745326351e+00 -8.2727378581e-03 3.0652549218e+00 -5.3091772627e+00 3.0652549218e+00 5.3091772627e+00 
62400 5.6745318133e+00 -8.2064975816e-03 3.0653898665e+00 -5.3094109938e+00 3.0653898665e+00 5.3094109938e+00 
62500 5.6745310070e+00 -8.1407603112e-03 3.0655237248e+00 -5.3096428431e+00 3.0655237248e+00 5.3096428431e+00 
62600 5.6745302160e+00 -8.0755224275e-03 3.0656565050e+00 -5.3098728253e+00 3.0656565050e+00 5.3098728253e+00 
62700 5.6745294400e+00 -8.0107803362e-03 3.0657882155e+00 -5.3101009545e+00 3.0657882155e+00 5.3101009545e+00 
62800 5.6745286788e+00 -7.9465304681e-03 3.0659188644e+00 -5.3103272450e+00 3.0659188644e+00 5.3103272450e+00 
62900 5.6745279321e+00 -7.8827692786e-03 3.0660484599e+00 -5.3105517110e+00 3.0660484599e+00 5.3105517110e+00 
63000 5.6745271996e+00 -7.8194932478e-03 3.0661770101e+00 -5.3107743665e+00 3.0661770101e+00 5.3107743665e+00 
63100 5.6745264810e+00 -7.7566988804e-03 3.0663045231e+00 -5.3109952255e+00 3.0663045231e+00 5.3109952255e+00 
63200 5.6745257762e+00 -7.6943827053e-03 3.0664310068e+00 -5.3112143017e+00 3.0664310068e+00 5.3112143017e+00 
63300 5.6745250848e+00 -7.6325412756e-03 3.0665564692e+00 -5.3114316089e+00 3.0665564692e+00 5.3114316089e+00 
63400 5.6745244066e+00 -7.5711711686e-03 3.0666809181e+00 -5.3116471608e+00 3.0666809181e+00 5.3116471608e+00 
63500 5.6745237414e+00 -7.5102689853e-03 3.0668043614e+00 -5.3118609708e+00 3.0668043614e+00 5.3118609708e+00 
63600 5.6745230888e+00 -7.4498313504e-03 3.0669268067e+00 -5.3120730524e+00 3.0669268067e+00 5.3120730524e+00 
63700 5.6745224488e+00 -7.3898549125e-03 3.0670482619e+00 -5.3122834189e+00 3.0670482619e+00 5.3122834189e+00 
63800 5.6745218210e+00 -7.3303363433e-03 3.0671687345e+00 -5.3124920835e+00 3.0671687345e+00 5.3124920835e+00 
63900 5.6745212052e+00 -7.2712723378e-03 3.0672882320e+00 -5.3126990593e+00 3.0672882320e+00 5.3126990593e+00 
64000 5.6745206013e+00 -7.2126596143e-03 3.0674067621e+00 -5.3129043595e+00 3.0674067621e+00 5.3129043595e+00 
64100 5.6745200089e+00 -7.1544949138e-03 3.0675243322e+00 -5.3131079968e+00 3.0675243322e+00 5.3131079968e+00 
64200 5.6745194279e+00 -7.0967750005e-03 3.0676409497e+00 -5.3133099843e+00 3.0676409497e+00 5.3133099843e+00 
64300 5.6745188581e+00 -7.0394966607e-03 3.0677566220e+00 -5.3135103345e+00 3.0677566220e+00 5.3135103345e+00 
64400 5.6745182992e+00 -6.9826567037e-03 3.0678713563e+00 -5.3137090602e+00 3.0678713563e+00 5.3137090602e+00 
64500 5.6745177511e+00 -6.9262519608e-03 3.0679851600e+00 -5.3139061739e+00 3.0679851600e+00 5.3139061739e+00 
64600 5.6745172135e+00 -6.8702792857e-03 3.0680980401e+00 -5.3141016881e+00 3.0680980401e+00 5.3141016881e+00 
64700 5.6745166863e+00 -6.8147355539e-03 3.0682100040e+00 -5.3142956152e+00 3.0682100040e+00 5.3142956152e+00 
64800 5.6745161692e+00 -6.7596176629e-03 3.0683210586e+00 -5.3144879674e+00 3.0683210586e+00 5.3144879674e+00 
64900 5.6745156621e+00 -6.7049225320e-03 3.0684312110e+00 -5.3146787569e+00 3.0684312110e+00 5.3146787569e+00 
65000 5.6745151649e+00 -6.6506471019e-03 3.0685404682e+00 -5.3148679959e+00 3.0685404682e+00 5.3148679959e+00 
65100 5.6745146772e+00 -6.5967883347e-03 3.0686488370e+00 -5.3150556963e+00 3.0686488370e+00 5.3150556963e+00 
65200 5.6745141990e+00 -6.5433432139e-03 3.0687563245e+00 -5.3152418701e+00 3.0687563245e+00 5.3152418701e+00 
65300 5.6745137300e+00 -6.4903087439e-03 3.0688629374e+00 -5.3154265291e+00 3.0688629374e+00 5.3154265291e+00 
65400 5.6745132701e+00 -6.4376819502e-03 3.0689686826e+00 -5.3156096850e+00 3.0689686826e+00 5.3156096850e+00 
65500 5.6745128191e+00 -6.3854598791e-03 3.0690735666e+00 -5.3157913496e+00 3.0690735666e+00 5.3157913496e+00 
65600 5.6745123769e+00 -6.3336395974e-03 3.0691775963e+00 -5.3159715343e+00 3.0691775963e+00 5.3159715343e+00 
65700 5.6745119433e+00 -6.2822181924e-03 3.0692807783e+00 -5.3161502507e+00 3.0692807783e+00 5.3161502507e+00 
65800 5.6745115181e+00 -6.2311927720e-03 3.0693831191e+00 -5.3163275102e+00 3.0693831191e+00 5.3163275102e+00 
65900 5.6745111011e+00 -6.1805604638e-03 3.0694846253e+00 -5.3165033240e+00 3.0694846253e+00 5.3165033240e+00 
66000 5.6745106923e+00 -6.1303184160e-03 3.0695853033e+00 -5.3166777035e+00 3.0695853033e+00 5.3166777035e+00 
66100 5.6745102915e+00 -6.0804637963e-03 3.0696851597e+00 -5.3168506598e+00 3.0696851597e+00 5.3168506598e+00 
66200 5.6745098984e+00 -6.0309937922e-03 3.0697842007e+00 -5.3170222039e+00 3.0697842007e+00 5.3170222039e+00 
66300 5.6745095131e+00 -5.9819056110e-03 3.0698824328e+00 -5.3171923469e+00 3.0698824328e+00 5.3171923469e+00 
66400 5.6745091352e+00 -5.9331964791e-03 3.0699798622e+00 -5.3173610996e+00 3.0699798622e+00 5.3173610996e+00 
66500 5.6745087648e+00 -5.8848636426e-03 3.0700764952e+00 -5.3175284728e+00 3.0700764952e+00 5.3175284728e+00 
66600 5.6745084016e+00 -5.8369043665e-03 3.0701723380e+00 -5.3176944774e+00 3.0701723380e+00 5.3176944774e+00 
66700 5.6745080455e+00 -5.7893159349e-03 3.0702673968e+00 -5.3178591240e+00 3.0702673968e+00 5.3178591240e+00 
66800 5.6745076964e+00 -5.7420956508e-03 3.0703616776e+00 -5.3180224231e+00 3.0703616776e+00 5.3180224231e+00 
66900 5.6745073542e+00 -5.6952408359e-03 3.0704551865e+00 -5.3181843854e+00 3.0704551865e+00 5.3181843854e+00 
67000 5.6745070186e+00 -5.6487488305e-03 3.0705479296e+00 -5.3183450211e+00 3.0705479296e+00 5.3183450211e+00 
67100 5.6745066897e+00 -5.6026169934e-03 3.0706399128e+00 -5.3185043407e+00 3.0706399128e+00 5.3185043407e+00 
67200 5.6745063673e+00 -5.5568427017e-03 3.0707311421e+00 -5.3186623544e+00 3.0707311421e+00 5.3186623544e+00 
67300 5.6745060512e+00 -5.5114233507e-03 3.0708216233e+00 -5.3188190725e+00 3.0708216233e+00 5.3188190725e+00 
67400 5.6745057413e+00 -5.4663563538e-03 3.0709113623e+00 -5.3189745050e+00 3.0709113623e+00 5.3189745050e+00 
67500 5.6745054375e+00 -5.4216391421e-03 3.0710003649e+00 -5.3191286621e+00 3.0710003649e+00 5.3191286621e+00 
67600 5.6745051398e+00 -5.3772691649e-03 3.0710886369e+00 -5.3192815536e+00 3.0710886369e+00 5.3192815536e+00 
67700 5.6745048479e+00 -5.3332438886e-03 3.0711761839e+00 -5.3194331895e+00 3.0711761839e+00 5.3194331895e+00 
67800 5.6745045618e+00 -5.2895607977e-03 3.0712630117e+00 -5.3195835797e+00 3.0712630117e+00 5.3195835797e+00 
67900 5.6745042814e+00 -5.2462173937e-03 3.0713491259e+00 -5.3197327338e+00 3.0713491259e+00 5.3197327338e+00 
68000 5.6745040066e+00 -5.2032111956e-03 3.0714345320e+00 -5.3198806616e+00 3.0714345320e+00 5.3198806616e+00 
68100 5.6745037372e+00 -5.1605397393e-03 3.0715192357e+00 -5.3200273726e+00 3.0715192357e+00 5.3200273726e+00 
68200 5.6745034731e+00 -5.1182005778e-03 3.0716032424e+00 -5.3201728765e+00 3.0716032424e+00 5.3201728765e+00 
68300 5.6745032143e+00 -5.0761912813e-03 3.0716865576e+00 -5.3203171826e+00 3.0716865576e+00 5.3203171826e+00 
68400 5.6745029607e+00 -5.0345094363e-03 3.0717691867e+00 -5.3204603004e+00 3.0717691867e+00 5.3204603004e+00 
68500 5.6745027121e+00 -4.9931526462e-03 3.0718511351e+00 -5.3206022392e+00 3.0718511351e+00 5.3206022392e+00 
68600 5.6745024685e+00 -4.9521185309e-03 3.0719324081e+00 -5.3207430083e+00 3.0719324081e+00 5.3207430083e+00 
68700 5.6745022298e+00 -4.9114047266e-03 3.0720130111e+00 -5.3208826168e+00 3.0720130111e+00 5.3208826168e+00 
68800 5.6745019958e+00 -4.8710088860e-03 3.0720929494e+00 -5.3210210739e+00 3.0720929494e+00 5.3210210739e+00 
68900 5.6745017665e+00 -4.8309286777e-03 3.0721722281e+00 -5.3211583886e+00 3.0721722281e+00 5.3211583886e+00 
69000 5.6745015418e+00 -4.7911617866e-03 3.0722508524e+00 -5.3212945699e+00 3.0722508524e+00 5.3212945699e+00 
69100 5.6745013216e+00 -4.7517059133e-03 3.0723288275e+00 -5.3214296268e+00 3.0723288275e+00 5.3214296268e+00 
69200 5.6745011059e+00 -4.7125587743e-03 3.0724061585e+00 -5.3215635680e+00 3.0724061585e+00 5.3215635680e+00 
69300 5.6745008945e+00 -4.6737181020e-03 3.0724828505e+00 -5.3216964024e+00 3.0724828505e+00 5.3216964024e+00 
69400 5.6745006873e+00 -4.6351816442e-03 3.0725589085e+00 -5.3218281387e+00 3.0725589085e+00 5.3218281387e+00 
69500 5.6745004844e+00 -4.5969471642e-03 3.0726343375e+00 -5.3219587856e+00 3.0726343375e+00 5.3219587856e+00 
69600 5.6745002855e+00 -4.5590124406e-03 3.0727091424e+00 -5.3220883516e+00 3.0727091424e+00 5.3220883516e+00 
69700 5.6745000906e+00 -4.5213752675e-03 3.0727833283e+00 -5.3222168452e+00 3.0727833283e+00 5.3222168452e+00 
69800 5.6744998997e+00 -4.4840334540e-03 3.0728568999e+00 -5.3223442750e+00 3.0728568999e+00 5.3223442750e+00 
69900 5.6744997127e+00 -4.4469848243e-03 3.0729298622e+00 -5.3224706494e+00 3.0729298622e+00 5.3224706494e+00 
70000 5.6744995294e+00 -4.4102272174e-03 3.0730022199e+00 -5.3225959766e+00 3.0730022199e+00 5.3225959766e+00 
70100 5.6744993499e+00 -4.3737584874e-03 3.0730739778e+00 -5.3227202649e+00 3.0730739778e+00 5.3227202649e+00 
70200 5.6744991740e+00 -4.3375765029e-03 3.0731451406e+00 -5.3228435226e+00 3.0731451406e+00 5.3228435226e+00 
70300 5.6744990018e+00 -4.3016791473e-03 3.0732157132e+00 -5.3229657578e+00 3.0732157132e+00 5.3229657578e+00 
70400 5.6744988330e+00 -4.2660643184e-03 3.0732857001e+00 -5.3230869787e+00 3.0732857001e+00 5.3230869787e+00 
70500 5.6744986677e+00 -4.2307299287e-03 3.0733551059e+00 -5.3232071931e+00 3.0733551059e+00 5.3232071931e+00 
70600 5.6744985057e+00 -4.1956739047e-03 3.0734239353e+00 -5.3233264092e+00 3.0734239353e+00 5.3233264092e+00 
70700 5.6744983471e+00 -4.1608941873e-03 3.0734921929e+00 -5.3234446348e+00 3.0734921929e+00 5.3234446348e+00 
70800 5.6744981917e+00 -4.1263887315e-03 3.0735598832e+00 -5.3235618778e+00 3.0735598832e+00 5.3235618778e+00 
70900 5.6744980395e+00 -4.0921555064e-03 3.0736270106e+00 -5.3236781459e+00 3.0736270106e+00 5.3236781459e+00 
71000 5.6744978905e+00 -4.0581924950e-03 3.0736935797e+00 -5.3237934469e+00 3.0736935797e+00 5.3237934469e+00 
71100 5.6744977445e+00 -4.0244976942e-03 3.0737595948e+00 -5.3239077885e+00 3.0737595948e+00 5.3239077885e+00 
71200 5.6744976015e+00 -3.9910691146e-03 3.0738250605e+00 -5.3240211783e+00 3.0738250605e+00 5.3240211783e+00 
71300 5.6744974615e+00 -3.9579047805e-03 3.0738899809e+00 -5.3241336239e+00 3.0738899809e+00 5.3241336239e+00 
71400 5.6744973243e+00 -3.9250027298e-03 3.0739543606e+00 -5.3242451327e+00 3.0739543606e+00 5.3242451327e+00 
71500 5.6744971901e+00 -3.8923610138e-03 3.0740182037e+00 -5.3243557122e+00 3.0740182037e+00 5.3243557122e+00 
71600 5.6744970586e+00 -3.8599776973e-03 3.0740815145e+00 -5.3244653698e+00 3.0740815145e+00 5.3244653698e+00 
71700 5.6744969298e+00 -3.8278508583e-03 3.0741442974e+00 -5.3245741129e+00 3.0741442974e+00 5.3245741129e+00 
71800 5.6744968037e+00 -3.7959785880e-03 3.0742065564e+00 -5.3246819486e+00 3.0742065564e+00 5.3246819486e+00 
71900 5.6744966802e+00 -3.7643589909e-03 3.0742682958e+00 -5.3247888843e+00 3.0742682958e+00 5.3247888843e+00 
72000 5.6744965594e+00 -3.7329901843e-03 3.0743295196e+00 -5.3248949272e+00 3.0743295196e+00 5.3248949272e+00 
72100 5.6744964410e+00 -3.7018702988e-03 3.0743902321e+00 -5.3250000843e+00 3.0743902321e+00 5.3250000843e+00 
72200 5.6744963251e+00 -3.6709974774e-03 3.0744504372e+00 -5.3251043626e+00 3.0744504372e+00 5.3251043626e+00 
72300 5.6744962117e+00 -3.6403698764e-03 3.0745101391e+00 -5.3252077693e+00 3.0745101391e+00 5.3252077693e+00 
72400 5.6744961006e+00 -3.6099856642e-03 3.0745693417e+00 -5.3253103113e+00 3.0745693417e+00 5.3253103113e+00 
72500 5.6744959919e+00 -3.5798430225e-03 3.0746280491e+00 -5.3254119954e+00 3.0746280491e+00 5.3254119954e+00 
72600 5.6744958854e+00 -3.5499401449e-03 3.0746862652e+00 -5.3255128286e+00 3.0746862652e+00 5.3255128286e+00 
72700 5.6744957812e+00 -3.5202752380e-03 3.0747439938e+00 -5.3256128176e+00 3.0747439938e+00 5.3256128176e+00 
72800 5.6744956793e+00 -3.4908465203e-03 3.0748012390e+00 -5.3257119692e+00 3.0748012390e+00 5.3257119692e+00 
72900 5.6744955794e+00 -3.4616522228e-03 3.0748580046e+00 -5.3258102900e+00 3.0748580046e+00 5.3258102900e+00 
73000 5.6744954817e+00 -3.4326905889e-03 3.0749142944e+00 -5.3259077868e+00 3.0749142944e+00 5.3259077868e+00 
73100 5.6744953861e+00 -3.4039598738e-03 3.0749701122e+00 -5.3260044661e+00 3.0749701122e+00 5.3260044661e+00 
73200 5.6744952925e+00 -3.3754583449e-03 3.0750254619e+00 -5.3261003345e+00 3.0750254619e+00 5.3261003345e+00 
73300 5.6744952009e+00 -3.3471842816e-03 3.0750803471e+00 -5.3261953985e+00 3.0750803471e+00 5.3261953985e+00 
73400 5.6744951113e+00 -3.3191359752e-03 3.0751347716e+00 -5.3262896645e+00 3.0751347716e+00 5.3262896645e+00 
73500 5.6744950235e+00 -3.2913117288e-03 3.0751887391e+00 -5.3263831389e+00 3.0751887391e+00 5.3263831389e+00 
73600 5.6744949377e+00 -3.2637098571e-03 3.0752422532e+00 -5.3264758281e+00 3.0752422532e+00 5.3264758281e+00 
73700 5.6744948537e+00 -3.2363286868e-03 3.0752953176e+00 -5.3265677384e+00 3.0752953176e+00 5.3265677384e+00 
73800 5.6744947715e+00 -3.2091665559e-03 3.0753479359e+00 -5.3266588760e+00 3.0753479359e+00 5.3266588760e+00 
73900 5.6744946911e+00 -3.1822218141e-03 3.0754001118e+00 -5.3267492472e+00 3.0754001118e+00 5.3267492472e+00 
74000 5.6744946125e+00 -3.1554928225e-03 3.0754518486e+00 -5.3268388580e+00 3.0754518486e+00 5.3268388580e+00 
74100 5.6744945355e+00 -3.1289779534e-03 3.0755031501e+00 -5.3269277147e+00 3.0755031501e+00 5.3269277147e+00 
74200 5.6744944602e+00 -3.1026755907e-03 3.0755540196e+00 -5.3270158233e+00 3.0755540196e+00 5.3270158233e+00 
74300 5.6744943865e+00 -3.0765841294e-03 3.0756044606e+00 -5.3271031898e+00 3.0756044606e+00 5.3271031898e+00 
74400 5.6744943145e+00 -3.0507019756e-03 3.0756544767e+00 -5.3271898201e+00 3.0756544767e+00 5.3271898201e+00 
74500 5.6744942440e+00 -3.0250275465e-03 3.0757040712e+00 -5.3272757203e+00 3.0757040712e+00 5.3272757203e+00 
74600 5.6744941751e+00 -2.9995592704e-03 3.0757532475e+00 -5.3273608962e+00 3.0757532475e+00 5.3273608962e+00 
74700 5.6744941077e+00 -2.9742955866e-03 3.0758020090e+00 -5.3274453536e+00 3.0758020090e+00 5.3274453536e+00 
74800 5.6744940417e+00 -2.9492349451e-03 3.0758503590e+00 -5.3275290983e+00 3.0758503590e+00 5.3275290983e+00 
74900 5.6744939772e+00 -2.9243758067e-03 3.0758983009e+00 -5.3276121361e+00 3.0758983009e+00 5.3276121361e+00 
75000 5.6744939142e+00 -2.8997166433e-03 3.0759458380e+00 -5.3276944727e+00 3.0759458380e+00 5.3276944727e+00 
75100 5.6744938525e+00 -2.8752559369e-03 3.0759929735e+00 -5.3277761138e+00 3.0759929735e+00 5.3277761138e+00 
75200 5.6744937922e+00 -2.8509921807e-03 3.0760397106e+00 -5.3278570649e+00 3.0760397106e+00 5.3278570649e+00 
75300 5.6744937333e+00 -2.8269238780e-03 3.0760860527e+00 -5.3279373317e+00 3.0760860527e+00 5.3279373317e+00 
75400 5.6744936756e+00 -2.8030495429e-03 3.0761320028e+00 -5.3280169197e+00 3.0761320028e+00 5.3280169197e+00 
75500 5.6744936193e+00 -2.7793676995e-03 3.0761775642e+00 -5.3280958343e+00 3.0761775642e+00 5.3280958343e+00 
75600 5.6744935642e+00 -2.7558768827e-03 3.0762227400e+00 -5.3281740810e+00 3.0762227400e+00 5.3281740810e+00 
75700 5.6744935103e+00 -2.7325756374e-03 3.0762675333e+00 -5.3282516653e+00 3.0762675333e+00 5.3282516653e+00 
75800 5.6744934577e+00 -2.7094625187e-03 3.0763119472e+00 -5.3283285925e+00 3.0763119472e+00 5.3283285925e+00 
75900 5.6744934062e+00 -2.6865360920e-03 3.0763559848e+00 -5.3284048679e+00 3.0763559848e+00 5.3284048679e+00 
76000 5.6744933559e+00 -2.6637949327e-03 3.0763996492e+00 -5.3284804968e+00 3.0763996492e+00 5.3284804968e+00 
76100 5.6744933068e+00 -2.6412376262e-03 3.0764429433e+00 -5.3285554844e+00 3.0764429433e+00 5.3285554844e+00 
76200 5.6744932587e+00 -2.6188627679e-03 3.0764858702e+00 -5.3286298360e+00 3.0764858702e+00 5.3286298360e+00 
76300 5.6744932118e+00 -2.5966689631e-03 3.0765284329e+00 -5.3287035567e+00 3.0765284329e+00 5.3287035567e+00 
76400 5.6744931659e+00 -2.5746548268e-03 3.0765706343e+00 -5.3287766516e+00 3.0765706343e+00 5.3287766516e+00 
76500 5.6744931211e+00 -2.5528189841e-03 3.0766124773e+00 -5.3288491259e+00 3.0766124773e+00 5.3288491259e+00 
76600 5.6744930774e+00 -2.5311600694e-03 3.0766539649e+00 -5.3289209845e+00 3.0766539649e+00 5.3289209845e+00 
76700 5.6744930346e+00 -2.5096767269e-03 3.0766950999e+00 -5.3289922325e+00 3.0766950999e+00 5.3289922325e+00 
76800 5.6744929928e+00 -2.4883676106e-03 3.0767358853e+00 -5.3290628748e+00 3.0767358853e+00 5.3290628748e+00 
76900 5.6744929520e+00 -2.4672313838e-03 3.0767763238e+00 -5.3291329164e+00 3.0767763238e+00 5.3291329164e+00 
77000 5.6744929121e+00 -2.4462667192e-03 3.0768164183e+00 -5.3292023621e+00 3.0768164183e+00 5.3292023621e+00 
77100 5.6744928732e+00 -2.4254722991e-03 3.0768561716e+00 -5.3292712168e+00 3.0768561716e+00 5.3292712168e+00 
77200 5.6744928352e+00 -2.4048468151e-03 3.0768955865e+00 -5.3293394854e+00 3.0768955865e+00 5.3293394854e+00 
77300 5.6744927980e+00 -2.3843889679e-03 3.0769346657e+00 -5.3294071725e+00 3.0769346657e+00 5.3294071725e+00 
77400 5.6744927618e+00 -2.3640974678e-03 3.0769734119e+00 -5.3294742830e+00 3.0769734119e+00 5.3294742830e+00 
77500 5.6744927264e+00 -2.3439710340e-03 3.0770118280e+00 -5.3295408215e+00 3.0770118280e+00 5.3295408215e+00 
77600 5.6744926918e+00 -2.3240083947e-03 3.0770499165e+00 -5.3296067928e+00 3.0770499165e+00 5.3296067928e+00 
77700 5.6744926581e+00 -2.3042082875e-03 3.0770876801e+00 -5.3296722013e+00 3.0770876801e+00 5.3296722013e+00 
77800 5.6744926251e+00 -2.2845694588e-03 3.0771251216e+00 -5.3297370518e+00 3.0771251216e+00 5.3297370518e+00 
77900 5.6744925930e+00 -2.2650906639e-03 3.0771622435e+00 -5.3298013488e+00 3.0771622435e+00 5.3298013488e+00 
78000 5.6744925616e+00 -2.2457706671e-03 3.0771990484e+00 -5.3298650969e+00 3.0771990484e+00 5.3298650969e+00 
78100 5.6744925310e+00 -2.2266082414e-03 3.0772355390e+00 -5.3299283004e+00 3.0772355390e+00 5.3299283004e+00 
78200 5.6744925011e+00 -2.2076021688e-03 3.0772717178e+00 -5.3299909639e+00 3.0772717178e+00 5.3299909639e+00 
78300 5.6744924719e+00 -2.1887512397e-03 3.0773075873e+00 -5.3300530917e+00 3.0773075873e+00 5.3300530917e+00 
78400 5.6744924435e+00 -2.1700542535e-03 3.0773431501e+00 -5.3301146884e+00 3.0773431501e+00 5.3301146884e+00 
78500 5.6744924157e+00 -2.1515100178e-03 3.0773784088e+00 -5.3301757581e+00 3.0773784088e+00 5.3301757581e+00 
78600 5.6744923886e+00 -2.1331173492e-03 3.0774133657e+00 -5.3302363053e+00 3.0774133657e+00 5.3302363053e+00 
78700 5.6744923622e+00 -2.1148750725e-03 3.0774480234e+00 -5.3302963342e+00 3.0774480234e+00 5.3302963342e+00 
78800 5.6744923365e+00 -2.0967820211e-03 3.0774823843e+00 -5.3303558491e+00 3.0774823843e+00 5.3303558491e+00 
78900 5.6744923114e+00 -2.0788370365e-03 3.0775164509e+00 -5.3304148541e+00 3.0775164509e+00 5.3304148541e+00 
79000 5.6744922869e+00 -2.0610389690e-03 3.0775502256e+00 -5.3304733535e+00 3.0775502256e+00 5.3304733535e+00 
79100 5.6744922630e+00 -2.0433866768e-03 3.0775837107e+00 -5.3305313514e+00 3.0775837107e+00 5.3305313514e+00 
79200 5.6744922397e+00 -2.0258790265e-03 3.0776169086e+00 -5.3305888520e+00 3.0776169086e+00 5.3305888520e+00 
79300 5.6744922170e+00 -2.0085148928e-03 3.0776498218e+00 -5.3306458593e+00 3.0776498218e+00 5.3306458593e+00 
79400 5.6744921949e+00 -1.9912931587e-03 3.0776824525e+00 -5.3307023774e+00 3.0776824525e+00 5.3307023774e+00 
79500 5.6744921734e+00 -1.9742127150e-03 3.0777148031e+00 -5.3307584102e+00 3.0777148031e+00 5.3307584102e+00 
79600 5.6744921524e+00 -1.9572724607e-03 3.0777468759e+00 -5.3308139619e+00 3.0777468759e+00 5.3308139619e+00 
79700 5.6744921319e+00 -1.9404713027e-03 3.0777786731e+00 -5.3308690363e+00 3.0777786731e+00 5.3308690363e+00 
79800 5.6744921120e+00 -1.9238081559e-03 3.0778101970e+00 -5.3309236373e+00 3.0778101970e+00 5.3309236373e+00 
79900 5.6744920925e+00 -1.9072819430e-03 3.0778414500e+00 -5.3309777690e+00 3.0778414500e+00 5.3309777690e+00 
80000 5.6744920736e+00 -1.8908915945e-03 3.0778724341e+00 -5.3310314351e+00 3.0778724341e+00 5.3310314351e+00 
80100 5.6744920552e+00 -1.8746360488e-03 3.0779031517e+00 -5.3310846395e+00 3.0779031517e+00 5.3310846395e+00 
80200 5.6744920373e+00 -1.8585142518e-03 3.0779336049e+00 -5.3311373859e+00 3.0779336049e+00 5.3311373859e+00 
80300 5.6744920198e+00 -1.8425251573e-03 3.0779637958e+00 -5.3311896783e+00 3.0779637958e+00 5.3311896783e+00 
80400 5.6744920028e+00 -1.8266677265e-03 3.0779937268e+00 -5.3312415202e+00 3.0779937268e+00 5.3312415202e+00 
80500 5.6744919863e+00 -1.8109409283e-03 3.0780233999e+00 -5.3312929155e+00 3.0780233999e+00 5.3312929155e+00 
80600 5.6744919701e+00 -1.7953437391e-03 3.0780528172e+00 -5.3313438678e+00 3.0780528172e+00 5.3313438678e+00 
80700 5.6744919545e+00 -1.7798751428e-03 3.0780819809e+00 -5.3313943807e+00 3.0780819809e+00 5.3313943807e+00 
80800 5.6744919392e+00 -1.7645341305e-03 3.0781108930e+00 -5.3314444580e+00 3.0781108930e+00 5.3314444580e+00 
80900 5.6744919244e+00 -1.7493197011e-03 3.0781395557e+00 -5.3314941032e+00 3.0781395557e+00 5.3314941032e+00 
81000 5.6744919100e+00 -1.7342308604e-03 3.0781679709e+00 -5.3315433198e+00 3.0781679709e+00 5.3315433198e+00 
81100 5.6744918959e+00 -1.7192666218e-03 3.0781961408e+00 -5.3315921115e+00 3.0781961408e+00 5.3315921115e+00 
81200 5.6744918823e+00 -1.7044260057e-03 3.0782240674e+00 -5.3316404818e+00 3.0782240674e+00 5.3316404818e+00 
81300 5.6744918691e+00 -1.6897080397e-03 3.0782517526e+00 -5.3316884340e+00 3.0782517526e+00 5.3316884340e+00 
81400 5.6744918562e+00 -1.6751117588e-03 3.0782791986e+00 -5.3317359718e+00 3.0782791986e+00 5.3317359718e+00 
81500 5.6744918436e+00 -1.6606362047e-03 3.0783064072e+00 -5.3317830985e+00 3.0783064072e+00 5.3317830985e+00 
81600 5.6744918315e+00 -1.6462804265e-03 3.0783333804e+00 -5.3318298176e+00 3.0783333804e+00 5.3318298176e+00 
81700 5.6744918197e+00 -1.6320434801e-03 3.0783601203e+00 -5.3318761323e+00 3.0783601203e+00 5.3318761323e+00 
81800 5.6744918082e+00 -1.6179244283e-03 3.0783866286e+00 -5.3319220462e+00 3.0783866286e+00 5.3319220462e+00 
81900 5.6744917970e+00 -1.6039223410e-03 3.0784129075e+00 -5.3319675624e+00 3.0784129075e+00 5.3319675624e+00 
82000 5.6744917862e+00 -1.5900362948e-03 3.0784389586e+00 -5.3320126843e+00 3.0784389586e+00 5.3320126843e+00 
82100 5.6744917757e+00 -1.5762653731e-03 3.0784647840e+00 -5.3320574152e+00 3.0784647840e+00 5.3320574152e+00 
82200 5.6744917655e+00 -1.5626086664e-03 3.0784903855e+00 -5.3321017584e+00 3.0784903855e+00 5.3321017584e+00 
82300 5.6744917556e+00 -1.5490652714e-03 3.0785157650e+00 -5.3321457169e+00 3.0785157650e+00 5.3321457169e+00 
82400 5.6744917460e+00 -1.5356342919e-03 3.0785409244e+00 -5.3321892942e+00 3.0785409244e+00 5.3321892942e+00 
82500 5.6744917367e+00 -1.5223148381e-03 3.0785658653e+00 -5.3322324932e+00 3.0785658653e+00 5.3322324932e+00 
82600 5.6744917277e+00 -1.5091060269e-03 3.0785905898e+00 -5.3322753172e+00 3.0785905898e+00 5.3322753172e+00 
82700 5.6744917190e+00 -1.4960069818e-03 3.0786150995e+00 -5.3323177693e+00 3.0786150995e+00 5.3323177693e+00 
82800 5.6744917105e+00 -1.4830168327e-03 3.0786393963e+00 -5.3323598526e+00 3.0786393963e+00 5.3323598526e+00 
82900 5.6744917023e+00 -1.4701347159e-03 3.0786634819e+00 -5.3324015701e+00 3.0786634819e+00 5.3324015701e+00 
83000 5.6744916944e+00 -1.4573597744e-03 3.0786873581e+00 -5.3324429249e+00 3.0786873581e+00 5.3324429249e+00 
83100 5.6744916867e+00 -1.4446911572e-03 3.0787110267e+00 -5.3324839200e+00 3.0787110267e+00 5.3324839200e+00 
83200 5.6744916792e+00 -1.4321280200e-03 3.0787344893e+00 -5.3325245585e+00 3.0787344893e+00 5.3325245585e+00 
83300 5.6744916720e+00 -1.4196695245e-03 3.0787577477e+00 -5.3325648433e+00 3.0787577477e+00 5.3325648433e+00 
83400 5.6744916650e+00 -1.4073148388e-03 3.0787808036e+00 -5.3326047773e+00 3.0787808036e+00 5.3326047773e+00 
83500 5.6744916583e+00 -1.3950631371e-03 3.0788036587e+00 -5.3326443635e+00 3.0788036587e+00 5.3326443635e+00 
83600 5.6744916518e+00 -1.3829136000e-03 3.0788263147e+00 -5.3326836047e+00 3.0788263147e+00 5.3326836047e+00 
83700 5.6744916455e+00 -1.3708654140e-03 3.0788487732e+00 -5.3327225040e+00 3.0788487732e+00 5.3327225040e+00 
83800 5.6744916394e+00 -1.3589177718e-03 3.0788710358e+00 -5.3327610640e+00 3.0788710358e+00 5.3327610640e+00 
83900 5.6744916336e+00 -1.3470698720e-03 3.0788931043e+00 -5.3327992877e+00 3.0788931043e+00 5.3327992877e+00 
84000 5.6744916279e+00 -1.3353209194e-03 3.0789149802e+00 -5.3328371779e+00 3.0789149802e+00 5.3328371779e+00 
84100 5.6744916224e+00 -1.3236701245e-03 3.0789366652e+00 -5.3328747373e+00 3.0789366652e+00 5.3328747373e+00 
84200 5.6744916172e+00 -1.3121167040e-03 3.0789581608e+00 -5.3329119688e+00 3.0789581608e+00 5.3329119688e+00 
84300 5.6744916121e+00 -1.3006598804e-03 3.0789794686e+00 -5.3329488750e+00 3.0789794686e+00 5.3329488750e+00 
84400 5.6744916072e+00 -1.2892988819e-03 3.0790005902e+00 -5.3329854588e+00 3.0790005902e+00 5.3329854588e+00 
84500 5.6744916025e+00 -1.2780329427e-03 3.0790215272e+00 -5.3330217227e+00 3.0790215272e+00 5.3330217227e+00 
84600 5.6744915979e+00 -1.2668613026e-03 3.0790422811e+00 -5.3330576695e+00 3.0790422811e+00 5.3330576695e+00 
84700 5.6744915936e+00 -1.2557832072e-03 3.0790628535e+00 -5.3330933019e+00 3.0790628535e+00 5.3330933019e+00 
84800 5.6744915894e+00 -1.2447979078e-03 3.0790832458e+00 -5.3331286224e+00 3.0790832458e+00 5.3331286224e+00 
84900 5.6744915854e+00 -1.2339046613e-03 3.0791034596e+00 -5.3331636337e+00 3.0791034596e+00 5.3331636337e+00 
85000 5.6744915815e+00 -1.2231027303e-03 3.0791234963e+00 -5.3331983385e+00 3.0791234963e+00 5.3331983385e+00 
85100 5.6744915778e+00 -1.2123913827e-03 3.0791433576e+00 -5.3332327391e+00 3.0791433576e+00 5.3332327391e+00 
85200 5.6744915742e+00 -1.2017698923e-03 3.0791630448e+00 -5.3332668383e+00 3.0791630448e+00 5.3332668383e+00 
85300 5.6744915708e+00 -1.1912375382e-03 3.0791825593e+00 -5.3333006386e+00 3.0791825593e+00 5.3333006386e+00 
85400 5.6744915676e+00 -1.1807936050e-03 3.0792019028e+00 -5.3333341423e+00 3.0792019028e+00 5.3333341423e+00 
85500 5.6744915644e+00 -1.1704373826e-03 3.0792210765e+00 -5.3333673522e+00 3.0792210765e+00 5.3333673522e+00 
85600 5.6744915615e+00 -1.1601681664e-03 3.0792400819e+00 -5.3334002706e+00 3.0792400819e+00 5.3334002706e+00 
85700 5.6744915586e+00 -1.1499852571e-03 3.0792589205e+00 -5.3334328999e+00 3.0792589205e+00 5.3334328999e+00 
85800 5.6744915559e+00 -1.1398879608e-03 3.0792775936e+00 -5.3334652427e+00 3.0792775936e+00 5.3334652427e+00 
85900 5.6744915533e+00 -1.1298755887e-03 3.0792961026e+00 -5.3334973013e+00 3.0792961026e+00 5.3334973013e+00 
86000 5.6744915508e+00 -1.1199474575e-03 3.0793144490e+00 -5.3335290781e+00 3.0793144490e+00 5.3335290781e+00 
86100 5.6744915485e+00 -1.1101028887e-03 3.0793326340e+00 -5.3335605755e+00 3.0793326340e+00 5.3335605755e+00 
86200 5.6744915463e+00 -1.1003412092e-03 3.0793506591e+00 -5.3335917958e+00 3.0793506591e+00 5.3335917958e+00 
86300 5.6744915442e+00 -1.0906617512e-03 3.0793685255e+00 -5.3336227415e+00 3.0793685255e+00 5.3336227415e+00 
86400 5.6744915422e+00 -1.0810638517e-03 3.0793862347e+00 -5.3336534147e+00 3.0793862347e+00 5.3336534147e+00 
86500 5.6744915403e+00 -1.0715468527e-03 3.0794037880e+00 -5.3336838178e+00 3.0794037880e+00 5.3336838178e+00 
86600 5.6744915385e+00 -1.0621101016e-03 3.0794211866e+00 -5.3337139531e+00 3.0794211866e+00 5.3337139531e+00 
86700 5.6744915368e+00 -1.0527529505e-03 3.0794384319e+00 -5.3337438228e+00 3.0794384319e+00 5.3337438228e+00 
86800 5.6744915353e+00 -1.0434747565e-03 3.0794555252e+00 -5.3337734293e+00 3.0794555252e+00 5.3337734293e+00 
86900 5.6744915338e+00 -1.0342748815e-03 3.0794724677e+00 -5.3338027746e+00 3.0794724677e+00 5.3338027746e+00 
87000 5.6744915324e+00 -1.0251526926e-03 3.0794892608e+00 -5.3338318611e+00 3.0794892608e+00 5.3338318611e+00 
87100 5.6744915311e+00 -1.0161075614e-03 3.0795059057e+00 -5.3338606908e+00 3.0795059057e+00 5.3338606908e+00 
87200 5.6744915299e+00 -1.0071388645e-03 3.0795224036e+00 -5.3338892660e+00 3.0795224036e+00 5.3338892660e+00 
87300 5.6744915288e+00 -9.9824598323e-04 3.0795387558e+00 -5.3339175889e+00 3.0795387558e+00 5.3339175889e+00 
87400 5.6744915278e+00 -9.8942830373e-04 3.0795549635e+00 -5.3339456615e+00 3.0795549635e+00 5.3339456615e+00 
87500 5.6744915269e+00 -9.8068521675e-04 3.0795710280e+00 -5.3339734860e+00 3.0795710280e+00 5.3339734860e+00 
87600 5.6744915260e+00 -9.7201611778e-04 3.0795869504e+00 -5.3340010645e+00 3.0795869504e+00 5.3340010645e+00 
87700 5.6744915253e+00 -9.6342040693e-04 3.0796027321e+00 -5.3340283990e+00 3.0796027321e+00 5.3340283990e+00 
87800 5.6744915246e+00 -9.5489748894e-04 3.0796183740e+00 -5.3340554917e+00 3.0796183740e+00 5.3340554917e+00 
87900 5.6744915239e+00 -9.4644677313e-04 3.0796338775e+00 -5.3340823446e+00 3.0796338775e+00 5.3340823446e+00 
88000 5.6744915234e+00 -9.3806767336e-04 3.0796492438e+00 -5.3341089597e+00 3.0796492438e+00 5.3341089597e+00 
88100 5.6744915229e+00 -9.2975960798e-04 3.0796644739e+00 -5.3341353391e+00 3.0796644739e+00 5.3341353391e+00 
88200 5.6744915225e+00 -9.2152199988e-04 3.0796795691e+00 -5.3341614846e+00 3.0796795691e+00 5.3341614846e+00 
88300 5.6744915222e+00 -9.1335427636e-04 3.0796945304e+00 -5.3341873984e+00 3.0796945304e+00 5.3341873984e+00 
88400 5.6744915219e+00 -9.0525586916e-04 3.0797093591e+00 -5.3342130824e+00 3.0797093591e+00 5.3342130824e+00 
88500 5.6744915217e+00 -8.9722621438e-04 3.0797240562e+00 -5.3342385386e+00 3.0797240562e+00 5.3342385386e+00 
88600 5.6744915215e+00 -8.8926475252e-04 3.0797386228e+00 -5.3342637688e+00 3.0797386228e+00 5.3342637688e+00 
88700 5.6744915214e+00 -8.8137092837e-04 3.0797530602e+00 -5.3342887750e+00 3.0797530602e+00 5.3342887750e+00 
88800 5.6744915214e+00 -8.7354419103e-04 3.0797673693e+00 -5.3343135592e+00 3.0797673693e+00 5.3343135592e+00 
88900 5.6744915214e+00 -8.6578399387e-04 3.0797815513e+00 -5.3343381231e+00 3.0797815513e+00 5.3343381231e+00 
89000 5.6744915215e+00 -8.5808979448e-04 3.0797956073e+00 -5.3343624687e+00 3.0797956073e+00 5.3343624687e+00 
89100 5.6744915216e+00 -8.5046105466e-04 3.0798095382e+00 -5.3343865978e+00 3.0798095382e+00 5.3343865978e+00 
89200 5.6744915218e+00 -8.4289724040e-04 3.0798233453e+00 -5.3344105124e+00 3.0798233453e+00 5.3344105124e+00 
89300 5.6744915220e+00 -8.3539782180e-04 3.0798370295e+00 -5.3344342141e+00 3.0798370295e+00 5.3344342141e+00 
89400 5.6744915222e+00 -8.2796227310e-04 3.0798505918e+00 -5.3344577048e+00 3.0798505918e+00 5.3344577048e+00 
89500 5.6744915226e+00 -8.2059007262e-04 3.0798640335e+00 -5.3344809863e+00 3.0798640335e+00 5.3344809863e+00 
89600 5.6744915229e+00 -8.1328070273e-04 3.0798773553e+00 -5.3345040605e+00 3.0798773553e+00 5.3345040605e+00 
89700 5.6744915233e+00 -8.0603364982e-04 3.0798905585e+00 -5.3345269290e+00 3.0798905585e+00 5.3345269290e+00 
89800 5.6744915238e+00 -7.9884840430e-04 3.0799036439e+00 -5.3345495937e+00 3.0799036439e+00 5.3345495937e+00 
89900 5.6744915243e+00 -7.9172446051e-04 3.0799166126e+00 -5.3345720562e+00 3.0799166126e+00 5.3345720562e+00 
90000 5.6744915248e+00 -7.8466131677e-04 3.0799294657e+00 -5.3345943183e+00 3.0799294657e+00 5.3345943183e+00 
90100 5.6744915254e+00 -7.7765847529e-04 3.0799422040e+00 -5.3346163816e+00 3.0799422040e+00 5.3346163816e+00 
90200 5.6744915260e+00 -7.7071544215e-04 3.0799548285e+00 -5.3346382480e+00 3.0799548285e+00 5.3346382480e+00 
90300 5.6744915266e+00 -7.6383172731e-04 3.0799673403e+00 -5.3346599191e+00 3.0799673403e+00 5.3346599191e+00 
90400 5.6744915273e+00 -7.5700684453e-04 3.0799797404e+00 -5.3346813966e+00 3.0799797404e+00 5.3346813966e+00 
90500 5.6744915280e+00 -7.5024031140e-04 3.0799920295e+00 -5.3347026820e+00 3.0799920295e+00 5.3347026820e+00 
90600 5.6744915287e+00 -7.4353164926e-04 3.0800042088e+00 -5.3347237771e+00 3.0800042088e+00 5.3347237771e+00 
90700 5.6744915295e+00 -7.3688038318e-04 3.0800162791e+00 -5.3347446835e+00 3.0800162791e+00 5.3347446835e+00 
90800 5.6744915303e+00 -7.3028604198e-04 3.0800282414e+00 -5.3347654028e+00 3.0800282414e+00 5.3347654028e+00 
90900 5.6744915311e+00 -7.2374815815e-04 3.0800400966e+00 -5.3347859366e+00 3.0800400966e+00 5.3347859366e+00 
91000 5.6744915320e+00 -7.1726626783e-04 3.0800518456e+00 -5.3348062865e+00 3.0800518456e+00 5.3348062865e+00 
91100 5.6744915328e+00 -7.1083991082e-04 3.0800634893e+00 -5.3348264541e+00 3.0800634893e+00 5.3348264541e+00 
91200 5.6744915337e+00 -7.0446863051e-04 3.0800750287e+00 -5.3348464408e+00 3.0800750287e+00 5.3348464408e+00 
91300 5.6744915347e+00 -6.9815197389e-04 3.0800864646e+00 -5.3348662484e+00 3.0800864646e+00 5.3348662484e+00 
91400 5.6744915356e+00 -6.9188949148e-04 3.0800977979e+00 -5.3348858783e+00 3.0800977979e+00 5.3348858783e+00 
91500 5.6744915366e+00 -6.8568073735e-04 3.0801090296e+00 -5.3349053320e+00 3.0801090296e+00 5.3349053320e+00 
91600 5.6744915376e+00 -6.7952526907e-04 3.0801201604e+00 -5.3349246111e+00 3.0801201604e+00 5.3349246111e+00 
91700 5.6744915386e+00 -6.7342264769e-04 3.0801311912e+00 -5.3349437171e+00 3.0801311912e+00 5.3349437171e+00 
91800 5.6744915397e+00 -6.6737243770e-04 3.0801421229e+00 -5.3349626514e+00 3.0801421229e+00 5.3349626514e+00 
91900 5.6744915407e+00 -6.6137420704e-04 3.0801529564e+00 -5.3349814155e+00 3.0801529564e+00 5.3349814155e+00 
92000 5.6744915418e+00 -6.5542752703e-04 3.0801636925e+00 -5.3350000110e+00 3.0801636925e+00 5.3350000110e+00 
92100 5.6744915429e+00 -6.4953197238e-04 3.0801743319e+00 -5.3350184391e+00 3.0801743319e+00 5.3350184391e+00 
92200 5.6744915440e+00 -6.4368712115e-04 3.0801848757e+00 -5.3350367014e+00 3.0801848757e+00 5.3350367014e+00 
92300 5.6744915451e+00 -6.3789255471e-04 3.0801953246e+00 -5.3350547994e+00 3.0801953246e+00 5.3350547994e+00 
92400 5.6744915463e+00 -6.3214785776e-04 3.0802056793e+00 -5.3350727343e+00 3.0802056793e+00 5.3350727343e+00 
92500 5.6744915474e+00 -6.2645261827e-04 3.0802159408e+00 -5.3350905077e+00 3.0802159408e+00 5.3350905077e+00 
92600 5.6744915486e+00 -6.2080642745e-04 3.0802261097e+00 -5.3351081209e+00 3.0802261097e+00 5.3351081209e+00 
92700 5.6744915498e+00 -6.1520887974e-04 3.0802361870e+00 -5.3351255753e+00 3.0802361870e+00 5.3351255753e+00 
92800 5.6744915510e+00 -6.0965957281e-04 3.0802461734e+00 -5.3351428722e+00 3.0802461734e+00 5.3351428722e+00 
92900 5.6744915522e+00 -6.0415810750e-04 3.0802560697e+00 -5.3351600131e+00 3.0802560697e+00 5.3351600131e+00 
93000 5.6744915534e+00 -5.9870408780e-04 3.0802658767e+00 -5.3351769992e+00 3.0802658767e+00 5.3351769992e+00 
93100 5.6744915546e+00 -5.9329712084e-04 3.0802755951e+00 -5.3351938319e+00 3.0802755951e+00 5.3351938319e+00 
93200 5.6744915558e+00 -5.8793681685e-04 3.0802852256e+00 -5.3352105126e+00 3.0802852256e+00 5.3352105126e+00 
93300 5.6744915571e+00 -5.8262278918e-04 3.0802947692e+00 -5.3352270425e+00 3.0802947692e+00 5.3352270425e+00 
93400 5.6744915583e+00 -5.7735465421e-04 3.0803042265e+00 -5.3352434230e+00 3.0803042265e+00 5.3352434230e+00 
93500 5.6744915596e+00 -5.7213203139e-04 3.0803135982e+00 -5.3352596553e+00 3.0803135982e+00 5.3352596553e+00 
93600 5.6744915609e+00 -5.6695454316e-04 3.0803228851e+00 -5.3352757407e+00 3.0803228851e+00 5.3352757407e+00 
93700 5.6744915622e+00 -5.6182181500e-04 3.0803320879e+00 -5.3352916805e+00 3.0803320879e+00 5.3352916805e+00 
93800 5.6744915634e+00 -5.5673347532e-04 3.0803412074e+00 -5.3353074759e+00 3.0803412074e+00 5.3353074759e+00 
93900 5.6744915647e+00 -5.5168915552e-04 3.0803502443e+00 -5.3353231283e+00 3.0803502443e+00 5.3353231283e+00 
94000 5.6744915660e+00 -5.4668848989e-04 3.0803591993e+00 -5.3353386388e+00 3.0803591993e+00 5.3353386388e+00 
94100 5.6744915673e+00 -5.4173111567e-04 3.0803680731e+00 -5.3353540086e+00 3.0803680731e+00 5.3353540086e+00 
94200 5.6744915686e+00 -5.3681667296e-04 3.0803768664e+00 -5.3353692390e+00 3.0803768664e+00 5.3353692390e+00 
94300 5.6744915699e+00 -5.3194480474e-04 3.0803855799e+00 -5.3353843312e+00 3.0803855799e+00 5.3353843312e+00 
94400 5.6744915713e+00 -5.2711515682e-04 3.0803942143e+00 -5.3353992865e+00 3.0803942143e+00 5.3353992865e+00 
94500 5.6744915726e+00 -5.2232737784e-04 3.0804027702e+00 -5.3354141058e+00 3.0804027702e+00 5.3354141058e+00 
94600 5.6744915739e+00 -5.1758111924e-04 3.0804112485e+00 -5.3354287906e+00 3.0804112485e+00 5.3354287906e+00 
94700 5.6744915752e+00 -5.1287603524e-04 3.0804196496e+00 -5.3354433418e+00 3.0804196496e+00 5.3354433418e+00 
94800 5.6744915765e+00 -5.0821178282e-04 3.0804279744e+00 -5.3354577608e+00 3.0804279744e+00 5.3354577608e+00 
94900 5.6744915779e+00 -5.0358802169e-04 3.0804362235e+00 -5.3354720485e+00 3.0804362235e+00 5.3354720485e+00 
95000 5.6744915792e+00 -4.9900441430e-04 3.0804443975e+00 -5.3354862063e+00 3.0804443975e+00 5.3354862063e+00 
95100 5.6744915805e+00 -4.9446062576e-04 3.0804524970e+00 -5.3355002351e+00 3.0804524970e+00 5.3355002351e+00 
95200 5.6744915819e+00 -4.8995632389e-04 3.0804605228e+00 -5.3355141362e+00 3.0804605228e+00 5.3355141362e+00 
95300 5.6744915832e+00 -4.8549117916e-04 3.0804684754e+00 -5.3355279106e+00 3.0804684754e+00 5.3355279106e+00 
95400 5.6744915845e+00 -4.8106486466e-04 3.0804763556e+00 -5.3355415594e+00 3.0804763556e+00 5.3355415594e+00 
95500 5.6744915858e+00 -4.7667705610e-04 3.0804841639e+00 -5.3355550838e+00 3.0804841639e+00 5.3355550838e+00 
95600 5.6744915872e+00 -4.7232743181e-04 3.0804919009e+00 -5.3355684847e+00 3.0804919009e+00 5.3355684847e+00 
95700 5.6744915885e+00 -4.6801567267e-04 3.0804995674e+00 -5.3355817634e+00 3.0804995674e+00 5.3355817634e+00 
95800 5.6744915898e+00 -4.6374146213e-04 3.0805071638e+00 -5.3355949208e+00 3.0805071638e+00 5.3355949208e+00 
95900 5.6744915912e+00 -4.5950448616e-04 3.0805146908e+00 -5.3356079580e+00 3.0805146908e+00 5.3356079580e+00 
96000 5.6744915925e+00 -4.5530443329e-04 3.0805221491e+00 -5.3356208760e+00 3.0805221491e+00 5.3356208760e+00 
96100 5.6744915938e+00 -4.5114099450e-04 3.0805295391e+00 -5.3356336760e+00 3.0805295391e+00 5.3356336760e+00 
96200 5.6744915951e+00 -4.4701386329e-04 3.0805368616e+00 -5.3356463589e+00 3.0805368616e+00 5.3356463589e+00 
96300 5.6744915964e+00 -4.4292273560e-04 3.0805441171e+00 -5.3356589257e+00 3.0805441171e+00 5.3356589257e+00 
96400 5.6744915977e+00 -4.3886730981e-04 3.0805513061e+00 -5.3356713775e+00 3.0805513061e+00 5.3356713775e+00 
96500 5.6744915991e+00 -4.3484728673e-04 3.0805584293e+00 -5.3356837152e+00 3.0805584293e+00 5.3356837152e+00 
96600 5.6744916004e+00 -4.3086236960e-04 3.0805654872e+00 -5.3356959399e+00 3.0805654872e+00 5.3356959399e+00 
96700 5.6744916017e+00 -4.2691226399e-04 3.0805724805e+00 -5.3357080525e+00 3.0805724805e+00 5.3357080525e+00 
96800 5.6744916030e+00 -4.2299667791e-04 3.0805794096e+00 -5.3357200541e+00 3.0805794096e+00 5.3357200541e+00 
96900 5.6744916043e+00 -4.1911532166e-04 3.0805862751e+00 -5.3357319456e+00 3.0805862751e+00 5.3357319456e+00 
97000 5.6744916056e+00 -4.1526790791e-04 3.0805930776e+00 -5.3357437279e+00 3.0805930776e+00 5.3357437279e+00 
97100 5.6744916068e+00 -4.1145415163e-04 3.0805998177e+00 -5.3357554020e+00 3.0805998177e+00 5.3357554020e+00 
97200 5.6744916081e+00 -4.0767377010e-04 3.0806064959e+00 -5.3357669689e+00 3.0806064959e+00 5.3357669689e+00 
97300 5.6744916094e+00 -4.0392648286e-04 3.0806131126e+00 -5.3357784295e+00 3.0806131126e+00 5.3357784295e+00 
97400 5.6744916107e+00 -4.0021201172e-04 3.0806196686e+00 -5.3357897848e+00 3.0806196686e+00 5.3357897848e+00 
97500 5.6744916120e+00 -3.9653008075e-04 3.0806261642e+00 -5.3358010356e+00 3.0806261642e+00 5.3358010356e+00 
97600 5.6744916132e+00 -3.9288041623e-04 3.0806326001e+00 -5.3358121828e+00 3.0806326001e+00 5.3358121828e+00 
97700 5.6744916145e+00 -3.8926274666e-04 3.0806389767e+00 -5.3358232274e+00 3.0806389767e+00 5.3358232274e+00 
97800 5.6744916157e+00 -3.8567680273e-04 3.0806452946e+00 -5.3358341704e+00 3.0806452946e+00 5.3358341704e+00 
97900 5.6744916170e+00 -3.8212231731e-04 3.0806515543e+00 -5.3358450124e+00 3.0806515543e+00 5.3358450124e+00 
98000 5.6744916182e+00 -3.7859902542e-04 3.0806577563e+00 -5.3358557546e+00 3.0806577563e+00 5.3358557546e+00 
98100 5.6744916195e+00 -3.7510666425e-04 3.0806639010e+00 -5.3358663976e+00 3.0806639010e+00 5.3358663976e+00 
98200 5.6744916207e+00 -3.7164497308e-04 3.0806699891e+00 -5.3358769425e+00 3.0806699891e+00 5.3358769425e+00 
98300 5.6744916219e+00 -3.6821369333e-04 3.0806760210e+00 -5.3358873900e+00 3.0806760210e+00 5.3358873900e+00 
98400 5.6744916231e+00 -3.6481256851e-04 3.0806819972e+00 -5.3358977411e+00 3.0806819972e+00 5.3358977411e+00 
98500 5.6744916244e+00 -3.6144134419e-04 3.0806879182e+00 -5.3359079965e+00 3.0806879182e+00 5.3359079965e+00 
98600 5.6744916256e+00 -3.5809976801e-04 3.0806937844e+00 -5.3359181572e+00 3.0806937844e+00 5.3359181572e+00 
98700 5.6744916268e+00 -3.5478758969e-04 3.0806995964e+00 -5.3359282238e+00 3.0806995964e+00 5.3359282238e+00 
98800 5.6744916280e+00 -3.5150456092e-04 3.0807053546e+00 -5.3359381974e+00 3.0807053546e+00 5.3359381974e+00 
98900 5.6744916291e+00 -3.4825043546e-04 3.0807110596e+00 -5.3359480786e+00 3.0807110596e+00 5.3359480786e+00 
99000 5.6744916303e+00 -3.4502496903e-04 3.0807167117e+00 -5.3359578684e+00 3.0807167117e+00 5.3359578684e+00 
99100 5.6744916315e+00 -3.4182791936e-04 3.0807223114e+00 -5.3359675674e+00 3.0807223114e+00 5.3359675674e+00 
99200 5.6744916327e+00 -3.3865904613e-04 3.0807278593e+00 -5.3359771766e+00 3.0807278593e+00 5.3359771766e+00 
99300 5.6744916338e+00 -3.3551811099e-04 3.0807333557e+00 -5.3359866967e+00 3.0807333557e+00 5.3359866967e+00 
99400 5.6744916350e+00 -3.3240487751e-04 3.0807388011e+00 -5.3359961284e+00 3.0807388011e+00 5.3359961284e+00 
99500 5.6744916361e+00 -3.2931911121e-04 3.0807441960e+00 -5.3360054727e+00 3.0807441960e+00 5.3360054727e+00 
99600 5.6744916373e+00 -3.2626057948e-04 3.0807495408e+00 -5.3360147301e+00 3.0807495408e+00 5.3360147301e+00 
99700 5.6744916384e+00 -3.2322905164e-04 3.0807548360e+00 -5.3360239016e+00 3.0807548360e+00 5.3360239016e+00 
99800 5.6744916395e+00 -3.2022429887e-04 3.0807600819e+00 -5.3360329878e+00 3.0807600819e+00 5.3360329878e+00 
99900 5.6744916407e+00 -3.1724609420e-04 3.0807652791e+00 -5.3360419896e+00 3.0807652791e+00 5.3360419896e+00 
100000 5.6744916418e+00 -3.1429421255e-04 3.0807704279e+00 -5.3360509076e+00 3.0807704279e+00 5.3360509076e+00 
100100 5.6744916429e+00 -3.1136843064e-04 3.0807755288e+00 -5.3360597426e+00 3.0807755288e+00 5.3360597426e+00 
100200 5.6744916440e+00 -3.0846852703e-04 3.0807805822e+00 -5.3360684954e+00 3.0807805822e+00 5.3360684954e+00 
100300 5.6744916451e+00 -3.0559428206e-04 3.0807855886e+00 -5.3360771666e+00 3.0807855886e+00 5.3360771666e+00 
100400 5.6744916461e+00 -3.0274547790e-04 3.0807905482e+00 -5.3360857570e+00 3.0807905482e+00 5.3360857570e+00 
100500 5.6744916472e+00 -2.9992189848e-04 3.0807954617e+00 -5.3360942674e+00 3.0807954617e+00 5.3360942674e+00 
100600 5.6744916483e+00 -2.9712332949e-04 3.0808003293e+00 -5.3361026983e+00 3.0808003293e+00 5.3361026983e+00 
100700 5.6744916493e+00 -2.9434955837e-04 3.0808051515e+00 -5.3361110506e+00 3.0808051515e+00 5.3361110506e+00 
100800 5.6744916504e+00 -2.9160037432e-04 3.0808099286e+00 -5.3361193248e+00 3.0808099286e+00 5.3361193248e+00 
100900 5.6744916514e+00 -2.8887556823e-04 3.0808146612e+00 -5.3361275218e+00 3.0808146612e+00 5.3361275218e+00 
101000 5.6744916525e+00 -2.8617493273e-04 3.0808193495e+00 -5.3361356422e+00 3.0808193495e+00 5.3361356422e+00 
101100 5.6744916535e+00 -2.8349826212e-04 3.0808239939e+00 -5.3361436866e+00 3.0808239939e+00 5.3361436866e+00 
101200 5.6744916545e+00 -2.8084535241e-04 3.0808285949e+00 -5.3361516558e+00 3.0808285949e+00 5.3361516558e+00 
101300 5.6744916555e+00 -2.7821600127e-04 3.0808331529e+00 -5.3361595504e+00 3.0808331529e+00 5.3361595504e+00 
101400 5.6744916565e+00 -2.7561000802e-04 3.0808376682e+00 -5.3361673711e+00 3.0808376682e+00 5.3361673711e+00 
101500 5.6744916575e+00 -2.7302717364e-04 3.0808421411e+00 -5.3361751185e+00 3.0808421411e+00 5.3361751185e+00 
101600 5.6744916585e+00 -2.7046730071e-04 3.0808465722e+00 -5.3361827933e+00 3.0808465722e+00 5.3361827933e+00 
101700 5.6744916595e+00 -2.6793019347e-04 3.0808509617e+00 -5.3361903962e+00 3.0808509617e+00 5.3361903962e+00 
101800 5.6744916605e+00 -2.6541565775e-04 3.0808553100e+00 -5.3361979277e+00 3.0808553100e+00 5.3361979277e+00 
101900 5.6744916614e+00 -2.6292350096e-04 3.0808596175e+00 -5.3362053885e+00 3.0808596175e+00 5.3362053885e+00 
102000 5.6744916624e+00 -2.6045353210e-04 3.0808638845e+00 -5.3362127792e+00 3.0808638845e+00 5.3362127792e+00 
102100 5.6744916634e+00 -2.5800556174e-04 3.0808681115e+00 -5.3362201005e+00 3.0808681115e+00 5.3362201005e+00 
102200 5.6744916643e+00 -2.5557940201e-04 3.0808722987e+00 -5.3362273530e+00 3.0808722987e+00 5.3362273530e+00 
102300 5.6744916652e+00 -2.5317486657e-04 3.0808764466e+00 -5.3362345373e+00 3.0808764466e+00 5.3362345373e+00 
102400 5.6744916662e+00 -2.5079177064e-04 3.0808805554e+00 -5.3362416540e+00 3.0808805554e+00 5.3362416540e+00 
102500 5.6744916671e+00 -2.4842993093e-04 3.0808846255e+00 -5.3362487036e+00 3.0808846255e+00 5.3362487036e+00 
102600 5.6744916680e+00 -2.4608916567e-04 3.0808886573e+00 -5.3362556869e+00 3.0808886573e+00 5.3362556869e+00 
102700 5.6744916689e+00 -2.4376929457e-04 3.0808926511e+00 -5.3362626044e+00 3.0808926511e+00 5.3362626044e+00 
102800 5.6744916698e+00 -2.4147013887e-04 3.0808966073e+00 -5.3362694566e+00 3.0808966073e+00 5.3362694566e+00 
102900 5.6744916707e+00 -2.3919152122e-04 3.0809005261e+00 -5.3362762442e+00 3.0809005261e+00 5.3362762442e+00 
103000 5.6744916716e+00 -2.3693326579e-04 3.0809044079e+00 -5.3362829678e+00 3.0809044079e+00 5.3362829678e+00 
103100 5.6744916725e+00 -2.3469519815e-04 3.0809082531e+00 -5.3362896279e+00 3.0809082531e+00 5.3362896279e+00 
103200 5.6744916733e+00 -2.3247714533e-04 3.0809120620e+00 -5.3362962250e+00 3.0809120620e+00 5.3362962250e+00 
103300 5.6744916742e+00 -2.3027893580e-04 3.0809158349e+00 -5.3363027598e+00 3.0809158349e+00 5.3363027598e+00 
103400 5.6744916750e+00 -2.2810039941e-04 3.0809195720e+00 -5.3363092328e+00 3.0809195720e+00 5.3363092328e+00 
103500 5.6744916759e+00 -2.2594136746e-04 3.0809232739e+00 -5.3363156445e+00 3.0809232739e+00 5.3363156445e+00 
103600 5.6744916767e+00 -2.2380167259e-04 3.0809269406e+00 -5.3363219956e+00 3.0809269406e+00 5.3363219956e+00 
103700 5.6744916776e+00 -2.2168114887e-04 3.0809305727e+00 -5.3363282865e+00 3.0809305727e+00 5.3363282865e+00 
103800 5.6744916784e+00 -2.1957963171e-04 3.0809341703e+00 -5.3363345178e+00 3.0809341703e+00 5.3363345178e+00 
103900 5.6744916792e+00 -2.1749695789e-04 3.0809377338e+00 -5.3363406900e+00 3.0809377338e+00 5.3363406900e+00 
104000 5.6744916800e+00 -2.1543296555e-04 3.0809412636e+00 -5.3363468036e+00 3.0809412636e+00 5.3363468036e+00 
104100 5.6744916808e+00 -2.1338749415e-04 3.0809447598e+00 -5.3363528593e+00 3.0809447598e+00 5.3363528593e+00 
104200 5.6744916816e+00 -2.1136038447e-04 3.0809482228e+00 -5.3363588574e+00 3.0809482228e+00 5.3363588574e+00 
104300 5.6744916824e+00 -2.0935147865e-04 3.0809516529e+00 -5.3363647985e+00 3.0809516529e+00 5.3363647985e+00 
104400 5.6744916832e+00 -2.0736062010e-04 3.0809550504e+00 -5.3363706832e+00 3.0809550504e+00 5.3363706832e+00 
104500 5.6744916839e+00 -2.0538765353e-04 3.0809584156e+00 -5.3363765119e+00 3.0809584156e+00 5.3363765119e+00 
104600 5.6744916847e+00 -2.0343242495e-04 3.0809617488e+00 -5.3363822851e+00 3.0809617488e+00 5.3363822851e+00 
104700 5.6744916855e+00 -2.0149478163e-04 3.0809650503e+00 -5.3363880034e+00 3.0809650503e+00 5.3363880034e+00 
104800 5.6744916862e+00 -1.9957457213e-04 3.0809683203e+00 -5.3363936672e+00 3.0809683203e+00 5.3363936672e+00 
104900 5.6744916870e+00 -1.9767164623e-04 3.0809715591e+00 -5.3363992770e+00 3.0809715591e+00 5.3363992770e+00 
105000 5.6744916877e+00 -1.9578585500e-04 3.0809747670e+00 -5.3364048333e+00 3.0809747670e+00 5.3364048333e+00 
105100 5.6744916884e+00 -1.9391705070e-04 3.0809779444e+00 -5.3364103367e+00 3.0809779444e+00 5.3364103367e+00 
105200 5.6744916891e+00 -1.9206508685e-04 3.0809810914e+00 -5.3364157874e+00 3.0809810914e+00 5.3364157874e+00 
105300 5.6744916899e+00 -1.9022981817e-04 3.0809842083e+00 -5.3364211861e+00 3.0809842083e+00 5.3364211861e+00 
105400 5.6744916906e+00 -1.8841110060e-04 3.0809872955e+00 -5.3364265333e+00 3.0809872955e+00 5.3364265333e+00 
105500 5.6744916913e+00 -1.8660879125e-04 3.0809903531e+00 -5.3364318293e+00 3.0809903531e+00 5.3364318293e+00 
105600 5.6744916920e+00 -1.8482274845e-04 3.0809933815e+00 -5.3364370746e+00 3.0809933815e+00 5.3364370746e+00 
105700 5.6744916927e+00 -1.8305283170e-04 3.0809963809e+00 -5.3364422697e+00 3.0809963809e+00 5.3364422697e+00 
105800 5.6744916933e+00 -1.8129890164e-04 3.0809993516e+00 -5.3364474151e+00 3.0809993516e+00 5.3364474151e+00 
105900 5.6744916940e+00 -1.7956082010e-04 3.0810022938e+00 -5.3364525111e+00 3.0810022938e+00 5.3364525111e+00 
106000 5.6744916947e+00 -1.7783845005e-04 3.0810052078e+00 -5.3364575583e+00 3.0810052078e+00 5.3364575583e+00 
106100 5.6744916954e+00 -1.7613165560e-04 3.0810080939e+00 -5.3364625571e+00 3.0810080939e+00 5.3364625571e+00 
106200 5.6744916960e+00 -1.7444030200e-04 3.0810109522e+00 -5.3364675079e+00 3.0810109522e+00 5.3364675079e+00 
106300 5.6744916967e+00 -1.7276425561e-04 3.0810137831e+00 -5.3364724111e+00 3.0810137831e+00 5.3364724111e+00 
106400 5.6744916973e+00 -1.7110338391e-04 3.0810165868e+00 -5.3364772673e+00 3.0810165868e+00 5.3364772673e+00 
106500 5.6744916979e+00 -1.6945755548e-04 3.0810193635e+00 -5.3364820767e+00 3.0810193635e+00 5.3364820767e+00 
106600 5.6744916986e+00 -1.6782664001e-04 3.0810221135e+00 -5.3364868399e+00 3.0810221135e+00 5.3364868399e+00 
106700 5.6744916992e+00 -1.6621050825e-04 3.0810248371e+00 -5.3364915572e+00 3.0810248371e+00 5.3364915572e+00 
106800 5.6744916998e+00 -1.6460903205e-04 3.0810275344e+00 -5.3364962291e+00 3.0810275344e+00 5.3364962291e+00 
106900 5.6744917004e+00 -1.6302208433e-04 3.0810302058e+00 -5.3365008560e+00 3.0810302058e+00 5.3365008560e+00 
107000 5.6744917010e+00 -1.6144953906e-04 3.0810328513e+00 -5.3365054383e+00 3.0810328513e+00 5.3365054383e+00 
107100 5.6744917016e+00 -1.5989127126e-04 3.0810354714e+00 -5.3365099764e+00 3.0810354714e+00 5.3365099764e+00 
107200 5.6744917022e+00 -1.5834715702e-04 3.0810380662e+00 -5.3365144706e+00 3.0810380662e+00 5.3365144706e+00 
107300 5.6744917028e+00 -1.5681707343e-04 3.0810406359e+00 -5.3365189215e+00 3.0810406359e+00 5.3365189215e+00 
107400 5.6744917034e+00 -1.5530089863e-04 3.0810431807e+00 -5.3365233294e+00 3.0810431807e+00 5.3365233294e+00 
107500 5.6744917040e+00 -1.5379851178e-04 3.0810457010e+00 -5.3365276946e+00 3.0810457010e+00 5.3365276946e+00 
107600 5.6744917045e+00 -1.5230979303e-04 3.0810481969e+00 -5.3365320176e+00 3.0810481969e+00 5.3365320176e+00 
107700 5.6744917051e+00 -1.5083462355e-04 3.0810506686e+00 -5.3365362987e+00 3.0810506686e+00 5.3365362987e+00 
107800 5.6744917056e+00 -1.4937288551e-04 3.0810531164e+00 -5.3365405384e+00 3.0810531164e+00 5.3365405384e+00 
107900 5.6744917062e+00 -1.4792446205e-04 3.0810555404e+00 -5.3365447370e+00 3.0810555404e+00 5.3365447370e+00 
108000 5.6744917067e+00 -1.4648923730e-04 3.0810579410e+00 -5.3365488949e+00 3.0810579410e+00 5.3365488949e+00 
108100 5.6744917073e+00 -1.4506709636e-04 3.0810603182e+00 -5.3365530124e+00 3.0810603182e+00 5.3365530124e+00 
108200 5.6744917078e+00 -1.4365792529e-04 3.0810626724e+00 -5.3365570899e+00 3.0810626724e+00 5.3365570899e+00 
108300 5.6744917083e+00 -1.4226161110e-04 3.0810650037e+00 -5.3365611279e+00 3.0810650037e+00 5.3365611279e+00 
108400 5.6744917089e+00 -1.4087804175e-04 3.0810673124e+00 -5.3365651266e+00 3.0810673124e+00 5.3365651266e+00 
108500 5.6744917094e+00 -1.3950710615e-04 3.0810695986e+00 -5.3365690864e+00 3.0810695986e+00 5.3365690864e+00 
108600 5.6744917099e+00 -1.3814869414e-04 3.0810718625e+00 -5.3365730076e+00 3.0810718625e+00 5.3365730076e+00 
108700 5.6744917104e+00 -1.3680269647e-04 3.0810741044e+00 -5.3365768907e+00 3.0810741044e+00 5.3365768907e+00 
108800 5.6744917109e+00 -1.3546900481e-04 3.0810763244e+00 -5.3365807359e+00 3.0810763244e+00 5.3365807359e+00 
108900 5.6744917114e+00 -1.3414751177e-04 3.0810785228e+00 -5.3365845437e+00 3.0810785228e+00 5.3365845437e+00 
109000 5.6744917119e+00 -1.3283811082e-04 3.0810806998e+00 -5.3365883143e+00 3.0810806998e+00 5.3365883143e+00 
109100 5.6744917124e+00 -1.3154069635e-04 3.0810828555e+00 -5.3365920481e+00 3.0810828555e+00 5.3365920481e+00 
109200 5.6744917128e+00 -1.3025516362e-04 3.0810849902e+00 -5.3365957454e+00 3.0810849902e+00 5.3365957454e+00 
109300 5.6744917133e+00 -1.2898140881e-04 3.0810871039e+00 -5.3365994066e+00 3.0810871039e+00 5.3365994066e+00 
109400 5.6744917138e+00 -1.2771932892e-04 3.0810891971e+00 -5.3366030320e+00 3.0810891971e+00 5.3366030320e+00 
109500 5.6744917143e+00 -1.2646882186e-04 3.0810912697e+00 -5.3366066219e+00 3.0810912697e+00 5.3366066219e+00 
109600 5.6744917147e+00 -1.2522978637e-04 3.0810933220e+00 -5.3366101766e+00 3.0810933220e+00 5.3366101766e+00 
109700 5.6744917152e+00 -1.2400212207e-04 3.0810953543e+00 -5.3366136966e+00 3.0810953543e+00 5.3366136966e+00 
109800 5.6744917156e+00 -1.2278572939e-04 3.0810973666e+00 -5.3366171820e+00 3.0810973666e+00 5.3366171820e+00 
109900 5.6744917161e+00 -1.2158050963e-04 3.0810993591e+00 -5.3366206332e+00 3.0810993591e+00 5.3366206332e+00 
110000 5.6744917165e+00 -1.2038636492e-04 3.0811013321e+00 -5.3366240505e+00 3.0811013321e+00 5.3366240505e+00 
110100 5.6744917169e+00 -1.1920319819e-04 3.0811032858e+00 -5.3366274343e+00 3.0811032858e+00 5.3366274343e+00 
110200 5.6744917174e+00 -1.1803091320e-04 3.0811052202e+00 -5.3366307848e+00 3.0811052202e+00 5.3366307848e+00 
110300 5.6744917178e+00 -1.1686941455e-04 3.0811071356e+00 -5.3366341024e+00 3.0811071356e+00 5.3366341024e+00 
110400 5.6744917182e+00 -1.1571860760e-04 3.0811090321e+00 -5.3366373873e+00 3.0811090321e+00 5.3366373873e+00 
110500 5.6744917186e+00 -1.1457839854e-04 3.0811109100e+00 -5.3366406399e+00 3.0811109100e+00 5.3366406399e+00 
110600 5.6744917190e+00 -1.1344869434e-04 3.0811127694e+00 -5.3366438604e+00 3.0811127694e+00 5.3366438604e+00 
110700 5.6744917194e+00 -1.1232940276e-04 3.0811146104e+00 -5.3366470492e+00 3.0811146104e+00 5.3366470492e+00 
110800 5.6744917198e+00 -1.1122043233e-04 3.0811164333e+00 -5.3366502065e+00 3.0811164333e+00 5.3366502065e+00 
110900 5.6744917202e+00 -1.1012169236e-04 3.0811182382e+00 -5.3366533326e+00 3.0811182382e+00 5.3366533326e+00 
111000 5.6744917206e+00 -1.0903309294e-04 3.0811200252e+00 -5.3366564279e+00 3.0811200252e+00 5.3366564279e+00 
111100 5.6744917210e+00 -1.0795454489e-04 3.0811217946e+00 -5.3366594925e+00 3.0811217946e+00 5.3366594925e+00 
111200 5.6744917214e+00 -1.0688595982e-04 3.0811235464e+00 -5.3366625268e+00 3.0811235464e+00 5.3366625268e+00 
111300 5.6744917218e+00 -1.0582725005e-04 3.0811252810e+00 -5.3366655311e+00 3.0811252810e+00 5.3366655311e+00 
111400 5.6744917222e+00 -1.0477832867e-04 3.0811269983e+00 -5.3366685057e+00 3.0811269983e+00 5.3366685057e+00 
111500 5.6744917225e+00 -1.0373910950e-04 3.0811286986e+00 -5.3366714507e+00 3.0811286986e+00 5.3366714507e+00 
111600 5.6744917229e+00 -1.0270950708e-04 3.0811303821e+00 -5.3366743666e+00 3.0811303821e+00 5.3366743666e+00 
111700 5.6744917233e+00 -1.0168943668e-04 3.0811320489e+00 -5.3366772534e+00 3.0811320489e+00 5.3366772534e+00 
111800 5.6744917236e+00 -1.0067881430e-04 3.0811336991e+00 -5.3366801117e+00 3.0811336991e+00 5.3366801117e+00 
111900 5.6744917240e+00 -9.9677556632e-05 3.0811353328e+00 -5.3366829415e+00 3.0811353328e+00 5.3366829415e+00 
112000 5.6744917243e+00 -9.8685581082e-05 3.0811369504e+00 -5.3366857432e+00 3.0811369504e+00 5.3366857432e+00 
112100 5.6744917247e+00 -9.7702805760e-05 3.0811385518e+00 -5.3366885169e+00 3.0811385518e+00 5.3366885169e+00 
112200 5.6744917250e+00 -9.6729149471e-05 3.0811401373e+00 -5.3366912631e+00 3.0811401373e+00 5.3366912631e+00 
112300 5.6744917253e+00 -9.5764531704e-05 3.0811417070e+00 -5.3366939819e+00 3.0811417070e+00 5.3366939819e+00 
112400 5.6744917257e+00 -9.4808872633e-05 3.0811432611e+00 -5.3366966736e+00 3.0811432611e+00 5.3366966736e+00 
112500 5.6744917260e+00 -9.3862093110e-05 3.0811447996e+00 -5.3366993384e+00 3.0811447996e+00 5.3366993384e+00 
112600 5.6744917263e+00 -9.2924114664e-05 3.0811463228e+00 -5.3367019766e+00 3.0811463228e+00 5.3367019766e+00 
112700 5.6744917267e+00 -9.1994859485e-05 3.0811478307e+00 -5.3367045885e+00 3.0811478307e+00 5.3367045885e+00 
112800 5.6744917270e+00 -9.1074250425e-05 3.0811493236e+00 -5.3367071742e+00 3.0811493236e+00 5.3367071742e+00 
112900 5.6744917273e+00 -9.0162210994e-05 3.0811508015e+00 -5.3367097340e+00 3.0811508015e+00 5.3367097340e+00 
113000 5.6744917276e+00 -8.9258665349e-05 3.0811522647e+00 -5.3367122682e+00 3.0811522647e+00 5.3367122682e+00 
113100 5.6744917279e+00 -8.8363538302e-05 3.0811537131e+00 -5.3367147770e+00 3.0811537131e+00 5.3367147770e+00 
113200 5.6744917282e+00 -8.7476755291e-05 3.0811551470e+00 -5.3367172607e+00 3.0811551470e+00 5.3367172607e+00 
113300 5.6744917285e+00 -8.6598242398e-05 3.0811565666e+00 -5.3367197194e+00 3.0811565666e+00 5.3367197194e+00 
113400 5.6744917288e+00 -8.5727926333e-05 3.0811579719e+00 -5.3367221534e+00 3.0811579719e+00 5.3367221534e+00 
113500 5.6744917291e+00 -8.4865734426e-05 3.0811593630e+00 -5.3367245630e+00 3.0811593630e+00 5.3367245630e+00 
113600 5.6744917294e+00 -8.4011594632e-05 3.0811607402e+00 -5.3367269483e+00 3.0811607402e+00 5.3367269483e+00 
113700 5.6744917297e+00 -8.3165435516e-05 3.0811621035e+00 -5.3367293097e+00 3.0811621035e+00 5.3367293097e+00 
113800 5.6744917300e+00 -8.2327186252e-05 3.0811634531e+00 -5.3367316472e+00 3.0811634531e+00 5.3367316472e+00 
113900 5.6744917302e+00 -8.1496776619e-05 3.0811647891e+00 -5.3367339612e+00 3.0811647891e+00 5.3367339612e+00 
114000 5.6744917305e+00 -8.0674136998e-05 3.0811661116e+00 -5.3367362518e+00 3.0811661116e+00 5.3367362518e+00 
114100 5.6744917308e+00 -7.9859198359e-05 3.0811674207e+00 -5.3367385193e+00 3.0811674207e+00 5.3367385193e+00 
114200 5.6744917311e+00 -7.9051892263e-05 3.0811687167e+00 -5.3367407639e+00 3.0811687167e+00 5.3367407639e+00 
114300 5.6744917313e+00 -7.8252150857e-05 3.0811699995e+00 -5.3367429859e+00 3.0811699995e+00 5.3367429859e+00 
114400 5.6744917316e+00 -7.7459906866e-05 3.0811712693e+00 -5.3367451853e+00 3.0811712693e+00 5.3367451853e+00 
114500 5.6744917319e+00 -7.6675093588e-05 3.0811725263e+00 -5.3367473625e+00 3.0811725263e+00 5.3367473625e+00 
114600 5.6744917321e+00 -7.5897644892e-05 3.0811737706e+00 -5.3367495176e+00 3.0811737706e+00 5.3367495176e+00 
114700 5.6744917324e+00 -7.5127495215e-05 3.0811750022e+00 -5.3367516508e+00 3.0811750022e+00 5.3367516508e+00 
114800 5.6744917326e+00 -7.4364579555e-05 3.0811762213e+00 -5.3367537624e+00 3.0811762213e+00 5.3367537624e+00 
114900 5.6744917329e+00 -7.3608833459e-05 3.0811774281e+00 -5.3367558526e+00 3.0811774281e+00 5.3367558526e+00 
115000 5.6744917331e+00 -7.2860193033e-05 3.0811786226e+00 -5.3367579215e+00 3.0811786226e+00 5.3367579215e+00 
115100 5.6744917334e+00 -7.2118594928e-05 3.0811798049e+00 -5.3367599694e+00 3.0811798049e+00 5.3367599694e+00 
115200 5.6744917336e+00 -7.1383976334e-05 3.0811809752e+00 -5.3367619964e+00 3.0811809752e+00 5.3367619964e+00 
115300 5.6744917338e+00 -7.0656274981e-05 3.0811821336e+00 -5.3367640028e+00 3.0811821336e+00 5.3367640028e+00 
115400 5.6744917341e+00 -7.0591469353e-05 3.0811821336e+00 -5.3367640028e+00 3.0811821336e+00 5.3367640028e+00 
115500 5.6744917344e+00 -7.0534303885e-05 3.0811821336e+00 -5.3367640028e+00 3.0811821336e+00 5.3367640028e+00 
115600 5.6744917347e+00 -7.0484311301e-05 3.0811821336e+00 -5.3367640028e+00 3.0811821336e+00 5.3367640028e+00 
115700 5.6744917349e+00 -7.0441123439e-05 3.0811821336e+00 -5.3367640028e+00 3.0811821336e+00 5.3367640028e+00 
115800 5.6744917352e+00 -7.0404439880e-05 3.0811821336e+00 -5.3367640028e+00 3.0811821336e+00 5.3367640028e+00 
115900 5.6744917355e+00 -7.0374006874e-05 3.0811821336e+00 -5.3367640028e+00 3.0811821336e+00 5.3367640028e+00 
116000 5.6744917357e+00 -7.0349603045e-05 3.0811821336e+00 -5.3367640028e+00 3.0811821336e+00 5.3367640028e+00 
116100 5.6744917360e+00 -7.0331029592e-05 3.0811821336e+00 -5.3367640028e+00 3.0811821336e+00 5.3367640028e+00 
116200 5.6744917363e+00 -7.0318103457e-05 3.0811821336e+00 -5.3367640028e+00 3.0811821336e+00 5.3367640028e+00 
116300 5.6744917365e+00 -7.0310652516e-05 3.0811821336e+00 -5.3367640028e+00 3.0811821336e+00 5.3367640028e+00 
116400 5.6744917368e+00 -7.0308512151e-05 3.0811821336e+00 -5.3367640028e+00 3.0811821336e+00 5.3367640028e+00 
116500 5.6744917370e+00 -7.0311522756e-05 3.0811821336e+00 -5.3367640028e+00 3.0811821336e+00 5.3367640028e+00 
116600 5.6744917373e+00 -7.0319527928e-05 3.0811821336e+00 -5.3367640028e+00 3.0811821336e+00 5.3367640028e+00 
116700 5.6744917375e+00 -7.0332373146e-05 3.0811821336e+00 -5.3367640028e+00 3.0811821336e+00 5.3367640028e+00 
116800 5.6744917377e+00 -7.0349904788e-05 3.0811821336e+00 -5.3367640028e+00 3.0811821336e+00 5.3367640028e+00 
116900 5.6744917380e+00 -7.0371969431e-05 3.0811821336e+00 -5.3367640028e+00 3.0811821336e+00 5.3367640028e+00 
117000 5.6744917382e+00 -7.0398413353e-05 3.0811821336e+00 -5.3367640028e+00 3.0811821336e+00 5.3367640028e+00 
117100 5.6744917384e+00 -7.0429082188e-05 3.0811821336e+00 -5.3367640028e+00 3.0811821336e+00 5.3367640028e+00 
117200 5.6744917386e+00 -7.0463820700e-05 3.0811821336e+00 -5.3367640028e+00 3.0811821336e+00 5.3367640028e+00 
117300 5.6744917389e+00 -7.0502472689e-05 3.0811821336e+00 -5.3367640028e+00 3.0811821336e+00 5.3367640028e+00 
117400 5.6744917391e+00 -7.0544880941e-05 3.0811821336e+00 -5.3367640028e+00 3.0811821336e+00 5.3367640028e+00 
117500 5.6744917393e+00 -7.0590887261e-05 3.0811821336e+00 -5.3367640028e+00 3.0811821336e+00 5.3367640028e+00 
117600 5.6744917395e+00 -7.0640332568e-05 3.0811821336e+00 -5.3367640028e+00 3.0811821336e+00 5.3367640028e+00 
117700 5.6744917397e+00 -7.0693057005e-05 3.0811821336e+00 -5.3367640028e+00 3.0811821336e+00 5.3367640028e+00 
117800 5.6744917399e+00 -7.0748900121e-05 3.0811821336e+00 -5.3367640028e+00 3.0811821336e+00 5.3367640028e+00 
117900 5.6744917401e+00 -7.0150788787e-05 3.0811832817e+00 -5.3367659913e+00 3.0811832817e+00 5.3367659913e+00 
118000 5.6744917403e+00 -7.0204838428e-05 3.0811832817e+00 -5.3367659913e+00 3.0811832817e+00 5.3367659913e+00 
118100 5.6744917405e+00 -7.0261916843e-05 3.0811832817e+00 -5.3367659913e+00 3.0811832817e+00 5.3367659913e+00 
118200 5.6744917407e+00 -7.0321768739e-05 3.0811832817e+00 -5.3367659913e+00 3.0811832817e+00 5.3367659913e+00 
118300 5.6744917409e+00 -7.0384169719e-05 3.0811832817e+00 -5.3367659913e+00 3.0811832817e+00 5.3367659913e+00 
118400 5.6744917411e+00 -7.0448916529e-05 3.0811832817e+00 -5.3367659913e+00 3.0811832817e+00 5.3367659913e+00 
118500 5.6744917412e+00 -7.0515820735e-05 3.0811832817e+00 -5.3367659913e+00 3.0811832817e+00 5.3367659913e+00 
118600 5.6744917414e+00 -7.0584704633e-05 3.0811832817e+00 -5.3367659913e+00 3.0811832817e+00 5.3367659913e+00 
118700 5.6744917416e+00 -7.0655398595e-05 3.0811832817e+00 -5.3367659913e+00 3.0811832817e+00 5.3367659913e+00 
118800 5.6744917418e+00 -7.0727739368e-05 3.0811832817e+00 -5.3367659913e+00 3.0811832817e+00 5.3367659913e+00 
118900 5.6744917419e+00 -7.0144851574e-05 3.0811844294e+00 -5.3367679793e+00 3.0811844294e+00 5.3367679793e+00 
119000 5.6744917421e+00 -7.0212471081e-05 3.0811844294e+00 -5.3367679793e+00 3.0811844294e+00 5.3367679793e+00 
119100 5.6744917423e+00 -7.0281669679e-05 3.0811844294e+00 -5.3367679793e+00 3.0811844294e+00 5.3367679793e+00 
119200 5.6744917424e+00 -7.0352207506e-05 3.0811844294e+00 -5.3367679793e+00 3.0811844294e+00 5.3367679793e+00 
119300 5.6744917426e+00 -7.0423878804e-05 3.0811844294e+00 -5.3367679793e+00 3.0811844294e+00 5.3367679793e+00 
119400 5.6744917428e+00 -7.0496501837e-05 3.0811844294e+00 -5.3367679793e+00 3.0811844294e+00 5.3367679793e+00 
119500 5.6744917429e+00 -7.0569912289e-05 3.0811844294e+00 -5.3367679793e+00 3.0811844294e+00 5.3367679793e+00 
119600 5.6744917431e+00 -7.0643958931e-05 3.0811844294e+00 -5.3367679793e+00 3.0811844294e+00 5.3367679793e+00 
119700 5.6744917433e+00 -7.0718500742e-05 3.0811844294e+00 -5.3367679793e+00 3.0811844294e+00 5.3367679793e+00 
119800 5.6744917434e+00 -7.0136772638e-05 3.0811855770e+00 -5.3367699670e+00 3.0811855770e+00 5.3367699670e+00 
119900 5.6744917435e+00 -7.0204369252e-05 3.0811855770e+00 -5.3367699670e+00 3.0811855770e+00 5.3367699670e+00 
120000 5.6744917437e+00 -7.0272475848e-05 3.0811855770e+00 -5.3367699670e+00 3.0811855770e+00 5.3367699670e+00 
120100 5.6744917438e+00 -7.0340883897e-05 3.0811855770e+00 -5.3367699670e+00 3.0811855770e+00 5.3367699670e+00 
120200 5.6744917440e+00 -7.0409420319e-05 3.0811855770e+00 -5.3367699670e+00 3.0811855770e+00 5.3367699670e+00 
120300 5.6744917441e+00 -7.0477937182e-05 3.0811855770e+00 -5.3367699670e+00 3.0811855770e+00 5.3367699670e+00 
120400 5.6744917443e+00 -7.0546304904e-05 3.0811855770e+00 -5.3367699670e+00 3.0811855770e+00 5.3367699670e+00 
120500 5.6744917444e+00 -7.0614407729e-05 3.0811855770e+00 -5.3367699670e+00 3.0811855770e+00 5.3367699670e+00 
120600 5.6744917445e+00 -7.0682140716e-05 3.0811855770e+00 -5.3367699670e+00 3.0811855770e+00 5.3367699670e+00 
120700 5.6744917447e+00 -7.0749407662e-05 3.0811855770e+00 -5.3367699670e+00 3.0811855770e+00 5.3367699670e+00 
120800 5.6744917448e+00 -7.0159199850e-05 3.0811867251e+00 -5.3367719555e+00 3.0811867251e+00 5.3367719555e+00 
120900 5.6744917449e+00 -7.0217726870e-05 3.0811867251e+00 -5.3367719555e+00 3.0811867251e+00 5.3367719555e+00 
121000 5.6744917450e+00 -7.0275932450e-05 3.0811867251e+00 -5.3367719555e+00 3.0811867251e+00 5.3367719555e+00 
121100 5.6744917452e+00 -7.0333650201e-05 3.0811867251e+00 -5.3367719555e+00 3.0811867251e+00 5.3367719555e+00 
121200 5.6744917453e+00 -7.0390748774e-05 3.0811867251e+00 -5.3367719555e+00 3.0811867251e+00 5.3367719555e+00 
121300 5.6744917454e+00 -7.0447121529e-05 3.0811867251e+00 -5.3367719555e+00 3.0811867251e+00 5.3367719555e+00 
121400 5.6744917455e+00 -7.0502679709e-05 3.0811867251e+00 -5.3367719555e+00 3.0811867251e+00 5.3367719555e+00 
121500 5.6744917457e+00 -7.0557347883e-05 3.0811867251e+00 -5.3367719555e+00 3.0811867251e+00 5.3367719555e+00 
121600 5.6744917458e+00 -7.0611060874e-05 3.0811867251e+00 -5.3367719555e+00 3.0811867251e+00 5.3367719555e+00 
121700 5.6744917459e+00 -7.0663761646e-05 3.0811867251e+00 -5.3367719555e+00 3.0811867251e+00 5.3367719555e+00 
121800 5.6744917460e+00 -7.0715399832e-05 3.0811867251e+00 -5.3367719555e+00 3.0811867251e+00 5.3367719555e+00 
121900 5.6744917461e+00 -7.0109326292e-05 3.0811878727e+00 -5.3367739431e+00 3.0811878727e+00 5.3367739431e+00 
122000 5.6744917462e+00 -7.0151166115e-05 3.0811878727e+00 -5.3367739431e+00 3.0811878727e+00 5.3367739431e+00 
122100 5.6744917463e+00 -7.0192215865e-05 3.0811878727e+00 -5.3367739431e+00 3.0811878727e+00 5.3367739431e+00 
122200 5.6744917464e+00 -7.0232349298e-05 3.0811878727e+00 -5.3367739431e+00 3.0811878727e+00 5.3367739431e+00 
122300 5.6744917465e+00 -7.0271474007e-05 3.0811878727e+00 -5.3367739431e+00 3.0811878727e+00 5.3367739431e+00 
122400 5.6744917467e+00 -7.0309521124e-05 3.0811878727e+00 -5.3367739431e+00 3.0811878727e+00 5.3367739431e+00 
122500 5.6744917468e+00 -7.0346438520e-05 3.0811878727e+00 -5.3367739431e+00 3.0811878727e+00 5.3367739431e+00 
122600 5.6744917469e+00 -7.0382186248e-05 3.0811878727e+00 -5.3367739431e+00 3.0811878727e+00 5.3367739431e+00 
122700 5.6744917470e+00 -7.0416733472e-05 3.0811878727e+00 -5.3367739431e+00 3.0811878727e+00 5.3367739431e+00 
122800 5.6744917471e+00 -7.0450056364e-05 3.0811878727e+00 -5.3367739431e+00 3.0811878727e+00 5.3367739431e+00 
122900 5.6744917472e+00 -7.0482136624e-05 3.0811878727e+00 -5.3367739431e+00 3.0811878727e+00 5.3367739431e+00 
123000 5.6744917473e+00 -7.0512960428e-05 3.0811878727e+00 -5.3367739431e+00 3.0811878727e+00 5.3367739431e+00 
123100 5.6744917474e+00 -7.0542517660e-05 3.0811878727e+00 -5.3367739431e+00 3.0811878727e+00 5.3367739431e+00 
123200 5.6744917475e+00 -7.0570801335e-05 3.0811878727e+00 -5.3367739431e+00 3.0811878727e+00 5.3367739431e+00 
123300 5.6744917476e+00 -7.0597807146e-05 3.0811878727e+00 -5.3367739431e+00 3.0811878727e+00 5.3367739431e+00 
123400 5.6744917477e+00 -7.0623533110e-05 3.0811878727e+00 -5.3367739431e+00 3.0811878727e+00 5.3367739431e+00 
123500 5.6744917477e+00 -7.0647979285e-05 3.0811878727e+00 -5.3367739431e+00 3.0811878727e+00 5.3367739431e+00 
123600 5.6744917478e+00 -7.0671147522e-05 3.0811878727e+00 -5.3367739431e+00 3.0811878727e+00 5.3367739431e+00 
123700 5.6744917479e+00 -7.0693041264e-05 3.0811878727e+00 -5.3367739431e+00 3.0811878727e+00 5.3367739431e+00 
123800 5.6744917480e+00 -7.0713665371e-05 3.0811878727e+00 -5.3367739431e+00 3.0811878727e+00 5.3367739431e+00 
123900 5.6744917481e+00 -7.0076436819e-05 3.0811890202e+00 -5.3367759306e+00 3.0811890202e+00 5.3367759306e+00 
124000 5.6744917481e+00 -7.0086997705e-05 3.0811890202e+00 -5.3367759306e+00 3.0811890202e+00 5.3367759306e+00 
124100 5.6744917482e+00 -7.0096703360e-05 3.0811890202e+00 -5.3367759306e+00 3.0811890202e+00 5.3367759306e+00 
124200 5.6744917483e+00 -7.0105468530e-05 3.0811890202e+00 -5.3367759306e+00 3.0811890202e+00 5.3367759306e+00 
124300 5.6744917484e+00 -7.0113239138e-05 3.0811890202e+00 -5.3367759306e+00 3.0811890202e+00 5.3367759306e+00 
124400 5.6744917485e+00 -7.0119982218e-05 3.0811890202e+00 -5.3367759306e+00 3.0811890202e+00 5.3367759306e+00 
124500 5.6744917485e+00 -7.0125679253e-05 3.0811890202e+00 -5.3367759306e+00 3.0811890202e+00 5.3367759306e+00 
124600 5.6744917486e+00 -7.0130321787e-05 3.0811890202e+00 -5.3367759306e+00 3.0811890202e+00 5.3367759306e+00 
124700 5.6744917487e+00 -7.0133908467e-05 3.0811890202e+00 -5.3367759306e+00 3.0811890202e+00 5.3367759306e+00 
124800 5.6744917488e+00 -7.0136443051e-05 3.0811890202e+00 -5.3367759306e+00 3.0811890202e+00 5.3367759306e+00 
124900 5.6744917489e+00 -7.0137933015e-05 3.0811890202e+00 -5.3367759306e+00 3.0811890202e+00 5.3367759306e+00 
125000 5.6744917489e+00 -7.0138388602e-05 3.0811890202e+00 -5.3367759306e+00 3.0811890202e+00 5.3367759306e+00 
125100 5.6744917490e+00 -7.0137822127e-05 3.0811890202e+00 -5.3367759306e+00 3.0811890202e+00 5.3367759306e+00 
125200 5.6744917491e+00 -7.0136247465e-05 3.0811890202e+00 -5.3367759306e+00 3.0811890202e+00 5.3367759306e+00 
125300 5.6744917491e+00 -7.0133679689e-05 3.0811890202e+00 -5.3367759306e+00 3.0811890202e+00 5.3367759306e+00 
125400 5.6744917492e+00 -7.0130134760e-05 3.0811890202e+00 -5.3367759306e+00 3.0811890202e+00 5.3367759306e+00 
125500 5.6744917493e+00 -7.0125629314e-05 3.0811890202e+00 -5.3367759306e+00 3.0811890202e+00 5.3367759306e+00 
125600 5.6744917493e+00 -7.0120180474e-05 3.0811890202e+00 -5.3367759306e+00 3.0811890202e+00 5.3367759306e+00 
125700 5.6744917494e+00 -7.0113805704e-05 3.0811890202e+00 -5.3367759306e+00 3.0811890202e+00 5.3367759306e+00 
125800 5.6744917495e+00 -7.0106522689e-05 3.0811890202e+00 -5.3367759306e+00 3.0811890202e+00 5.3367759306e+00 
125900 5.6744917495e+00 -7.0098349230e-05 3.0811890202e+00 -5.3367759306e+00 3.0811890202e+00 5.3367759306e+00 
126000 5.6744917496e+00 -7.0089303157e-05 3.0811890202e+00 -5.3367759306e+00 3.0811890202e+00 5.3367759306e+00 
126100 5.6744917497e+00 -7.0079402264e-05 3.0811890202e+00 -5.3367759306e+00 3.0811890202e+00 5.3367759306e+00 
126200 5.6744917497e+00 -7.0068664251e-05 3.0811890202e+00 -5.3367759306e+00 3.0811890202e+00 5.3367759306e+00 
126300 5.6744917498e+00 -7.0057106662e-05 3.0811890202e+00 -5.3367759306e+00 3.0811890202e+00 5.3367759306e+00 
126400 5.6744917499e+00 -7.0044746852e-05 3.0811890202e+00 -5.3367759306e+00 3.0811890202e+00 5.3367759306e+00 
126500 5.6744917499e+00 -7.0031601953e-05 3.0811890202e+00 -5.3367759306e+00 3.0811890202e+00 5.3367759306e+00 
126600 5.6744917500e+00 -7.0017688838e-05 3.0811890202e+00 -5.3367759306e+00 3.0811890202e+00 5.3367759306e+00 
126700 5.6744917500e+00 -7.0003024103e-05 3.0811890202e+00 -5.3367759306e+00 3.0811890202e+00 5.3367759306e+00 
126800 5.6744917501e+00 -6.9987624046e-05 3.0811890202e+00 -5.3367759306e+00 3.0811890202e+00 5.3367759306e+00 
126900 5.6744917501e+00 -6.9971504654e-05 3.0811890202e+00 -5.3367759306e+00 3.0811890202e+00 5.3367759306e+00 
127000 5.6744917502e+00 -6.9954681592e-05 3.0811890202e+00 -5.3367759306e+00 3.0811890202e+00 5.3367759306e+00 
127100 5.6744917502e+00 -6.9937170193e-05 3.0811890202e+00 -5.3367759306e+00 3.0811890202e+00 5.3367759306e+00 
127200 5.6744917503e+00 -6.9918985457e-05 3.0811890202e+00 -5.3367759306e+00 3.0811890202e+00 5.3367759306e+00 
127300 5.6744917503e+00 -6.9900142046e-05 3.0811890202e+00 -5.3367759306e+00 3.0811890202e+00 5.3367759306e+00 
127400 5.6744917504e+00 -6.9880654282e-05 3.0811890202e+00 -5.3367759306e+00 3.0811890202e+00 5.3367759306e+00 
127500 5.6744917505e+00 -6.9860536154e-05 3.0811890202e+00 -5.3367759306e+00 3.0811890202e+00 5.3367759306e+00 
127600 5.6744917505e+00 -6.9839801320e-05 3.0811890202e+00 -5.3367759306e+00 3.0811890202e+00 5.3367759306e+00 
127700 5.6744917506e+00 -6.9818463104e-05 3.0811890202e+00 -5.3367759306e+00 3.0811890202e+00 5.3367759306e+00 
127800 5.6744917506e+00 -6.9808886500e-05 3.0811890202e+00 -5.3367759306e+00 3.0811890202e+00 5.3367759306e+00 
127800 5.6744917506e+00 -6.9808886500e-05 3.0811890202e+00 -5.3367759306e+00 3.0811890202e+00 5.3367759306e+00 
