# step Hamiltonian StressXX CellTensor1 CellTensor2 CellTensor3 CellTensor4 
0 5.6419593781e+00 -3.6999653487e-02 1.5877160715e+00 -2.7500049039e+00 1.5877160715e+00 2.7500049039e+00 
100 5.6417133517e+00 -3.6360009961e-02 1.5877160715e+00 -2.7500049039e+00 1.5877160715e+00 2.7500049039e+00 
200 5.6414398071e+00 -3.4691883033e-02 1.5888612504e+00 -2.7519884118e+00 1.5888612504e+00 2.7519884118e+00 
300 5.6411928164e+00 -3.3110279893e-02 1.5899530969e+00 -2.7538795455e+00 1.5899530969e+00 2.7538795455e+00 
400 5.6409698063e+00 -3.1610478950e-02 1.5909944450e+00 -2.7556832133e+00 1.5909944450e+00 2.7556832133e+00 
500 5.6407683930e+00 -3.0187970556e-02 1.5919879672e+00 -2.7574040442e+00 1.5919879672e+00 2.7574040442e+00 
600 5.6405863738e+00 -2.8838448352e-02 1.5929361831e+00 -2.7590464023e+00 1.5929361831e+00 2.7590464023e+00 
700 5.6404217178e+00 -2.7557801270e-02 1.5938414666e+00 -2.7606143994e+00 1.5938414666e+00 2.7606143994e+00 
800 5.6402725577e+00 -2.6342106088e-02 1.5947060536e+00 -2.7621119079e+00 1.5947060536e+00 2.7621119079e+00 
900 5.6401371812e+00 -2.5187620476e-02 1.5955320484e+00 -2.7635425729e+00 1.5955320484e+00 2.7635425729e+00 
1000 5.6400140230e+00 -2.4090776459e-02 1.5963214307e+00 -2.7649098232e+00 1.5963214307e+00 2.7649098232e+00 
1100 5.6399016562e+00 -2.3048174255e-02 1.5970760617e+00 -2.7662168825e+00 1.5970760617e+00 2.7662168825e+00 
1200 5.6397987851e+00 -2.2056576430e-02 1.5977976901e+00 -2.7674667796e+00 1.5977976901e+00 2.7674667796e+00 
1300 5.6397042371e+00 -2.1112902327e-02 1.5984879579e+00 -2.7686623583e+00 1.5984879579e+00 2.7686623583e+00 
1400 5.6396169554e+00 -2.0214222741e-02 1.5991484056e+00 -2.7698062874e+00 1.5991484056e+00 2.7698062874e+00 
1500 5.6395359912e+00 -1.9357754806e-02 1.5997804781e+00 -2.7709010690e+00 1.5997804781e+00 2.7709010690e+00 
1600 5.6394604971e+00 -1.8540857061e-02 1.6003855291e+00 -2.7719490480e+00 1.6003855291e+00 2.7719490480e+00 
1700 5.6393897199e+00 -1.7761024686e-02 1.6009648262e+00 -2.7729524201e+00 1.6009648262e+00 2.7729524201e+00 
1800 5.6393229935e+00 -1.7015884872e-02 1.6015195558e+00 -2.7739132399e+00 1.6015195558e+00 2.7739132399e+00 
1900 5.6392597331e+00 -1.6303192327e-02 1.6020508270e+00 -2.7748334287e+00 1.6020508270e+00 2.7748334287e+00 
2000 5.6391994280e+00 -1.5620824888e-02 1.6025596765e+00 -2.7757147818e+00 1.6025596765e+00 2.7757147818e+00 
2100 5.6391416361e+00 -1.4966779237e-02 1.6030470723e+00 -2.7765589761e+00 1.6030470723e+00 2.7765589761e+00 
2200 5.6390859778e+00 -1.4339166710e-02 1.6035139177e+00 -2.7773675762e+00 1.6035139177e+00 2.7773675762e+00 
2300 5.6390321307e+00 -1.3736209187e-02 1.6039610555e+00 -2.7781420415e+00 1.6039610555e+00 2.7781420415e+00 
2400 5.6389798237e+00 -1.3156235065e-02 1.6043892710e+00 -2.7788837325e+00 1.6043892710e+00 2.7788837325e+00 
2500 5.6389288322e+00 -1.2597675298e-02 1.6047992961e+00 -2.7795939167e+00 1.6047992961e+00 2.7795939167e+00 
2600 5.6388789736e+00 -1.2059059510e-02 1.6051918121e+00 -2.7802737744e+00 1.6051918121e+00 2.7802737744e+00 
2700 5.6388301021e+00 -1.1539012175e-02 1.6055674535e+00 -2.7809244044e+00 1.6055674535e+00 2.7809244044e+00 
2800 5.6387821049e+00 -1.1036248857e-02 1.6059268106e+00 -2.7815468292e+00 1.6059268106e+00 2.7815468292e+00 
2900 5.6387348980e+00 -1.0549572511e-02 1.6062704328e+00 -2.7821420003e+00 1.6062704328e+00 2.7821420003e+00 
3000 5.6386884225e+00 -1.0077869858e-02 1.6065988312e+00 -2.7827108030e+00 1.6065988312e+00 2.7827108030e+00 
3100 5.6386426408e+00 -9.6201078012e-03 1.6069124813e+00 -2.7832540609e+00 1.6069124813e+00 2.7832540609e+00 
3200 5.6385975340e+00 -9.1753299238e-03 1.6072118257e+00 -2.7837725407e+00 1.6072118257e+00 2.7837725407e+00 
3300 5.6385530983e+00 -8.7426530343e-03 1.6074972766e+00 -2.7842669562e+00 1.6074972766e+00 2.7842669562e+00 
3400 5.6385093426e+00 -8.3212637809e-03 1.6077692180e+00 -2.7847379724e+00 1.6077692180e+00 2.7847379724e+00 
3500 5.6384662860e+00 -7.9104153281e-03 1.6080280078e+00 -2.7851862096e+00 1.6080280078e+00 2.7851862096e+00 
3600 5.6384239555e+00 -7.5094240977e-03 1.6082739804e+00 -2.7856122466e+00 1.6082739804e+00 2.7856122466e+00 
3700 5.6383823837e+00 -7.1176665755e-03 1.6085074483e+00 -2.7860166248e+00 1.6085074483e+00 2.7860166248e+00 
3800 5.6383416077e+00 -6.7345761856e-03 1.6087287040e+00 -2.7863998510e+00 1.6087287040e+00 2.7863998510e+00 
3900 5.6383016667e+00 -6.3596402332e-03 1.6089380222e+00 -2.7867624006e+00 1.6089380222e+00 2.7867624006e+00 
4000 5.6382626011e+00 -5.9923969173e-03 1.6091356609e+00 -2.7871047210e+00 1.6091356609e+00 2.7871047210e+00 
4100 5.6382244511e+00 -5.6324324150e-03 1.6093218638e+00 -2.7874272338e+00 1.6093218638e+00 2.7874272338e+00 
4200 5.6381872555e+00 -5.2793780384e-03 1.6094968609e+00 -2.7877303377e+00 1.6094968609e+00 2.7877303377e+00 
4300 5.6381510511e+00 -4.9329074661e-03 1.6096608708e+00 -2.7880144112e+00 1.6096608708e+00 2.7880144112e+00 
4400 5.6381158720e+00 -4.5927340498e-03 1.6098141014e+00 -2.7882798143e+00 1.6098141014e+00 2.7882798143e+00 
4500 5.6380817484e+00 -4.2586081977e-03 1.6099567515e+00 -2.7885268915e+00 1.6099567515e+00 2.7885268915e+00 
4600 5.6380487070e+00 -3.9303148355e-03 1.6100890117e+00 -2.7887559730e+00 1.6100890117e+00 2.7887559730e+00 
4700 5.6380167699e+00 -3.6076709467e-03 1.6102110660e+00 -2.7889673772e+00 1.6102110660e+00 2.7889673772e+00 
4800 5.6379859547e+00 -3.2905231913e-03 1.6103230921e+00 -2.7891614121e+00 1.6103230921e+00 2.7891614121e+00 
4900 5.6379562744e+00 -2.9787456064e-03 1.6104252628e+00 -2.7893383770e+00 1.6104252628e+00 2.7893383770e+00 
5000 5.6379277372e+00 -2.6722373862e-03 1.6105177469e+00 -2.7894985641e+00 1.6105177469e+00 2.7894985641e+00 
5100 5.6379003463e+00 -2.3709207446e-03 1.6106007097e+00 -2.7896422599e+00 1.6106007097e+00 2.7896422599e+00 
5200 5.6378741006e+00 -2.0747388585e-03 1.6106743138e+00 -2.7897697460e+00 1.6106743138e+00 2.7897697460e+00 
5300 5.6378489942e+00 -1.7836538941e-03 1.6107387202e+00 -2.7898813011e+00 1.6107387202e+00 2.7898813011e+00 
5400 5.6378250168e+00 -1.4976451137e-03 1.6107940881e+00 -2.7899772011e+00 1.6107940881e+00 2.7899772011e+00 
5500 5.6378021540e+00 -1.2167070655e-03 1.6108405761e+00 -2.7900577207e+00 1.6108405761e+00 2.7900577207e+00 
5600 5.6377803876e+00 -9.4084785420e-04 1.6108783425e+00 -2.7901231339e+00 1.6108783425e+00 2.7901231339e+00 
5700 5.6377596957e+00 -6.7008749282e-04 1.6109075455e+00 -2.7901737151e+00 1.6109075455e+00 2.7901737151e+00 
5800 5.6377400531e+00 -4.0445633506e-04 1.6109283440e+00 -2.7902097391e+00 1.6109283440e+00 2.7902097391e+00 
5900 5.6377214316e+00 -1.4399358732e-04 1.6109408975e+00 -2.7902314825e+00 1.6109408975e+00 2.7902314825e+00 
6000 5.6377038003e+00 1.1125410026e-04 1.6109453668e+00 -2.7902392234e+00 1.6109453668e+00 2.7902392234e+00 
6100 5.6376871263e+00 3.6123396490e-04 1.6109419137e+00 -2.7902332425e+00 1.6109419137e+00 2.7902332425e+00 
6200 5.6376713742e+00 6.0588838538e-04 1.6109307018e+00 -2.7902138230e+00 1.6109307018e+00 2.7902138230e+00 
6300 5.6376565075e+00 8.4515606072e-04 1.6109118963e+00 -2.7901812509e+00 1.6109118963e+00 2.7901812509e+00 
6400 5.6376424880e+00 1.0789731146e-03 1.6108856642e+00 -2.7901358155e+00 1.6108856642e+00 2.7901358155e+00 
6500 5.6376292767e+00 1.3072741269e-03 1.6108521742e+00 -2.7900778092e+00 1.6108521742e+00 2.7900778092e+00 
6600 5.6376168338e+00 1.5299930944e-03 1.6108115973e+00 -2.7900075279e+00 1.6108115973e+00 2.7900075279e+00 
6700 5.6376051191e+00 1.7470643213e-03 1.6107641061e+00 -2.7899252709e+00 1.6107641061e+00 2.7899252709e+00 
6800 5.6375940924e+00 1.9584232425e-03 1.6107098755e+00 -2.7898313407e+00 1.6107098755e+00 2.7898313407e+00 
6900 5.6375837135e+00 2.1640071810e-03 1.6106490821e+00 -2.7897260434e+00 1.6106490821e+00 2.7897260434e+00 
7000 5.6375739427e+00 2.3637560405e-03 1.6105819045e+00 -2.7896096883e+00 1.6105819045e+00 2.7896096883e+00 
7100 5.6375647407e+00 2.5576129368e-03 1.6105085230e+00 -2.7894825878e+00 1.6105085230e+00 2.7894825878e+00 
7200 5.6375560692e+00 2.7455247686e-03 1.6104291197e+00 -2.7893450574e+00 1.6104291197e+00 2.7893450574e+00 
7300 5.6375478906e+00 2.9274427307e-03 1.6103438785e+00 -2.7891974152e+00 1.6103438785e+00 2.7891974152e+00 
7400 5.6375401688e+00 3.1033227713e-03 1.6102529844e+00 -2.7890399820e+00 1.6102529844e+00 2.7890399820e+00 
7500 5.6375328687e+00 3.2731259952e-03 1.6101566240e+00 -2.7888730809e+00 1.6101566240e+00 2.7888730809e+00 
7600 5.6375259566e+00 3.4368190162e-03 1.6100549851e+00 -2.7886970371e+00 1.6100549851e+00 2.7886970371e+00 
7700 5.6375194004e+00 3.5943742601e-03 1.6099482564e+00 -2.7885121776e+00 1.6099482564e+00 2.7885121776e+00 
7800 5.6375131694e+00 3.7457702201e-03 1.6098366276e+00 -2.7883188308e+00 1.6098366276e+00 2.7883188308e+00 
7900 5.6375072348e+00 3.8909916682e-03 1.6097202889e+00 -2.7881173263e+00 1.6097202889e+00 2.7881173263e+00 
8000 5.6375015693e+00 4.0300298234e-03 1.6095994312e+00 -2.7879079946e+00 1.6095994312e+00 2.7879079946e+00 
8100 5.6374961473e+00 4.1628824801e-03 1.6094742454e+00 -2.7876911666e+00 1.6094742454e+00 2.7876911666e+00 
8200 5.6374909450e+00 4.2895540979e-03 1.6093449229e+00 -2.7874671733e+00 1.6093449229e+00 2.7874671733e+00 
8300 5.6374859403e+00 4.4100558554e-03 1.6092116545e+00 -2.7872363457e+00 1.6092116545e+00 2.7872363457e+00 
8400 5.6374811128e+00 4.5244056711e-03 1.6090746311e+00 -2.7869990142e+00 1.6090746311e+00 2.7869990142e+00 
8500 5.6374764438e+00 4.6326281914e-03 1.6089340429e+00 -2.7867555082e+00 1.6089340429e+00 2.7867555082e+00 
8600 5.6374719164e+00 4.7347547500e-03 1.6087900792e+00 -2.7865061560e+00 1.6087900792e+00 2.7865061560e+00 
8700 5.6374675152e+00 4.8308232992e-03 1.6086429288e+00 -2.7862512840e+00 1.6086429288e+00 2.7862512840e+00 
8800 5.6374632264e+00 4.9208783165e-03 1.6084927790e+00 -2.7859912169e+00 1.6084927790e+00 2.7859912169e+00 
8900 5.6374590376e+00 5.0049706865e-03 1.6083398159e+00 -2.7857262771e+00 1.6083398159e+00 2.7857262771e+00 
9000 5.6374549380e+00 5.0831575627e-03 1.6081842241e+00 -2.7854567841e+00 1.6081842241e+00 2.7854567841e+00 
9100 5.6374509183e+00 5.1555022083e-03 1.6080261865e+00 -2.7851830548e+00 1.6080261865e+00 2.7851830548e+00 
9200 5.6374469702e+00 5.2220738199e-03 1.6078658838e+00 -2.7849054025e+00 1.6078658838e+00 2.7849054025e+00 
9300 5.6374430868e+00 5.2829473344e-03 1.6077034951e+00 -2.7846241370e+00 1.6077034951e+00 2.7846241370e+00 
9400 5.6374392624e+00 5.3382032225e-03 1.6075391968e+00 -2.7843395641e+00 1.6075391968e+00 2.7843395641e+00 
9500 5.6374354923e+00 5.3879272679e-03 1.6073731632e+00 -2.7840519854e+00 1.6073731632e+00 2.7840519854e+00 
9600 5.6374317728e+00 5.4322103367e-03 1.6072055657e+00 -2.7837616981e+00 1.6072055657e+00 2.7837616981e+00 
9700 5.6374281011e+00 5.4711481357e-03 1.6070365732e+00 -2.7834689944e+00 1.6070365732e+00 2.7834689944e+00 
9800 5.6374244751e+00 5.5048409636e-03 1.6068663515e+00 -2.7831741617e+00 1.6068663515e+00 2.7831741617e+00 
9900 5.6374208938e+00 5.5333934543e-03 1.6066950633e+00 -2.7828774819e+00 1.6066950633e+00 2.7828774819e+00 
10000 5.6374173565e+00 5.5569143151e-03 1.6065228684e+00 -2.7825792316e+00 1.6065228684e+00 2.7825792316e+00 
10100 5.6374138633e+00 5.5755160602e-03 1.6063499230e+00 -2.7822796814e+00 1.6063499230e+00 2.7822796814e+00 
10200 5.6374104146e+00 5.5893147410e-03 1.6061763800e+00 -2.7819790961e+00 1.6061763800e+00 2.7819790961e+00 
10300 5.6374070115e+00 5.5984296744e-03 1.6060023887e+00 -2.7816777343e+00 1.6060023887e+00 2.7816777343e+00 
10400 5.6374036553e+00 5.6029831699e-03 1.6058280948e+00 -2.7813758484e+00 1.6058280948e+00 2.7813758484e+00 
10500 5.6374003476e+00 5.6031002565e-03 1.6056536402e+00 -2.7810736842e+00 1.6056536402e+00 2.7810736842e+00 
10600 5.6373970904e+00 5.5989084108e-03 1.6054791630e+00 -2.7807714808e+00 1.6054791630e+00 2.7807714808e+00 
10700 5.6373938858e+00 5.5905372860e-03 1.6053047974e+00 -2.7804694708e+00 1.6053047974e+00 2.7804694708e+00 
10800 5.6373907359e+00 5.5781184443e-03 1.6051306736e+00 -2.7801678794e+00 1.6051306736e+00 2.7801678794e+00 
10900 5.6373876431e+00 5.5617850920e-03 1.6049569177e+00 -2.7798669254e+00 1.6049569177e+00 2.7798669254e+00 
11000 5.6373846097e+00 5.5416718180e-03 1.6047836518e+00 -2.7795668202e+00 1.6047836518e+00 2.7795668202e+00 
11100 5.6373816380e+00 5.5179143383e-03 1.6046109939e+00 -2.7792677678e+00 1.6046109939e+00 2.7792677678e+00 
11200 5.6373787303e+00 5.4906492436e-03 1.6044390577e+00 -2.7789699655e+00 1.6044390577e+00 2.7789699655e+00 
11300 5.6373758888e+00 5.4600137543e-03 1.6042679526e+00 -2.7786736029e+00 1.6042679526e+00 2.7786736029e+00 
11400 5.6373731157e+00 5.4261454805e-03 1.6040977842e+00 -2.7783788625e+00 1.6040977842e+00 2.7783788625e+00 
11500 5.6373704129e+00 5.3891821887e-03 1.6039286533e+00 -2.7780859191e+00 1.6039286533e+00 2.7780859191e+00 
11600 5.6373677822e+00 5.3492615759e-03 1.6037606567e+00 -2.7777949407e+00 1.6037606567e+00 2.7777949407e+00 
11700 5.6373652253e+00 5.3065210501e-03 1.6035938872e+00 -2.7775060873e+00 1.6035938872e+00 2.7775060873e+00 
11800 5.6373627436e+00 5.2610975193e-03 1.6034284329e+00 -2.7772195121e+00 1.6034284329e+00 2.7772195121e+00 
11900 5.6373603384e+00 5.2131271870e-03 1.6032643779e+00 -2.7769353606e+00 1.6032643779e+00 2.7769353606e+00 
12000 5.6373580107e+00 5.1627453569e-03 1.6031018022e+00 -2.7766537711e+00 1.6031018022e+00 2.7766537711e+00 
12100 5.6373557614e+00 5.1100862450e-03 1.6029407812e+00 -2.7763748746e+00 1.6029407812e+00 2.7763748746e+00 
12200 5.6373535910e+00 5.0552828003e-03 1.6027813867e+00 -2.7760987951e+00 1.6027813867e+00 2.7760987951e+00 
12300 5.6373515000e+00 4.9984665340e-03 1.6026236858e+00 -2.7758256492e+00 1.6026236858e+00 2.7758256492e+00 
12400 5.6373494886e+00 4.9397673565e-03 1.6024677420e+00 -2.7755555466e+00 1.6024677420e+00 2.7755555466e+00 
12500 5.6373475566e+00 4.8793134241e-03 1.6023136144e+00 -2.7752885899e+00 1.6023136144e+00 2.7752885899e+00 
12600 5.6373457038e+00 4.8172309929e-03 1.6021613585e+00 -2.7750248748e+00 1.6021613585e+00 2.7750248748e+00 
12700 5.6373439297e+00 4.7536442829e-03 1.6020110254e+00 -2.7747644903e+00 1.6020110254e+00 2.7747644903e+00 
12800 5.6373422336e+00 4.6886753484e-03 1.6018626628e+00 -2.7745075187e+00 1.6018626628e+00 2.7745075187e+00 
12900 5.6373406148e+00 4.6224439595e-03 1.6017163143e+00 -2.7742540357e+00 1.6017163143e+00 2.7742540357e+00 
13000 5.6373390721e+00 4.5550674896e-03 1.6015720199e+00 -2.7740041104e+00 1.6015720199e+00 2.7740041104e+00 
13100 5.6373376043e+00 4.4866608128e-03 1.6014298159e+00 -2.7737578058e+00 1.6014298159e+00 2.7737578058e+00 
13200 5.6373362101e+00 4.4173362091e-03 1.6012897349e+00 -2.7735151785e+00 1.6012897349e+00 2.7735151785e+00 
13300 5.6373348879e+00 4.3472032769e-03 1.6011518063e+00 -2.7732762792e+00 1.6011518063e+00 2.7732762792e+00 
13400 5.6373336362e+00 4.2763688551e-03 1.6010160559e+00 -2.7730411525e+00 1.6010160559e+00 2.7730411525e+00 
13500 5.6373324530e+00 4.2049369511e-03 1.6008825060e+00 -2.7728098374e+00 1.6008825060e+00 2.7728098374e+00 
13600 5.6373313367e+00 4.1330086782e-03 1.6007511760e+00 -2.7725823671e+00 1.6007511760e+00 2.7725823671e+00 
13700 5.6373302851e+00 4.0606821989e-03 1.6006220818e+00 -2.7723587694e+00 1.6006220818e+00 2.7723587694e+00 
13800 5.6373292963e+00 3.9880526768e-03 1.6004952365e+00 -2.7721390668e+00 1.6004952365e+00 2.7721390668e+00 
13900 5.6373283681e+00 3.9152122347e-03 1.6003706500e+00 -2.7719232768e+00 1.6003706500e+00 2.7719232768e+00 
14000 5.6373274984e+00 3.8422499199e-03 1.6002483295e+00 -2.7717114115e+00 1.6002483295e+00 2.7717114115e+00 
14100 5.6373266850e+00 3.7692516764e-03 1.6001282793e+00 -2.7715034785e+00 1.6001282793e+00 2.7715034785e+00 
14200 5.6373259256e+00 3.6963003233e-03 1.6000105011e+00 -2.7712994806e+00 1.6000105011e+00 2.7712994806e+00 
14300 5.6373252179e+00 3.6234755395e-03 1.5998949939e+00 -2.7710994162e+00 1.5998949939e+00 2.7710994162e+00 
14400 5.6373245598e+00 3.5508538542e-03 1.5997817542e+00 -2.7709032793e+00 1.5997817542e+00 2.7709032793e+00 
14500 5.6373239489e+00 3.4785086440e-03 1.5996707761e+00 -2.7707110597e+00 1.5996707761e+00 2.7707110597e+00 
14600 5.6373233831e+00 3.4065101347e-03 1.5995620516e+00 -2.7705227432e+00 1.5995620516e+00 2.7705227432e+00 
14700 5.6373228600e+00 3.3349254089e-03 1.5994555702e+00 -2.7703383120e+00 1.5994555702e+00 2.7703383120e+00 
14800 5.6373223774e+00 3.2638184189e-03 1.5993513194e+00 -2.7701577444e+00 1.5993513194e+00 2.7701577444e+00 
14900 5.6373219333e+00 3.1932500037e-03 1.5992492848e+00 -2.7699810153e+00 1.5992492848e+00 2.7699810153e+00 
15000 5.6373215255e+00 3.1232779119e-03 1.5991494500e+00 -2.7698080962e+00 1.5991494500e+00 2.7698080962e+00 
15100 5.6373211519e+00 3.0539568279e-03 1.5990517966e+00 -2.7696389557e+00 1.5990517966e+00 2.7696389557e+00 
15200 5.6373208105e+00 2.9853384031e-03 1.5989563048e+00 -2.7694735590e+00 1.5989563048e+00 2.7694735590e+00 
15300 5.6373204993e+00 2.9174712906e-03 1.5988629530e+00 -2.7693118689e+00 1.5988629530e+00 2.7693118689e+00 
15400 5.6373202165e+00 2.8504011840e-03 1.5987717181e+00 -2.7691538454e+00 1.5987717181e+00 2.7691538454e+00 
15500 5.6373199603e+00 2.7841708594e-03 1.5986825754e+00 -2.7689994458e+00 1.5986825754e+00 2.7689994458e+00 
15600 5.6373197288e+00 2.7188202212e-03 1.5985954992e+00 -2.7688486253e+00 1.5985954992e+00 2.7688486253e+00 
15700 5.6373195204e+00 2.6543863506e-03 1.5985104621e+00 -2.7687013369e+00 1.5985104621e+00 2.7687013369e+00 
15800 5.6373193336e+00 2.5909035570e-03 1.5984274360e+00 -2.7685575314e+00 1.5984274360e+00 2.7685575314e+00 
15900 5.6373191667e+00 2.5284034328e-03 1.5983463913e+00 -2.7684171578e+00 1.5983463913e+00 2.7684171578e+00 
16000 5.6373190183e+00 2.4669149093e-03 1.5982672976e+00 -2.7682801635e+00 1.5982672976e+00 2.7682801635e+00 
16100 5.6373188871e+00 2.4064643163e-03 1.5981901235e+00 -2.7681464941e+00 1.5981901235e+00 2.7681464941e+00 
16200 5.6373187718e+00 2.3470754430e-03 1.5981148370e+00 -2.7680160939e+00 1.5981148370e+00 2.7680160939e+00 
16300 5.6373186710e+00 2.2887696011e-03 1.5980414049e+00 -2.7678889059e+00 1.5980414049e+00 2.7678889059e+00 
16400 5.6373185838e+00 2.2315656893e-03 1.5979697937e+00 -2.7677648717e+00 1.5979697937e+00 2.7677648717e+00 
16500 5.6373185090e+00 2.1754802597e-03 1.5978999692e+00 -2.7676439321e+00 1.5978999692e+00 2.7676439321e+00 
16600 5.6373184456e+00 2.1205275852e-03 1.5978318966e+00 -2.7675260268e+00 1.5978318966e+00 2.7675260268e+00 
16700 5.6373183926e+00 2.0667197286e-03 1.5977655406e+00 -2.7674110950e+00 1.5977655406e+00 2.7674110950e+00 
16800 5.6373183493e+00 2.0140666118e-03 1.5977008658e+00 -2.7672990748e+00 1.5977008658e+00 2.7672990748e+00 
16900 5.6373183148e+00 1.9625760870e-03 1.5976378360e+00 -2.7671899041e+00 1.5976378360e+00 2.7671899041e+00 
17000 5.6373182883e+00 1.9122540074e-03 1.5975764152e+00 -2.7670835201e+00 1.5975764152e+00 2.7670835201e+00 
17100 5.6373182693e+00 1.8631042996e-03 1.5975165670e+00 -2.7669798600e+00 1.5975165670e+00 2.7669798600e+00 
17200 5.6373182570e+00 1.8151290352e-03 1.5974582548e+00 -2.7668788604e+00 1.5974582548e+00 2.7668788604e+00 
17300 5.6373182509e+00 1.7683285038e-03 1.5974014421e+00 -2.7667804579e+00 1.5974014421e+00 2.7667804579e+00 
17400 5.6373182506e+00 1.7227012852e-03 1.5973460923e+00 -2.7666845891e+00 1.5973460923e+00 2.7666845891e+00 
17500 5.6373182554e+00 1.6782443221e-03 1.5972921688e+00 -2.7665911908e+00 1.5972921688e+00 2.7665911908e+00 
17600 5.6373182651e+00 1.6349529924e-03 1.5972396350e+00 -2.7665001997e+00 1.5972396350e+00 2.7665001997e+00 
17700 5.6373182792e+00 1.5928211813e-03 1.5971884547e+00 -2.7664115528e+00 1.5971884547e+00 2.7664115528e+00 
17800 5.6373182974e+00 1.5518413533e-03 1.5971385917e+00 -2.7663251875e+00 1.5971385917e+00 2.7663251875e+00 
17900 5.6373183193e+00 1.5120046229e-03 1.5970900100e+00 -2.7662410416e+00 1.5970900100e+00 2.7662410416e+00 
18000 5.6373183448e+00 1.4733008259e-03 1.5970426740e+00 -2.7661590532e+00 1.5970426740e+00 2.7661590532e+00 
18100 5.6373183735e+00 1.4357185889e-03 1.5969965483e+00 -2.7660791612e+00 1.5969965483e+00 2.7660791612e+00 
18200 5.6373184053e+00 1.3992453985e-03 1.5969515979e+00 -2.7660013048e+00 1.5969515979e+00 2.7660013048e+00 
18300 5.6373184400e+00 1.3638676698e-03 1.5969077882e+00 -2.7659254242e+00 1.5969077882e+00 2.7659254242e+00 
18400 5.6373184774e+00 1.3295708135e-03 1.5968650850e+00 -2.7658514601e+00 1.5968650850e+00 2.7658514601e+00 
18500 5.6373185173e+00 1.2963393024e-03 1.5968234546e+00 -2.7657793540e+00 1.5968234546e+00 2.7657793540e+00 
18600 5.6373185596e+00 1.2641567361e-03 1.5967828635e+00 -2.7657090483e+00 1.5967828635e+00 2.7657090483e+00 
18700 5.6373186043e+00 1.2330059057e-03 1.5967432792e+00 -2.7656404862e+00 1.5967432792e+00 2.7656404862e+00 
18800 5.6373186512e+00 1.2028688558e-03 1.5967046693e+00 -2.7655736120e+00 1.5967046693e+00 2.7655736120e+00 
18900 5.6373187003e+00 1.1737269464e-03 1.5966670023e+00 -2.7655083707e+00 1.5966670023e+00 2.7655083707e+00 
19000 5.6373187514e+00 1.1455609127e-03 1.5966302469e+00 -2.7654447085e+00 1.5966302469e+00 2.7654447085e+00 
19100 5.6373188045e+00 1.1183509238e-03 1.5965943727e+00 -2.7653825725e+00 1.5965943727e+00 2.7653825725e+00 
19200 5.6373188596e+00 1.0920766400e-03 1.5965593498e+00 -2.7653219111e+00 1.5965593498e+00 2.7653219111e+00 
19300 5.6373189165e+00 1.0667172685e-03 1.5965251490e+00 -2.7652626736e+00 1.5965251490e+00 2.7652626736e+00 
19400 5.6373189753e+00 1.0422516171e-03 1.5964917416e+00 -2.7652048103e+00 1.5964917416e+00 2.7652048103e+00 
19500 5.6373190359e+00 1.0186581474e-03 1.5964590998e+00 -2.7651482730e+00 1.5964590998e+00 2.7651482730e+00 
19600 5.6373190982e+00 9.9591502543e-04 1.5964271962e+00 -2.7650930144e+00 1.5964271962e+00 2.7650930144e+00 
19700 5.6373191623e+00 9.7400017108e-04 1.5963960043e+00 -2.7650389885e+00 1.5963960043e+00 2.7650389885e+00 
19800 5.6373192280e+00 9.5289130578e-04 1.5963654982e+00 -2.7649861503e+00 1.5963654982e+00 2.7649861503e+00 
19900 5.6373192953e+00 9.3256599855e-04 1.5963356527e+00 -2.7649344563e+00 1.5963356527e+00 2.7649344563e+00 
20000 5.6373193642e+00 9.1300171043e-04 1.5963064432e+00 -2.7648838640e+00 1.5963064432e+00 2.7648838640e+00 
20100 5.6373194346e+00 8.9417583710e-04 1.5962778459e+00 -2.7648343321e+00 1.5962778459e+00 2.7648343321e+00 
20200 5.6373195065e+00 8.7606574992e-04 1.5962498379e+00 -2.7647858207e+00 1.5962498379e+00 2.7647858207e+00 
20300 5.6373195799e+00 8.5864883519e-04 1.5962223966e+00 -2.7647382910e+00 1.5962223966e+00 2.7647382910e+00 
20400 5.6373196547e+00 8.4190253182e-04 1.5961955004e+00 -2.7646917054e+00 1.5961955004e+00 2.7646917054e+00 
20500 5.6373197308e+00 8.2580436714e-04 1.5961691283e+00 -2.7646460276e+00 1.5961691283e+00 2.7646460276e+00 
20600 5.6373198083e+00 8.1033199121e-04 1.5961432600e+00 -2.7646012225e+00 1.5961432600e+00 2.7646012225e+00 
20700 5.6373198869e+00 7.9546320934e-04 1.5961178760e+00 -2.7645572561e+00 1.5961178760e+00 2.7645572561e+00 
20800 5.6373199668e+00 7.8117601294e-04 1.5960929574e+00 -2.7645140958e+00 1.5960929574e+00 2.7645140958e+00 
20900 5.6373200478e+00 7.6744860875e-04 1.5960684860e+00 -2.7644717100e+00 1.5960684860e+00 2.7644717100e+00 
21000 5.6373201298e+00 7.5425944646e-04 1.5960444442e+00 -2.7644300684e+00 1.5960444442e+00 2.7644300684e+00 
21100 5.6373202128e+00 7.4158724462e-04 1.5960208152e+00 -2.7643891419e+00 1.5960208152e+00 2.7643891419e+00 
21200 5.6373202968e+00 7.2941101505e-04 1.5959975829e+00 -2.7643489023e+00 1.5959975829e+00 2.7643489023e+00 
21300 5.6373203817e+00 7.1771008560e-04 1.5959747317e+00 -2.7643093229e+00 1.5959747317e+00 2.7643093229e+00 
21400 5.6373204673e+00 7.0646412139e-04 1.5959522467e+00 -2.7642703778e+00 1.5959522467e+00 2.7642703778e+00 
21500 5.6373205537e+00 6.9565314454e-04 1.5959301138e+00 -2.7642320424e+00 1.5959301138e+00 2.7642320424e+00 
21600 5.6373206408e+00 6.8525755239e-04 1.5959083192e+00 -2.7641942931e+00 1.5959083192e+00 2.7641942931e+00 
21700 5.6373207285e+00 6.7525813419e-04 1.5958868501e+00 -2.7641571075e+00 1.5958868501e+00 2.7641571075e+00 
21800 5.6373208166e+00 6.6563608649e-04 1.5958656939e+00 -2.7641204639e+00 1.5958656939e+00 2.7641204639e+00 
21900 5.6373209053e+00 6.5637302700e-04 1.5958448389e+00 -2.7640843421e+00 1.5958448389e+00 2.7640843421e+00 
22000 5.6373209943e+00 6.4745100715e-04 1.5958242739e+00 -2.7640487224e+00 1.5958242739e+00 2.7640487224e+00 
22100 5.6373210836e+00 6.3885252329e-04 1.5958039882e+00 -2.7640135865e+00 1.5958039882e+00 2.7640135865e+00 
22200 5.6373211732e+00 6.3056052656e-04 1.5957839716e+00 -2.7639789167e+00 1.5957839716e+00 2.7639789167e+00 
22300 5.6373212630e+00 6.2255843162e-04 1.5957642146e+00 -2.7639446965e+00 1.5957642146e+00 2.7639446965e+00 
22400 5.6373213528e+00 6.1483012399e-04 1.5957447080e+00 -2.7639109102e+00 1.5957447080e+00 2.7639109102e+00 
22500 5.6373214427e+00 6.0735996632e-04 1.5957254434e+00 -2.7638775428e+00 1.5957254434e+00 2.7638775428e+00 
22600 5.6373215326e+00 6.0013280348e-04 1.5957064126e+00 -2.7638445805e+00 1.5957064126e+00 2.7638445805e+00 
22700 5.6373216224e+00 5.9313396654e-04 1.5956876080e+00 -2.7638120100e+00 1.5956876080e+00 2.7638120100e+00 
22800 5.6373217120e+00 5.8634927566e-04 1.5956690225e+00 -2.7637798190e+00 1.5956690225e+00 2.7637798190e+00 
22900 5.6373218015e+00 5.7976504205e-04 1.5956506494e+00 -2.7637479959e+00 1.5956506494e+00 2.7637479959e+00 
23000 5.6373218907e+00 5.7336806877e-04 1.5956324824e+00 -2.7637165297e+00 1.5956324824e+00 2.7637165297e+00 
23100 5.6373219795e+00 5.6714565080e-04 1.5956145156e+00 -2.7636854103e+00 1.5956145156e+00 2.7636854103e+00 
23200 5.6373220680e+00 5.6108557399e-04 1.5955967436e+00 -2.7636546284e+00 1.5955967436e+00 2.7636546284e+00 
23300 5.6373221560e+00 5.5517611334e-04 1.5955791613e+00 -2.7636241750e+00 1.5955791613e+00 2.7636241750e+00 
23400 5.6373222436e+00 5.4940603030e-04 1.5955617641e+00 -2.7635940420e+00 1.5955617641e+00 2.7635940420e+00 
23500 5.6373223307e+00 5.4376456938e-04 1.5955445474e+00 -2.7635642218e+00 1.5955445474e+00 2.7635642218e+00 
23600 5.6373224172e+00 5.3824145402e-04 1.5955275073e+00 -2.7635347076e+00 1.5955275073e+00 2.7635347076e+00 
23700 5.6373225031e+00 5.3282688167e-04 1.5955106402e+00 -2.7635054928e+00 1.5955106402e+00 2.7635054928e+00 
23800 5.6373225883e+00 5.2751151833e-04 1.5954939425e+00 -2.7634765716e+00 1.5954939425e+00 2.7634765716e+00 
23900 5.6373226729e+00 5.2228649235e-04 1.5954774112e+00 -2.7634479386e+00 1.5954774112e+00 2.7634479386e+00 
24000 5.6373227568e+00 5.1714338774e-04 1.5954610435e+00 -2.7634195889e+00 1.5954610435e+00 2.7634195889e+00 
24100 5.6373228400e+00 5.1207423688e-04 1.5954448369e+00 -2.7633915181e+00 1.5954448369e+00 2.7633915181e+00 
24200 5.6373229223e+00 5.0707151273e-04 1.5954287889e+00 -2.7633637222e+00 1.5954287889e+00 2.7633637222e+00 
24300 5.6373230039e+00 5.0212812057e-04 1.5954128975e+00 -2.7633361976e+00 1.5954128975e+00 2.7633361976e+00 
24400 5.6373230847e+00 4.9723738931e-04 1.5953971609e+00 -2.7633089410e+00 1.5953971609e+00 2.7633089410e+00 
24500 5.6373231647e+00 4.9239306239e-04 1.5953815775e+00 -2.7632819496e+00 1.5953815775e+00 2.7632819496e+00 
24600 5.6373232438e+00 4.8758928835e-04 1.5953661457e+00 -2.7632552210e+00 1.5953661457e+00 2.7632552210e+00 
24700 5.6373233220e+00 4.8282061099e-04 1.5953508643e+00 -2.7632287528e+00 1.5953508643e+00 2.7632287528e+00 
24800 5.6373233993e+00 4.7808195933e-04 1.5953357322e+00 -2.7632025432e+00 1.5953357322e+00 2.7632025432e+00 
24900 5.6373234758e+00 4.7336863723e-04 1.5953207485e+00 -2.7631765907e+00 1.5953207485e+00 2.7631765907e+00 
25000 5.6373235513e+00 4.6867631280e-04 1.5953059123e+00 -2.7631508937e+00 1.5953059123e+00 2.7631508937e+00 
25100 5.6373236260e+00 4.6400100760e-04 1.5952912231e+00 -2.7631254513e+00 1.5952912231e+00 2.7631254513e+00 
25200 5.6373236997e+00 4.5933908570e-04 1.5952766803e+00 -2.7631002624e+00 1.5952766803e+00 2.7631002624e+00 
25300 5.6373237725e+00 4.5468724257e-04 1.5952622835e+00 -2.7630753264e+00 1.5952622835e+00 2.7630753264e+00 
25400 5.6373238444e+00 4.5004249379e-04 1.5952480323e+00 -2.7630506427e+00 1.5952480323e+00 2.7630506427e+00 
25500 5.6373239154e+00 4.4540216379e-04 1.5952339266e+00 -2.7630262109e+00 1.5952339266e+00 2.7630262109e+00 
25600 5.6373239854e+00 4.4076387446e-04 1.5952199662e+00 -2.7630020308e+00 1.5952199662e+00 2.7630020308e+00 
25700 5.6373240545e+00 4.3612553368e-04 1.5952061511e+00 -2.7629781023e+00 1.5952061511e+00 2.7629781023e+00 
25800 5.6373241227e+00 4.3148532391e-04 1.5951924813e+00 -2.7629544254e+00 1.5951924813e+00 2.7629544254e+00 
25900 5.6373241899e+00 4.2684169074e-04 1.5951789567e+00 -2.7629310002e+00 1.5951789567e+00 2.7629310002e+00 
26000 5.6373242563e+00 4.2219333147e-04 1.5951655776e+00 -2.7629078269e+00 1.5951655776e+00 2.7629078269e+00 
26100 5.6373243217e+00 4.1753918378e-04 1.5951523441e+00 -2.7628849058e+00 1.5951523441e+00 2.7628849058e+00 
26200 5.6373243862e+00 4.1287841439e-04 1.5951392564e+00 -2.7628622372e+00 1.5951392564e+00 2.7628622372e+00 
26300 5.6373244498e+00 4.0821040787e-04 1.5951263146e+00 -2.7628398214e+00 1.5951263146e+00 2.7628398214e+00 
26400 5.6373245125e+00 4.0353475556e-04 1.5951135191e+00 -2.7628176589e+00 1.5951135191e+00 2.7628176589e+00 
26500 5.6373245744e+00 3.9885124455e-04 1.5951008700e+00 -2.7627957501e+00 1.5951008700e+00 2.7627957501e+00 
26600 5.6373246353e+00 3.9415984685e-04 1.5950883677e+00 -2.7627740953e+00 1.5950883677e+00 2.7627740953e+00 
26700 5.6373246954e+00 3.8946070871e-04 1.5950760122e+00 -2.7627526951e+00 1.5950760122e+00 2.7627526951e+00 
26800 5.6373247546e+00 3.8475414007e-04 1.5950638040e+00 -2.7627315499e+00 1.5950638040e+00 2.7627315499e+00 
26900 5.6373248130e+00 3.8004060423e-04 1.5950517433e+00 -2.7627106601e+00 1.5950517433e+00 2.7627106601e+00 
27000 5.6373248706e+00 3.7532070770e-04 1.5950398302e+00 -2.7626900260e+00 1.5950398302e+00 2.7626900260e+00 
27100 5.6373249272e+00 3.7059519019e-04 1.5950280650e+00 -2.7626696480e+00 1.5950280650e+00 2.7626696480e+00 
27200 5.6373249831e+00 3.6586491495e-04 1.5950164478e+00 -2.7626495264e+00 1.5950164478e+00 2.7626495264e+00 
27300 5.6373250382e+00 3.6113085919e-04 1.5950049788e+00 -2.7626296616e+00 1.5950049788e+00 2.7626296616e+00 
27400 5.6373250924e+00 3.5639410480e-04 1.5949936581e+00 -2.7626100536e+00 1.5949936581e+00 2.7626100536e+00 
27500 5.6373251459e+00 3.5165582933e-04 1.5949824859e+00 -2.7625907027e+00 1.5949824859e+00 2.7625907027e+00 
27600 5.6373251985e+00 3.4691729713e-04 1.5949714620e+00 -2.7625716089e+00 1.5949714620e+00 2.7625716089e+00 
27700 5.6373252504e+00 3.4217985084e-04 1.5949605867e+00 -2.7625527723e+00 1.5949605867e+00 2.7625527723e+00 
27800 5.6373253016e+00 3.3744490306e-04 1.5949498598e+00 -2.7625341927e+00 1.5949498598e+00 2.7625341927e+00 
27900 5.6373253519e+00 3.3271392833e-04 1.5949392813e+00 -2.7625158702e+00 1.5949392813e+00 2.7625158702e+00 
28000 5.6373254015e+00 3.2798845537e-04 1.5949288510e+00 -2.7624978044e+00 1.5949288510e+00 2.7624978044e+00 
28100 5.6373254504e+00 3.2327005953e-04 1.5949185688e+00 -2.7624799951e+00 1.5949185688e+00 2.7624799951e+00 
28200 5.6373254986e+00 3.1856035559e-04 1.5949084344e+00 -2.7624624418e+00 1.5949084344e+00 2.7624624418e+00 
28300 5.6373255460e+00 3.1386099080e-04 1.5948984476e+00 -2.7624451442e+00 1.5948984476e+00 2.7624451442e+00 
28400 5.6373255927e+00 3.0917363820e-04 1.5948886081e+00 -2.7624281017e+00 1.5948886081e+00 2.7624281017e+00 
28500 5.6373256388e+00 3.0449999018e-04 1.5948789155e+00 -2.7624113135e+00 1.5948789155e+00 2.7624113135e+00 
28600 5.6373256841e+00 2.9984175235e-04 1.5948693693e+00 -2.7623947791e+00 1.5948693693e+00 2.7623947791e+00 
28700 5.6373257287e+00 2.9520063770e-04 1.5948599691e+00 -2.7623784975e+00 1.5948599691e+00 2.7623784975e+00 
28800 5.6373257727e+00 2.9057836102e-04 1.5948507144e+00 -2.7623624678e+00 1.5948507144e+00 2.7623624678e+00 
28900 5.6373258160e+00 2.8597663354e-04 1.5948416045e+00 -2.7623466890e+00 1.5948416045e+00 2.7623466890e+00 
29000 5.6373258586e+00 2.8139715792e-04 1.5948326388e+00 -2.7623311600e+00 1.5948326388e+00 2.7623311600e+00 
29100 5.6373259006e+00 2.7684162346e-04 1.5948238167e+00 -2.7623158796e+00 1.5948238167e+00 2.7623158796e+00 
29200 5.6373259419e+00 2.7231170160e-04 1.5948151373e+00 -2.7623008465e+00 1.5948151373e+00 2.7623008465e+00 
29300 5.6373259826e+00 2.6780904166e-04 1.5948065999e+00 -2.7622860593e+00 1.5948065999e+00 2.7622860593e+00 
29400 5.6373260227e+00 2.6333526686e-04 1.5947982036e+00 -2.7622715165e+00 1.5947982036e+00 2.7622715165e+00 
29500 5.6373260622e+00 2.5889197057e-04 1.5947899476e+00 -2.7622572166e+00 1.5947899476e+00 2.7622572166e+00 
29600 5.6373261010e+00 2.5448071284e-04 1.5947818308e+00 -2.7622431579e+00 1.5947818308e+00 2.7622431579e+00 
29700 5.6373261392e+00 2.5010301715e-04 1.5947738523e+00 -2.7622293387e+00 1.5947738523e+00 2.7622293387e+00 
29800 5.6373261769e+00 2.4576036743e-04 1.5947660109e+00 -2.7622157571e+00 1.5947660109e+00 2.7622157571e+00 
29900 5.6373262139e+00 2.4145420527e-04 1.5947583057e+00 -2.7622024113e+00 1.5947583057e+00 2.7622024113e+00 
30000 5.6373262503e+00 2.3718592743e-04 1.5947507355e+00 -2.7621892993e+00 1.5947507355e+00 2.7621892993e+00 
30100 5.6373262862e+00 2.3295688350e-04 1.5947432990e+00 -2.7621764189e+00 1.5947432990e+00 2.7621764189e+00 
30200 5.6373263215e+00 2.2876837382e-04 1.5947359951e+00 -2.7621637682e+00 1.5947359951e+00 2.7621637682e+00 
30300 5.6373263562e+00 2.2462164762e-04 1.5947288225e+00 -2.7621513449e+00 1.5947288225e+00 2.7621513449e+00 
30400 5.6373263904e+00 2.2051790138e-04 1.5947217799e+00 -2.7621391467e+00 1.5947217799e+00 2.7621391467e+00 
30500 5.6373264240e+00 2.1645827732e-04 1.5947148659e+00 -2.7621271713e+00 1.5947148659e+00 2.7621271713e+00 
30600 5.6373264571e+00 2.1244386215e-04 1.5947080792e+00 -2.7621154164e+00 1.5947080792e+00 2.7621154164e+00 
30700 5.6373264896e+00 2.0847568601e-04 1.5947014183e+00 -2.7621038794e+00 1.5947014183e+00 2.7621038794e+00 
30800 5.6373265216e+00 2.0455472157e-04 1.5946948818e+00 -2.7620925578e+00 1.5946948818e+00 2.7620925578e+00 
30900 5.6373265531e+00 2.0068188330e-04 1.5946884682e+00 -2.7620814491e+00 1.5946884682e+00 2.7620814491e+00 
31000 5.6373265841e+00 1.9685802693e-04 1.5946821760e+00 -2.7620705507e+00 1.5946821760e+00 2.7620705507e+00 
31100 5.6373266145e+00 1.9308394904e-04 1.5946760037e+00 -2.7620598600e+00 1.5946760037e+00 2.7620598600e+00 
31200 5.6373266445e+00 1.8936038687e-04 1.5946699496e+00 -2.7620493741e+00 1.5946699496e+00 2.7620493741e+00 
31300 5.6373266739e+00 1.8568801820e-04 1.5946640124e+00 -2.7620390904e+00 1.5946640124e+00 2.7620390904e+00 
31400 5.6373267028e+00 1.8206746142e-04 1.5946581902e+00 -2.7620290061e+00 1.5946581902e+00 2.7620290061e+00 
31500 5.6373267313e+00 1.7849927574e-04 1.5946524815e+00 -2.7620191184e+00 1.5946524815e+00 2.7620191184e+00 
31600 5.6373267593e+00 1.7498396150e-04 1.5946468847e+00 -2.7620094245e+00 1.5946468847e+00 2.7620094245e+00 
31700 5.6373267868e+00 1.7152196060e-04 1.5946413981e+00 -2.7619999214e+00 1.5946413981e+00 2.7619999214e+00 
31800 5.6373268138e+00 1.6811365713e-04 1.5946360201e+00 -2.7619906063e+00 1.5946360201e+00 2.7619906063e+00 
31900 5.6373268404e+00 1.6475937794e-04 1.5946307488e+00 -2.7619814763e+00 1.5946307488e+00 2.7619814763e+00 
32000 5.6373268665e+00 1.6145939350e-04 1.5946255828e+00 -2.7619725284e+00 1.5946255828e+00 2.7619725284e+00 
32100 5.6373268921e+00 1.5821391874e-04 1.5946205202e+00 -2.7619637597e+00 1.5946205202e+00 2.7619637597e+00 
32200 5.6373269173e+00 1.5502311400e-04 1.5946155593e+00 -2.7619551673e+00 1.5946155593e+00 2.7619551673e+00 
32300 5.6373269421e+00 1.5188708611e-04 1.5946106985e+00 -2.7619467481e+00 1.5946106985e+00 2.7619467481e+00 
32400 5.6373269665e+00 1.4880588947e-04 1.5946059360e+00 -2.7619384991e+00 1.5946059360e+00 2.7619384991e+00 
32500 5.6373269904e+00 1.4577952729e-04 1.5946012701e+00 -2.7619304175e+00 1.5946012701e+00 2.7619304175e+00 
32600 5.6373270139e+00 1.4280795281e-04 1.5945966990e+00 -2.7619225003e+00 1.5945966990e+00 2.7619225003e+00 
32700 5.6373270370e+00 1.3989107067e-04 1.5945922212e+00 -2.7619147444e+00 1.5945922212e+00 2.7619147444e+00 
32800 5.6373270597e+00 1.3702873825e-04 1.5945878347e+00 -2.7619071469e+00 1.5945878347e+00 2.7619071469e+00 
32900 5.6373270820e+00 1.3422076710e-04 1.5945835381e+00 -2.7618997048e+00 1.5945835381e+00 2.7618997048e+00 
33000 5.6373271039e+00 1.3146692445e-04 1.5945793294e+00 -2.7618924152e+00 1.5945793294e+00 2.7618924152e+00 
33100 5.6373271254e+00 1.2876693468e-04 1.5945752071e+00 -2.7618852752e+00 1.5945752071e+00 2.7618852752e+00 
33200 5.6373271465e+00 1.2612048088e-04 1.5945711694e+00 -2.7618782818e+00 1.5945711694e+00 2.7618782818e+00 
33300 5.6373271672e+00 1.2352720644e-04 1.5945672148e+00 -2.7618714321e+00 1.5945672148e+00 2.7618714321e+00 
33400 5.6373271876e+00 1.2098671663e-04 1.5945633414e+00 -2.7618647232e+00 1.5945633414e+00 2.7618647232e+00 
33500 5.6373272076e+00 1.1849858022e-04 1.5945595477e+00 -2.7618581523e+00 1.5945595477e+00 2.7618581523e+00 
33600 5.6373272273e+00 1.1606233114e-04 1.5945558320e+00 -2.7618517164e+00 1.5945558320e+00 2.7618517164e+00 
33700 5.6373272466e+00 1.1367747010e-04 1.5945521926e+00 -2.7618454129e+00 1.5945521926e+00 2.7618454129e+00 
33800 5.6373272655e+00 1.1134346626e-04 1.5945486281e+00 -2.7618392389e+00 1.5945486281e+00 2.7618392389e+00 
33900 5.6373272841e+00 1.0905975891e-04 1.5945451367e+00 -2.7618331917e+00 1.5945451367e+00 2.7618331917e+00 
34000 5.6373273024e+00 1.0682575907e-04 1.5945417169e+00 -2.7618272685e+00 1.5945417169e+00 2.7618272685e+00 
34100 5.6373273204e+00 1.0464085123e-04 1.5945383672e+00 -2.7618214666e+00 1.5945383672e+00 2.7618214666e+00 
34200 5.6373273380e+00 1.0250439491e-04 1.5945350860e+00 -2.7618157833e+00 1.5945350860e+00 2.7618157833e+00 
34300 5.6373273553e+00 1.0041572637e-04 1.5945318717e+00 -2.7618102161e+00 1.5945318717e+00 2.7618102161e+00 
34400 5.6373273723e+00 9.8374160207e-05 1.5945287230e+00 -2.7618047623e+00 1.5945287230e+00 2.7618047623e+00 
34500 5.6373273890e+00 9.6378990973e-05 1.5945256382e+00 -2.7617994194e+00 1.5945256382e+00 2.7617994194e+00 
34600 5.6373274053e+00 9.4429494757e-05 1.5945226160e+00 -2.7617941848e+00 1.5945226160e+00 2.7617941848e+00 
34700 5.6373274214e+00 9.2524930766e-05 1.5945196550e+00 -2.7617890561e+00 1.5945196550e+00 2.7617890561e+00 
34800 5.6373274372e+00 9.0664542871e-05 1.5945167536e+00 -2.7617840308e+00 1.5945167536e+00 2.7617840308e+00 
34900 5.6373274527e+00 8.8847561127e-05 1.5945139106e+00 -2.7617791066e+00 1.5945139106e+00 2.7617791066e+00 
35000 5.6373274679e+00 8.7073203272e-05 1.5945111246e+00 -2.7617742810e+00 1.5945111246e+00 2.7617742810e+00 
35100 5.6373274829e+00 8.5340676179e-05 1.5945083942e+00 -2.7617695518e+00 1.5945083942e+00 2.7617695518e+00 
35200 5.6373274975e+00 8.3649177297e-05 1.5945057181e+00 -2.7617649167e+00 1.5945057181e+00 2.7617649167e+00 
35300 5.6373275119e+00 8.1997896054e-05 1.5945030951e+00 -2.7617603735e+00 1.5945030951e+00 2.7617603735e+00 
35400 5.6373275261e+00 8.0386015208e-05 1.5945005238e+00 -2.7617559199e+00 1.5945005238e+00 2.7617559199e+00 
35500 5.6373275399e+00 7.8812712188e-05 1.5944980031e+00 -2.7617515539e+00 1.5944980031e+00 2.7617515539e+00 
35600 5.6373275536e+00 7.7277160377e-05 1.5944955317e+00 -2.7617472733e+00 1.5944955317e+00 2.7617472733e+00 
35700 5.6373275669e+00 7.5778530361e-05 1.5944931084e+00 -2.7617430761e+00 1.5944931084e+00 2.7617430761e+00 
35800 5.6373275801e+00 7.4315991152e-05 1.5944907322e+00 -2.7617389603e+00 1.5944907322e+00 2.7617389603e+00 
35900 5.6373275929e+00 7.2888711349e-05 1.5944884018e+00 -2.7617349240e+00 1.5944884018e+00 2.7617349240e+00 
36000 5.6373276056e+00 7.1495860275e-05 1.5944861161e+00 -2.7617309651e+00 1.5944861161e+00 2.7617309651e+00 
36100 5.6373276180e+00 7.0136609064e-05 1.5944838742e+00 -2.7617270819e+00 1.5944838742e+00 2.7617270819e+00 
36200 5.6373276304e+00 7.0711778554e-05 1.5944838742e+00 -2.7617270819e+00 1.5944838742e+00 2.7617270819e+00 
36300 5.6373276424e+00 6.9376970050e-05 1.5944816568e+00 -2.7617232413e+00 1.5944816568e+00 2.7617232413e+00 
36400 5.6373276543e+00 6.9955268249e-05 1.5944816568e+00 -2.7617232413e+00 1.5944816568e+00 2.7617232413e+00 
36500 5.6373276660e+00 7.0540593995e-05 1.5944816568e+00 -2.7617232413e+00 1.5944816568e+00 2.7617232413e+00 
36600 5.6373276775e+00 7.1132870460e-05 1.5944816568e+00 -2.7617232413e+00 1.5944816568e+00 2.7617232413e+00 
36700 5.6373276886e+00 6.9803342812e-05 1.5944794262e+00 -2.7617193778e+00 1.5944794262e+00 2.7617193778e+00 
36800 5.6373276997e+00 7.0397714926e-05 1.5944794262e+00 -2.7617193778e+00 1.5944794262e+00 2.7617193778e+00 
36900 5.6373277105e+00 7.0998455328e-05 1.5944794262e+00 -2.7617193778e+00 1.5944794262e+00 2.7617193778e+00 
37000 5.6373277210e+00 6.9680389691e-05 1.5944771998e+00 -2.7617155216e+00 1.5944771998e+00 2.7617155216e+00 
37100 5.6373277315e+00 7.0281879684e-05 1.5944771998e+00 -2.7617155216e+00 1.5944771998e+00 2.7617155216e+00 
37200 5.6373277417e+00 7.0888964290e-05 1.5944771998e+00 -2.7617155216e+00 1.5944771998e+00 2.7617155216e+00 
37300 5.6373277516e+00 6.9579388929e-05 1.5944749768e+00 -2.7617116713e+00 1.5944749768e+00 2.7617116713e+00 
37400 5.6373277615e+00 7.0185539677e-05 1.5944749768e+00 -2.7617116713e+00 1.5944749768e+00 2.7617116713e+00 
37500 5.6373277713e+00 7.0796368206e-05 1.5944749768e+00 -2.7617116713e+00 1.5944749768e+00 2.7617116713e+00 
37600 5.6373277806e+00 6.9492095303e-05 1.5944727568e+00 -2.7617078260e+00 1.5944727568e+00 2.7617078260e+00 
37700 5.6373277900e+00 7.0100062308e-05 1.5944727568e+00 -2.7617078260e+00 1.5944727568e+00 2.7617078260e+00 
37800 5.6373277992e+00 7.0711690873e-05 1.5944727568e+00 -2.7617078260e+00 1.5944727568e+00 2.7617078260e+00 
37900 5.6373278080e+00 6.9409474768e-05 1.5944705394e+00 -2.7617039854e+00 1.5944705394e+00 2.7617039854e+00 
38000 5.6373278168e+00 7.0016154447e-05 1.5944705394e+00 -2.7617039854e+00 1.5944705394e+00 2.7617039854e+00 
38100 5.6373278255e+00 7.0625419385e-05 1.5944705394e+00 -2.7617039854e+00 1.5944705394e+00 2.7617039854e+00 
38200 5.6373278341e+00 7.1236959455e-05 1.5944705394e+00 -2.7617039854e+00 1.5944705394e+00 2.7617039854e+00 
38300 5.6373278422e+00 6.9919006086e-05 1.5944683055e+00 -2.7617001162e+00 1.5944683055e+00 2.7617001162e+00 
38400 5.6373278504e+00 7.0522676139e-05 1.5944683055e+00 -2.7617001162e+00 1.5944683055e+00 2.7617001162e+00 
38500 5.6373278585e+00 7.1127490201e-05 1.5944683055e+00 -2.7617001162e+00 1.5944683055e+00 2.7617001162e+00 
38600 5.6373278662e+00 6.9804649152e-05 1.5944660751e+00 -2.7616962530e+00 1.5944660751e+00 2.7616962530e+00 
38700 5.6373278740e+00 7.0399360011e-05 1.5944660751e+00 -2.7616962530e+00 1.5944660751e+00 2.7616962530e+00 
38800 5.6373278816e+00 7.0994101337e-05 1.5944660751e+00 -2.7616962530e+00 1.5944660751e+00 2.7616962530e+00 
38900 5.6373278889e+00 6.9663699626e-05 1.5944638488e+00 -2.7616923970e+00 1.5944638488e+00 2.7616923970e+00 
39000 5.6373278962e+00 7.0246168877e-05 1.5944638488e+00 -2.7616923970e+00 1.5944638488e+00 2.7616923970e+00 
39100 5.6373279034e+00 7.0827596997e-05 1.5944638488e+00 -2.7616923970e+00 1.5944638488e+00 2.7616923970e+00 
39200 5.6373279103e+00 6.9487340263e-05 1.5944616278e+00 -2.7616885500e+00 1.5944616278e+00 2.7616885500e+00 
39300 5.6373279172e+00 7.0054437659e-05 1.5944616278e+00 -2.7616885500e+00 1.5944616278e+00 2.7616885500e+00 
39400 5.6373279240e+00 7.0619484406e-05 1.5944616278e+00 -2.7616885500e+00 1.5944616278e+00 2.7616885500e+00 
39500 5.6373279307e+00 7.1182216581e-05 1.5944616278e+00 -2.7616885500e+00 1.5944616278e+00 2.7616885500e+00 
39600 5.6373279371e+00 6.9812396702e-05 1.5944593956e+00 -2.7616846838e+00 1.5944593956e+00 2.7616846838e+00 
39700 5.6373279435e+00 7.0358269548e-05 1.5944593956e+00 -2.7616846838e+00 1.5944593956e+00 2.7616846838e+00 
39800 5.6373279498e+00 7.0900897457e-05 1.5944593956e+00 -2.7616846838e+00 1.5944593956e+00 2.7616846838e+00 
39900 5.6373279558e+00 6.9517696635e-05 1.5944571722e+00 -2.7616808328e+00 1.5944571722e+00 2.7616808328e+00 
40000 5.6373279619e+00 7.0041744542e-05 1.5944571722e+00 -2.7616808328e+00 1.5944571722e+00 2.7616808328e+00 
40100 5.6373279679e+00 7.0561714574e-05 1.5944571722e+00 -2.7616808328e+00 1.5944571722e+00 2.7616808328e+00 
40200 5.6373279737e+00 7.1077408060e-05 1.5944571722e+00 -2.7616808328e+00 1.5944571722e+00 2.7616808328e+00 
40300 5.6373279793e+00 6.9661486982e-05 1.5944549433e+00 -2.7616769723e+00 1.5944549433e+00 2.7616769723e+00 
40400 5.6373279849e+00 7.0156620475e-05 1.5944549433e+00 -2.7616769723e+00 1.5944549433e+00 2.7616769723e+00 
40500 5.6373279904e+00 7.0646757950e-05 1.5944549433e+00 -2.7616769723e+00 1.5944549433e+00 2.7616769723e+00 
40600 5.6373279959e+00 7.1131740881e-05 1.5944549433e+00 -2.7616769723e+00 1.5944549433e+00 2.7616769723e+00 
40700 5.6373280010e+00 6.9682792960e-05 1.5944527127e+00 -2.7616731087e+00 1.5944527127e+00 2.7616731087e+00 
40800 5.6373280062e+00 7.0145574992e-05 1.5944527127e+00 -2.7616731087e+00 1.5944527127e+00 2.7616731087e+00 
40900 5.6373280113e+00 7.0602607839e-05 1.5944527127e+00 -2.7616731087e+00 1.5944527127e+00 2.7616731087e+00 
41000 5.6373280164e+00 7.1053775726e-05 1.5944527127e+00 -2.7616731087e+00 1.5944527127e+00 2.7616731087e+00 
41100 5.6373280211e+00 6.9572452456e-05 1.5944504846e+00 -2.7616692495e+00 1.5944504846e+00 2.7616692495e+00 
41200 5.6373280259e+00 7.0000140856e-05 1.5944504846e+00 -2.7616692495e+00 1.5944504846e+00 2.7616692495e+00 
41300 5.6373280307e+00 7.0421499686e-05 1.5944504846e+00 -2.7616692495e+00 1.5944504846e+00 2.7616692495e+00 
41400 5.6373280353e+00 7.0836456623e-05 1.5944504846e+00 -2.7616692495e+00 1.5944504846e+00 2.7616692495e+00 
41500 5.6373280397e+00 6.9324313664e-05 1.5944482633e+00 -2.7616654020e+00 1.5944482633e+00 2.7616654020e+00 
41600 5.6373280442e+00 6.9714882364e-05 1.5944482633e+00 -2.7616654020e+00 1.5944482633e+00 2.7616654020e+00 
41700 5.6373280486e+00 7.0098714555e-05 1.5944482633e+00 -2.7616654020e+00 1.5944482633e+00 2.7616654020e+00 
41800 5.6373280529e+00 7.0475780469e-05 1.5944482633e+00 -2.7616654020e+00 1.5944482633e+00 2.7616654020e+00 
41900 5.6373280572e+00 7.0846053652e-05 1.5944482633e+00 -2.7616654020e+00 1.5944482633e+00 2.7616654020e+00 
42000 5.6373280611e+00 6.9288613198e-05 1.5944460416e+00 -2.7616615540e+00 1.5944460416e+00 2.7616615540e+00 
42100 5.6373280652e+00 6.9633851409e-05 1.5944460416e+00 -2.7616615540e+00 1.5944460416e+00 2.7616615540e+00 
42200 5.6373280692e+00 6.9972097566e-05 1.5944460416e+00 -2.7616615540e+00 1.5944460416e+00 2.7616615540e+00 
42300 5.6373280731e+00 7.0303365974e-05 1.5944460416e+00 -2.7616615540e+00 1.5944460416e+00 2.7616615540e+00 
42400 5.6373280770e+00 7.0627673622e-05 1.5944460416e+00 -2.7616615540e+00 1.5944460416e+00 2.7616615540e+00 
42500 5.6373280808e+00 7.0945040181e-05 1.5944460416e+00 -2.7616615540e+00 1.5944460416e+00 2.7616615540e+00 
42600 5.6373280843e+00 6.9331897000e-05 1.5944438168e+00 -2.7616577006e+00 1.5944438168e+00 2.7616577006e+00 
42700 5.6373280879e+00 6.9624051811e-05 1.5944438168e+00 -2.7616577006e+00 1.5944438168e+00 2.7616577006e+00 
42800 5.6373280915e+00 6.9909199930e-05 1.5944438168e+00 -2.7616577006e+00 1.5944438168e+00 2.7616577006e+00 
42900 5.6373280950e+00 7.0187398644e-05 1.5944438168e+00 -2.7616577006e+00 1.5944438168e+00 2.7616577006e+00 
43000 5.6373280984e+00 7.0458706963e-05 1.5944438168e+00 -2.7616577006e+00 1.5944438168e+00 2.7616577006e+00 
43100 5.6373281018e+00 7.0723185596e-05 1.5944438168e+00 -2.7616577006e+00 1.5944438168e+00 2.7616577006e+00 
43200 5.6373281049e+00 6.9063311337e-05 1.5944415990e+00 -2.7616538593e+00 1.5944415990e+00 2.7616538593e+00 
43300 5.6373281082e+00 6.9302955872e-05 1.5944415990e+00 -2.7616538593e+00 1.5944415990e+00 2.7616538593e+00 
43400 5.6373281114e+00 6.9535822196e-05 1.5944415990e+00 -2.7616538593e+00 1.5944415990e+00 2.7616538593e+00 
43500 5.6373281145e+00 6.9762004121e-05 1.5944415990e+00 -2.7616538593e+00 1.5944415990e+00 2.7616538593e+00 
43600 5.6373281176e+00 6.9981596002e-05 1.5944415990e+00 -2.7616538593e+00 1.5944415990e+00 2.7616538593e+00 
43700 5.6373281206e+00 7.0194692672e-05 1.5944415990e+00 -2.7616538593e+00 1.5944415990e+00 2.7616538593e+00 
43800 5.6373281235e+00 7.0401389378e-05 1.5944415990e+00 -2.7616538593e+00 1.5944415990e+00 2.7616538593e+00 
43900 5.6373281264e+00 7.0601781725e-05 1.5944415990e+00 -2.7616538593e+00 1.5944415990e+00 2.7616538593e+00 
44000 5.6373281293e+00 7.0795965614e-05 1.5944415990e+00 -2.7616538593e+00 1.5944415990e+00 2.7616538593e+00 
44100 5.6373281319e+00 6.9064466254e-05 1.5944393790e+00 -2.7616500140e+00 1.5944393790e+00 2.7616500140e+00 
44200 5.6373281346e+00 6.9235147169e-05 1.5944393790e+00 -2.7616500140e+00 1.5944393790e+00 2.7616500140e+00 
44300 5.6373281373e+00 6.9399767957e-05 1.5944393790e+00 -2.7616500140e+00 1.5944393790e+00 2.7616500140e+00 
44400 5.6373281400e+00 6.9558451895e-05 1.5944393790e+00 -2.7616500140e+00 1.5944393790e+00 2.7616500140e+00 
44500 5.6373281426e+00 6.9711321340e-05 1.5944393790e+00 -2.7616500140e+00 1.5944393790e+00 2.7616500140e+00 
44600 5.6373281451e+00 6.9858497655e-05 1.5944393790e+00 -2.7616500140e+00 1.5944393790e+00 2.7616500140e+00 
44700 5.6373281476e+00 7.0000101152e-05 1.5944393790e+00 -2.7616500140e+00 1.5944393790e+00 2.7616500140e+00 
44800 5.6373281500e+00 7.0136251032e-05 1.5944393790e+00 -2.7616500140e+00 1.5944393790e+00 2.7616500140e+00 
44900 5.6373281524e+00 7.0267065329e-05 1.5944393790e+00 -2.7616500140e+00 1.5944393790e+00 2.7616500140e+00 
45000 5.6373281548e+00 7.0392660862e-05 1.5944393790e+00 -2.7616500140e+00 1.5944393790e+00 2.7616500140e+00 
45100 5.6373281571e+00 7.0513153179e-05 1.5944393790e+00 -2.7616500140e+00 1.5944393790e+00 2.7616500140e+00 
45200 5.6373281594e+00 7.0628656519e-05 1.5944393790e+00 -2.7616500140e+00 1.5944393790e+00 2.7616500140e+00 
45300 5.6373281616e+00 7.0739283770e-05 1.5944393790e+00 -2.7616500140e+00 1.5944393790e+00 2.7616500140e+00 
45400 5.6373281636e+00 6.8927097271e-05 1.5944371607e+00 -2.7616461717e+00 1.5944371607e+00 2.7616461717e+00 
45500 5.6373281658e+00 6.9016940466e-05 1.5944371607e+00 -2.7616461717e+00 1.5944371607e+00 2.7616461717e+00 
45600 5.6373281679e+00 6.9102097258e-05 1.5944371607e+00 -2.7616461717e+00 1.5944371607e+00 2.7616461717e+00 
45700 5.6373281699e+00 6.9182701520e-05 1.5944371607e+00 -2.7616461717e+00 1.5944371607e+00 2.7616461717e+00 
45800 5.6373281720e+00 6.9258884679e-05 1.5944371607e+00 -2.7616461717e+00 1.5944371607e+00 2.7616461717e+00 
45900 5.6373281740e+00 6.9330775675e-05 1.5944371607e+00 -2.7616461717e+00 1.5944371607e+00 2.7616461717e+00 
46000 5.6373281759e+00 6.9398500936e-05 1.5944371607e+00 -2.7616461717e+00 1.5944371607e+00 2.7616461717e+00 
46100 5.6373281778e+00 6.9462184349e-05 1.5944371607e+00 -2.7616461717e+00 1.5944371607e+00 2.7616461717e+00 
46200 5.6373281797e+00 6.9521947242e-05 1.5944371607e+00 -2.7616461717e+00 1.5944371607e+00 2.7616461717e+00 
46300 5.6373281816e+00 6.9577908367e-05 1.5944371607e+00 -2.7616461717e+00 1.5944371607e+00 2.7616461717e+00 
46400 5.6373281834e+00 6.9630183895e-05 1.5944371607e+00 -2.7616461717e+00 1.5944371607e+00 2.7616461717e+00 
46500 5.6373281852e+00 6.9678887397e-05 1.5944371607e+00 -2.7616461717e+00 1.5944371607e+00 2.7616461717e+00 
46600 5.6373281869e+00 6.9724129849e-05 1.5944371607e+00 -2.7616461717e+00 1.5944371607e+00 2.7616461717e+00 
46700 5.6373281886e+00 6.9766019636e-05 1.5944371607e+00 -2.7616461717e+00 1.5944371607e+00 2.7616461717e+00 
46800 5.6373281903e+00 6.9804662545e-05 1.5944371607e+00 -2.7616461717e+00 1.5944371607e+00 2.7616461717e+00 
46900 5.6373281920e+00 6.9840161783e-05 1.5944371607e+00 -2.7616461717e+00 1.5944371607e+00 2.7616461717e+00 
47000 5.6373281936e+00 6.9872617981e-05 1.5944371607e+00 -2.7616461717e+00 1.5944371607e+00 2.7616461717e+00 
47100 5.6373281952e+00 6.9902129215e-05 1.5944371607e+00 -2.7616461717e+00 1.5944371607e+00 2.7616461717e+00 
47200 5.6373281968e+00 6.9928791014e-05 1.5944371607e+00 -2.7616461717e+00 1.5944371607e+00 2.7616461717e+00 
47300 5.6373281983e+00 6.9952696388e-05 1.5944371607e+00 -2.7616461717e+00 1.5944371607e+00 2.7616461717e+00 
47400 5.6373281998e+00 6.9973935846e-05 1.5944371607e+00 -2.7616461717e+00 1.5944371607e+00 2.7616461717e+00 
47500 5.6373282013e+00 6.9992597420e-05 1.5944371607e+00 -2.7616461717e+00 1.5944371607e+00 2.7616461717e+00 
47600 5.6373282028e+00 7.0008766697e-05 1.5944371607e+00 -2.7616461717e+00 1.5944371607e+00 2.7616461717e+00 
47700 5.6373282042e+00 7.0022526844e-05 1.5944371607e+00 -2.7616461717e+00 1.5944371607e+00 2.7616461717e+00 
47800 5.6373282056e+00 7.0033958638e-05 1.5944371607e+00 -2.7616461717e+00 1.5944371607e+00 2.7616461717e+00 
47900 5.6373282070e+00 7.0043140504e-05 1.5944371607e+00 -2.7616461717e+00 1.5944371607e+00 2.7616461717e+00 
48000 5.6373282083e+00 7.0050148548e-05 1.5944371607e+00 -2.7616461717e+00 1.5944371607e+00 2.7616461717e+00 
48100 5.6373282096e+00 7.0055056591e-05 1.5944371607e+00 -2.7616461717e+00 1.5944371607e+00 2.7616461717e+00 
48200 5.6373282109e+00 7.0057936210e-05 1.5944371607e+00 -2.7616461717e+00 1.5944371607e+00 2.7616461717e+00 
48300 5.6373282122e+00 7.0058856776e-05 1.5944371607e+00 -2.7616461717e+00 1.5944371607e+00 2.7616461717e+00 
48400 5.6373282135e+00 7.0057885492e-05 1.5944371607e+00 -2.7616461717e+00 1.5944371607e+00 2.7616461717e+00 
48500 5.6373282147e+00 7.0055087439e-05 1.5944371607e+00 -2.7616461717e+00 1.5944371607e+00 2.7616461717e+00 
48600 5.6373282159e+00 7.0050525617e-05 1.5944371607e+00 -2.7616461717e+00 1.5944371607e+00 2.7616461717e+00 
48700 5.6373282171e+00 7.0044260987e-05 1.5944371607e+00 -2.7616461717e+00 1.5944371607e+00 2.7616461717e+00 
48800 5.6373282183e+00 7.0036352514e-05 1.5944371607e+00 -2.7616461717e+00 1.5944371607e+00 2.7616461717e+00 
48900 5.6373282194e+00 7.0026857215e-05 1.5944371607e+00 -2.7616461717e+00 1.5944371607e+00 2.7616461717e+00 
49000 5.6373282206e+00 7.0015830200e-05 1.5944371607e+00 -2.7616461717e+00 1.5944371607e+00 2.7616461717e+00 
49100 5.6373282217e+00 7.0003324725e-05 1.5944371607e+00 -2.7616461717e+00 1.5944371607e+00 2.7616461717e+00 
49200 5.6373282227e+00 6.9989392228e-05 1.5944371607e+00 -2.7616461717e+00 1.5944371607e+00 2.7616461717e+00 
49300 5.6373282238e+00 6.9974082382e-05 1.5944371607e+00 -2.7616461717e+00 1.5944371607e+00 2.7616461717e+00 
49400 5.6373282249e+00 6.9957443141e-05 1.5944371607e+00 -2.7616461717e+00 1.5944371607e+00 2.7616461717e+00 
49500 5.6373282259e+00 6.9939520782e-05 1.5944371607e+00 -2.7616461717e+00 1.5944371607e+00 2.7616461717e+00 
49600 5.6373282269e+00 6.9920359955e-05 1.5944371607e+00 -2.7616461717e+00 1.5944371607e+00 2.7616461717e+00 
49700 5.6373282279e+00 6.9900003730e-05 1.5944371607e+00 -2.7616461717e+00 1.5944371607e+00 2.7616461717e+00 
49800 5.6373282289e+00 6.9878493641e-05 1.5944371607e+00 -2.7616461717e+00 1.5944371607e+00 2.7616461717e+00 
49900 5.6373282298e+00 6.9855869731e-05 1.5944371607e+00 -2.7616461717e+00 1.5944371607e+00 2.7616461717e+00 
50000 5.6373282308e+00 6.9832170604e-05 1.5944371607e+00 -2.7616461717e+00 1.5944371607e+00 2.7616461717e+00 
50100 5.6373282317e+00 6.9807433459e-05 1.5944371607e+00 -2.7616461717e+00 1.5944371607e+00 2.7616461717e+00 
50200 5.6373282326e+00 6.9781694146e-05 1.5944371607e+00 -2.7616461717e+00 1.5944371607e+00 2.7616461717e+00 
50300 5.6373282335e+00 6.9754987205e-05 1.5944371607e+00 -2.7616461717e+00 1.5944371607e+00 2.7616461717e+00 
50400 5.6373282344e+00 6.9727345909e-05 1.5944371607e+00 -2.7616461717e+00 1.5944371607e+00 2.7616461717e+00 
50500 5.6373282352e+00 6.9698802313e-05 1.5944371607e+00 -2.7616461717e+00 1.5944371607e+00 2.7616461717e+00 
50600 5.6373282361e+00 6.9669387287e-05 1.5944371607e+00 -2.7616461717e+00 1.5944371607e+00 2.7616461717e+00 
50700 5.6373282369e+00 6.9639130570e-05 1.5944371607e+00 -2.7616461717e+00 1.5944371607e+00 2.7616461717e+00 
50800 5.6373282377e+00 6.9608060801e-05 1.5944371607e+00 -2.7616461717e+00 1.5944371607e+00 2.7616461717e+00 
50900 5.6373282385e+00 6.9576205567e-05 1.5944371607e+00 -2.7616461717e+00 1.5944371607e+00 2.7616461717e+00 
51000 5.6373282393e+00 6.9543591437e-05 1.5944371607e+00 -2.7616461717e+00 1.5944371607e+00 2.7616461717e+00 
51100 5.6373282401e+00 6.9510244007e-05 1.5944371607e+00 -2.7616461717e+00 1.5944371607e+00 2.7616461717e+00 
51200 5.6373282408e+00 6.9476187934e-05 1.5944371607e+00 -2.7616461717e+00 1.5944371607e+00 2.7616461717e+00 
51300 5.6373282416e+00 6.9441446977e-05 1.5944371607e+00 -2.7616461717e+00 1.5944371607e+00 2.7616461717e+00 
51400 5.6373282423e+00 6.9406044029e-05 1.5944371607e+00 -2.7616461717e+00 1.5944371607e+00 2.7616461717e+00 
51500 5.6373282430e+00 6.9370001159e-05 1.5944371607e+00 -2.7616461717e+00 1.5944371607e+00 2.7616461717e+00 
51600 5.6373282437e+00 6.9333339641e-05 1.5944371607e+00 -2.7616461717e+00 1.5944371607e+00 2.7616461717e+00 
51700 5.6373282444e+00 6.9296079992e-05 1.5944371607e+00 -2.7616461717e+00 1.5944371607e+00 2.7616461717e+00 
51800 5.6373282451e+00 6.9258242002e-05 1.5944371607e+00 -2.7616461717e+00 1.5944371607e+00 2.7616461717e+00 
51900 5.6373282458e+00 6.9219844771e-05 1.5944371607e+00 -2.7616461717e+00 1.5944371607e+00 2.7616461717e+00 
52000 5.6373282464e+00 6.9180906738e-05 1.5944371607e+00 -2.7616461717e+00 1.5944371607e+00 2.7616461717e+00 
52100 5.6373282471e+00 6.9141445705e-05 1.5944371607e+00 -2.7616461717e+00 1.5944371607e+00 2.7616461717e+00 
52200 5.6373282477e+00 6.9101478878e-05 1.5944371607e+00 -2.7616461717e+00 1.5944371607e+00 2.7616461717e+00 
52300 5.6373282483e+00 6.9061022887e-05 1.5944371607e+00 -2.7616461717e+00 1.5944371607e+00 2.7616461717e+00 
52400 5.6373282489e+00 6.9020093818e-05 1.5944371607e+00 -2.7616461717e+00 1.5944371607e+00 2.7616461717e+00 
52500 5.6373282495e+00 6.8978707236e-05 1.5944371607e+00 -2.7616461717e+00 1.5944371607e+00 2.7616461717e+00 
52600 5.6373282501e+00 6.8936878214e-05 1.5944371607e+00 -2.7616461717e+00 1.5944371607e+00 2.7616461717e+00 
52700 5.6373282507e+00 6.8894621358e-05 1.5944371607e+00 -2.7616461717e+00 1.5944371607e+00 2.7616461717e+00 
52800 5.6373282513e+00 6.8851950826e-05 1.5944371607e+00 -2.7616461717e+00 1.5944371607e+00 2.7616461717e+00 
52900 5.6373282518e+00 6.8808880355e-05 1.5944371607e+00 -2.7616461717e+00 1.5944371607e+00 2.7616461717e+00 
53000 5.6373282524e+00 6.8765423284e-05 1.5944371607e+00 -2.7616461717e+00 1.5944371607e+00 2.7616461717e+00 
53100 5.6373282529e+00 6.8721592574e-05 1.5944371607e+00 -2.7616461717e+00 1.5944371607e+00 2.7616461717e+00 
53200 5.6373282535e+00 6.8677400827e-05 1.5944371607e+00 -2.7616461717e+00 1.5944371607e+00 2.7616461717e+00 
53300 5.6373282540e+00 6.8632860304e-05 1.5944371607e+00 -2.7616461717e+00 1.5944371607e+00 2.7616461717e+00 
53400 5.6373282545e+00 6.8587982950e-05 1.5944371607e+00 -2.7616461717e+00 1.5944371607e+00 2.7616461717e+00 
53500 5.6373282550e+00 6.8542780406e-05 1.5944371607e+00 -2.7616461717e+00 1.5944371607e+00 2.7616461717e+00 
53600 5.6373282555e+00 6.8497264025e-05 1.5944371607e+00 -2.7616461717e+00 1.5944371607e+00 2.7616461717e+00 
53700 5.6373282560e+00 6.8451444896e-05 1.5944371607e+00 -2.7616461717e+00 1.5944371607e+00 2.7616461717e+00 
53800 5.6373282565e+00 6.8405333850e-05 1.5944371607e+00 -2.7616461717e+00 1.5944371607e+00 2.7616461717e+00 
53900 5.6373282569e+00 6.8358941479e-05 1.5944371607e+00 -2.7616461717e+00 1.5944371607e+00 2.7616461717e+00 
54000 5.6373282574e+00 6.8312278150e-05 1.5944371607e+00 -2.7616461717e+00 1.5944371607e+00 2.7616461717e+00 
54100 5.6373282579e+00 6.8265354018e-05 1.5944371607e+00 -2.7616461717e+00 1.5944371607e+00 2.7616461717e+00 
54200 5.6373282583e+00 6.8218179039e-05 1.5944371607e+00 -2.7616461717e+00 1.5944371607e+00 2.7616461717e+00 
54300 5.6373282588e+00 6.8170762976e-05 1.5944371607e+00 -2.7616461717e+00 1.5944371607e+00 2.7616461717e+00 
54400 5.6373282592e+00 6.8123115417e-05 1.5944371607e+00 -2.7616461717e+00 1.5944371607e+00 2.7616461717e+00 
54500 5.6373282596e+00 6.8075245786e-05 1.5944371607e+00 -2.7616461717e+00 1.5944371607e+00 2.7616461717e+00 
54600 5.6373282600e+00 6.8027163343e-05 1.5944371607e+00 -2.7616461717e+00 1.5944371607e+00 2.7616461717e+00 
54700 5.6373282604e+00 6.7978877203e-05 1.5944371607e+00 -2.7616461717e+00 1.5944371607e+00 2.7616461717e+00 
54800 5.6373282609e+00 6.7930396340e-05 1.5944371607e+00 -2.7616461717e+00 1.5944371607e+00 2.7616461717e+00 
54900 5.6373282612e+00 6.7881729595e-05 1.5944371607e+00 -2.7616461717e+00 1.5944371607e+00 2.7616461717e+00 
55000 5.6373282616e+00 6.7832885686e-05 1.5944371607e+00 -2.7616461717e+00 1.5944371607e+00 2.7616461717e+00 
55100 5.6373282620e+00 6.7783873210e-05 1.5944371607e+00 -2.7616461717e+00 1.5944371607e+00 2.7616461717e+00 
55200 5.6373282624e+00 6.7734700653e-05 1.5944371607e+00 -2.7616461717e+00 1.5944371607e+00 2.7616461717e+00 
55300 5.6373282628e+00 6.7685376395e-05 1.5944371607e+00 -2.7616461717e+00 1.5944371607e+00 2.7616461717e+00 
55400 5.6373282631e+00 6.7635908716e-05 1.5944371607e+00 -2.7616461717e+00 1.5944371607e+00 2.7616461717e+00 
55500 5.6373282635e+00 6.7586305794e-05 1.5944371607e+00 -2.7616461717e+00 1.5944371607e+00 2.7616461717e+00 
55600 5.6373282638e+00 6.7536575720e-05 1.5944371607e+00 -2.7616461717e+00 1.5944371607e+00 2.7616461717e+00 
55700 5.6373282642e+00 6.7486726497e-05 1.5944371607e+00 -2.7616461717e+00 1.5944371607e+00 2.7616461717e+00 
55800 5.6373282645e+00 6.7436766040e-05 1.5944371607e+00 -2.7616461717e+00 1.5944371607e+00 2.7616461717e+00 
55900 5.6373282649e+00 6.7386702186e-05 1.5944371607e+00 -2.7616461717e+00 1.5944371607e+00 2.7616461717e+00 
56000 5.6373282652e+00 6.7336542691e-05 1.5944371607e+00 -2.7616461717e+00 1.5944371607e+00 2.7616461717e+00 
56100 5.6373282655e+00 6.7286295235e-05 1.5944371607e+00 -2.7616461717e+00 1.5944371607e+00 2.7616461717e+00 
56200 5.6373282658e+00 6.7235967422e-05 1.5944371607e+00 -2.7616461717e+00 1.5944371607e+00 2.7616461717e+00 
56300 5.6373282662e+00 6.7185566788e-05 1.5944371607e+00 -2.7616461717e+00 1.5944371607e+00 2.7616461717e+00 
56400 5.6373282665e+00 6.7135100794e-05 1.5944371607e+00 -2.7616461717e+00 1.5944371607e+00 2.7616461717e+00 
56500 5.6373282668e+00 6.7084576833e-05 1.5944371607e+00 -2.7616461717e+00 1.5944371607e+00 2.7616461717e+00 
56600 5.6373282671e+00 6.7034002229e-05 1.5944371607e+00 -2.7616461717e+00 1.5944371607e+00 2.7616461717e+00 
56700 5.6373282674e+00 6.6983384236e-05 1.5944371607e+00 -2.7616461717e+00 1.5944371607e+00 2.7616461717e+00 
56800 5.6373282677e+00 6.6932730046e-05 1.5944371607e+00 -2.7616461717e+00 1.5944371607e+00 2.7616461717e+00 
56900 5.6373282679e+00 6.6882046776e-05 1.5944371607e+00 -2.7616461717e+00 1.5944371607e+00 2.7616461717e+00 
57000 5.6373282682e+00 6.6831341481e-05 1.5944371607e+00 -2.7616461717e+00 1.5944371607e+00 2.7616461717e+00 
57100 5.6373282685e+00 6.6780621147e-05 1.5944371607e+00 -2.7616461717e+00 1.5944371607e+00 2.7616461717e+00 
57200 5.6373282688e+00 6.6729892692e-05 1.5944371607e+00 -2.7616461717e+00 1.5944371607e+00 2.7616461717e+00 
57300 5.6373282690e+00 6.6679162969e-05 1.5944371607e+00 -2.7616461717e+00 1.5944371607e+00 2.7616461717e+00 
57400 5.6373282693e+00 6.6628438758e-05 1.5944371607e+00 -2.7616461717e+00 1.5944371607e+00 2.7616461717e+00 
57500 5.6373282695e+00 6.6577726773e-05 1.5944371607e+00 -2.7616461717e+00 1.5944371607e+00 2.7616461717e+00 
57600 5.6373282698e+00 6.6527033657e-05 1.5944371607e+00 -2.7616461717e+00 1.5944371607e+00 2.7616461717e+00 
57700 5.6373282700e+00 6.6476365982e-05 1.5944371607e+00 -2.7616461717e+00 1.5944371607e+00 2.7616461717e+00 
57800 5.6373282703e+00 6.6425730250e-05 1.5944371607e+00 -2.7616461717e+00 1.5944371607e+00 2.7616461717e+00 
57900 5.6373282705e+00 6.6375132887e-05 1.5944371607e+00 -2.7616461717e+00 1.5944371607e+00 2.7616461717e+00 
58000 5.6373282708e+00 6.6324580247e-05 1.5944371607e+00 -2.7616461717e+00 1.5944371607e+00 2.7616461717e+00 
58100 5.6373282710e+00 6.6274078609e-05 1.5944371607e+00 -2.7616461717e+00 1.5944371607e+00 2.7616461717e+00 
58200 5.6373282712e+00 6.6223634175e-05 1.5944371607e+00 -2.7616461717e+00 1.5944371607e+00 2.7616461717e+00 
58300 5.6373282715e+00 6.6173253072e-05 1.5944371607e+00 -2.7616461717e+00 1.5944371607e+00 2.7616461717e+00 
58400 5.6373282717e+00 6.6122941343e-05 1.5944371607e+00 -2.7616461717e+00 1.5944371607e+00 2.7616461717e+00 
58500 5.6373282719e+00 6.6072704956e-05 1.5944371607e+00 -2.7616461717e+00 1.5944371607e+00 2.7616461717e+00 
58600 5.6373282721e+00 6.6022549794e-05 1.5944371607e+00 -2.7616461717e+00 1.5944371607e+00 2.7616461717e+00 
58700 5.6373282723e+00 6.5972481660e-05 1.5944371607e+00 -2.7616461717e+00 1.5944371607e+00 2.7616461717e+00 
58800 5.6373282725e+00 6.5922506271e-05 1.5944371607e+00 -2.7616461717e+00 1.5944371607e+00 2.7616461717e+00 
58900 5.6373282727e+00 6.5872629259e-05 1.5944371607e+00 -2.7616461717e+00 1.5944371607e+00 2.7616461717e+00 
59000 5.6373282729e+00 6.5822856170e-05 1.5944371607e+00 -2.7616461717e+00 1.5944371607e+00 2.7616461717e+00 
59100 5.6373282731e+00 6.5773192463e-05 1.5944371607e+00 -2.7616461717e+00 1.5944371607e+00 2.7616461717e+00 
59200 5.6373282733e+00 6.5723643505e-05 1.5944371607e+00 -2.7616461717e+00 1.5944371607e+00 2.7616461717e+00 
59300 5.6373282735e+00 6.5674214574e-05 1.5944371607e+00 -2.7616461717e+00 1.5944371607e+00 2.7616461717e+00 
59400 5.6373282737e+00 6.5624910859e-05 1.5944371607e+00 -2.7616461717e+00 1.5944371607e+00 2.7616461717e+00 
59500 5.6373282739e+00 6.5575737451e-05 1.5944371607e+00 -2.7616461717e+00 1.5944371607e+00 2.7616461717e+00 
59600 5.6373282741e+00 6.5526699353e-05 1.5944371607e+00 -2.7616461717e+00 1.5944371607e+00 2.7616461717e+00 
59700 5.6373282742e+00 6.5477801471e-05 1.5944371607e+00 -2.7616461717e+00 1.5944371607e+00 2.7616461717e+00 
59800 5.6373282744e+00 6.5429048615e-05 1.5944371607e+00 -2.7616461717e+00 1.5944371607e+00 2.7616461717e+00 
59900 5.6373282746e+00 6.5380445497e-05 1.5944371607e+00 -2.7616461717e+00 1.5944371607e+00 2.7616461717e+00 
60000 5.6373282748e+00 6.5331996734e-05 1.5944371607e+00 -2.7616461717e+00 1.5944371607e+00 2.7616461717e+00 
60100 5.6373282749e+00 6.5283706844e-05 1.5944371607e+00 -2.7616461717e+00 1.5944371607e+00 2.7616461717e+00 
60200 5.6373282751e+00 6.5235580246e-05 1.5944371607e+00 -2.7616461717e+00 1.5944371607e+00 2.7616461717e+00 
60300 5.6373282753e+00 6.5187621259e-05 1.5944371607e+00 -2.7616461717e+00 1.5944371607e+00 2.7616461717e+00 
60400 5.6373282754e+00 6.5139834102e-05 1.5944371607e+00 -2.7616461717e+00 1.5944371607e+00 2.7616461717e+00 
60500 5.6373282756e+00 6.5092222894e-05 1.5944371607e+00 -2.7616461717e+00 1.5944371607e+00 2.7616461717e+00 
60600 5.6373282757e+00 6.5044791650e-05 1.5944371607e+00 -2.7616461717e+00 1.5944371607e+00 2.7616461717e+00 
60700 5.6373282759e+00 6.4997544287e-05 1.5944371607e+00 -2.7616461717e+00 1.5944371607e+00 2.7616461717e+00 
60800 5.6373282760e+00 6.4950484619e-05 1.5944371607e+00 -2.7616461717e+00 1.5944371607e+00 2.7616461717e+00 
60900 5.6373282762e+00 6.4903616357e-05 1.5944371607e+00 -2.7616461717e+00 1.5944371607e+00 2.7616461717e+00 
61000 5.6373282763e+00 6.4856943107e-05 1.5944371607e+00 -2.7616461717e+00 1.5944371607e+00 2.7616461717e+00 
61100 5.6373282765e+00 6.4810468379e-05 1.5944371607e+00 -2.7616461717e+00 1.5944371607e+00 2.7616461717e+00 
61200 5.6373282766e+00 6.4764195578e-05 1.5944371607e+00 -2.7616461717e+00 1.5944371607e+00 2.7616461717e+00 
61300 5.6373282768e+00 6.4718128002e-05 1.5944371607e+00 -2.7616461717e+00 1.5944371607e+00 2.7616461717e+00 
61400 5.6373282769e+00 6.4672268852e-05 1.5944371607e+00 -2.7616461717e+00 1.5944371607e+00 2.7616461717e+00 
61500 5.6373282770e+00 6.4626621224e-05 1.5944371607e+00 -2.7616461717e+00 1.5944371607e+00 2.7616461717e+00 
61600 5.6373282772e+00 6.4581188116e-05 1.5944371607e+00 -2.7616461717e+00 1.5944371607e+00 2.7616461717e+00 
61700 5.6373282773e+00 6.4535972420e-05 1.5944371607e+00 -2.7616461717e+00 1.5944371607e+00 2.7616461717e+00 
61800 5.6373282774e+00 6.4490976928e-05 1.5944371607e+00 -2.7616461717e+00 1.5944371607e+00 2.7616461717e+00 
61900 5.6373282775e+00 6.4446204332e-05 1.5944371607e+00 -2.7616461717e+00 1.5944371607e+00 2.7616461717e+00 
62000 5.6373282777e+00 6.4401657223e-05 1.5944371607e+00 -2.7616461717e+00 1.5944371607e+00 2.7616461717e+00 
62100 5.6373282778e+00 6.4357338095e-05 1.5944371607e+00 -2.7616461717e+00 1.5944371607e+00 2.7616461717e+00 
62200 5.6373282779e+00 6.4313249339e-05 1.5944371607e+00 -2.7616461717e+00 1.5944371607e+00 2.7616461717e+00 
62300 5.6373282780e+00 6.4269393249e-05 1.5944371607e+00 -2.7616461717e+00 1.5944371607e+00 2.7616461717e+00 
62400 5.6373282781e+00 6.4225772025e-05 1.5944371607e+00 -2.7616461717e+00 1.5944371607e+00 2.7616461717e+00 
62500 5.6373282783e+00 6.4182387766e-05 1.5944371607e+00 -2.7616461717e+00 1.5944371607e+00 2.7616461717e+00 
62600 5.6373282784e+00 6.4139242475e-05 1.5944371607e+00 -2.7616461717e+00 1.5944371607e+00 2.7616461717e+00 
62700 5.6373282785e+00 6.4096338064e-05 1.5944371607e+00 -2.7616461717e+00 1.5944371607e+00 2.7616461717e+00 
62800 5.6373282786e+00 6.4053676346e-05 1.5944371607e+00 -2.7616461717e+00 1.5944371607e+00 2.7616461717e+00 
62900 5.6373282787e+00 6.4011259046e-05 1.5944371607e+00 -2.7616461717e+00 1.5944371607e+00 2.7616461717e+00 
63000 5.6373282788e+00 6.3969087796e-05 1.5944371607e+00 -2.7616461717e+00 1.5944371607e+00 2.7616461717e+00 
63100 5.6373282789e+00 6.3927164134e-05 1.5944371607e+00 -2.7616461717e+00 1.5944371607e+00 2.7616461717e+00 
63200 5.6373282790e+00 6.3885489510e-05 1.5944371607e+00 -2.7616461717e+00 1.5944371607e+00 2.7616461717e+00 
63300 5.6373282791e+00 6.3844065288e-05 1.5944371607e+00 -2.7616461717e+00 1.5944371607e+00 2.7616461717e+00 
63400 5.6373282792e+00 6.3802892742e-05 1.5944371607e+00 -2.7616461717e+00 1.5944371607e+00 2.7616461717e+00 
63500 5.6373282793e+00 6.3761973062e-05 1.5944371607e+00 -2.7616461717e+00 1.5944371607e+00 2.7616461717e+00 
63600 5.6373282794e+00 6.3721307351e-05 1.5944371607e+00 -2.7616461717e+00 1.5944371607e+00 2.7616461717e+00 
63700 5.6373282795e+00 6.3680896633e-05 1.5944371607e+00 -2.7616461717e+00 1.5944371607e+00 2.7616461717e+00 
63800 5.6373282796e+00 6.3640741845e-05 1.5944371607e+00 -2.7616461717e+00 1.5944371607e+00 2.7616461717e+00 
63900 5.6373282797e+00 6.3600843846e-05 1.5944371607e+00 -2.7616461717e+00 1.5944371607e+00 2.7616461717e+00 
64000 5.6373282798e+00 6.3561203417e-05 1.5944371607e+00 -2.7616461717e+00 1.5944371607e+00 2.7616461717e+00 
64100 5.6373282799e+00 6.3521821260e-05 1.5944371607e+00 -2.7616461717e+00 1.5944371607e+00 2.7616461717e+00 
64200 5.6373282800e+00 6.3482698000e-05 1.5944371607e+00 -2.7616461717e+00 1.5944371607e+00 2.7616461717e+00 
64300 5.6373282800e+00 6.3443834189e-05 1.5944371607e+00 -2.7616461717e+00 1.5944371607e+00 2.7616461717e+00 
64400 5.6373282801e+00 6.3405230305e-05 1.5944371607e+00 -2.7616461717e+00 1.5944371607e+00 2.7616461717e+00 
64500 5.6373282802e+00 6.3366886755e-05 1.5944371607e+00 -2.7616461717e+00 1.5944371607e+00 2.7616461717e+00 
64600 5.6373282803e+00 6.3328803874e-05 1.5944371607e+00 -2.7616461717e+00 1.5944371607e+00 2.7616461717e+00 
64700 5.6373282804e+00 6.3290981930e-05 1.5944371607e+00 -2.7616461717e+00 1.5944371607e+00 2.7616461717e+00 
64800 5.6373282805e+00 6.3253421124e-05 1.5944371607e+00 -2.7616461717e+00 1.5944371607e+00 2.7616461717e+00 
64900 5.6373282805e+00 6.3216121590e-05 1.5944371607e+00 -2.7616461717e+00 1.5944371607e+00 2.7616461717e+00 
65000 5.6373282806e+00 6.3179083400e-05 1.5944371607e+00 -2.7616461717e+00 1.5944371607e+00 2.7616461717e+00 
65100 5.6373282807e+00 6.3142306561e-05 1.5944371607e+00 -2.7616461717e+00 1.5944371607e+00 2.7616461717e+00 
65200 5.6373282808e+00 6.3105791022e-05 1.5944371607e+00 -2.7616461717e+00 1.5944371607e+00 2.7616461717e+00 
65300 5.6373282808e+00 6.3069536669e-05 1.5944371607e+00 -2.7616461717e+00 1.5944371607e+00 2.7616461717e+00 
65400 5.6373282809e+00 6.3033543333e-05 1.5944371607e+00 -2.7616461717e+00 1.5944371607e+00 2.7616461717e+00 
65500 5.6373282810e+00 6.2997810790e-05 1.5944371607e+00 -2.7616461717e+00 1.5944371607e+00 2.7616461717e+00 
65600 5.6373282811e+00 6.2962338759e-05 1.5944371607e+00 -2.7616461717e+00 1.5944371607e+00 2.7616461717e+00 
65700 5.6373282811e+00 6.2927126905e-05 1.5944371607e+00 -2.7616461717e+00 1.5944371607e+00 2.7616461717e+00 
65800 5.6373282812e+00 6.2892174845e-05 1.5944371607e+00 -2.7616461717e+00 1.5944371607e+00 2.7616461717e+00 
65900 5.6373282813e+00 6.2857482140e-05 1.5944371607e+00 -2.7616461717e+00 1.5944371607e+00 2.7616461717e+00 
66000 5.6373282813e+00 6.2823048310e-05 1.5944371607e+00 -2.7616461717e+00 1.5944371607e+00 2.7616461717e+00 
66100 5.6373282814e+00 6.2788872823e-05 1.5944371607e+00 -2.7616461717e+00 1.5944371607e+00 2.7616461717e+00 
66200 5.6373282815e+00 6.2754955102e-05 1.5944371607e+00 -2.7616461717e+00 1.5944371607e+00 2.7616461717e+00 
66300 5.6373282815e+00 6.2721294527e-05 1.5944371607e+00 -2.7616461717e+00 1.5944371607e+00 2.7616461717e+00 
66400 5.6373282816e+00 6.2687890435e-05 1.5944371607e+00 -2.7616461717e+00 1.5944371607e+00 2.7616461717e+00 
66500 5.6373282816e+00 6.2654742121e-05 1.5944371607e+00 -2.7616461717e+00 1.5944371607e+00 2.7616461717e+00 
66600 5.6373282817e+00 6.2621848844e-05 1.5944371607e+00 -2.7616461717e+00 1.5944371607e+00 2.7616461717e+00 
66700 5.6373282818e+00 6.2589209819e-05 1.5944371607e+00 -2.7616461717e+00 1.5944371607e+00 2.7616461717e+00 
66800 5.6373282818e+00 6.2556824227e-05 1.5944371607e+00 -2.7616461717e+00 1.5944371607e+00 2.7616461717e+00 
66900 5.6373282819e+00 6.2524691215e-05 1.5944371607e+00 -2.7616461717e+00 1.5944371607e+00 2.7616461717e+00 
67000 5.6373282819e+00 6.2492809893e-05 1.5944371607e+00 -2.7616461717e+00 1.5944371607e+00 2.7616461717e+00 
67100 5.6373282820e+00 6.2461179341e-05 1.5944371607e+00 -2.7616461717e+00 1.5944371607e+00 2.7616461717e+00 
67200 5.6373282821e+00 6.2429798604e-05 1.5944371607e+00 -2.7616461717e+00 1.5944371607e+00 2.7616461717e+00 
67300 5.6373282821e+00 6.2398666700e-05 1.5944371607e+00 -2.7616461717e+00 1.5944371607e+00 2.7616461717e+00 
67400 5.6373282822e+00 6.2367782617e-05 1.5944371607e+00 -2.7616461717e+00 1.5944371607e+00 2.7616461717e+00 
67500 5.6373282822e+00 6.2337145315e-05 1.5944371607e+00 -2.7616461717e+00 1.5944371607e+00 2.7616461717e+00 
67600 5.6373282823e+00 6.2306753725e-05 1.5944371607e+00 -2.7616461717e+00 1.5944371607e+00 2.7616461717e+00 
67700 5.6373282823e+00 6.2276606759e-05 1.5944371607e+00 -2.7616461717e+00 1.5944371607e+00 2.7616461717e+00 
67800 5.6373282824e+00 6.2246703300e-05 1.5944371607e+00 -2.7616461717e+00 1.5944371607e+00 2.7616461717e+00 
67900 5.6373282824e+00 6.2217042210e-05 1.5944371607e+00 -2.7616461717e+00 1.5944371607e+00 2.7616461717e+00 
68000 5.6373282825e+00 6.2187622327e-05 1.5944371607e+00 -2.7616461717e+00 1.5944371607e+00 2.7616461717e+00 
68100 5.6373282825e+00 6.2158442470e-05 1.5944371607e+00 -2.7616461717e+00 1.5944371607e+00 2.7616461717e+00 
68200 5.6373282825e+00 6.2149155414e-05 1.5944371607e+00 -2.7616461717e+00 1.5944371607e+00 2.7616461717e+00 
68200 5.6373282825e+00 6.2149155414e-05 1.5944371607e+00 -2.7616461717e+00 1.5944371607e+00 2.7616461717e+00 
