# step Hamiltonian StressXX CellTensor1 CellTensor2 CellTensor3 CellTensor4 
0 4.4415581970e+00 -3.3605942357e-01 1.7438352029e+00 -3.0204111715e+00 1.7438352029e+00 3.0204111715e+00 
100 4.3760287696e+00 -3.3225929640e-01 1.7438352029e+00 -3.0204111715e+00 1.7438352029e+00 3.0204111715e+00 
200 4.3135229730e+00 -3.2041606741e-01 1.7533705127e+00 -3.0369268125e+00 1.7533705127e+00 3.0369268125e+00 
300 4.2570208498e+00 -3.0949611344e-01 1.7625155540e+00 -3.0527664887e+00 1.7625155540e+00 3.0527664887e+00 
400 4.2057071851e+00 -2.9938760432e-01 1.7713027615e+00 -3.0679863785e+00 1.7713027615e+00 3.0679863785e+00 
500 4.1588694171e+00 -2.8999589813e-01 1.7797605065e+00 -3.0826356226e+00 1.7797605065e+00 3.0826356226e+00 
600 4.1158921071e+00 -2.8123895813e-01 1.7879137422e+00 -3.0967574410e+00 1.7879137422e+00 3.0967574410e+00 
700 4.0762507218e+00 -2.7304387602e-01 1.7957844868e+00 -3.1103899706e+00 1.7957844868e+00 3.1103899706e+00 
800 4.0395046708e+00 -2.6534437533e-01 1.8033921847e+00 -3.1235668898e+00 1.8033921847e+00 3.1235668898e+00 
900 4.0052896667e+00 -2.5807914703e-01 1.8107539791e+00 -3.1363178918e+00 1.8107539791e+00 3.1363178918e+00 
1000 3.9733095611e+00 -2.5119085784e-01 1.8178849247e+00 -3.1486690520e+00 1.8178849247e+00 3.1486690520e+00 
1100 3.9433278679e+00 -2.4462567115e-01 1.8247981611e+00 -3.1606431286e+00 1.8247981611e+00 3.1606431286e+00 
1200 3.9151592127e+00 -2.3833312980e-01 1.8315050640e+00 -3.1722598252e+00 1.8315050640e+00 3.1722598252e+00 
1300 3.8886609466e+00 -2.3226626699e-01 1.8380153858e+00 -3.1835360332e+00 1.8380153858e+00 3.1835360332e+00 
1400 3.8637251437e+00 -2.2638183440e-01 1.8443373917e+00 -3.1944860688e+00 1.8443373917e+00 3.1944860688e+00 
1500 3.8402711664e+00 -2.2064056136e-01 1.8504779973e+00 -3.2051219096e+00 1.8504779973e+00 3.2051219096e+00 
1600 3.8182389377e+00 -2.1500738421e-01 1.8564429062e+00 -3.2154534349e+00 1.8564429062e+00 3.2154534349e+00 
1700 3.7975830143e+00 -2.0945160743e-01 1.8622367503e+00 -3.2254886673e+00 1.8622367503e+00 3.2254886673e+00 
1800 3.7782675098e+00 -2.0394697751e-01 1.8678632290e+00 -3.2352340143e+00 1.8678632290e+00 3.2352340143e+00 
1900 3.7602618726e+00 -1.9847166483e-01 1.8733252467e+00 -3.2446945063e+00 1.8733252467e+00 3.2446945063e+00 
2000 3.7435374950e+00 -1.9300815975e-01 1.8786250455e+00 -3.2538740272e+00 1.8786250455e+00 3.2538740272e+00 
2100 3.7280651009e+00 -1.8754309480e-01 1.8837643329e+00 -3.2627755341e+00 1.8837643329e+00 3.2627755341e+00 
2200 3.7138128408e+00 -1.8206700823e-01 1.8887444005e+00 -3.2714012642e+00 1.8887444005e+00 3.2714012642e+00 
2300 3.7007450132e+00 -1.7657406453e-01 1.8935662347e+00 -3.2797529260e+00 1.8935662347e+00 3.2797529260e+00 
2400 3.6888213271e+00 -1.7106174620e-01 1.8982306173e+00 -3.2878318736e+00 1.8982306173e+00 3.2878318736e+00 
2500 3.6779966162e+00 -1.6553052893e-01 1.9027382166e+00 -3.2956392647e+00 1.9027382166e+00 3.2956392647e+00 
2600 3.6682209228e+00 -1.5998354965e-01 1.9070896679e+00 -3.3031761994e+00 1.9070896679e+00 3.3031761994e+00 
2700 3.6594398726e+00 -1.5442627417e-01 1.9112856443e+00 -3.3104438438e+00 1.9112856443e+00 3.3104438438e+00 
2800 3.6515952679e+00 -1.4886616904e-01 1.9153269178e+00 -3.3174435348e+00 1.9153269178e+00 3.3174435348e+00 
2900 3.6446258371e+00 -1.4331238016e-01 1.9192144111e+00 -3.3241768706e+00 1.9192144111e+00 3.3241768706e+00 
3000 3.6384680836e+00 -1.3777541938e-01 1.9229492402e+00 -3.3306457843e+00 1.9229492402e+00 3.3306457843e+00 
3100 3.6330571860e+00 -1.3226685985e-01 1.9265327492e+00 -3.3368526040e+00 1.9265327492e+00 3.3368526040e+00 
3200 3.6283279091e+00 -1.2679904024e-01 1.9299665364e+00 -3.3428000979e+00 1.9299665364e+00 3.3428000979e+00 
3300 3.6242154909e+00 -1.2138477834e-01 1.9332524729e+00 -3.3484915069e+00 1.9332524729e+00 3.3484915069e+00 
3400 3.6206564776e+00 -1.1603709510e-01 1.9363927140e+00 -3.3539305640e+00 1.9363927140e+00 3.3539305640e+00 
3500 3.6175894842e+00 -1.1076895062e-01 1.9393897035e+00 -3.3591215021e+00 1.9393897035e+00 3.3591215021e+00 
3600 3.6149558633e+00 -1.0559299463e-01 1.9422461716e+00 -3.3640690500e+00 1.9422461716e+00 3.3640690500e+00 
3700 3.6127002698e+00 -1.0052133444e-01 1.9449651264e+00 -3.3687784178e+00 1.9449651264e+00 3.3687784178e+00 
3800 3.6107711129e+00 -9.5565324096e-02 1.9475498402e+00 -3.3732552735e+00 1.9475498402e+00 3.3732552735e+00 
3900 3.6091208924e+00 -9.0735378568e-02 1.9500038304e+00 -3.3775057091e+00 1.9500038304e+00 3.3775057091e+00 
4000 3.6077064196e+00 -8.6040816773e-02 1.9523308360e+00 -3.3815362012e+00 1.9523308360e+00 3.3815362012e+00 
4100 3.6064889258e+00 -8.1489736791e-02 1.9545347910e+00 -3.3853535631e+00 1.9545347910e+00 3.3853535631e+00 
4200 3.6054340668e+00 -7.7088925783e-02 1.9566197937e+00 -3.3889648938e+00 1.9566197937e+00 3.3889648938e+00 
4300 3.6045118334e+00 -7.2843805988e-02 1.9585900755e+00 -3.3923775220e+00 1.9585900755e+00 3.3923775220e+00 
4400 3.6036963796e+00 -6.8758416864e-02 1.9604499676e+00 -3.3955989495e+00 1.9604499676e+00 3.3955989495e+00 
4500 3.6029657832e+00 -6.4835431970e-02 1.9622038674e+00 -3.3986367932e+00 1.9622038674e+00 3.3986367932e+00 
4600 3.6023017537e+00 -6.1076207801e-02 1.9638562065e+00 -3.4014987284e+00 1.9638562065e+00 3.4014987284e+00 
4700 3.6016893031e+00 -5.7480860556e-02 1.9654114187e+00 -3.4041924349e+00 1.9654114187e+00 3.4041924349e+00 
4800 3.6011163934e+00 -5.4048365836e-02 1.9668739110e+00 -3.4067255460e+00 1.9668739110e+00 3.4067255460e+00 
4900 3.6005735755e+00 -5.0776675670e-02 1.9682480371e+00 -3.4091056021e+00 1.9682480371e+00 3.4091056021e+00 
5000 3.6000536315e+00 -4.7662847015e-02 1.9695380731e+00 -3.4113400101e+00 1.9695380731e+00 3.4113400101e+00 
5100 3.5995512295e+00 -4.4703176011e-02 1.9707481976e+00 -3.4134360072e+00 1.9707481976e+00 3.4134360072e+00 
5200 3.5990626003e+00 -4.1893332714e-02 1.9718824740e+00 -3.4154006314e+00 1.9718824740e+00 3.4154006314e+00 
5300 3.5985852412e+00 -3.9228491744e-02 1.9729448368e+00 -3.4172406978e+00 1.9729448368e+00 3.4172406978e+00 
5400 3.5981176507e+00 -3.6703455149e-02 1.9739390811e+00 -3.4189627795e+00 1.9739390811e+00 3.4189627795e+00 
5500 3.5976590955e+00 -3.4312764730e-02 1.9748688549e+00 -3.4205731949e+00 1.9748688549e+00 3.4205731949e+00 
5600 3.5972094110e+00 -3.2050802018e-02 1.9757376538e+00 -3.4220779988e+00 1.9757376538e+00 3.4220779988e+00 
5700 3.5967688337e+00 -2.9911874954e-02 1.9765488190e+00 -3.4234829782e+00 1.9765488190e+00 3.4234829782e+00 
5800 3.5963378634e+00 -2.7890291086e-02 1.9773055366e+00 -3.4247936514e+00 1.9773055366e+00 3.4247936514e+00 
5900 3.5959171525e+00 -2.5980417683e-02 1.9780108385e+00 -3.4260152702e+00 1.9780108385e+00 3.4260152702e+00 
6000 3.5955074197e+00 -2.4176729656e-02 1.9786676057e+00 -3.4271528244e+00 1.9786676057e+00 3.4271528244e+00 
6100 3.5951093844e+00 -2.2473846422e-02 1.9792785718e+00 -3.4282110486e+00 1.9792785718e+00 3.4282110486e+00 
6200 3.5947237191e+00 -2.0866559085e-02 1.9798463271e+00 -3.4291944298e+00 1.9798463271e+00 3.4291944298e+00 
6300 3.5943510165e+00 -1.9349849318e-02 1.9803733247e+00 -3.4301072163e+00 1.9803733247e+00 3.4301072163e+00 
6400 3.5939917679e+00 -1.7918901334e-02 1.9808618852e+00 -3.4309534280e+00 1.9808618852e+00 3.4309534280e+00 
6500 3.5936463520e+00 -1.6569108242e-02 1.9813142031e+00 -3.4317368655e+00 1.9813142031e+00 3.4317368655e+00 
6600 3.5933150302e+00 -1.5296073965e-02 1.9817323521e+00 -3.4324611208e+00 1.9817323521e+00 3.4324611208e+00 
6700 3.5929979480e+00 -1.4095611742e-02 1.9821182914e+00 -3.4331295874e+00 1.9821182914e+00 3.4331295874e+00 
6800 3.5926951400e+00 -1.2963740097e-02 1.9824738714e+00 -3.4337454700e+00 1.9824738714e+00 3.4337454700e+00 
6900 3.5924065377e+00 -1.1896676993e-02 1.9828008391e+00 -3.4343117946e+00 1.9828008391e+00 3.4343117946e+00 
7000 3.5921319790e+00 -1.0890832781e-02 1.9831008434e+00 -3.4348314173e+00 1.9831008434e+00 3.4348314173e+00 
7100 3.5918712193e+00 -9.9428023839e-03 1.9833754408e+00 -3.4353070339e+00 1.9833754408e+00 3.4353070339e+00 
7200 3.5916239421e+00 -9.0493570944e-03 1.9836260996e+00 -3.4357411877e+00 1.9836260996e+00 3.4357411877e+00 
7300 3.5913897700e+00 -8.2074362504e-03 1.9838542054e+00 -3.4361362785e+00 1.9838542054e+00 3.4361362785e+00 
7400 3.5911682758e+00 -7.4141389818e-03 1.9840610648e+00 -3.4364945695e+00 1.9840610648e+00 3.4364945695e+00 
7500 3.5909589920e+00 -6.6667161658e-03 1.9842479102e+00 -3.4368181953e+00 1.9842479102e+00 3.4368181953e+00 
7600 3.5907614209e+00 -5.9625626823e-03 1.9844159036e+00 -3.4371091684e+00 1.9844159036e+00 3.4371091684e+00 
7700 3.5905750424e+00 -5.2992100213e-03 1.9845661402e+00 -3.4373693858e+00 1.9845661402e+00 3.4373693858e+00 
7800 3.5903993224e+00 -4.6743192709e-03 1.9846996522e+00 -3.4376006354e+00 1.9846996522e+00 3.4376006354e+00 
7900 3.5902337194e+00 -4.0856744945e-03 1.9848174123e+00 -3.4378046018e+00 1.9848174123e+00 3.4378046018e+00 
8000 3.5900776906e+00 -3.5311764922e-03 1.9849203363e+00 -3.4379828715e+00 1.9849203363e+00 3.4379828715e+00 
8100 3.5899306971e+00 -3.0088369312e-03 1.9850092871e+00 -3.4381369387e+00 1.9850092871e+00 3.4381369387e+00 
8200 3.5897922085e+00 -2.5167728278e-03 1.9850850765e+00 -3.4382682099e+00 1.9850850765e+00 3.4382682099e+00 
8300 3.5896617066e+00 -2.0532013561e-03 1.9851484689e+00 -3.4383780088e+00 1.9851484689e+00 3.4383780088e+00 
8400 3.5895386883e+00 -1.6164349610e-03 1.9852001832e+00 -3.4384675805e+00 1.9852001832e+00 3.4384675805e+00 
8500 3.5894226686e+00 -1.2048767515e-03 1.9852408955e+00 -3.4385380963e+00 1.9852408955e+00 3.4385380963e+00 
8600 3.5893131820e+00 -8.1701614974e-04 1.9852712414e+00 -3.4385906570e+00 1.9852712414e+00 3.4385906570e+00 
8700 3.5892097842e+00 -4.5142477651e-04 1.9852918184e+00 -3.4386262973e+00 1.9852918184e+00 3.4386262973e+00 
8800 3.5891120531e+00 -1.0675255091e-04 1.9853031877e+00 -3.4386459894e+00 1.9853031877e+00 3.4386459894e+00 
8900 3.5890195896e+00 2.1827601260e-04 1.9853058762e+00 -3.4386506462e+00 1.9853058762e+00 3.4386506462e+00 
9000 3.5889320176e+00 5.2486532685e-04 1.9853003789e+00 -3.4386411246e+00 1.9853003789e+00 3.4386411246e+00 
9100 3.5888489840e+00 8.1415208874e-04 1.9852871602e+00 -3.4386182290e+00 1.9852871602e+00 3.4386182290e+00 
9200 3.5887701588e+00 1.0872084832e-03 1.9852666556e+00 -3.4385827140e+00 1.9852666556e+00 3.4385827140e+00 
9300 3.5886952343e+00 1.3450452455e-03 1.9852392737e+00 -3.4385352872e+00 1.9852392737e+00 3.4385352872e+00 
9400 3.5886239247e+00 1.5886145931e-03 1.9852053976e+00 -3.4384766122e+00 1.9852053976e+00 3.4384766122e+00 
9500 3.5885559653e+00 1.8188130333e-03 1.9851653864e+00 -3.4384073107e+00 1.9851653864e+00 3.4384073107e+00 
9600 3.5884911115e+00 2.0364840581e-03 1.9851195765e+00 -3.4383279656e+00 1.9851195765e+00 3.4383279656e+00 
9700 3.5884291378e+00 2.2424207293e-03 1.9850682830e+00 -3.4382391226e+00 1.9850682830e+00 3.4382391226e+00 
9800 3.5883698373e+00 2.4373681620e-03 1.9850118010e+00 -3.4381412930e+00 1.9850118010e+00 3.4381412930e+00 
9900 3.5883130199e+00 2.6220259114e-03 1.9849504071e+00 -3.4380349555e+00 1.9849504071e+00 3.4380349555e+00 
10000 3.5882585118e+00 2.7970502661e-03 1.9848843598e+00 -3.4379205583e+00 1.9848843598e+00 3.4379205583e+00 
10100 3.5882061542e+00 2.9630564536e-03 1.9848139014e+00 -3.4377985208e+00 1.9848139014e+00 3.4377985208e+00 
10200 3.5881558023e+00 3.1206207600e-03 1.9847392587e+00 -3.4376692359e+00 1.9847392587e+00 3.4376692359e+00 
10300 3.5881073242e+00 3.2702825681e-03 1.9846606439e+00 -3.4375330709e+00 1.9846606439e+00 3.4375330709e+00 
10400 3.5880606000e+00 3.4125463161e-03 1.9845782555e+00 -3.4373903701e+00 1.9845782555e+00 3.4373903701e+00 
10500 3.5880155205e+00 3.5478833792e-03 1.9844922795e+00 -3.4372414553e+00 1.9844922795e+00 3.4372414553e+00 
10600 3.5879719868e+00 3.6767338773e-03 1.9844028899e+00 -3.4370866281e+00 1.9844028899e+00 3.4370866281e+00 
10700 3.5879299088e+00 3.7995084093e-03 1.9843102498e+00 -3.4369261707e+00 1.9843102498e+00 3.4369261707e+00 
10800 3.5878892050e+00 3.9165897180e-03 1.9842145118e+00 -3.4367603476e+00 1.9842145118e+00 3.4367603476e+00 
10900 3.5878498011e+00 4.0283342854e-03 1.9841158190e+00 -3.4365894065e+00 1.9841158190e+00 3.4365894065e+00 
11000 3.5878116296e+00 4.1350738615e-03 1.9840143052e+00 -3.4364135796e+00 1.9840143052e+00 3.4364135796e+00 
11100 3.5877746294e+00 4.2371169274e-03 1.9839100964e+00 -3.4362330845e+00 1.9839100964e+00 3.4362330845e+00 
11200 3.5877387442e+00 4.3347500951e-03 1.9838033103e+00 -3.4360481257e+00 1.9838033103e+00 3.4360481257e+00 
11300 3.5877039232e+00 4.4282394446e-03 1.9836940578e+00 -3.4358588947e+00 1.9836940578e+00 3.4358588947e+00 
11400 3.5876701195e+00 4.5178318007e-03 1.9835824428e+00 -3.4356655720e+00 1.9835824428e+00 3.4356655720e+00 
11500 3.5876372902e+00 4.6037559504e-03 1.9834685633e+00 -3.4354683269e+00 1.9834685633e+00 3.4354683269e+00 
11600 3.5876053958e+00 4.6862238031e-03 1.9833525113e+00 -3.4352673189e+00 1.9833525113e+00 3.4352673189e+00 
11700 3.5875743999e+00 4.7654314945e-03 1.9832343735e+00 -3.4350626982e+00 1.9832343735e+00 3.4350626982e+00 
11800 3.5875442687e+00 4.8415604355e-03 1.9831142318e+00 -3.4348546067e+00 1.9831142318e+00 3.4348546067e+00 
11900 3.5875149706e+00 4.9147783090e-03 1.9829921634e+00 -3.4346431780e+00 1.9829921634e+00 3.4346431780e+00 
12000 3.5874864763e+00 4.9852400145e-03 1.9828682414e+00 -3.4344285388e+00 1.9828682414e+00 3.4344285388e+00 
12100 3.5874587583e+00 5.0530885634e-03 1.9827425349e+00 -3.4342108088e+00 1.9827425349e+00 3.4342108088e+00 
12200 3.5874317907e+00 5.1184559253e-03 1.9826151096e+00 -3.4339901016e+00 1.9826151096e+00 3.4339901016e+00 
12300 3.5874055490e+00 5.1814638282e-03 1.9824860275e+00 -3.4337665249e+00 1.9824860275e+00 3.4337665249e+00 
12400 3.5873800099e+00 5.2422245135e-03 1.9823553480e+00 -3.4335401814e+00 1.9823553480e+00 3.4335401814e+00 
12500 3.5873551513e+00 5.3008414471e-03 1.9822231273e+00 -3.4333111685e+00 1.9822231273e+00 3.4333111685e+00 
12600 3.5873309522e+00 5.3574099892e-03 1.9820894193e+00 -3.4330795794e+00 1.9820894193e+00 3.4330795794e+00 
12700 3.5873073923e+00 5.4120180231e-03 1.9819542753e+00 -3.4328455032e+00 1.9819542753e+00 3.4328455032e+00 
12800 3.5872844521e+00 5.4647465460e-03 1.9818177446e+00 -3.4326090249e+00 1.9818177446e+00 3.4326090249e+00 
12900 3.5872621130e+00 5.5156702222e-03 1.9816798741e+00 -3.4323702262e+00 1.9816798741e+00 3.4323702262e+00 
13000 3.5872403570e+00 5.5648579013e-03 1.9815407092e+00 -3.4321291856e+00 1.9815407092e+00 3.4321291856e+00 
13100 3.5872191665e+00 5.6123731016e-03 1.9814002934e+00 -3.4318859783e+00 1.9814002934e+00 3.4318859783e+00 
13200 3.5871985248e+00 5.6582744621e-03 1.9812586686e+00 -3.4316406770e+00 1.9812586686e+00 3.4316406770e+00 
13300 3.5871784156e+00 5.7026161629e-03 1.9811158754e+00 -3.4313933519e+00 1.9811158754e+00 3.4313933519e+00 
13400 3.5871588229e+00 5.7454483168e-03 1.9809719528e+00 -3.4311440706e+00 1.9809719528e+00 3.4311440706e+00 
13500 3.5871397313e+00 5.7868173323e-03 1.9808269387e+00 -3.4308928988e+00 1.9808269387e+00 3.4308928988e+00 
13600 3.5871211260e+00 5.8267662509e-03 1.9806808697e+00 -3.4306399000e+00 1.9806808697e+00 3.4306399000e+00 
13700 3.5871029924e+00 5.8653350589e-03 1.9805337816e+00 -3.4303851358e+00 1.9805337816e+00 3.4303851358e+00 
13800 3.5870853164e+00 5.9025609753e-03 1.9803857088e+00 -3.4301286662e+00 1.9803857088e+00 3.4301286662e+00 
13900 3.5870680844e+00 5.9384787182e-03 1.9802366851e+00 -3.4298705497e+00 1.9802366851e+00 3.4298705497e+00 
14000 3.5870512830e+00 5.9731207490e-03 1.9800867434e+00 -3.4296108429e+00 1.9800867434e+00 3.4296108429e+00 
14100 3.5870348994e+00 6.0065174980e-03 1.9799359155e+00 -3.4293496014e+00 1.9799359155e+00 3.4293496014e+00 
14200 3.5870189209e+00 6.0386975701e-03 1.9797842328e+00 -3.4290868792e+00 1.9797842328e+00 3.4290868792e+00 
14300 3.5870033354e+00 6.0696879340e-03 1.9796317258e+00 -3.4288227293e+00 1.9796317258e+00 3.4288227293e+00 
14400 3.5869881312e+00 6.0995140946e-03 1.9794784243e+00 -3.4285572034e+00 1.9794784243e+00 3.4285572034e+00 
14500 3.5869732966e+00 6.1282002505e-03 1.9793243576e+00 -3.4282903520e+00 1.9793243576e+00 3.4282903520e+00 
14600 3.5869588208e+00 6.1557694366e-03 1.9791695542e+00 -3.4280222247e+00 1.9791695542e+00 3.4280222247e+00 
14700 3.5869446928e+00 6.1822436539e-03 1.9790140423e+00 -3.4277528702e+00 1.9790140423e+00 3.4277528702e+00 
14800 3.5869309024e+00 6.2076439870e-03 1.9788578493e+00 -3.4274823360e+00 1.9788578493e+00 3.4274823360e+00 
14900 3.5869174393e+00 6.2319907098e-03 1.9787010023e+00 -3.4272106689e+00 1.9787010023e+00 3.4272106689e+00 
15000 3.5869042939e+00 6.2553033807e-03 1.9785435275e+00 -3.4269379147e+00 1.9785435275e+00 3.4269379147e+00 
15100 3.5868914567e+00 6.2776009280e-03 1.9783854511e+00 -3.4266641183e+00 1.9783854511e+00 3.4266641183e+00 
15200 3.5868789186e+00 6.2989017263e-03 1.9782267986e+00 -3.4263893241e+00 1.9782267986e+00 3.4263893241e+00 
15300 3.5868666708e+00 6.3192236642e-03 1.9780675950e+00 -3.4261135753e+00 1.9780675950e+00 3.4261135753e+00 
15400 3.5868547047e+00 6.3385842047e-03 1.9779078649e+00 -3.4258369147e+00 1.9779078649e+00 3.4258369147e+00 
15500 3.5868430121e+00 6.3570004386e-03 1.9777476325e+00 -3.4255593840e+00 1.9777476325e+00 3.4255593840e+00 
15600 3.5868315851e+00 6.3744891306e-03 1.9775869215e+00 -3.4252810245e+00 1.9775869215e+00 3.4252810245e+00 
15700 3.5868204160e+00 6.3910667608e-03 1.9774257554e+00 -3.4250018765e+00 1.9774257554e+00 3.4250018765e+00 
15800 3.5868094974e+00 6.4067495593e-03 1.9772641569e+00 -3.4247219797e+00 1.9772641569e+00 3.4247219797e+00 
15900 3.5867988222e+00 6.4215535376e-03 1.9771021486e+00 -3.4244413732e+00 1.9771021486e+00 3.4244413732e+00 
16000 3.5867883833e+00 6.4354945138e-03 1.9769397527e+00 -3.4241600952e+00 1.9769397527e+00 3.4241600952e+00 
16100 3.5867781743e+00 6.4485881353e-03 1.9767769909e+00 -3.4238781835e+00 1.9767769909e+00 3.4238781835e+00 
16200 3.5867681886e+00 6.4608498967e-03 1.9766138845e+00 -3.4235956749e+00 1.9766138845e+00 3.4235956749e+00 
16300 3.5867584201e+00 6.4722951554e-03 1.9764504545e+00 -3.4233126058e+00 1.9764504545e+00 3.4233126058e+00 
16400 3.5867488627e+00 6.4829391433e-03 1.9762867214e+00 -3.4230290119e+00 1.9762867214e+00 3.4230290119e+00 
16500 3.5867395107e+00 6.4927969771e-03 1.9761227055e+00 -3.4227449280e+00 1.9761227055e+00 3.4227449280e+00 
16600 3.5867303585e+00 6.5018836649e-03 1.9759584266e+00 -3.4224603885e+00 1.9759584266e+00 3.4224603885e+00 
16700 3.5867214008e+00 6.5102141120e-03 1.9757939041e+00 -3.4221754271e+00 1.9757939041e+00 3.4221754271e+00 
16800 3.5867126322e+00 6.5178031242e-03 1.9756291570e+00 -3.4218900769e+00 1.9756291570e+00 3.4218900769e+00 
16900 3.5867040479e+00 6.5246654095e-03 1.9754642042e+00 -3.4216043702e+00 1.9754642042e+00 3.4216043702e+00 
17000 3.5866956429e+00 6.5308155789e-03 1.9752990639e+00 -3.4213183388e+00 1.9752990639e+00 3.4213183388e+00 
17100 3.5866874126e+00 6.5362681458e-03 1.9751337541e+00 -3.4210320139e+00 1.9751337541e+00 3.4210320139e+00 
17200 3.5866793525e+00 6.5410375241e-03 1.9749682925e+00 -3.4207454260e+00 1.9749682925e+00 3.4207454260e+00 
17300 3.5866714580e+00 6.5451380258e-03 1.9748026963e+00 -3.4204586049e+00 1.9748026963e+00 3.4204586049e+00 
17400 3.5866637251e+00 6.5485838578e-03 1.9746369823e+00 -3.4201715799e+00 1.9746369823e+00 3.4201715799e+00 
17500 3.5866561496e+00 6.5513891183e-03 1.9744711673e+00 -3.4198843798e+00 1.9744711673e+00 3.4198843798e+00 
17600 3.5866487276e+00 6.5535677924e-03 1.9743052672e+00 -3.4195970325e+00 1.9743052672e+00 3.4195970325e+00 
17700 3.5866414551e+00 6.5551337475e-03 1.9741392980e+00 -3.4193095654e+00 1.9741392980e+00 3.4193095654e+00 
17800 3.5866343285e+00 6.5561007286e-03 1.9739732753e+00 -3.4190220055e+00 1.9739732753e+00 3.4190220055e+00 
17900 3.5866273442e+00 6.5564823534e-03 1.9738072140e+00 -3.4187343790e+00 1.9738072140e+00 3.4187343790e+00 
18000 3.5866204987e+00 6.5562921066e-03 1.9736411292e+00 -3.4184467116e+00 1.9736411292e+00 3.4184467116e+00 
18100 3.5866137887e+00 6.5555433356e-03 1.9734750351e+00 -3.4181590283e+00 1.9734750351e+00 3.4181590283e+00 
18200 3.5866072107e+00 6.5542492448e-03 1.9733089461e+00 -3.4178713537e+00 1.9733089461e+00 3.4178713537e+00 
18300 3.5866007616e+00 6.5524228907e-03 1.9731428759e+00 -3.4175837116e+00 1.9731428759e+00 3.4175837116e+00 
18400 3.5865944384e+00 6.5500771772e-03 1.9729768379e+00 -3.4172961255e+00 1.9729768379e+00 3.4172961255e+00 
18500 3.5865882381e+00 6.5472248505e-03 1.9728108455e+00 -3.4170086181e+00 1.9728108455e+00 3.4170086181e+00 
18600 3.5865821576e+00 6.5438784947e-03 1.9726449114e+00 -3.4167212118e+00 1.9726449114e+00 3.4167212118e+00 
18700 3.5865761943e+00 6.5400505277e-03 1.9724790481e+00 -3.4164339281e+00 1.9724790481e+00 3.4164339281e+00 
18800 3.5865703453e+00 6.5357531964e-03 1.9723132679e+00 -3.4161467884e+00 1.9723132679e+00 3.4161467884e+00 
18900 3.5865646080e+00 6.5309985738e-03 1.9721475827e+00 -3.4158598133e+00 1.9721475827e+00 3.4158598133e+00 
19000 3.5865589798e+00 6.5257985546e-03 1.9719820041e+00 -3.4155730228e+00 1.9719820041e+00 3.4155730228e+00 
19100 3.5865534581e+00 6.5201648523e-03 1.9718165435e+00 -3.4152864366e+00 1.9718165435e+00 3.4152864366e+00 
19200 3.5865480405e+00 6.5141089962e-03 1.9716512119e+00 -3.4150000738e+00 1.9716512119e+00 3.4150000738e+00 
19300 3.5865427246e+00 6.5076423288e-03 1.9714860199e+00 -3.4147139529e+00 1.9714860199e+00 3.4147139529e+00 
19400 3.5865375081e+00 6.5007760029e-03 1.9713209781e+00 -3.4144280922e+00 1.9713209781e+00 3.4144280922e+00 
19500 3.5865323887e+00 6.4935209804e-03 1.9711560967e+00 -3.4141425091e+00 1.9711560967e+00 3.4141425091e+00 
19600 3.5865273642e+00 6.4858880295e-03 1.9709913855e+00 -3.4138572209e+00 1.9709913855e+00 3.4138572209e+00 
19700 3.5865224325e+00 6.4778877242e-03 1.9708268541e+00 -3.4135722442e+00 1.9708268541e+00 3.4135722442e+00 
19800 3.5865175914e+00 6.4695304422e-03 1.9706625120e+00 -3.4132875953e+00 1.9706625120e+00 3.4132875953e+00 
19900 3.5865128390e+00 6.4608263647e-03 1.9704983682e+00 -3.4130032899e+00 1.9704983682e+00 3.4130032899e+00 
20000 3.5865081733e+00 6.4517854755e-03 1.9703344316e+00 -3.4127193434e+00 1.9703344316e+00 3.4127193434e+00 
20100 3.5865035922e+00 6.4424175607e-03 1.9701707107e+00 -3.4124357706e+00 1.9701707107e+00 3.4124357706e+00 
20200 3.5864990940e+00 6.4327322083e-03 1.9700072140e+00 -3.4121525860e+00 1.9700072140e+00 3.4121525860e+00 
20300 3.5864946768e+00 6.4227388092e-03 1.9698439496e+00 -3.4118698036e+00 1.9698439496e+00 3.4118698036e+00 
20400 3.5864903388e+00 6.4124465567e-03 1.9696809252e+00 -3.4115874372e+00 1.9696809252e+00 3.4115874372e+00 
20500 3.5864860783e+00 6.4018644476e-03 1.9695181486e+00 -3.4113054999e+00 1.9695181486e+00 3.4113054999e+00 
20600 3.5864818935e+00 6.3910012831e-03 1.9693556273e+00 -3.4110240046e+00 1.9693556273e+00 3.4110240046e+00 
20700 3.5864777828e+00 6.3798656700e-03 1.9691933683e+00 -3.4107429637e+00 1.9691933683e+00 3.4107429637e+00 
20800 3.5864737447e+00 6.3684660215e-03 1.9690313786e+00 -3.4104623895e+00 1.9690313786e+00 3.4104623895e+00 
20900 3.5864697774e+00 6.3568105593e-03 1.9688696651e+00 -3.4101822935e+00 1.9688696651e+00 3.4101822935e+00 
21000 3.5864658796e+00 6.3449073149e-03 1.9687082343e+00 -3.4099026872e+00 1.9687082343e+00 3.4099026872e+00 
21100 3.5864620496e+00 6.3327641314e-03 1.9685470926e+00 -3.4096235815e+00 1.9685470926e+00 3.4096235815e+00 
21200 3.5864582861e+00 6.3203886658e-03 1.9683862461e+00 -3.4093449872e+00 1.9683862461e+00 3.4093449872e+00 
21300 3.5864545875e+00 6.3077883908e-03 1.9682257008e+00 -3.4090669146e+00 1.9682257008e+00 3.4090669146e+00 
21400 3.5864509525e+00 6.2949705973e-03 1.9680654625e+00 -3.4087893737e+00 1.9680654625e+00 3.4087893737e+00 
21500 3.5864473798e+00 6.2819423966e-03 1.9679055368e+00 -3.4085123743e+00 1.9679055368e+00 3.4085123743e+00 
21600 3.5864438680e+00 6.2687107233e-03 1.9677459291e+00 -3.4082359256e+00 1.9677459291e+00 3.4082359256e+00 
21700 3.5864404158e+00 6.2552823374e-03 1.9675866447e+00 -3.4079600369e+00 1.9675866447e+00 3.4079600369e+00 
21800 3.5864370220e+00 6.2416638271e-03 1.9674276886e+00 -3.4076847169e+00 1.9674276886e+00 3.4076847169e+00 
21900 3.5864336854e+00 6.2278616121e-03 1.9672690657e+00 -3.4074099740e+00 1.9672690657e+00 3.4074099740e+00 
22000 3.5864304046e+00 6.2138819458e-03 1.9671107809e+00 -3.4071358166e+00 1.9671107809e+00 3.4071358166e+00 
22100 3.5864271787e+00 6.1997309185e-03 1.9669528386e+00 -3.4068622526e+00 1.9669528386e+00 3.4068622526e+00 
22200 3.5864240063e+00 6.1854144605e-03 1.9667952434e+00 -3.4065892896e+00 1.9667952434e+00 3.4065892896e+00 
22300 3.5864208865e+00 6.1709383450e-03 1.9666379994e+00 -3.4063169351e+00 1.9666379994e+00 3.4063169351e+00 
22400 3.5864178181e+00 6.1563081910e-03 1.9664811110e+00 -3.4060451963e+00 1.9664811110e+00 3.4060451963e+00 
22500 3.5864148000e+00 6.1415294668e-03 1.9663245820e+00 -3.4057740802e+00 1.9663245820e+00 3.4057740802e+00 
22600 3.5864118312e+00 6.1266074927e-03 1.9661684163e+00 -3.4055035933e+00 1.9661684163e+00 3.4055035933e+00 
22700 3.5864089108e+00 6.1115474445e-03 1.9660126177e+00 -3.4052337421e+00 1.9660126177e+00 3.4052337421e+00 
22800 3.5864060376e+00 6.0963543564e-03 1.9658571897e+00 -3.4049645330e+00 1.9658571897e+00 3.4049645330e+00 
22900 3.5864032108e+00 6.0810331242e-03 1.9657021359e+00 -3.4046959719e+00 1.9657021359e+00 3.4046959719e+00 
23000 3.5864004294e+00 6.0655885086e-03 1.9655474595e+00 -3.4044280645e+00 1.9655474595e+00 3.4044280645e+00 
23100 3.5863976925e+00 6.0500251382e-03 1.9653931638e+00 -3.4041608166e+00 1.9653931638e+00 3.4041608166e+00 
23200 3.5863949992e+00 6.0343475128e-03 1.9652392520e+00 -3.4038942335e+00 1.9652392520e+00 3.4038942335e+00 
23300 3.5863923486e+00 6.0185600062e-03 1.9650857269e+00 -3.4036283203e+00 1.9650857269e+00 3.4036283203e+00 
23400 3.5863897398e+00 6.0026668697e-03 1.9649325916e+00 -3.4033630821e+00 1.9649325916e+00 3.4033630821e+00 
23500 3.5863871721e+00 5.9866722350e-03 1.9647798487e+00 -3.4030985236e+00 1.9647798487e+00 3.4030985236e+00 
23600 3.5863846445e+00 5.9705801173e-03 1.9646275010e+00 -3.4028346496e+00 1.9646275010e+00 3.4028346496e+00 
23700 3.5863821564e+00 5.9543944181e-03 1.9644755510e+00 -3.4025714645e+00 1.9644755510e+00 3.4025714645e+00 
23800 3.5863797068e+00 5.9381189284e-03 1.9643240012e+00 -3.4023089725e+00 1.9643240012e+00 3.4023089725e+00 
23900 3.5863772951e+00 5.9217573319e-03 1.9641728539e+00 -3.4020471779e+00 1.9641728539e+00 3.4020471779e+00 
24000 3.5863749206e+00 5.9053132073e-03 1.9640221116e+00 -3.4017860844e+00 1.9640221116e+00 3.4017860844e+00 
24100 3.5863725824e+00 5.8887900315e-03 1.9638717762e+00 -3.4015256960e+00 1.9638717762e+00 3.4015256960e+00 
24200 3.5863702799e+00 5.8721911827e-03 1.9637218501e+00 -3.4012660163e+00 1.9637218501e+00 3.4012660163e+00 
24300 3.5863680124e+00 5.8555199425e-03 1.9635723351e+00 -3.4010070487e+00 1.9635723351e+00 3.4010070487e+00 
24400 3.5863657792e+00 5.8387794992e-03 1.9634232332e+00 -3.4007487967e+00 1.9634232332e+00 3.4007487967e+00 
24500 3.5863635797e+00 5.8219729503e-03 1.9632745463e+00 -3.4004912635e+00 1.9632745463e+00 3.4004912635e+00 
24600 3.5863614131e+00 5.8051033051e-03 1.9631262762e+00 -3.4002344521e+00 1.9631262762e+00 3.4002344521e+00 
24700 3.5863592790e+00 5.7881734870e-03 1.9629784245e+00 -3.3999783654e+00 1.9629784245e+00 3.3999783654e+00 
24800 3.5863571765e+00 5.7711863366e-03 1.9628309929e+00 -3.3997230064e+00 1.9628309929e+00 3.3997230064e+00 
24900 3.5863551052e+00 5.7541446137e-03 1.9626839830e+00 -3.3994683777e+00 1.9626839830e+00 3.3994683777e+00 
25000 3.5863530645e+00 5.7370509997e-03 1.9625373961e+00 -3.3992144818e+00 1.9625373961e+00 3.3992144818e+00 
25100 3.5863510538e+00 5.7199081004e-03 1.9623912338e+00 -3.3989613213e+00 1.9623912338e+00 3.3989613213e+00 
25200 3.5863490725e+00 5.7027184477e-03 1.9622454974e+00 -3.3987088984e+00 1.9622454974e+00 3.3987088984e+00 
25300 3.5863471200e+00 5.6854845023e-03 1.9621001882e+00 -3.3984572154e+00 1.9621001882e+00 3.3984572154e+00 
25400 3.5863451959e+00 5.6682086554e-03 1.9619553073e+00 -3.3982062745e+00 1.9619553073e+00 3.3982062745e+00 
25500 3.5863432996e+00 5.6508932315e-03 1.9618108560e+00 -3.3979560775e+00 1.9618108560e+00 3.3979560775e+00 
25600 3.5863414305e+00 5.6335404899e-03 1.9616668354e+00 -3.3977066265e+00 1.9616668354e+00 3.3977066265e+00 
25700 3.5863395883e+00 5.6161526268e-03 1.9615232465e+00 -3.3974579232e+00 1.9615232465e+00 3.3974579232e+00 
25800 3.5863377723e+00 5.5987317775e-03 1.9613800903e+00 -3.3972099694e+00 1.9613800903e+00 3.3972099694e+00 
25900 3.5863359822e+00 5.5812800182e-03 1.9612373678e+00 -3.3969627667e+00 1.9612373678e+00 3.3969627667e+00 
26000 3.5863342174e+00 5.5637993677e-03 1.9610950797e+00 -3.3967163165e+00 1.9610950797e+00 3.3967163165e+00 
26100 3.5863324774e+00 5.5462917893e-03 1.9609532270e+00 -3.3964706205e+00 1.9609532270e+00 3.3964706205e+00 
26200 3.5863307619e+00 5.5287591925e-03 1.9608118105e+00 -3.3962256798e+00 1.9608118105e+00 3.3962256798e+00 
26300 3.5863290704e+00 5.5112034349e-03 1.9606708308e+00 -3.3959814958e+00 1.9606708308e+00 3.3959814958e+00 
26400 3.5863274025e+00 5.4936263235e-03 1.9605302886e+00 -3.3957380697e+00 1.9605302886e+00 3.3957380697e+00 
26500 3.5863257577e+00 5.4760296166e-03 1.9603901847e+00 -3.3954954025e+00 1.9603901847e+00 3.3954954025e+00 
26600 3.5863241356e+00 5.4584150251e-03 1.9602505195e+00 -3.3952534954e+00 1.9602505195e+00 3.3952534954e+00 
26700 3.5863225358e+00 5.4407842141e-03 1.9601112937e+00 -3.3950123491e+00 1.9601112937e+00 3.3950123491e+00 
26800 3.5863209580e+00 5.4231388043e-03 1.9599725077e+00 -3.3947719647e+00 1.9599725077e+00 3.3947719647e+00 
26900 3.5863194017e+00 5.4054803734e-03 1.9598341620e+00 -3.3945323430e+00 1.9598341620e+00 3.3945323430e+00 
27000 3.5863178666e+00 5.3878104576e-03 1.9596962570e+00 -3.3942934846e+00 1.9596962570e+00 3.3942934846e+00 
27100 3.5863163522e+00 5.3701305527e-03 1.9595587932e+00 -3.3940553902e+00 1.9595587932e+00 3.3940553902e+00 
27200 3.5863148583e+00 5.3524421154e-03 1.9594217708e+00 -3.3938180605e+00 1.9594217708e+00 3.3938180605e+00 
27300 3.5863133845e+00 5.3347465645e-03 1.9592851902e+00 -3.3935814960e+00 1.9592851902e+00 3.3935814960e+00 
27400 3.5863119304e+00 5.3170452822e-03 1.9591490517e+00 -3.3933456971e+00 1.9591490517e+00 3.3933456971e+00 
27500 3.5863104957e+00 5.2993396152e-03 1.9590133554e+00 -3.3931106643e+00 1.9590133554e+00 3.3931106643e+00 
27600 3.5863090801e+00 5.2816308756e-03 1.9588781016e+00 -3.3928763979e+00 1.9588781016e+00 3.3928763979e+00 
27700 3.5863076832e+00 5.2639203423e-03 1.9587432905e+00 -3.3926428982e+00 1.9587432905e+00 3.3926428982e+00 
27800 3.5863063047e+00 5.2462092617e-03 1.9586089222e+00 -3.3924101655e+00 1.9586089222e+00 3.3924101655e+00 
27900 3.5863049443e+00 5.2284988488e-03 1.9584749968e+00 -3.3921781999e+00 1.9584749968e+00 3.3921781999e+00 
28000 3.5863036017e+00 5.2107902883e-03 1.9583415144e+00 -3.3919470016e+00 1.9583415144e+00 3.3919470016e+00 
28100 3.5863022766e+00 5.1930847352e-03 1.9582084750e+00 -3.3917165706e+00 1.9582084750e+00 3.3917165706e+00 
28200 3.5863009688e+00 5.1753833160e-03 1.9580758787e+00 -3.3914869070e+00 1.9580758787e+00 3.3914869070e+00 
28300 3.5862996778e+00 5.1576871293e-03 1.9579437254e+00 -3.3912580107e+00 1.9579437254e+00 3.3912580107e+00 
28400 3.5862984035e+00 5.1399972468e-03 1.9578120150e+00 -3.3910298816e+00 1.9578120150e+00 3.3910298816e+00 
28500 3.5862971455e+00 5.1223147141e-03 1.9576807475e+00 -3.3908025197e+00 1.9576807475e+00 3.3908025197e+00 
28600 3.5862959037e+00 5.1046405512e-03 1.9575499229e+00 -3.3905759248e+00 1.9575499229e+00 3.3905759248e+00 
28700 3.5862946776e+00 5.0869757534e-03 1.9574195409e+00 -3.3903500966e+00 1.9574195409e+00 3.3903500966e+00 
28800 3.5862934672e+00 5.0693212922e-03 1.9572896015e+00 -3.3901250350e+00 1.9572896015e+00 3.3901250350e+00 
28900 3.5862922721e+00 5.0516781157e-03 1.9571601044e+00 -3.3899007394e+00 1.9571601044e+00 3.3899007394e+00 
29000 3.5862910920e+00 5.0340471493e-03 1.9570310495e+00 -3.3896772098e+00 1.9570310495e+00 3.3896772098e+00 
29100 3.5862899268e+00 5.0164292963e-03 1.9569024365e+00 -3.3894544456e+00 1.9569024365e+00 3.3894544456e+00 
29200 3.5862887761e+00 4.9988254388e-03 1.9567742653e+00 -3.3892324464e+00 1.9567742653e+00 3.3892324464e+00 
29300 3.5862876399e+00 4.9812364380e-03 1.9566465354e+00 -3.3890112117e+00 1.9566465354e+00 3.3890112117e+00 
29400 3.5862865177e+00 4.9636631346e-03 1.9565192466e+00 -3.3887907411e+00 1.9565192466e+00 3.3887907411e+00 
29500 3.5862854094e+00 4.9461063498e-03 1.9563923986e+00 -3.3885710340e+00 1.9563923986e+00 3.3885710340e+00 
29600 3.5862843149e+00 4.9285668856e-03 1.9562659912e+00 -3.3883520898e+00 1.9562659912e+00 3.3883520898e+00 
29700 3.5862832338e+00 4.9110455252e-03 1.9561400238e+00 -3.3881339079e+00 1.9561400238e+00 3.3881339079e+00 
29800 3.5862821659e+00 4.8935430335e-03 1.9560144961e+00 -3.3879164876e+00 1.9560144961e+00 3.3879164876e+00 
29900 3.5862811111e+00 4.8760601578e-03 1.9558894078e+00 -3.3876998283e+00 1.9558894078e+00 3.3876998283e+00 
30000 3.5862800692e+00 4.8585976279e-03 1.9557647584e+00 -3.3874839293e+00 1.9557647584e+00 3.3874839293e+00 
30100 3.5862790399e+00 4.8411561571e-03 1.9556405475e+00 -3.3872687897e+00 1.9556405475e+00 3.3872687897e+00 
30200 3.5862780231e+00 4.8237364417e-03 1.9555167747e+00 -3.3870544087e+00 1.9555167747e+00 3.3870544087e+00 
30300 3.5862770185e+00 4.8063391623e-03 1.9553934393e+00 -3.3868407857e+00 1.9553934393e+00 3.3868407857e+00 
30400 3.5862760260e+00 4.7889649838e-03 1.9552705411e+00 -3.3866279197e+00 1.9552705411e+00 3.3866279197e+00 
30500 3.5862750453e+00 4.7716145556e-03 1.9551480794e+00 -3.3864158098e+00 1.9551480794e+00 3.3864158098e+00 
30600 3.5862740764e+00 4.7542885125e-03 1.9550260537e+00 -3.3862044552e+00 1.9550260537e+00 3.3862044552e+00 
30700 3.5862731190e+00 4.7369874743e-03 1.9549044635e+00 -3.3859938548e+00 1.9549044635e+00 3.3859938548e+00 
30800 3.5862721730e+00 4.7197120468e-03 1.9547833083e+00 -3.3857840078e+00 1.9547833083e+00 3.3857840078e+00 
30900 3.5862712382e+00 4.7024628219e-03 1.9546625874e+00 -3.3855749130e+00 1.9546625874e+00 3.3855749130e+00 
31000 3.5862703144e+00 4.6852403777e-03 1.9545423003e+00 -3.3853665696e+00 1.9545423003e+00 3.3853665696e+00 
31100 3.5862694014e+00 4.6680452791e-03 1.9544224463e+00 -3.3851589765e+00 1.9544224463e+00 3.3851589765e+00 
31200 3.5862684992e+00 4.6508780779e-03 1.9543030249e+00 -3.3849521326e+00 1.9543030249e+00 3.3849521326e+00 
31300 3.5862676074e+00 4.6337393133e-03 1.9541840354e+00 -3.3847460367e+00 1.9541840354e+00 3.3847460367e+00 
31400 3.5862667261e+00 4.6166295118e-03 1.9540654772e+00 -3.3845406878e+00 1.9540654772e+00 3.3845406878e+00 
31500 3.5862658550e+00 4.5995491879e-03 1.9539473495e+00 -3.3843360847e+00 1.9539473495e+00 3.3843360847e+00 
31600 3.5862649939e+00 4.5824988441e-03 1.9538296518e+00 -3.3841322263e+00 1.9538296518e+00 3.3841322263e+00 
31700 3.5862641428e+00 4.5654789710e-03 1.9537123833e+00 -3.3839291113e+00 1.9537123833e+00 3.3839291113e+00 
31800 3.5862633015e+00 4.5484900481e-03 1.9535955434e+00 -3.3837267386e+00 1.9535955434e+00 3.3837267386e+00 
31900 3.5862624699e+00 4.5315325434e-03 1.9534791312e+00 -3.3835251068e+00 1.9534791312e+00 3.3835251068e+00 
32000 3.5862616477e+00 4.5146069139e-03 1.9533631462e+00 -3.3833242148e+00 1.9533631462e+00 3.3833242148e+00 
32100 3.5862608350e+00 4.4977136059e-03 1.9532475875e+00 -3.3831240612e+00 1.9532475875e+00 3.3831240612e+00 
32200 3.5862600314e+00 4.4808530551e-03 1.9531324544e+00 -3.3829246448e+00 1.9531324544e+00 3.3829246448e+00 
32300 3.5862592370e+00 4.4640256869e-03 1.9530177461e+00 -3.3827259643e+00 1.9530177461e+00 3.3827259643e+00 
32400 3.5862584516e+00 4.4472319164e-03 1.9529034619e+00 -3.3825280182e+00 1.9529034619e+00 3.3825280182e+00 
32500 3.5862576750e+00 4.4304721487e-03 1.9527896009e+00 -3.3823308053e+00 1.9527896009e+00 3.3823308053e+00 
32600 3.5862569072e+00 4.4137467794e-03 1.9526761624e+00 -3.3821343241e+00 1.9526761624e+00 3.3821343241e+00 
32700 3.5862561479e+00 4.3970561941e-03 1.9525631456e+00 -3.3819385732e+00 1.9525631456e+00 3.3819385732e+00 
32800 3.5862553972e+00 4.3804007692e-03 1.9524505497e+00 -3.3817435513e+00 1.9524505497e+00 3.3817435513e+00 
32900 3.5862546548e+00 4.3637808720e-03 1.9523383738e+00 -3.3815492569e+00 1.9523383738e+00 3.3815492569e+00 
33000 3.5862539207e+00 4.3471968603e-03 1.9522266170e+00 -3.3813556886e+00 1.9522266170e+00 3.3813556886e+00 
33100 3.5862531947e+00 4.3306490834e-03 1.9521152786e+00 -3.3811628448e+00 1.9521152786e+00 3.3811628448e+00 
33200 3.5862524768e+00 4.3141378817e-03 1.9520043577e+00 -3.3809707242e+00 1.9520043577e+00 3.3809707242e+00 
33300 3.5862517667e+00 4.2976635869e-03 1.9518938534e+00 -3.3807793251e+00 1.9518938534e+00 3.3807793251e+00 
33400 3.5862510645e+00 4.2812265224e-03 1.9517837649e+00 -3.3805886462e+00 1.9517837649e+00 3.3805886462e+00 
33500 3.5862503700e+00 4.2648270032e-03 1.9516740912e+00 -3.3803986858e+00 1.9516740912e+00 3.3803986858e+00 
33600 3.5862496831e+00 4.2484653363e-03 1.9515648315e+00 -3.3802094424e+00 1.9515648315e+00 3.3802094424e+00 
33700 3.5862490037e+00 4.2321418205e-03 1.9514559848e+00 -3.3800209145e+00 1.9514559848e+00 3.3800209145e+00 
33800 3.5862483317e+00 4.2158567470e-03 1.9513475504e+00 -3.3798331004e+00 1.9513475504e+00 3.3798331004e+00 
33900 3.5862476670e+00 4.1996103991e-03 1.9512395271e+00 -3.3796459987e+00 1.9512395271e+00 3.3796459987e+00 
34000 3.5862470095e+00 4.1834030525e-03 1.9511319142e+00 -3.3794596076e+00 1.9511319142e+00 3.3794596076e+00 
34100 3.5862463592e+00 4.1672349756e-03 1.9510247107e+00 -3.3792739257e+00 1.9510247107e+00 3.3792739257e+00 
34200 3.5862457158e+00 4.1511064293e-03 1.9509179156e+00 -3.3790889512e+00 1.9509179156e+00 3.3790889512e+00 
34300 3.5862450794e+00 4.1350176673e-03 1.9508115280e+00 -3.3789046825e+00 1.9508115280e+00 3.3789046825e+00 
34400 3.5862444498e+00 4.1189689364e-03 1.9507055470e+00 -3.3787211179e+00 1.9507055470e+00 3.3787211179e+00 
34500 3.5862438269e+00 4.1029604763e-03 1.9505999715e+00 -3.3785382559e+00 1.9505999715e+00 3.3785382559e+00 
34600 3.5862432107e+00 4.0869925199e-03 1.9504948007e+00 -3.3783560947e+00 1.9504948007e+00 3.3783560947e+00 
34700 3.5862426011e+00 4.0710652933e-03 1.9503900336e+00 -3.3781746327e+00 1.9503900336e+00 3.3781746327e+00 
34800 3.5862419979e+00 4.0551790162e-03 1.9502856691e+00 -3.3779938681e+00 1.9502856691e+00 3.3779938681e+00 
34900 3.5862414012e+00 4.0393339017e-03 1.9501817063e+00 -3.3778137993e+00 1.9501817063e+00 3.3778137993e+00 
35000 3.5862408108e+00 4.0235301563e-03 1.9500781442e+00 -3.3776344244e+00 1.9500781442e+00 3.3776344244e+00 
35100 3.5862402266e+00 4.0077679806e-03 1.9499749818e+00 -3.3774557419e+00 1.9499749818e+00 3.3774557419e+00 
35200 3.5862396486e+00 3.9920475688e-03 1.9498722181e+00 -3.3772777500e+00 1.9498722181e+00 3.3772777500e+00 
35300 3.5862390766e+00 3.9763691091e-03 1.9497698521e+00 -3.3771004469e+00 1.9497698521e+00 3.3771004469e+00 
35400 3.5862385107e+00 3.9607327837e-03 1.9496678828e+00 -3.3769238308e+00 1.9496678828e+00 3.3769238308e+00 
35500 3.5862379507e+00 3.9451387689e-03 1.9495663091e+00 -3.3767479001e+00 1.9495663091e+00 3.3767479001e+00 
35600 3.5862373965e+00 3.9295872354e-03 1.9494651300e+00 -3.3765726528e+00 1.9494651300e+00 3.3765726528e+00 
35700 3.5862368482e+00 3.9140783481e-03 1.9493643446e+00 -3.3763980874e+00 1.9493643446e+00 3.3763980874e+00 
35800 3.5862363055e+00 3.8986122665e-03 1.9492639518e+00 -3.3762242018e+00 1.9492639518e+00 3.3762242018e+00 
35900 3.5862357685e+00 3.8831891443e-03 1.9491639505e+00 -3.3760509945e+00 1.9491639505e+00 3.3760509945e+00 
36000 3.5862352370e+00 3.8678091301e-03 1.9490643397e+00 -3.3758784635e+00 1.9490643397e+00 3.3758784635e+00 
36100 3.5862347111e+00 3.8524723673e-03 1.9489651183e+00 -3.3757066071e+00 1.9489651183e+00 3.3757066071e+00 
36200 3.5862341906e+00 3.8371789936e-03 1.9488662853e+00 -3.3755354234e+00 1.9488662853e+00 3.3755354234e+00 
36300 3.5862336754e+00 3.8219291423e-03 1.9487678397e+00 -3.3753649106e+00 1.9487678397e+00 3.3753649106e+00 
36400 3.5862331656e+00 3.8067229410e-03 1.9486697804e+00 -3.3751950668e+00 1.9486697804e+00 3.3751950668e+00 
36500 3.5862326610e+00 3.7915605128e-03 1.9485721063e+00 -3.3750258903e+00 1.9485721063e+00 3.3750258903e+00 
36600 3.5862321616e+00 3.7764419759e-03 1.9484748164e+00 -3.3748573792e+00 1.9484748164e+00 3.3748573792e+00 
36700 3.5862316672e+00 3.7613674435e-03 1.9483779095e+00 -3.3746895317e+00 1.9483779095e+00 3.3746895317e+00 
36800 3.5862311780e+00 3.7463370244e-03 1.9482813847e+00 -3.3745223458e+00 1.9482813847e+00 3.3745223458e+00 
36900 3.5862306937e+00 3.7313508225e-03 1.9481852409e+00 -3.3743558197e+00 1.9481852409e+00 3.3743558197e+00 
37000 3.5862302143e+00 3.7164089374e-03 1.9480894769e+00 -3.3741899516e+00 1.9480894769e+00 3.3741899516e+00 
37100 3.5862297399e+00 3.7015114643e-03 1.9479940916e+00 -3.3740247396e+00 1.9479940916e+00 3.3740247396e+00 
37200 3.5862292702e+00 3.6866584937e-03 1.9478990841e+00 -3.3738601817e+00 1.9478990841e+00 3.3738601817e+00 
37300 3.5862288053e+00 3.6718501122e-03 1.9478044532e+00 -3.3736962762e+00 1.9478044532e+00 3.3736962762e+00 
37400 3.5862283451e+00 3.6570864019e-03 1.9477101979e+00 -3.3735330211e+00 1.9477101979e+00 3.3735330211e+00 
37500 3.5862278895e+00 3.6423674409e-03 1.9476163169e+00 -3.3733704146e+00 1.9476163169e+00 3.3733704146e+00 
37600 3.5862274385e+00 3.6276933031e-03 1.9475228093e+00 -3.3732084547e+00 1.9475228093e+00 3.3732084547e+00 
37700 3.5862269921e+00 3.6130640585e-03 1.9474296740e+00 -3.3730471395e+00 1.9474296740e+00 3.3730471395e+00 
37800 3.5862265501e+00 3.5984797732e-03 1.9473369098e+00 -3.3728864672e+00 1.9473369098e+00 3.3728864672e+00 
37900 3.5862261126e+00 3.5839405093e-03 1.9472445156e+00 -3.3727264358e+00 1.9472445156e+00 3.3727264358e+00 
38000 3.5862256794e+00 3.5694463252e-03 1.9471524904e+00 -3.3725670434e+00 1.9471524904e+00 3.3725670434e+00 
38100 3.5862252506e+00 3.5549972756e-03 1.9470608330e+00 -3.3724082882e+00 1.9470608330e+00 3.3724082882e+00 
38200 3.5862248261e+00 3.5405934114e-03 1.9469695423e+00 -3.3722501681e+00 1.9469695423e+00 3.3722501681e+00 
38300 3.5862244058e+00 3.5262347800e-03 1.9468786173e+00 -3.3720926813e+00 1.9468786173e+00 3.3720926813e+00 
38400 3.5862239896e+00 3.5119214254e-03 1.9467880568e+00 -3.3719358259e+00 1.9467880568e+00 3.3719358259e+00 
38500 3.5862235776e+00 3.4976533878e-03 1.9466978596e+00 -3.3717795998e+00 1.9466978596e+00 3.3717795998e+00 
38600 3.5862231697e+00 3.4834307043e-03 1.9466080248e+00 -3.3716240013e+00 1.9466080248e+00 3.3716240013e+00 
38700 3.5862227658e+00 3.4692534085e-03 1.9465185511e+00 -3.3714690283e+00 1.9465185511e+00 3.3714690283e+00 
38800 3.5862223660e+00 3.4551215307e-03 1.9464294374e+00 -3.3713146790e+00 1.9464294374e+00 3.3713146790e+00 
38900 3.5862219700e+00 3.4410350981e-03 1.9463406827e+00 -3.3711609513e+00 1.9463406827e+00 3.3711609513e+00 
39000 3.5862215780e+00 3.4269941346e-03 1.9462522859e+00 -3.3710078434e+00 1.9462522859e+00 3.3710078434e+00 
39100 3.5862211898e+00 3.4129986610e-03 1.9461642457e+00 -3.3708553534e+00 1.9461642457e+00 3.3708553534e+00 
39200 3.5862208055e+00 3.3990486952e-03 1.9460765611e+00 -3.3707034792e+00 1.9460765611e+00 3.3707034792e+00 
39300 3.5862204249e+00 3.3851442520e-03 1.9459892309e+00 -3.3705522189e+00 1.9459892309e+00 3.3705522189e+00 
39400 3.5862200481e+00 3.3712853431e-03 1.9459022541e+00 -3.3704015706e+00 1.9459022541e+00 3.3704015706e+00 
39500 3.5862196749e+00 3.3574719775e-03 1.9458156295e+00 -3.3702515324e+00 1.9458156295e+00 3.3702515324e+00 
39600 3.5862193055e+00 3.3437041614e-03 1.9457293560e+00 -3.3701021023e+00 1.9457293560e+00 3.3701021023e+00 
39700 3.5862189396e+00 3.3299818981e-03 1.9456434324e+00 -3.3699532783e+00 1.9456434324e+00 3.3699532783e+00 
39800 3.5862185772e+00 3.3163051882e-03 1.9455578577e+00 -3.3698050586e+00 1.9455578577e+00 3.3698050586e+00 
39900 3.5862182185e+00 3.3026740296e-03 1.9454726307e+00 -3.3696574411e+00 1.9454726307e+00 3.3696574411e+00 
40000 3.5862178632e+00 3.2890884176e-03 1.9453877503e+00 -3.3695104239e+00 1.9453877503e+00 3.3695104239e+00 
40100 3.5862175113e+00 3.2755483449e-03 1.9453032154e+00 -3.3693640051e+00 1.9453032154e+00 3.3693640051e+00 
40200 3.5862171629e+00 3.2620538016e-03 1.9452190248e+00 -3.3692181827e+00 1.9452190248e+00 3.3692181827e+00 
40300 3.5862168179e+00 3.2486047755e-03 1.9451351774e+00 -3.3690729548e+00 1.9451351774e+00 3.3690729548e+00 
40400 3.5862164762e+00 3.2352012519e-03 1.9450516721e+00 -3.3689283194e+00 1.9450516721e+00 3.3689283194e+00 
40500 3.5862161378e+00 3.2218432134e-03 1.9449685078e+00 -3.3687842746e+00 1.9449685078e+00 3.3687842746e+00 
40600 3.5862158026e+00 3.2085306408e-03 1.9448856833e+00 -3.3686408184e+00 1.9448856833e+00 3.3686408184e+00 
40700 3.5862154707e+00 3.1952635121e-03 1.9448031975e+00 -3.3684979488e+00 1.9448031975e+00 3.3684979488e+00 
40800 3.5862151420e+00 3.1820418033e-03 1.9447210493e+00 -3.3683556640e+00 1.9447210493e+00 3.3683556640e+00 
40900 3.5862148165e+00 3.1688654881e-03 1.9446392376e+00 -3.3682139619e+00 1.9446392376e+00 3.3682139619e+00 
41000 3.5862144941e+00 3.1557345380e-03 1.9445577612e+00 -3.3680728407e+00 1.9445577612e+00 3.3680728407e+00 
41100 3.5862141748e+00 3.1426489225e-03 1.9444766191e+00 -3.3679322983e+00 1.9444766191e+00 3.3679322983e+00 
41200 3.5862138586e+00 3.1296086090e-03 1.9443958100e+00 -3.3677923329e+00 1.9443958100e+00 3.3677923329e+00 
41300 3.5862135454e+00 3.1166135625e-03 1.9443153329e+00 -3.3676529425e+00 1.9443153329e+00 3.3676529425e+00 
41400 3.5862132352e+00 3.1036637466e-03 1.9442351866e+00 -3.3675141251e+00 1.9442351866e+00 3.3675141251e+00 
41500 3.5862129280e+00 3.0907591223e-03 1.9441553701e+00 -3.3673758788e+00 1.9441553701e+00 3.3673758788e+00 
41600 3.5862126237e+00 3.0778996491e-03 1.9440758821e+00 -3.3672382016e+00 1.9440758821e+00 3.3672382016e+00 
41700 3.5862123223e+00 3.0650852844e-03 1.9439967217e+00 -3.3671010917e+00 1.9439967217e+00 3.3671010917e+00 
41800 3.5862120238e+00 3.0523159838e-03 1.9439178876e+00 -3.3669645470e+00 1.9439178876e+00 3.3669645470e+00 
41900 3.5862117281e+00 3.0395917012e-03 1.9438393787e+00 -3.3668285657e+00 1.9438393787e+00 3.3668285657e+00 
42000 3.5862114353e+00 3.0269123884e-03 1.9437611940e+00 -3.3666931458e+00 1.9437611940e+00 3.3666931458e+00 
42100 3.5862111452e+00 3.0142779958e-03 1.9436833323e+00 -3.3665582853e+00 1.9436833323e+00 3.3665582853e+00 
42200 3.5862108579e+00 3.0016884718e-03 1.9436057924e+00 -3.3664239824e+00 1.9436057924e+00 3.3664239824e+00 
42300 3.5862105733e+00 2.9891437634e-03 1.9435285733e+00 -3.3662902350e+00 1.9435285733e+00 3.3662902350e+00 
42400 3.5862102915e+00 2.9766438156e-03 1.9434516739e+00 -3.3661570413e+00 1.9434516739e+00 3.3661570413e+00 
42500 3.5862100123e+00 2.9641885722e-03 1.9433750931e+00 -3.3660243994e+00 1.9433750931e+00 3.3660243994e+00 
42600 3.5862097357e+00 2.9517779750e-03 1.9432988296e+00 -3.3658923072e+00 1.9432988296e+00 3.3658923072e+00 
42700 3.5862094618e+00 2.9394119646e-03 1.9432228825e+00 -3.3657607630e+00 1.9432228825e+00 3.3657607630e+00 
42800 3.5862091904e+00 2.9270904799e-03 1.9431472506e+00 -3.3656297647e+00 1.9431472506e+00 3.3656297647e+00 
42900 3.5862089216e+00 2.9148134582e-03 1.9430719328e+00 -3.3654993104e+00 1.9430719328e+00 3.3654993104e+00 
43000 3.5862086554e+00 2.9025808357e-03 1.9429969280e+00 -3.3653693983e+00 1.9429969280e+00 3.3653693983e+00 
43100 3.5862083916e+00 2.8903925469e-03 1.9429222351e+00 -3.3652400263e+00 1.9429222351e+00 3.3652400263e+00 
43200 3.5862081304e+00 2.8782485250e-03 1.9428478530e+00 -3.3651111927e+00 1.9428478530e+00 3.3651111927e+00 
43300 3.5862078716e+00 2.8661487017e-03 1.9427737805e+00 -3.3649828954e+00 1.9427737805e+00 3.3649828954e+00 
43400 3.5862076152e+00 2.8540930075e-03 1.9427000166e+00 -3.3648551327e+00 1.9427000166e+00 3.3648551327e+00 
43500 3.5862073613e+00 2.8420813716e-03 1.9426265602e+00 -3.3647279024e+00 1.9426265602e+00 3.3647279024e+00 
43600 3.5862071097e+00 2.8301137218e-03 1.9425534102e+00 -3.3646012029e+00 1.9425534102e+00 3.3646012029e+00 
43700 3.5862068605e+00 2.8181899847e-03 1.9424805655e+00 -3.3644750321e+00 1.9424805655e+00 3.3644750321e+00 
43800 3.5862066137e+00 2.8063100858e-03 1.9424080249e+00 -3.3643493882e+00 1.9424080249e+00 3.3643493882e+00 
43900 3.5862063691e+00 2.7944739492e-03 1.9423357874e+00 -3.3642242692e+00 1.9423357874e+00 3.3642242692e+00 
44000 3.5862061269e+00 2.7826814979e-03 1.9422638520e+00 -3.3640996733e+00 1.9422638520e+00 3.3640996733e+00 
44100 3.5862058869e+00 2.7709326537e-03 1.9421922174e+00 -3.3639755986e+00 1.9421922174e+00 3.3639755986e+00 
44200 3.5862056491e+00 2.7592273374e-03 1.9421208827e+00 -3.3638520432e+00 1.9421208827e+00 3.3638520432e+00 
44300 3.5862054136e+00 2.7475654686e-03 1.9420498466e+00 -3.3637290052e+00 1.9420498466e+00 3.3637290052e+00 
44400 3.5862051803e+00 2.7359469659e-03 1.9419791083e+00 -3.3636064828e+00 1.9419791083e+00 3.3636064828e+00 
44500 3.5862049491e+00 2.7243717466e-03 1.9419086665e+00 -3.3634844740e+00 1.9419086665e+00 3.3634844740e+00 
44600 3.5862047201e+00 2.7128397273e-03 1.9418385201e+00 -3.3633629770e+00 1.9418385201e+00 3.3633629770e+00 
44700 3.5862044933e+00 2.7013508235e-03 1.9417686682e+00 -3.3632419899e+00 1.9417686682e+00 3.3632419899e+00 
44800 3.5862042685e+00 2.6899049495e-03 1.9416991096e+00 -3.3631215108e+00 1.9416991096e+00 3.3631215108e+00 
44900 3.5862040459e+00 2.6785020189e-03 1.9416298432e+00 -3.3630015380e+00 1.9416298432e+00 3.3630015380e+00 
45000 3.5862038253e+00 2.6671419443e-03 1.9415608680e+00 -3.3628820694e+00 1.9415608680e+00 3.3628820694e+00 
45100 3.5862036068e+00 2.6558246372e-03 1.9414921829e+00 -3.3627631033e+00 1.9414921829e+00 3.3627631033e+00 
45200 3.5862033903e+00 2.6445500085e-03 1.9414237868e+00 -3.3626446378e+00 1.9414237868e+00 3.3626446378e+00 
45300 3.5862031758e+00 2.6333179679e-03 1.9413556787e+00 -3.3625266711e+00 1.9413556787e+00 3.3625266711e+00 
45400 3.5862029633e+00 2.6221284245e-03 1.9412878575e+00 -3.3624092013e+00 1.9412878575e+00 3.3624092013e+00 
45500 3.5862027528e+00 2.6109812865e-03 1.9412203221e+00 -3.3622922265e+00 1.9412203221e+00 3.3622922265e+00 
45600 3.5862025442e+00 2.5998764612e-03 1.9411530714e+00 -3.3621757450e+00 1.9411530714e+00 3.3621757450e+00 
45700 3.5862023376e+00 2.5888138551e-03 1.9410861045e+00 -3.3620597549e+00 1.9410861045e+00 3.3620597549e+00 
45800 3.5862021329e+00 2.5777933740e-03 1.9410194202e+00 -3.3619442543e+00 1.9410194202e+00 3.3619442543e+00 
45900 3.5862019300e+00 2.5668149230e-03 1.9409530175e+00 -3.3618292414e+00 1.9409530175e+00 3.3618292414e+00 
46000 3.5862017291e+00 2.5558784063e-03 1.9408868953e+00 -3.3617147145e+00 1.9408868953e+00 3.3617147145e+00 
46100 3.5862015300e+00 2.5449837275e-03 1.9408210527e+00 -3.3616006716e+00 1.9408210527e+00 3.3616006716e+00 
46200 3.5862013327e+00 2.5341307893e-03 1.9407554884e+00 -3.3614871110e+00 1.9407554884e+00 3.3614871110e+00 
46300 3.5862011373e+00 2.5233194940e-03 1.9406902016e+00 -3.3613740309e+00 1.9406902016e+00 3.3613740309e+00 
46400 3.5862009437e+00 2.5125497431e-03 1.9406251910e+00 -3.3612614293e+00 1.9406251910e+00 3.3612614293e+00 
46500 3.5862007518e+00 2.5018214374e-03 1.9405604558e+00 -3.3611493047e+00 1.9405604558e+00 3.3611493047e+00 
46600 3.5862005617e+00 2.4911344770e-03 1.9404959949e+00 -3.3610376550e+00 1.9404959949e+00 3.3610376550e+00 
46700 3.5862003734e+00 2.4804887617e-03 1.9404318071e+00 -3.3609264786e+00 1.9404318071e+00 3.3609264786e+00 
46800 3.5862001868e+00 2.4698841902e-03 1.9403678916e+00 -3.3608157736e+00 1.9403678916e+00 3.3608157736e+00 
46900 3.5862000019e+00 2.4593206611e-03 1.9403042472e+00 -3.3607055383e+00 1.9403042472e+00 3.3607055383e+00 
47000 3.5861998188e+00 2.4487980721e-03 1.9402408729e+00 -3.3605957708e+00 1.9402408729e+00 3.3605957708e+00 
47100 3.5861996373e+00 2.4383163206e-03 1.9401777678e+00 -3.3604864695e+00 1.9401777678e+00 3.3604864695e+00 
47200 3.5861994575e+00 2.4278753032e-03 1.9401149307e+00 -3.3603776324e+00 1.9401149307e+00 3.3603776324e+00 
47300 3.5861992793e+00 2.4174749161e-03 1.9400523606e+00 -3.3602692579e+00 1.9400523606e+00 3.3602692579e+00 
47400 3.5861991028e+00 2.4071150550e-03 1.9399900566e+00 -3.3601613441e+00 1.9399900566e+00 3.3601613441e+00 
47500 3.5861989279e+00 2.3967956151e-03 1.9399280175e+00 -3.3600538894e+00 1.9399280175e+00 3.3600538894e+00 
47600 3.5861987546e+00 2.3865164912e-03 1.9398662425e+00 -3.3599468918e+00 1.9398662425e+00 3.3599468918e+00 
47700 3.5861985829e+00 2.3762775774e-03 1.9398047304e+00 -3.3598403498e+00 1.9398047304e+00 3.3598403498e+00 
47800 3.5861984127e+00 2.3660787675e-03 1.9397434803e+00 -3.3597342615e+00 1.9397434803e+00 3.3597342615e+00 
47900 3.5861982442e+00 2.3559199549e-03 1.9396824911e+00 -3.3596286252e+00 1.9396824911e+00 3.3596286252e+00 
48000 3.5861980771e+00 2.3458010325e-03 1.9396217619e+00 -3.3595234391e+00 1.9396217619e+00 3.3595234391e+00 
48100 3.5861979116e+00 2.3357218927e-03 1.9395612917e+00 -3.3594187015e+00 1.9395612917e+00 3.3594187015e+00 
48200 3.5861977476e+00 2.3256824278e-03 1.9395010793e+00 -3.3593144107e+00 1.9395010793e+00 3.3593144107e+00 
48300 3.5861975851e+00 2.3156825294e-03 1.9394411240e+00 -3.3592105650e+00 1.9394411240e+00 3.3592105650e+00 
48400 3.5861974242e+00 2.3057220889e-03 1.9393814245e+00 -3.3591071625e+00 1.9393814245e+00 3.3591071625e+00 
48500 3.5861972646e+00 2.2958009972e-03 1.9393219800e+00 -3.3590042017e+00 1.9393219800e+00 3.3590042017e+00 
48600 3.5861971066e+00 2.2859191449e-03 1.9392627895e+00 -3.3589016807e+00 1.9392627895e+00 3.3589016807e+00 
48700 3.5861969499e+00 2.2760764224e-03 1.9392038520e+00 -3.3587995979e+00 1.9392038520e+00 3.3587995979e+00 
48800 3.5861967947e+00 2.2662727196e-03 1.9391451664e+00 -3.3586979515e+00 1.9391451664e+00 3.3586979515e+00 
48900 3.5861966410e+00 2.2565079261e-03 1.9390867319e+00 -3.3585967399e+00 1.9390867319e+00 3.3585967399e+00 
49000 3.5861964886e+00 2.2467819313e-03 1.9390285474e+00 -3.3584959614e+00 1.9390285474e+00 3.3584959614e+00 
49100 3.5861963376e+00 2.2370946242e-03 1.9389706119e+00 -3.3583956142e+00 1.9389706119e+00 3.3583956142e+00 
49200 3.5861961880e+00 2.2274458937e-03 1.9389129245e+00 -3.3582956967e+00 1.9389129245e+00 3.3582956967e+00 
49300 3.5861960398e+00 2.2178356280e-03 1.9388554842e+00 -3.3581962072e+00 1.9388554842e+00 3.3581962072e+00 
49400 3.5861958929e+00 2.2082637156e-03 1.9387982900e+00 -3.3580971439e+00 1.9387982900e+00 3.3580971439e+00 
49500 3.5861957473e+00 2.1987300444e-03 1.9387413410e+00 -3.3579985054e+00 1.9387413410e+00 3.3579985054e+00 
49600 3.5861956031e+00 2.1892345022e-03 1.9386846362e+00 -3.3579002897e+00 1.9386846362e+00 3.3579002897e+00 
49700 3.5861954602e+00 2.1797769763e-03 1.9386281746e+00 -3.3578024954e+00 1.9386281746e+00 3.3578024954e+00 
49800 3.5861953186e+00 2.1703573542e-03 1.9385719553e+00 -3.3577051207e+00 1.9385719553e+00 3.3577051207e+00 
49900 3.5861951783e+00 2.1609755229e-03 1.9385159773e+00 -3.3576081640e+00 1.9385159773e+00 3.3576081640e+00 
50000 3.5861950392e+00 2.1516313694e-03 1.9384602397e+00 -3.3575116236e+00 1.9384602397e+00 3.3575116236e+00 
50100 3.5861949014e+00 2.1423247802e-03 1.9384047415e+00 -3.3574154979e+00 1.9384047415e+00 3.3574154979e+00 
50200 3.5861947649e+00 2.1330556419e-03 1.9383494818e+00 -3.3573197853e+00 1.9383494818e+00 3.3573197853e+00 
50300 3.5861946296e+00 2.1238238409e-03 1.9382944596e+00 -3.3572244840e+00 1.9382944596e+00 3.3572244840e+00 
50400 3.5861944956e+00 2.1146292633e-03 1.9382396739e+00 -3.3571295925e+00 1.9382396739e+00 3.3571295925e+00 
50500 3.5861943627e+00 2.1054717951e-03 1.9381851239e+00 -3.3570351091e+00 1.9381851239e+00 3.3570351091e+00 
50600 3.5861942311e+00 2.0963513223e-03 1.9381308086e+00 -3.3569410323e+00 1.9381308086e+00 3.3569410323e+00 
50700 3.5861941007e+00 2.0872677305e-03 1.9380767271e+00 -3.3568473603e+00 1.9380767271e+00 3.3568473603e+00 
50800 3.5861939714e+00 2.0782209054e-03 1.9380228784e+00 -3.3567540917e+00 1.9380228784e+00 3.3567540917e+00 
50900 3.5861938433e+00 2.0692107325e-03 1.9379692616e+00 -3.3566612247e+00 1.9379692616e+00 3.3566612247e+00 
51000 3.5861937164e+00 2.0602370972e-03 1.9379158758e+00 -3.3565687577e+00 1.9379158758e+00 3.3565687577e+00 
51100 3.5861935906e+00 2.0512998847e-03 1.9378627201e+00 -3.3564766892e+00 1.9378627201e+00 3.3564766892e+00 
51200 3.5861934660e+00 2.0423989802e-03 1.9378097934e+00 -3.3563850176e+00 1.9378097934e+00 3.3563850176e+00 
51300 3.5861933425e+00 2.0335342689e-03 1.9377570950e+00 -3.3562937413e+00 1.9377570950e+00 3.3562937413e+00 
51400 3.5861932201e+00 2.0247056357e-03 1.9377046239e+00 -3.3562028587e+00 1.9377046239e+00 3.3562028587e+00 
51500 3.5861930989e+00 2.0159129656e-03 1.9376523792e+00 -3.3561123682e+00 1.9376523792e+00 3.3561123682e+00 
51600 3.5861929787e+00 2.0071561434e-03 1.9376003600e+00 -3.3560222683e+00 1.9376003600e+00 3.3560222683e+00 
51700 3.5861928596e+00 1.9984350541e-03 1.9375485653e+00 -3.3559325573e+00 1.9375485653e+00 3.3559325573e+00 
51800 3.5861927416e+00 1.9897495824e-03 1.9374969943e+00 -3.3558432337e+00 1.9374969943e+00 3.3558432337e+00 
51900 3.5861926247e+00 1.9810996130e-03 1.9374456461e+00 -3.3557542959e+00 1.9374456461e+00 3.3557542959e+00 
52000 3.5861925088e+00 1.9724850306e-03 1.9373945197e+00 -3.3556657425e+00 1.9373945197e+00 3.3556657425e+00 
52100 3.5861923940e+00 1.9639057198e-03 1.9373436143e+00 -3.3555775718e+00 1.9373436143e+00 3.3555775718e+00 
52200 3.5861922802e+00 1.9553615654e-03 1.9372929290e+00 -3.3554897822e+00 1.9372929290e+00 3.3554897822e+00 
52300 3.5861921674e+00 1.9468524520e-03 1.9372424629e+00 -3.3554023724e+00 1.9372424629e+00 3.3554023724e+00 
52400 3.5861920557e+00 1.9383782642e-03 1.9371922151e+00 -3.3553153406e+00 1.9371922151e+00 3.3553153406e+00 
52500 3.5861919450e+00 1.9299388865e-03 1.9371421847e+00 -3.3552286854e+00 1.9371421847e+00 3.3552286854e+00 
52600 3.5861918352e+00 1.9215342037e-03 1.9370923708e+00 -3.3551424053e+00 1.9370923708e+00 3.3551424053e+00 
52700 3.5861917265e+00 1.9131641003e-03 1.9370427726e+00 -3.3550564986e+00 1.9370427726e+00 3.3550564986e+00 
52800 3.5861916187e+00 1.9048284611e-03 1.9369933892e+00 -3.3549709641e+00 1.9369933892e+00 3.3549709641e+00 
52900 3.5861915119e+00 1.8965271707e-03 1.9369442197e+00 -3.3548858000e+00 1.9369442197e+00 3.3548858000e+00 
53000 3.5861914061e+00 1.8882601137e-03 1.9368952632e+00 -3.3548010049e+00 1.9368952632e+00 3.3548010049e+00 
53100 3.5861913013e+00 1.8800271749e-03 1.9368465189e+00 -3.3547165773e+00 1.9368465189e+00 3.3547165773e+00 
53200 3.5861911974e+00 1.8718282392e-03 1.9367979859e+00 -3.3546325156e+00 1.9367979859e+00 3.3546325156e+00 
53300 3.5861910944e+00 1.8636631913e-03 1.9367496634e+00 -3.3545488185e+00 1.9367496634e+00 3.3545488185e+00 
53400 3.5861909923e+00 1.8555319160e-03 1.9367015504e+00 -3.3544654844e+00 1.9367015504e+00 3.3544654844e+00 
53500 3.5861908912e+00 1.8474342984e-03 1.9366536462e+00 -3.3543825118e+00 1.9366536462e+00 3.3543825118e+00 
53600 3.5861907910e+00 1.8393702234e-03 1.9366059498e+00 -3.3542998993e+00 1.9366059498e+00 3.3542998993e+00 
53700 3.5861906917e+00 1.8313395760e-03 1.9365584605e+00 -3.3542176454e+00 1.9365584605e+00 3.3542176454e+00 
53800 3.5861905933e+00 1.8233422415e-03 1.9365111773e+00 -3.3541357485e+00 1.9365111773e+00 3.3541357485e+00 
53900 3.5861904957e+00 1.8153781049e-03 1.9364640995e+00 -3.3540542073e+00 1.9364640995e+00 3.3540542073e+00 
54000 3.5861903991e+00 1.8074470516e-03 1.9364172261e+00 -3.3539730203e+00 1.9364172261e+00 3.3539730203e+00 
54100 3.5861903033e+00 1.7995489669e-03 1.9363705565e+00 -3.3538921861e+00 1.9363705565e+00 3.3538921861e+00 
54200 3.5861902084e+00 1.7916837364e-03 1.9363240896e+00 -3.3538117031e+00 1.9363240896e+00 3.3538117031e+00 
54300 3.5861901143e+00 1.7838512456e-03 1.9362778247e+00 -3.3537315699e+00 1.9362778247e+00 3.3537315699e+00 
54400 3.5861900211e+00 1.7760513801e-03 1.9362317609e+00 -3.3536517852e+00 1.9362317609e+00 3.3536517852e+00 
54500 3.5861899287e+00 1.7682840257e-03 1.9361858975e+00 -3.3535723474e+00 1.9361858975e+00 3.3535723474e+00 
54600 3.5861898372e+00 1.7605490682e-03 1.9361402336e+00 -3.3534932552e+00 1.9361402336e+00 3.3534932552e+00 
54700 3.5861897465e+00 1.7528463938e-03 1.9360947683e+00 -3.3534145070e+00 1.9360947683e+00 3.3534145070e+00 
54800 3.5861896566e+00 1.7451758885e-03 1.9360495009e+00 -3.3533361016e+00 1.9360495009e+00 3.3533361016e+00 
54900 3.5861895675e+00 1.7375374385e-03 1.9360044306e+00 -3.3532580374e+00 1.9360044306e+00 3.3532580374e+00 
55000 3.5861894792e+00 1.7299309302e-03 1.9359595564e+00 -3.3531803131e+00 1.9359595564e+00 3.3531803131e+00 
55100 3.5861893917e+00 1.7223562500e-03 1.9359148777e+00 -3.3531029273e+00 1.9359148777e+00 3.3531029273e+00 
55200 3.5861893050e+00 1.7148132847e-03 1.9358703936e+00 -3.3530258785e+00 1.9358703936e+00 3.3530258785e+00 
55300 3.5861892191e+00 1.7073019210e-03 1.9358261032e+00 -3.3529491654e+00 1.9358261032e+00 3.3529491654e+00 
55400 3.5861891339e+00 1.6998220458e-03 1.9357820059e+00 -3.3528727866e+00 1.9357820059e+00 3.3528727866e+00 
55500 3.5861890495e+00 1.6923735461e-03 1.9357381008e+00 -3.3527967407e+00 1.9357381008e+00 3.3527967407e+00 
55600 3.5861889659e+00 1.6849563092e-03 1.9356943870e+00 -3.3527210262e+00 1.9356943870e+00 3.3527210262e+00 
55700 3.5861888830e+00 1.6775702223e-03 1.9356508639e+00 -3.3526456420e+00 1.9356508639e+00 3.3526456420e+00 
55800 3.5861888009e+00 1.6702151732e-03 1.9356075306e+00 -3.3525705864e+00 1.9356075306e+00 3.3525705864e+00 
55900 3.5861887195e+00 1.6628910494e-03 1.9355643862e+00 -3.3524958583e+00 1.9355643862e+00 3.3524958583e+00 
56000 3.5861886388e+00 1.6555977387e-03 1.9355214302e+00 -3.3524214562e+00 1.9355214302e+00 3.3524214562e+00 
56100 3.5861885589e+00 1.6483351292e-03 1.9354786615e+00 -3.3523473788e+00 1.9354786615e+00 3.3523473788e+00 
56200 3.5861884797e+00 1.6411031092e-03 1.9354360796e+00 -3.3522736247e+00 1.9354360796e+00 3.3522736247e+00 
56300 3.5861884012e+00 1.6339015668e-03 1.9353936835e+00 -3.3522001925e+00 1.9353936835e+00 3.3522001925e+00 
56400 3.5861883234e+00 1.6267303908e-03 1.9353514726e+00 -3.3521270811e+00 1.9353514726e+00 3.3521270811e+00 
56500 3.5861882463e+00 1.6195894697e-03 1.9353094460e+00 -3.3520542889e+00 1.9353094460e+00 3.3520542889e+00 
56600 3.5861881699e+00 1.6124786926e-03 1.9352676030e+00 -3.3519818146e+00 1.9352676030e+00 3.3519818146e+00 
56700 3.5861880941e+00 1.6053979484e-03 1.9352259428e+00 -3.3519096570e+00 1.9352259428e+00 3.3519096570e+00 
56800 3.5861880191e+00 1.5983471266e-03 1.9351844646e+00 -3.3518378148e+00 1.9351844646e+00 3.3518378148e+00 
56900 3.5861879447e+00 1.5913261165e-03 1.9351431678e+00 -3.3517662865e+00 1.9351431678e+00 3.3517662865e+00 
57000 3.5861878710e+00 1.5843348078e-03 1.9351020514e+00 -3.3516950709e+00 1.9351020514e+00 3.3516950709e+00 
57100 3.5861877980e+00 1.5773730904e-03 1.9350611148e+00 -3.3516241666e+00 1.9350611148e+00 3.3516241666e+00 
57200 3.5861877256e+00 1.5704408545e-03 1.9350203573e+00 -3.3515535725e+00 1.9350203573e+00 3.3515535725e+00 
57300 3.5861876539e+00 1.5635379902e-03 1.9349797780e+00 -3.3514832871e+00 1.9349797780e+00 3.3514832871e+00 
57400 3.5861875828e+00 1.5566643880e-03 1.9349393762e+00 -3.3514133091e+00 1.9349393762e+00 3.3514133091e+00 
57500 3.5861875123e+00 1.5498199387e-03 1.9348991512e+00 -3.3513436374e+00 1.9348991512e+00 3.3513436374e+00 
57600 3.5861874425e+00 1.5430045331e-03 1.9348591022e+00 -3.3512742705e+00 1.9348591022e+00 3.3512742705e+00 
57700 3.5861873733e+00 1.5362180623e-03 1.9348192285e+00 -3.3512052073e+00 1.9348192285e+00 3.3512052073e+00 
57800 3.5861873047e+00 1.5294604178e-03 1.9347795294e+00 -3.3511364463e+00 1.9347795294e+00 3.3511364463e+00 
57900 3.5861872368e+00 1.5227314910e-03 1.9347400041e+00 -3.3510679865e+00 1.9347400041e+00 3.3510679865e+00 
58000 3.5861871694e+00 1.5160311738e-03 1.9347006519e+00 -3.3509998265e+00 1.9347006519e+00 3.3509998265e+00 
58100 3.5861871027e+00 1.5093593581e-03 1.9346614720e+00 -3.3509319649e+00 1.9346614720e+00 3.3509319649e+00 
58200 3.5861870365e+00 1.5027159361e-03 1.9346224638e+00 -3.3508644007e+00 1.9346224638e+00 3.3508644007e+00 
58300 3.5861869710e+00 1.4961008004e-03 1.9345836265e+00 -3.3507971325e+00 1.9345836265e+00 3.3507971325e+00 
58400 3.5861869060e+00 1.4895138435e-03 1.9345449593e+00 -3.3507301591e+00 1.9345449593e+00 3.3507301591e+00 
58500 3.5861868416e+00 1.4829549585e-03 1.9345064617e+00 -3.3506634792e+00 1.9345064617e+00 3.3506634792e+00 
58600 3.5861867778e+00 1.4764240385e-03 1.9344681328e+00 -3.3505970916e+00 1.9344681328e+00 3.3505970916e+00 
58700 3.5861867146e+00 1.4699209768e-03 1.9344299719e+00 -3.3505309950e+00 1.9344299719e+00 3.3505309950e+00 
58800 3.5861866519e+00 1.4634456670e-03 1.9343919784e+00 -3.3504651883e+00 1.9343919784e+00 3.3504651883e+00 
58900 3.5861865898e+00 1.4569980032e-03 1.9343541515e+00 -3.3503996702e+00 1.9343541515e+00 3.3503996702e+00 
59000 3.5861865282e+00 1.4505778793e-03 1.9343164905e+00 -3.3503344395e+00 1.9343164905e+00 3.3503344395e+00 
59100 3.5861864672e+00 1.4441851897e-03 1.9342789948e+00 -3.3502694949e+00 1.9342789948e+00 3.3502694949e+00 
59200 3.5861864068e+00 1.4378198290e-03 1.9342416635e+00 -3.3502048353e+00 1.9342416635e+00 3.3502048353e+00 
59300 3.5861863469e+00 1.4314816920e-03 1.9342044961e+00 -3.3501404595e+00 1.9342044961e+00 3.3501404595e+00 
59400 3.5861862875e+00 1.4251706739e-03 1.9341674918e+00 -3.3500763662e+00 1.9341674918e+00 3.3500763662e+00 
59500 3.5861862286e+00 1.4188866700e-03 1.9341306500e+00 -3.3500125542e+00 1.9341306500e+00 3.3500125542e+00 
59600 3.5861861703e+00 1.4126295758e-03 1.9340939699e+00 -3.3499490224e+00 1.9340939699e+00 3.3499490224e+00 
59700 3.5861861125e+00 1.4063992873e-03 1.9340574508e+00 -3.3498857696e+00 1.9340574508e+00 3.3498857696e+00 
59800 3.5861860553e+00 1.4001957006e-03 1.9340210922e+00 -3.3498227946e+00 1.9340210922e+00 3.3498227946e+00 
59900 3.5861859985e+00 1.3940187119e-03 1.9339848932e+00 -3.3497600961e+00 1.9339848932e+00 3.3497600961e+00 
60000 3.5861859422e+00 1.3878682179e-03 1.9339488533e+00 -3.3496976731e+00 1.9339488533e+00 3.3496976731e+00 
60100 3.5861858865e+00 1.3817441156e-03 1.9339129716e+00 -3.3496355243e+00 1.9339129716e+00 3.3496355243e+00 
60200 3.5861858312e+00 1.3756463019e-03 1.9338772477e+00 -3.3495736486e+00 1.9338772477e+00 3.3495736486e+00 
60300 3.5861857765e+00 1.3695746744e-03 1.9338416808e+00 -3.3495120449e+00 1.9338416808e+00 3.3495120449e+00 
60400 3.5861857222e+00 1.3635291307e-03 1.9338062701e+00 -3.3494507119e+00 1.9338062701e+00 3.3494507119e+00 
60500 3.5861856684e+00 1.3575095688e-03 1.9337710152e+00 -3.3493896485e+00 1.9337710152e+00 3.3493896485e+00 
60600 3.5861856151e+00 1.3515158867e-03 1.9337359152e+00 -3.3493288536e+00 1.9337359152e+00 3.3493288536e+00 
60700 3.5861855623e+00 1.3455479831e-03 1.9337009696e+00 -3.3492683260e+00 1.9337009696e+00 3.3492683260e+00 
60800 3.5861855099e+00 1.3396057565e-03 1.9336661777e+00 -3.3492080646e+00 1.9336661777e+00 3.3492080646e+00 
60900 3.5861854581e+00 1.3336891061e-03 1.9336315388e+00 -3.3491480683e+00 1.9336315388e+00 3.3491480683e+00 
61000 3.5861854066e+00 1.3277979310e-03 1.9335970522e+00 -3.3490883358e+00 1.9335970522e+00 3.3490883358e+00 
61100 3.5861853557e+00 1.3219321309e-03 1.9335627174e+00 -3.3490288662e+00 1.9335627174e+00 3.3490288662e+00 
61200 3.5861853052e+00 1.3160916056e-03 1.9335285337e+00 -3.3489696582e+00 1.9335285337e+00 3.3489696582e+00 
61300 3.5861852551e+00 1.3102762550e-03 1.9334945004e+00 -3.3489107108e+00 1.9334945004e+00 3.3489107108e+00 
61400 3.5861852055e+00 1.3044859797e-03 1.9334606168e+00 -3.3488520228e+00 1.9334606168e+00 3.3488520228e+00 
61500 3.5861851564e+00 1.2987206802e-03 1.9334268824e+00 -3.3487935931e+00 1.9334268824e+00 3.3487935931e+00 
61600 3.5861851076e+00 1.2929802574e-03 1.9333932966e+00 -3.3487354207e+00 1.9333932966e+00 3.3487354207e+00 
61700 3.5861850594e+00 1.2872646126e-03 1.9333598586e+00 -3.3486775043e+00 1.9333598586e+00 3.3486775043e+00 
61800 3.5861850115e+00 1.2815736471e-03 1.9333265678e+00 -3.3486198430e+00 1.9333265678e+00 3.3486198430e+00 
61900 3.5861849641e+00 1.2759072628e-03 1.9332934236e+00 -3.3485624356e+00 1.9332934236e+00 3.3485624356e+00 
62000 3.5861849171e+00 1.2702653618e-03 1.9332604254e+00 -3.3485052811e+00 1.9332604254e+00 3.3485052811e+00 
62100 3.5861848705e+00 1.2646478461e-03 1.9332275726e+00 -3.3484483783e+00 1.9332275726e+00 3.3484483783e+00 
62200 3.5861848243e+00 1.2590546186e-03 1.9331948645e+00 -3.3483917262e+00 1.9331948645e+00 3.3483917262e+00 
62300 3.5861847786e+00 1.2534855820e-03 1.9331623005e+00 -3.3483353237e+00 1.9331623005e+00 3.3483353237e+00 
62400 3.5861847332e+00 1.2479406396e-03 1.9331298800e+00 -3.3482791697e+00 1.9331298800e+00 3.3482791697e+00 
62500 3.5861846883e+00 1.2424196946e-03 1.9330976023e+00 -3.3482232632e+00 1.9330976023e+00 3.3482232632e+00 
62600 3.5861846438e+00 1.2369226509e-03 1.9330654670e+00 -3.3481676031e+00 1.9330654670e+00 3.3481676031e+00 
62700 3.5861845996e+00 1.2314494125e-03 1.9330334732e+00 -3.3481121884e+00 1.9330334732e+00 3.3481121884e+00 
62800 3.5861845559e+00 1.2259998837e-03 1.9330016206e+00 -3.3480570179e+00 1.9330016206e+00 3.3480570179e+00 
62900 3.5861845125e+00 1.2205739689e-03 1.9329699083e+00 -3.3480020907e+00 1.9329699083e+00 3.3480020907e+00 
63000 3.5861844696e+00 1.2151715732e-03 1.9329383359e+00 -3.3479474057e+00 1.9329383359e+00 3.3479474057e+00 
63100 3.5861844270e+00 1.2097926015e-03 1.9329069027e+00 -3.3478929618e+00 1.9329069027e+00 3.3478929618e+00 
63200 3.5861843848e+00 1.2044369595e-03 1.9328756082e+00 -3.3478387580e+00 1.9328756082e+00 3.3478387580e+00 
63300 3.5861843430e+00 1.1991045527e-03 1.9328444516e+00 -3.3477847933e+00 1.9328444516e+00 3.3477847933e+00 
63400 3.5861843015e+00 1.1937952873e-03 1.9328134325e+00 -3.3477310667e+00 1.9328134325e+00 3.3477310667e+00 
63500 3.5861842604e+00 1.1885090694e-03 1.9327825503e+00 -3.3476775771e+00 1.9327825503e+00 3.3476775771e+00 
63600 3.5861842197e+00 1.1832458057e-03 1.9327518043e+00 -3.3476243235e+00 1.9327518043e+00 3.3476243235e+00 
63700 3.5861841794e+00 1.1780054031e-03 1.9327211940e+00 -3.3475713049e+00 1.9327211940e+00 3.3475713049e+00 
63800 3.5861841394e+00 1.1727877687e-03 1.9326907188e+00 -3.3475185203e+00 1.9326907188e+00 3.3475185203e+00 
63900 3.5861840998e+00 1.1675928099e-03 1.9326603781e+00 -3.3474659686e+00 1.9326603781e+00 3.3474659686e+00 
64000 3.5861840605e+00 1.1624204346e-03 1.9326301713e+00 -3.3474136489e+00 1.9326301713e+00 3.3474136489e+00 
64100 3.5861840216e+00 1.1572705508e-03 1.9326000978e+00 -3.3473615601e+00 1.9326000978e+00 3.3473615601e+00 
64200 3.5861839830e+00 1.1521430667e-03 1.9325701571e+00 -3.3473097013e+00 1.9325701571e+00 3.3473097013e+00 
64300 3.5861839447e+00 1.1470378910e-03 1.9325403486e+00 -3.3472580715e+00 1.9325403486e+00 3.3472580715e+00 
64400 3.5861839068e+00 1.1419549326e-03 1.9325106718e+00 -3.3472066696e+00 1.9325106718e+00 3.3472066696e+00 
64500 3.5861838693e+00 1.1368941007e-03 1.9324811259e+00 -3.3471554948e+00 1.9324811259e+00 3.3471554948e+00 
64600 3.5861838321e+00 1.1318553048e-03 1.9324517106e+00 -3.3471045460e+00 1.9324517106e+00 3.3471045460e+00 
64700 3.5861837952e+00 1.1268384546e-03 1.9324224252e+00 -3.3470538221e+00 1.9324224252e+00 3.3470538221e+00 
64800 3.5861837586e+00 1.1218434603e-03 1.9323932692e+00 -3.3470033224e+00 1.9323932692e+00 3.3470033224e+00 
64900 3.5861837224e+00 1.1168702322e-03 1.9323642419e+00 -3.3469530458e+00 1.9323642419e+00 3.3469530458e+00 
65000 3.5861836865e+00 1.1119186809e-03 1.9323353429e+00 -3.3469029912e+00 1.9323353429e+00 3.3469029912e+00 
65100 3.5861836509e+00 1.1069887175e-03 1.9323065717e+00 -3.3468531579e+00 1.9323065717e+00 3.3468531579e+00 
65200 3.5861836156e+00 1.1020802530e-03 1.9322779275e+00 -3.3468035448e+00 1.9322779275e+00 3.3468035448e+00 
65300 3.5861835807e+00 1.0971931992e-03 1.9322494099e+00 -3.3467541509e+00 1.9322494099e+00 3.3467541509e+00 
65400 3.5861835460e+00 1.0923274677e-03 1.9322210184e+00 -3.3467049753e+00 1.9322210184e+00 3.3467049753e+00 
65500 3.5861835117e+00 1.0874829708e-03 1.9321927523e+00 -3.3466560171e+00 1.9321927523e+00 3.3466560171e+00 
65600 3.5861834777e+00 1.0826596207e-03 1.9321646112e+00 -3.3466072753e+00 1.9321646112e+00 3.3466072753e+00 
65700 3.5861834440e+00 1.0778573303e-03 1.9321365946e+00 -3.3465587489e+00 1.9321365946e+00 3.3465587489e+00 
65800 3.5861834105e+00 1.0730760125e-03 1.9321087017e+00 -3.3465104372e+00 1.9321087017e+00 3.3465104372e+00 
65900 3.5861833774e+00 1.0683155805e-03 1.9320809323e+00 -3.3464623390e+00 1.9320809323e+00 3.3464623390e+00 
66000 3.5861833446e+00 1.0635759481e-03 1.9320532856e+00 -3.3464144535e+00 1.9320532856e+00 3.3464144535e+00 
66100 3.5861833120e+00 1.0588570289e-03 1.9320257611e+00 -3.3463667798e+00 1.9320257611e+00 3.3463667798e+00 
66200 3.5861832798e+00 1.0541587373e-03 1.9319983584e+00 -3.3463193169e+00 1.9319983584e+00 3.3463193169e+00 
66300 3.5861832478e+00 1.0494809875e-03 1.9319710769e+00 -3.3462720640e+00 1.9319710769e+00 3.3462720640e+00 
66400 3.5861832162e+00 1.0448236945e-03 1.9319439161e+00 -3.3462250201e+00 1.9319439161e+00 3.3462250201e+00 
66500 3.5861831848e+00 1.0401867732e-03 1.9319168754e+00 -3.3461781842e+00 1.9319168754e+00 3.3461781842e+00 
66600 3.5861831537e+00 1.0355701389e-03 1.9318899544e+00 -3.3461315556e+00 1.9318899544e+00 3.3461315556e+00 
66700 3.5861831228e+00 1.0309737073e-03 1.9318631524e+00 -3.3460851333e+00 1.9318631524e+00 3.3460851333e+00 
66800 3.5861830923e+00 1.0263973942e-03 1.9318364691e+00 -3.3460389164e+00 1.9318364691e+00 3.3460389164e+00 
66900 3.5861830620e+00 1.0218411159e-03 1.9318099038e+00 -3.3459929040e+00 1.9318099038e+00 3.3459929040e+00 
67000 3.5861830320e+00 1.0173047888e-03 1.9317834561e+00 -3.3459470952e+00 1.9317834561e+00 3.3459470952e+00 
67100 3.5861830023e+00 1.0127883297e-03 1.9317571255e+00 -3.3459014892e+00 1.9317571255e+00 3.3459014892e+00 
67200 3.5861829728e+00 1.0082916558e-03 1.9317309114e+00 -3.3458560850e+00 1.9317309114e+00 3.3458560850e+00 
67300 3.5861829436e+00 1.0038146843e-03 1.9317048133e+00 -3.3458108818e+00 1.9317048133e+00 3.3458108818e+00 
67400 3.5861829146e+00 9.9935733284e-04 1.9316788307e+00 -3.3457658787e+00 1.9316788307e+00 3.3457658787e+00 
67500 3.5861828859e+00 9.9491951946e-04 1.9316529632e+00 -3.3457210749e+00 1.9316529632e+00 3.3457210749e+00 
67600 3.5861828575e+00 9.9050116234e-04 1.9316272102e+00 -3.3456764694e+00 1.9316272102e+00 3.3456764694e+00 
67700 3.5861828293e+00 9.8610218000e-04 1.9316015712e+00 -3.3456320613e+00 1.9316015712e+00 3.3456320613e+00 
67800 3.5861828013e+00 9.8172249124e-04 1.9315760458e+00 -3.3455878500e+00 1.9315760458e+00 3.3455878500e+00 
67900 3.5861827736e+00 9.7736201514e-04 1.9315506334e+00 -3.3455438344e+00 1.9315506334e+00 3.3455438344e+00 
68000 3.5861827462e+00 9.7302067110e-04 1.9315253335e+00 -3.3455000137e+00 1.9315253335e+00 3.3455000137e+00 
68100 3.5861827190e+00 9.6869837878e-04 1.9315001456e+00 -3.3454563871e+00 1.9315001456e+00 3.3454563871e+00 
68200 3.5861826921e+00 9.6439505812e-04 1.9314750694e+00 -3.3454129537e+00 1.9314750694e+00 3.3454129537e+00 
68300 3.5861826653e+00 9.6011062939e-04 1.9314501042e+00 -3.3453697127e+00 1.9314501042e+00 3.3453697127e+00 
68400 3.5861826389e+00 9.5584501309e-04 1.9314252496e+00 -3.3453266633e+00 1.9314252496e+00 3.3453266633e+00 
68500 3.5861826126e+00 9.5159813006e-04 1.9314005051e+00 -3.3452838046e+00 1.9314005051e+00 3.3452838046e+00 
68600 3.5861825866e+00 9.4736990138e-04 1.9313758702e+00 -3.3452411357e+00 1.9313758702e+00 3.3452411357e+00 
68700 3.5861825608e+00 9.4316024844e-04 1.9313513445e+00 -3.3451986559e+00 1.9313513445e+00 3.3451986559e+00 
68800 3.5861825353e+00 9.3896909291e-04 1.9313269274e+00 -3.3451563643e+00 1.9313269274e+00 3.3451563643e+00 
68900 3.5861825100e+00 9.3479635676e-04 1.9313026186e+00 -3.3451142602e+00 1.9313026186e+00 3.3451142602e+00 
69000 3.5861824849e+00 9.3064196220e-04 1.9312784174e+00 -3.3450723426e+00 1.9312784174e+00 3.3450723426e+00 
69100 3.5861824600e+00 9.2650583178e-04 1.9312543235e+00 -3.3450306107e+00 1.9312543235e+00 3.3450306107e+00 
69200 3.5861824354e+00 9.2238788830e-04 1.9312303364e+00 -3.3449890638e+00 1.9312303364e+00 3.3449890638e+00 
69300 3.5861824110e+00 9.1828805484e-04 1.9312064557e+00 -3.3449477011e+00 1.9312064557e+00 3.3449477011e+00 
69400 3.5861823868e+00 9.1420625478e-04 1.9311826807e+00 -3.3449065217e+00 1.9311826807e+00 3.3449065217e+00 
69500 3.5861823628e+00 9.1014241178e-04 1.9311590112e+00 -3.3448655249e+00 1.9311590112e+00 3.3448655249e+00 
69600 3.5861823390e+00 9.0609644975e-04 1.9311354466e+00 -3.3448247097e+00 1.9311354466e+00 3.3448247097e+00 
69700 3.5861823154e+00 9.0206829294e-04 1.9311119864e+00 -3.3447840756e+00 1.9311119864e+00 3.3447840756e+00 
69800 3.5861822921e+00 8.9805786582e-04 1.9310886303e+00 -3.3447436215e+00 1.9310886303e+00 3.3447436215e+00 
69900 3.5861822689e+00 8.9406509318e-04 1.9310653777e+00 -3.3447033469e+00 1.9310653777e+00 3.3447033469e+00 
70000 3.5861822460e+00 8.9008990007e-04 1.9310422282e+00 -3.3446632508e+00 1.9310422282e+00 3.3446632508e+00 
70100 3.5861822232e+00 8.8613221184e-04 1.9310191814e+00 -3.3446233325e+00 1.9310191814e+00 3.3446233325e+00 
70200 3.5861822007e+00 8.8219195409e-04 1.9309962367e+00 -3.3445835912e+00 1.9309962367e+00 3.3445835912e+00 
70300 3.5861821784e+00 8.7826905271e-04 1.9309733939e+00 -3.3445440262e+00 1.9309733939e+00 3.3445440262e+00 
70400 3.5861821563e+00 8.7436343389e-04 1.9309506523e+00 -3.3445046367e+00 1.9309506523e+00 3.3445046367e+00 
70500 3.5861821343e+00 8.7047502405e-04 1.9309280116e+00 -3.3444654218e+00 1.9309280116e+00 3.3444654218e+00 
70600 3.5861821126e+00 8.6660374994e-04 1.9309054713e+00 -3.3444263809e+00 1.9309054713e+00 3.3444263809e+00 
70700 3.5861820910e+00 8.6274953854e-04 1.9308830310e+00 -3.3443875131e+00 1.9308830310e+00 3.3443875131e+00 
70800 3.5861820697e+00 8.5891231714e-04 1.9308606902e+00 -3.3443488178e+00 1.9308606902e+00 3.3443488178e+00 
70900 3.5861820485e+00 8.5509201328e-04 1.9308384486e+00 -3.3443102941e+00 1.9308384486e+00 3.3443102941e+00 
71000 3.5861820275e+00 8.5128855478e-04 1.9308163056e+00 -3.3442719414e+00 1.9308163056e+00 3.3442719414e+00 
71100 3.5861820067e+00 8.4750186975e-04 1.9307942609e+00 -3.3442337588e+00 1.9307942609e+00 3.3442337588e+00 
71200 3.5861819861e+00 8.4373188655e-04 1.9307723139e+00 -3.3441957456e+00 1.9307723139e+00 3.3441957456e+00 
71300 3.5861819657e+00 8.3997853384e-04 1.9307504644e+00 -3.3441579010e+00 1.9307504644e+00 3.3441579010e+00 
71400 3.5861819455e+00 8.3624174052e-04 1.9307287118e+00 -3.3441202244e+00 1.9307287118e+00 3.3441202244e+00 
71500 3.5861819254e+00 8.3252143578e-04 1.9307070557e+00 -3.3440827150e+00 1.9307070557e+00 3.3440827150e+00 
71600 3.5861819055e+00 8.2881754908e-04 1.9306854957e+00 -3.3440453720e+00 1.9306854957e+00 3.3440453720e+00 
71700 3.5861818858e+00 8.2513001014e-04 1.9306640314e+00 -3.3440081948e+00 1.9306640314e+00 3.3440081948e+00 
71800 3.5861818663e+00 8.2145874898e-04 1.9306426624e+00 -3.3439711825e+00 1.9306426624e+00 3.3439711825e+00 
71900 3.5861818470e+00 8.1780369584e-04 1.9306213882e+00 -3.3439343345e+00 1.9306213882e+00 3.3439343345e+00 
72000 3.5861818278e+00 8.1416478127e-04 1.9306002084e+00 -3.3438976501e+00 1.9306002084e+00 3.3438976501e+00 
72100 3.5861818088e+00 8.1054193607e-04 1.9305791227e+00 -3.3438611285e+00 1.9305791227e+00 3.3438611285e+00 
72200 3.5861817899e+00 8.0693509131e-04 1.9305581305e+00 -3.3438247690e+00 1.9305581305e+00 3.3438247690e+00 
72300 3.5861817713e+00 8.0334417833e-04 1.9305372315e+00 -3.3437885709e+00 1.9305372315e+00 3.3437885709e+00 
72400 3.5861817528e+00 7.9976912872e-04 1.9305164253e+00 -3.3437525335e+00 1.9305164253e+00 3.3437525335e+00 
72500 3.5861817344e+00 7.9620987436e-04 1.9304957115e+00 -3.3437166561e+00 1.9304957115e+00 3.3437166561e+00 
72600 3.5861817162e+00 7.9266634738e-04 1.9304750897e+00 -3.3436809380e+00 1.9304750897e+00 3.3436809380e+00 
72700 3.5861816982e+00 7.8913848017e-04 1.9304545593e+00 -3.3436453785e+00 1.9304545593e+00 3.3436453785e+00 
72800 3.5861816804e+00 7.8562620540e-04 1.9304341202e+00 -3.3436099768e+00 1.9304341202e+00 3.3436099768e+00 
72900 3.5861816627e+00 7.8212945598e-04 1.9304137718e+00 -3.3435747324e+00 1.9304137718e+00 3.3435747324e+00 
73000 3.5861816451e+00 7.7864816510e-04 1.9303935138e+00 -3.3435396444e+00 1.9303935138e+00 3.3435396444e+00 
73100 3.5861816278e+00 7.7518226621e-04 1.9303733457e+00 -3.3435047123e+00 1.9303733457e+00 3.3435047123e+00 
73200 3.5861816105e+00 7.7173169301e-04 1.9303532671e+00 -3.3434699352e+00 1.9303532671e+00 3.3434699352e+00 
73300 3.5861815935e+00 7.6829637946e-04 1.9303332778e+00 -3.3434353127e+00 1.9303332778e+00 3.3434353127e+00 
73400 3.5861815765e+00 7.6487625980e-04 1.9303133772e+00 -3.3434008439e+00 1.9303133772e+00 3.3434008439e+00 
73500 3.5861815598e+00 7.6147126851e-04 1.9302935650e+00 -3.3433665281e+00 1.9302935650e+00 3.3433665281e+00 
73600 3.5861815432e+00 7.5808134033e-04 1.9302738408e+00 -3.3433323648e+00 1.9302738408e+00 3.3433323648e+00 
73700 3.5861815267e+00 7.5470641025e-04 1.9302542042e+00 -3.3432983532e+00 1.9302542042e+00 3.3432983532e+00 
73800 3.5861815104e+00 7.5134641354e-04 1.9302346548e+00 -3.3432644927e+00 1.9302346548e+00 3.3432644927e+00 
73900 3.5861814942e+00 7.4800128571e-04 1.9302151923e+00 -3.3432307826e+00 1.9302151923e+00 3.3432307826e+00 
74000 3.5861814781e+00 7.4467096252e-04 1.9301958162e+00 -3.3431972223e+00 1.9301958162e+00 3.3431972223e+00 
74100 3.5861814622e+00 7.4135537999e-04 1.9301765262e+00 -3.3431638110e+00 1.9301765262e+00 3.3431638110e+00 
74200 3.5861814465e+00 7.3805447441e-04 1.9301573219e+00 -3.3431305482e+00 1.9301573219e+00 3.3431305482e+00 
74300 3.5861814309e+00 7.3476818230e-04 1.9301382029e+00 -3.3430974331e+00 1.9301382029e+00 3.3430974331e+00 
74400 3.5861814154e+00 7.3149644044e-04 1.9301191689e+00 -3.3430644652e+00 1.9301191689e+00 3.3430644652e+00 
74500 3.5861814001e+00 7.2823918587e-04 1.9301002194e+00 -3.3430316437e+00 1.9301002194e+00 3.3430316437e+00 
74600 3.5861813849e+00 7.2499635587e-04 1.9300813541e+00 -3.3429989680e+00 1.9300813541e+00 3.3429989680e+00 
74700 3.5861813698e+00 7.2176788797e-04 1.9300625726e+00 -3.3429664376e+00 1.9300625726e+00 3.3429664376e+00 
74800 3.5861813549e+00 7.1855371996e-04 1.9300438746e+00 -3.3429340517e+00 1.9300438746e+00 3.3429340517e+00 
74900 3.5861813401e+00 7.1535378987e-04 1.9300252597e+00 -3.3429018097e+00 1.9300252597e+00 3.3429018097e+00 
75000 3.5861813254e+00 7.1216803598e-04 1.9300067275e+00 -3.3428697110e+00 1.9300067275e+00 3.3428697110e+00 
75100 3.5861813109e+00 7.0899639683e-04 1.9299882776e+00 -3.3428377549e+00 1.9299882776e+00 3.3428377549e+00 
75200 3.5861812965e+00 7.0583881118e-04 1.9299699098e+00 -3.3428059408e+00 1.9299699098e+00 3.3428059408e+00 
75300 3.5861812822e+00 7.0269521807e-04 1.9299516235e+00 -3.3427742681e+00 1.9299516235e+00 3.3427742681e+00 
75400 3.5861812681e+00 6.9956555675e-04 1.9299334186e+00 -3.3427427362e+00 1.9299334186e+00 3.3427427362e+00 
75500 3.5861812540e+00 6.9644976673e-04 1.9299152945e+00 -3.3427113444e+00 1.9299152945e+00 3.3427113444e+00 
75600 3.5861812401e+00 6.9334778779e-04 1.9298972510e+00 -3.3426800921e+00 1.9298972510e+00 3.3426800921e+00 
75700 3.5861812264e+00 6.9025955990e-04 1.9298792877e+00 -3.3426489788e+00 1.9298792877e+00 3.3426489788e+00 
75800 3.5861812127e+00 6.8718502332e-04 1.9298614042e+00 -3.3426180037e+00 1.9298614042e+00 3.3426180037e+00 
75900 3.5861811992e+00 6.8412411853e-04 1.9298436003e+00 -3.3425871663e+00 1.9298436003e+00 3.3425871663e+00 
76000 3.5861811858e+00 6.8107678625e-04 1.9298258754e+00 -3.3425564660e+00 1.9298258754e+00 3.3425564660e+00 
76100 3.5861811725e+00 6.7804296745e-04 1.9298082294e+00 -3.3425259022e+00 1.9298082294e+00 3.3425259022e+00 
76200 3.5861811593e+00 6.7502260333e-04 1.9297906618e+00 -3.3424954742e+00 1.9297906618e+00 3.3424954742e+00 
76300 3.5861811463e+00 6.7201563533e-04 1.9297731723e+00 -3.3424651815e+00 1.9297731723e+00 3.3424651815e+00 
76400 3.5861811333e+00 6.6902200513e-04 1.9297557605e+00 -3.3424350234e+00 1.9297557605e+00 3.3424350234e+00 
76500 3.5861811205e+00 6.6604165466e-04 1.9297384262e+00 -3.3424049995e+00 1.9297384262e+00 3.3424049995e+00 
76600 3.5861811078e+00 6.6307452606e-04 1.9297211689e+00 -3.3423751090e+00 1.9297211689e+00 3.3423751090e+00 
76700 3.5861810952e+00 6.6012056173e-04 1.9297039884e+00 -3.3423453514e+00 1.9297039884e+00 3.3423453514e+00 
76800 3.5861810827e+00 6.5717970430e-04 1.9296868842e+00 -3.3423157261e+00 1.9296868842e+00 3.3423157261e+00 
76900 3.5861810703e+00 6.5425189662e-04 1.9296698561e+00 -3.3422862325e+00 1.9296698561e+00 3.3422862325e+00 
77000 3.5861810581e+00 6.5133708179e-04 1.9296529037e+00 -3.3422568701e+00 1.9296529037e+00 3.3422568701e+00 
77100 3.5861810459e+00 6.4843520313e-04 1.9296360266e+00 -3.3422276382e+00 1.9296360266e+00 3.3422276382e+00 
77200 3.5861810339e+00 6.4554620420e-04 1.9296192247e+00 -3.3421985364e+00 1.9296192247e+00 3.3421985364e+00 
77300 3.5861810219e+00 6.4267002880e-04 1.9296024974e+00 -3.3421695639e+00 1.9296024974e+00 3.3421695639e+00 
77400 3.5861810101e+00 6.3980662095e-04 1.9295858445e+00 -3.3421407202e+00 1.9295858445e+00 3.3421407202e+00 
77500 3.5861809984e+00 6.3695592489e-04 1.9295692657e+00 -3.3421120048e+00 1.9295692657e+00 3.3421120048e+00 
77600 3.5861809868e+00 6.3411788510e-04 1.9295527605e+00 -3.3420834172e+00 1.9295527605e+00 3.3420834172e+00 
77700 3.5861809752e+00 6.3129244630e-04 1.9295363288e+00 -3.3420549566e+00 1.9295363288e+00 3.3420549566e+00 
77800 3.5861809638e+00 6.2847955343e-04 1.9295199702e+00 -3.3420266226e+00 1.9295199702e+00 3.3420266226e+00 
77900 3.5861809525e+00 6.2567915164e-04 1.9295036843e+00 -3.3419984146e+00 1.9295036843e+00 3.3419984146e+00 
78000 3.5861809413e+00 6.2289118632e-04 1.9294874709e+00 -3.3419703321e+00 1.9294874709e+00 3.3419703321e+00 
78100 3.5861809302e+00 6.2011560309e-04 1.9294713295e+00 -3.3419423745e+00 1.9294713295e+00 3.3419423745e+00 
78200 3.5861809192e+00 6.1735234779e-04 1.9294552600e+00 -3.3419145412e+00 1.9294552600e+00 3.3419145412e+00 
78300 3.5861809083e+00 6.1460136649e-04 1.9294392619e+00 -3.3418868317e+00 1.9294392619e+00 3.3418868317e+00 
78400 3.5861808974e+00 6.1186260547e-04 1.9294233350e+00 -3.3418592455e+00 1.9294233350e+00 3.3418592455e+00 
78500 3.5861808867e+00 6.0913601123e-04 1.9294074789e+00 -3.3418317820e+00 1.9294074789e+00 3.3418317820e+00 
78600 3.5861808761e+00 6.0642153052e-04 1.9293916934e+00 -3.3418044406e+00 1.9293916934e+00 3.3418044406e+00 
78700 3.5861808655e+00 6.0371911029e-04 1.9293759780e+00 -3.3417772208e+00 1.9293759780e+00 3.3417772208e+00 
78800 3.5861808551e+00 6.0102869769e-04 1.9293603326e+00 -3.3417501222e+00 1.9293603326e+00 3.3417501222e+00 
78900 3.5861808448e+00 5.9835024014e-04 1.9293447568e+00 -3.3417231440e+00 1.9293447568e+00 3.3417231440e+00 
79000 3.5861808345e+00 5.9568368524e-04 1.9293292502e+00 -3.3416962859e+00 1.9293292502e+00 3.3416962859e+00 
79100 3.5861808243e+00 5.9302898082e-04 1.9293138126e+00 -3.3416695473e+00 1.9293138126e+00 3.3416695473e+00 
79200 3.5861808143e+00 5.9038607492e-04 1.9292984438e+00 -3.3416429276e+00 1.9292984438e+00 3.3416429276e+00 
79300 3.5861808043e+00 5.8775491581e-04 1.9292831432e+00 -3.3416164263e+00 1.9292831432e+00 3.3416164263e+00 
79400 3.5861807944e+00 5.8513545197e-04 1.9292679108e+00 -3.3415900429e+00 1.9292679108e+00 3.3415900429e+00 
79500 3.5861807846e+00 5.8252763208e-04 1.9292527461e+00 -3.3415637769e+00 1.9292527461e+00 3.3415637769e+00 
79600 3.5861807749e+00 5.7993140507e-04 1.9292376489e+00 -3.3415376278e+00 1.9292376489e+00 3.3415376278e+00 
79700 3.5861807652e+00 5.7734672004e-04 1.9292226188e+00 -3.3415115950e+00 1.9292226188e+00 3.3415115950e+00 
79800 3.5861807557e+00 5.7477352634e-04 1.9292076557e+00 -3.3414856780e+00 1.9292076557e+00 3.3414856780e+00 
79900 3.5861807462e+00 5.7221177351e-04 1.9291927591e+00 -3.3414598763e+00 1.9291927591e+00 3.3414598763e+00 
80000 3.5861807369e+00 5.6966141131e-04 1.9291779287e+00 -3.3414341894e+00 1.9291779287e+00 3.3414341894e+00 
80100 3.5861807276e+00 5.6712238971e-04 1.9291631644e+00 -3.3414086168e+00 1.9291631644e+00 3.3414086168e+00 
80200 3.5861807183e+00 5.6459465888e-04 1.9291484658e+00 -3.3413831580e+00 1.9291484658e+00 3.3413831580e+00 
80300 3.5861807092e+00 5.6207816921e-04 1.9291338325e+00 -3.3413578125e+00 1.9291338325e+00 3.3413578125e+00 
80400 3.5861807002e+00 5.5957287131e-04 1.9291192644e+00 -3.3413325798e+00 1.9291192644e+00 3.3413325798e+00 
80500 3.5861806912e+00 5.5707871596e-04 1.9291047611e+00 -3.3413074593e+00 1.9291047611e+00 3.3413074593e+00 
80600 3.5861806823e+00 5.5459565419e-04 1.9290903223e+00 -3.3412824506e+00 1.9290903223e+00 3.3412824506e+00 
80700 3.5861806735e+00 5.5212363721e-04 1.9290759478e+00 -3.3412575532e+00 1.9290759478e+00 3.3412575532e+00 
80800 3.5861806648e+00 5.4966261644e-04 1.9290616372e+00 -3.3412327666e+00 1.9290616372e+00 3.3412327666e+00 
80900 3.5861806561e+00 5.4721254351e-04 1.9290473904e+00 -3.3412080903e+00 1.9290473904e+00 3.3412080903e+00 
81000 3.5861806476e+00 5.4477337024e-04 1.9290332069e+00 -3.3411835238e+00 1.9290332069e+00 3.3411835238e+00 
81100 3.5861806391e+00 5.4234504868e-04 1.9290190865e+00 -3.3411590667e+00 1.9290190865e+00 3.3411590667e+00 
81200 3.5861806306e+00 5.3992753106e-04 1.9290050290e+00 -3.3411347183e+00 1.9290050290e+00 3.3411347183e+00 
81300 3.5861806223e+00 5.3752076981e-04 1.9289910341e+00 -3.3411104783e+00 1.9289910341e+00 3.3411104783e+00 
81400 3.5861806140e+00 5.3512471759e-04 1.9289771014e+00 -3.3410863462e+00 1.9289771014e+00 3.3410863462e+00 
81500 3.5861806058e+00 5.3273932722e-04 1.9289632307e+00 -3.3410623215e+00 1.9289632307e+00 3.3410623215e+00 
81600 3.5861805977e+00 5.3036455174e-04 1.9289494218e+00 -3.3410384037e+00 1.9289494218e+00 3.3410384037e+00 
81700 3.5861805896e+00 5.2800034440e-04 1.9289356743e+00 -3.3410145924e+00 1.9289356743e+00 3.3410145924e+00 
81800 3.5861805816e+00 5.2564665863e-04 1.9289219880e+00 -3.3409908871e+00 1.9289219880e+00 3.3409908871e+00 
81900 3.5861805737e+00 5.2330344806e-04 1.9289083626e+00 -3.3409672872e+00 1.9289083626e+00 3.3409672872e+00 
82000 3.5861805659e+00 5.2097066652e-04 1.9288947979e+00 -3.3409437924e+00 1.9288947979e+00 3.3409437924e+00 
82100 3.5861805581e+00 5.1864826804e-04 1.9288812935e+00 -3.3409204021e+00 1.9288812935e+00 3.3409204021e+00 
82200 3.5861805504e+00 5.1633620685e-04 1.9288678492e+00 -3.3408971160e+00 1.9288678492e+00 3.3408971160e+00 
82300 3.5861805428e+00 5.1403443735e-04 1.9288544648e+00 -3.3408739335e+00 1.9288544648e+00 3.3408739335e+00 
82400 3.5861805352e+00 5.1174291416e-04 1.9288411400e+00 -3.3408508542e+00 1.9288411400e+00 3.3408508542e+00 
82500 3.5861805277e+00 5.0946159208e-04 1.9288278744e+00 -3.3408278776e+00 1.9288278744e+00 3.3408278776e+00 
82600 3.5861805203e+00 5.0719042610e-04 1.9288146679e+00 -3.3408050033e+00 1.9288146679e+00 3.3408050033e+00 
82700 3.5861805129e+00 5.0492937142e-04 1.9288015202e+00 -3.3407822308e+00 1.9288015202e+00 3.3407822308e+00 
82800 3.5861805056e+00 5.0267838340e-04 1.9287884311e+00 -3.3407595596e+00 1.9287884311e+00 3.3407595596e+00 
82900 3.5861804984e+00 5.0043741762e-04 1.9287754001e+00 -3.3407369894e+00 1.9287754001e+00 3.3407369894e+00 
83000 3.5861804912e+00 4.9820642984e-04 1.9287624272e+00 -3.3407145197e+00 1.9287624272e+00 3.3407145197e+00 
83100 3.5861804841e+00 4.9598537599e-04 1.9287495120e+00 -3.3406921499e+00 1.9287495120e+00 3.3406921499e+00 
83200 3.5861804770e+00 4.9377421222e-04 1.9287366544e+00 -3.3406698798e+00 1.9287366544e+00 3.3406698798e+00 
83300 3.5861804701e+00 4.9157289485e-04 1.9287238539e+00 -3.3406477088e+00 1.9287238539e+00 3.3406477088e+00 
83400 3.5861804631e+00 4.8938138038e-04 1.9287111105e+00 -3.3406256364e+00 1.9287111105e+00 3.3406256364e+00 
83500 3.5861804563e+00 4.8719962552e-04 1.9286984237e+00 -3.3406036624e+00 1.9286984237e+00 3.3406036624e+00 
83600 3.5861804495e+00 4.8502758713e-04 1.9286857935e+00 -3.3405817861e+00 1.9286857935e+00 3.3405817861e+00 
83700 3.5861804428e+00 4.8286522228e-04 1.9286732194e+00 -3.3405600073e+00 1.9286732194e+00 3.3405600073e+00 
83800 3.5861804361e+00 4.8071248823e-04 1.9286607014e+00 -3.3405383254e+00 1.9286607014e+00 3.3405383254e+00 
83900 3.5861804295e+00 4.7856934239e-04 1.9286482391e+00 -3.3405167400e+00 1.9286482391e+00 3.3405167400e+00 
84000 3.5861804229e+00 4.7643574240e-04 1.9286358322e+00 -3.3404952507e+00 1.9286358322e+00 3.3404952507e+00 
84100 3.5861804164e+00 4.7431164603e-04 1.9286234806e+00 -3.3404738571e+00 1.9286234806e+00 3.3404738571e+00 
84200 3.5861804100e+00 4.7219701127e-04 1.9286111840e+00 -3.3404525587e+00 1.9286111840e+00 3.3404525587e+00 
84300 3.5861804036e+00 4.7009179627e-04 1.9285989421e+00 -3.3404313551e+00 1.9285989421e+00 3.3404313551e+00 
84400 3.5861803972e+00 4.6799595937e-04 1.9285867547e+00 -3.3404102460e+00 1.9285867547e+00 3.3404102460e+00 
84500 3.5861803910e+00 4.6590945909e-04 1.9285746216e+00 -3.3403892308e+00 1.9285746216e+00 3.3403892308e+00 
84600 3.5861803848e+00 4.6383225412e-04 1.9285625425e+00 -3.3403683092e+00 1.9285625425e+00 3.3403683092e+00 
84700 3.5861803786e+00 4.6176430332e-04 1.9285505172e+00 -3.3403474807e+00 1.9285505172e+00 3.3403474807e+00 
84800 3.5861803725e+00 4.5970556575e-04 1.9285385454e+00 -3.3403267450e+00 1.9285385454e+00 3.3403267450e+00 
84900 3.5861803664e+00 4.5765600064e-04 1.9285266269e+00 -3.3403061016e+00 1.9285266269e+00 3.3403061016e+00 
85000 3.5861803604e+00 4.5561556738e-04 1.9285147615e+00 -3.3402855501e+00 1.9285147615e+00 3.3402855501e+00 
85100 3.5861803545e+00 4.5358422554e-04 1.9285029489e+00 -3.3402650900e+00 1.9285029489e+00 3.3402650900e+00 
85200 3.5861803486e+00 4.5156193488e-04 1.9284911889e+00 -3.3402447211e+00 1.9284911889e+00 3.3402447211e+00 
85300 3.5861803428e+00 4.4954865531e-04 1.9284794813e+00 -3.3402244429e+00 1.9284794813e+00 3.3402244429e+00 
85400 3.5861803370e+00 4.4754434694e-04 1.9284678258e+00 -3.3402042550e+00 1.9284678258e+00 3.3402042550e+00 
85500 3.5861803312e+00 4.4554897003e-04 1.9284562221e+00 -3.3401841569e+00 1.9284562221e+00 3.3401841569e+00 
85600 3.5861803256e+00 4.4356248502e-04 1.9284446702e+00 -3.3401641484e+00 1.9284446702e+00 3.3401641484e+00 
85700 3.5861803199e+00 4.4158485251e-04 1.9284331697e+00 -3.3401442289e+00 1.9284331697e+00 3.3401442289e+00 
85800 3.5861803143e+00 4.3961603330e-04 1.9284217204e+00 -3.3401243981e+00 1.9284217204e+00 3.3401243981e+00 
85900 3.5861803088e+00 4.3765598832e-04 1.9284103221e+00 -3.3401046556e+00 1.9284103221e+00 3.3401046556e+00 
86000 3.5861803033e+00 4.3570467869e-04 1.9283989745e+00 -3.3400850011e+00 1.9283989745e+00 3.3400850011e+00 
86100 3.5861802979e+00 4.3376206571e-04 1.9283876774e+00 -3.3400654340e+00 1.9283876774e+00 3.3400654340e+00 
86200 3.5861802925e+00 4.3182811082e-04 1.9283764307e+00 -3.3400459541e+00 1.9283764307e+00 3.3400459541e+00 
86300 3.5861802871e+00 4.2990277565e-04 1.9283652340e+00 -3.3400265609e+00 1.9283652340e+00 3.3400265609e+00 
86400 3.5861802819e+00 4.2798602198e-04 1.9283540872e+00 -3.3400072540e+00 1.9283540872e+00 3.3400072540e+00 
86500 3.5861802766e+00 4.2607781176e-04 1.9283429900e+00 -3.3399880332e+00 1.9283429900e+00 3.3399880332e+00 
86600 3.5861802714e+00 4.2417810711e-04 1.9283319423e+00 -3.3399688979e+00 1.9283319423e+00 3.3399688979e+00 
86700 3.5861802663e+00 4.2228687031e-04 1.9283209437e+00 -3.3399498478e+00 1.9283209437e+00 3.3399498478e+00 
86800 3.5861802612e+00 4.2040406381e-04 1.9283099941e+00 -3.3399308826e+00 1.9283099941e+00 3.3399308826e+00 
86900 3.5861802561e+00 4.1852965021e-04 1.9282990933e+00 -3.3399120018e+00 1.9282990933e+00 3.3399120018e+00 
87000 3.5861802511e+00 4.1666359229e-04 1.9282882410e+00 -3.3398932051e+00 1.9282882410e+00 3.3398932051e+00 
87100 3.5861802461e+00 4.1480585296e-04 1.9282774370e+00 -3.3398744920e+00 1.9282774370e+00 3.3398744920e+00 
87200 3.5861802412e+00 4.1295639534e-04 1.9282666812e+00 -3.3398558624e+00 1.9282666812e+00 3.3398558624e+00 
87300 3.5861802363e+00 4.1111518266e-04 1.9282559732e+00 -3.3398373156e+00 1.9282559732e+00 3.3398373156e+00 
87400 3.5861802314e+00 4.0928217834e-04 1.9282453129e+00 -3.3398188515e+00 1.9282453129e+00 3.3398188515e+00 
87500 3.5861802267e+00 4.0745734595e-04 1.9282347001e+00 -3.3398004696e+00 1.9282347001e+00 3.3398004696e+00 
87600 3.5861802219e+00 4.0564064922e-04 1.9282241346e+00 -3.3397821695e+00 1.9282241346e+00 3.3397821695e+00 
87700 3.5861802172e+00 4.0383205204e-04 1.9282136161e+00 -3.3397639509e+00 1.9282136161e+00 3.3397639509e+00 
87800 3.5861802125e+00 4.0203151845e-04 1.9282031445e+00 -3.3397458135e+00 1.9282031445e+00 3.3397458135e+00 
87900 3.5861802079e+00 4.0023901265e-04 1.9281927194e+00 -3.3397277568e+00 1.9281927194e+00 3.3397277568e+00 
88000 3.5861802033e+00 3.9845449900e-04 1.9281823408e+00 -3.3397097806e+00 1.9281823408e+00 3.3397097806e+00 
88100 3.5861801987e+00 3.9667794200e-04 1.9281720085e+00 -3.3396918844e+00 1.9281720085e+00 3.3396918844e+00 
88200 3.5861801942e+00 3.9490930634e-04 1.9281617221e+00 -3.3396740679e+00 1.9281617221e+00 3.3396740679e+00 
88300 3.5861801898e+00 3.9314855682e-04 1.9281514815e+00 -3.3396563307e+00 1.9281514815e+00 3.3396563307e+00 
88400 3.5861801853e+00 3.9139565842e-04 1.9281412866e+00 -3.3396386725e+00 1.9281412866e+00 3.3396386725e+00 
88500 3.5861801810e+00 3.8965057626e-04 1.9281311370e+00 -3.3396210930e+00 1.9281311370e+00 3.3396210930e+00 
88600 3.5861801766e+00 3.8791327563e-04 1.9281210327e+00 -3.3396035918e+00 1.9281210327e+00 3.3396035918e+00 
88700 3.5861801723e+00 3.8618372195e-04 1.9281109733e+00 -3.3395861685e+00 1.9281109733e+00 3.3395861685e+00 
88800 3.5861801680e+00 3.8446188080e-04 1.9281009588e+00 -3.3395688227e+00 1.9281009588e+00 3.3395688227e+00 
88900 3.5861801638e+00 3.8274771792e-04 1.9280909888e+00 -3.3395515543e+00 1.9280909888e+00 3.3395515543e+00 
89000 3.5861801596e+00 3.8104119918e-04 1.9280810633e+00 -3.3395343627e+00 1.9280810633e+00 3.3395343627e+00 
89100 3.5861801554e+00 3.7934229062e-04 1.9280711819e+00 -3.3395172477e+00 1.9280711819e+00 3.3395172477e+00 
89200 3.5861801513e+00 3.7765095840e-04 1.9280613446e+00 -3.3395002089e+00 1.9280613446e+00 3.3395002089e+00 
89300 3.5861801472e+00 3.7596716887e-04 1.9280515511e+00 -3.3394832460e+00 1.9280515511e+00 3.3394832460e+00 
89400 3.5861801432e+00 3.7429088848e-04 1.9280418011e+00 -3.3394663587e+00 1.9280418011e+00 3.3394663587e+00 
89500 3.5861801392e+00 3.7262208386e-04 1.9280320946e+00 -3.3394495465e+00 1.9280320946e+00 3.3394495465e+00 
89600 3.5861801352e+00 3.7096072177e-04 1.9280224314e+00 -3.3394328093e+00 1.9280224314e+00 3.3394328093e+00 
89700 3.5861801313e+00 3.6930676913e-04 1.9280128111e+00 -3.3394161465e+00 1.9280128111e+00 3.3394161465e+00 
89800 3.5861801273e+00 3.6766019299e-04 1.9280032338e+00 -3.3393995580e+00 1.9280032338e+00 3.3393995580e+00 
89900 3.5861801235e+00 3.6602096054e-04 1.9279936990e+00 -3.3393830434e+00 1.9279936990e+00 3.3393830434e+00 
90000 3.5861801196e+00 3.6438903914e-04 1.9279842068e+00 -3.3393666023e+00 1.9279842068e+00 3.3393666023e+00 
90100 3.5861801158e+00 3.6276439626e-04 1.9279747568e+00 -3.3393502344e+00 1.9279747568e+00 3.3393502344e+00 
90200 3.5861801121e+00 3.6114699954e-04 1.9279653489e+00 -3.3393339395e+00 1.9279653489e+00 3.3393339395e+00 
90300 3.5861801083e+00 3.5953681675e-04 1.9279559829e+00 -3.3393177171e+00 1.9279559829e+00 3.3393177171e+00 
90400 3.5861801046e+00 3.5793381580e-04 1.9279466586e+00 -3.3393015669e+00 1.9279466586e+00 3.3393015669e+00 
90500 3.5861801010e+00 3.5633796473e-04 1.9279373758e+00 -3.3392854887e+00 1.9279373758e+00 3.3392854887e+00 
90600 3.5861800973e+00 3.5474923175e-04 1.9279281344e+00 -3.3392694821e+00 1.9279281344e+00 3.3392694821e+00 
90700 3.5861800937e+00 3.5316758518e-04 1.9279189341e+00 -3.3392535467e+00 1.9279189341e+00 3.3392535467e+00 
90800 3.5861800901e+00 3.5159299349e-04 1.9279097748e+00 -3.3392376824e+00 1.9279097748e+00 3.3392376824e+00 
90900 3.5861800866e+00 3.5002542530e-04 1.9279006563e+00 -3.3392218887e+00 1.9279006563e+00 3.3392218887e+00 
91000 3.5861800831e+00 3.4846484935e-04 1.9278915784e+00 -3.3392061653e+00 1.9278915784e+00 3.3392061653e+00 
91100 3.5861800796e+00 3.4691123452e-04 1.9278825410e+00 -3.3391905120e+00 1.9278825410e+00 3.3391905120e+00 
91200 3.5861800762e+00 3.4536454984e-04 1.9278735438e+00 -3.3391749284e+00 1.9278735438e+00 3.3391749284e+00 
91300 3.5861800728e+00 3.4382476446e-04 1.9278645867e+00 -3.3391594142e+00 1.9278645867e+00 3.3391594142e+00 
91400 3.5861800694e+00 3.4229184766e-04 1.9278556694e+00 -3.3391439691e+00 1.9278556694e+00 3.3391439691e+00 
91500 3.5861800660e+00 3.4076576889e-04 1.9278467919e+00 -3.3391285928e+00 1.9278467919e+00 3.3391285928e+00 
91600 3.5861800627e+00 3.3924649770e-04 1.9278379539e+00 -3.3391132849e+00 1.9278379539e+00 3.3391132849e+00 
91700 3.5861800594e+00 3.3773400379e-04 1.9278291553e+00 -3.3390980453e+00 1.9278291553e+00 3.3390980453e+00 
91800 3.5861800561e+00 3.3622825698e-04 1.9278203959e+00 -3.3390828735e+00 1.9278203959e+00 3.3390828735e+00 
91900 3.5861800529e+00 3.3472922723e-04 1.9278116754e+00 -3.3390677693e+00 1.9278116754e+00 3.3390677693e+00 
92000 3.5861800497e+00 3.3323688464e-04 1.9278029939e+00 -3.3390527324e+00 1.9278029939e+00 3.3390527324e+00 
92100 3.5861800465e+00 3.3175119943e-04 1.9277943510e+00 -3.3390377624e+00 1.9277943510e+00 3.3390377624e+00 
92200 3.5861800433e+00 3.3027214197e-04 1.9277857465e+00 -3.3390228591e+00 1.9277857465e+00 3.3390228591e+00 
92300 3.5861800402e+00 3.2879968272e-04 1.9277771804e+00 -3.3390080222e+00 1.9277771804e+00 3.3390080222e+00 
92400 3.5861800371e+00 3.2733379232e-04 1.9277686525e+00 -3.3389932514e+00 1.9277686525e+00 3.3389932514e+00 
92500 3.5861800340e+00 3.2587444150e-04 1.9277601625e+00 -3.3389785463e+00 1.9277601625e+00 3.3389785463e+00 
92600 3.5861800310e+00 3.2442160113e-04 1.9277517104e+00 -3.3389639068e+00 1.9277517104e+00 3.3389639068e+00 
92700 3.5861800280e+00 3.2297524223e-04 1.9277432959e+00 -3.3389493324e+00 1.9277432959e+00 3.3389493324e+00 
92800 3.5861800250e+00 3.2153533593e-04 1.9277349189e+00 -3.3389348230e+00 1.9277349189e+00 3.3389348230e+00 
92900 3.5861800220e+00 3.2010185347e-04 1.9277265792e+00 -3.3389203782e+00 1.9277265792e+00 3.3389203782e+00 
93000 3.5861800191e+00 3.1867476624e-04 1.9277182766e+00 -3.3389059977e+00 1.9277182766e+00 3.3389059977e+00 
93100 3.5861800162e+00 3.1725404576e-04 1.9277100110e+00 -3.3388916813e+00 1.9277100110e+00 3.3388916813e+00 
93200 3.5861800133e+00 3.1583966365e-04 1.9277017822e+00 -3.3388774287e+00 1.9277017822e+00 3.3388774287e+00 
93300 3.5861800104e+00 3.1443159169e-04 1.9276935901e+00 -3.3388632395e+00 1.9276935901e+00 3.3388632395e+00 
93400 3.5861800076e+00 3.1302980174e-04 1.9276854345e+00 -3.3388491135e+00 1.9276854345e+00 3.3388491135e+00 
93500 3.5861800048e+00 3.1163426584e-04 1.9276773152e+00 -3.3388350504e+00 1.9276773152e+00 3.3388350504e+00 
93600 3.5861800020e+00 3.1024495610e-04 1.9276692320e+00 -3.3388210500e+00 1.9276692320e+00 3.3388210500e+00 
93700 3.5861799993e+00 3.0886184478e-04 1.9276611849e+00 -3.3388071120e+00 1.9276611849e+00 3.3388071120e+00 
93800 3.5861799965e+00 3.0748490426e-04 1.9276531736e+00 -3.3387932360e+00 1.9276531736e+00 3.3387932360e+00 
93900 3.5861799938e+00 3.0611410705e-04 1.9276451979e+00 -3.3387794218e+00 1.9276451979e+00 3.3387794218e+00 
94000 3.5861799911e+00 3.0474942575e-04 1.9276372578e+00 -3.3387656691e+00 1.9276372578e+00 3.3387656691e+00 
94100 3.5861799885e+00 3.0339083312e-04 1.9276293531e+00 -3.3387519777e+00 1.9276293531e+00 3.3387519777e+00 
94200 3.5861799858e+00 3.0203830202e-04 1.9276214836e+00 -3.3387383473e+00 1.9276214836e+00 3.3387383473e+00 
94300 3.5861799832e+00 3.0069180543e-04 1.9276136491e+00 -3.3387247776e+00 1.9276136491e+00 3.3387247776e+00 
94400 3.5861799806e+00 2.9935131645e-04 1.9276058495e+00 -3.3387112683e+00 1.9276058495e+00 3.3387112683e+00 
94500 3.5861799781e+00 2.9801680831e-04 1.9275980847e+00 -3.3386978192e+00 1.9275980847e+00 3.3386978192e+00 
94600 3.5861799755e+00 2.9668825433e-04 1.9275903544e+00 -3.3386844300e+00 1.9275903544e+00 3.3386844300e+00 
94700 3.5861799730e+00 2.9536562799e-04 1.9275826586e+00 -3.3386711005e+00 1.9275826586e+00 3.3386711005e+00 
94800 3.5861799705e+00 2.9404890285e-04 1.9275749970e+00 -3.3386578303e+00 1.9275749970e+00 3.3386578303e+00 
94900 3.5861799680e+00 2.9273805260e-04 1.9275673696e+00 -3.3386446192e+00 1.9275673696e+00 3.3386446192e+00 
95000 3.5861799656e+00 2.9143305106e-04 1.9275597762e+00 -3.3386314669e+00 1.9275597762e+00 3.3386314669e+00 
95100 3.5861799631e+00 2.9013387214e-04 1.9275522165e+00 -3.3386183733e+00 1.9275522165e+00 3.3386183733e+00 
95200 3.5861799607e+00 2.8884048988e-04 1.9275446906e+00 -3.3386053379e+00 1.9275446906e+00 3.3386053379e+00 
95300 3.5861799583e+00 2.8755287845e-04 1.9275371981e+00 -3.3385923606e+00 1.9275371981e+00 3.3385923606e+00 
95400 3.5861799560e+00 2.8627101209e-04 1.9275297391e+00 -3.3385794411e+00 1.9275297391e+00 3.3385794411e+00 
95500 3.5861799536e+00 2.8499486521e-04 1.9275223132e+00 -3.3385665792e+00 1.9275223132e+00 3.3385665792e+00 
95600 3.5861799513e+00 2.8372441229e-04 1.9275149204e+00 -3.3385537745e+00 1.9275149204e+00 3.3385537745e+00 
95700 3.5861799490e+00 2.8245962794e-04 1.9275075606e+00 -3.3385410269e+00 1.9275075606e+00 3.3385410269e+00 
95800 3.5861799467e+00 2.8120048688e-04 1.9275002335e+00 -3.3385283361e+00 1.9275002335e+00 3.3385283361e+00 
95900 3.5861799444e+00 2.7994696395e-04 1.9274929391e+00 -3.3385157017e+00 1.9274929391e+00 3.3385157017e+00 
96000 3.5861799422e+00 2.7869903408e-04 1.9274856771e+00 -3.3385031237e+00 1.9274856771e+00 3.3385031237e+00 
96100 3.5861799400e+00 2.7745667233e-04 1.9274784476e+00 -3.3384906017e+00 1.9274784476e+00 3.3384906017e+00 
96200 3.5861799378e+00 2.7621985387e-04 1.9274712502e+00 -3.3384781354e+00 1.9274712502e+00 3.3384781354e+00 
96300 3.5861799356e+00 2.7498855398e-04 1.9274640848e+00 -3.3384657247e+00 1.9274640848e+00 3.3384657247e+00 
96400 3.5861799334e+00 2.7376274803e-04 1.9274569514e+00 -3.3384533692e+00 1.9274569514e+00 3.3384533692e+00 
96500 3.5861799313e+00 2.7254241152e-04 1.9274498497e+00 -3.3384410688e+00 1.9274498497e+00 3.3384410688e+00 
96600 3.5861799291e+00 2.7132752006e-04 1.9274427797e+00 -3.3384288232e+00 1.9274427797e+00 3.3384288232e+00 
96700 3.5861799270e+00 2.7011804935e-04 1.9274357412e+00 -3.3384166321e+00 1.9274357412e+00 3.3384166321e+00 
96800 3.5861799249e+00 2.6891397522e-04 1.9274287340e+00 -3.3384044953e+00 1.9274287340e+00 3.3384044953e+00 
96900 3.5861799229e+00 2.6771527358e-04 1.9274217580e+00 -3.3383924125e+00 1.9274217580e+00 3.3383924125e+00 
97000 3.5861799208e+00 2.6652192048e-04 1.9274148131e+00 -3.3383803836e+00 1.9274148131e+00 3.3383803836e+00 
97100 3.5861799188e+00 2.6533389204e-04 1.9274078992e+00 -3.3383684083e+00 1.9274078992e+00 3.3383684083e+00 
97200 3.5861799167e+00 2.6415116452e-04 1.9274010160e+00 -3.3383564862e+00 1.9274010160e+00 3.3383564862e+00 
97300 3.5861799147e+00 2.6297371426e-04 1.9273941635e+00 -3.3383446173e+00 1.9273941635e+00 3.3383446173e+00 
97400 3.5861799128e+00 2.6180151772e-04 1.9273873415e+00 -3.3383328013e+00 1.9273873415e+00 3.3383328013e+00 
97500 3.5861799108e+00 2.6063455146e-04 1.9273805499e+00 -3.3383210379e+00 1.9273805499e+00 3.3383210379e+00 
97600 3.5861799088e+00 2.5947279214e-04 1.9273737885e+00 -3.3383093268e+00 1.9273737885e+00 3.3383093268e+00 
97700 3.5861799069e+00 2.5831621653e-04 1.9273670572e+00 -3.3382976680e+00 1.9273670572e+00 3.3382976680e+00 
97800 3.5861799050e+00 2.5716480149e-04 1.9273603560e+00 -3.3382860610e+00 1.9273603560e+00 3.3382860610e+00 
97900 3.5861799031e+00 2.5601852401e-04 1.9273536846e+00 -3.3382745058e+00 1.9273536846e+00 3.3382745058e+00 
98000 3.5861799012e+00 2.5487736115e-04 1.9273470428e+00 -3.3382630020e+00 1.9273470428e+00 3.3382630020e+00 
98100 3.5861798994e+00 2.5374129009e-04 1.9273404307e+00 -3.3382515495e+00 1.9273404307e+00 3.3382515495e+00 
98200 3.5861798975e+00 2.5261028811e-04 1.9273338480e+00 -3.3382401480e+00 1.9273338480e+00 3.3382401480e+00 
98300 3.5861798957e+00 2.5148433259e-04 1.9273272947e+00 -3.3382287972e+00 1.9273272947e+00 3.3382287972e+00 
98400 3.5861798939e+00 2.5036340100e-04 1.9273207705e+00 -3.3382174970e+00 1.9273207705e+00 3.3382174970e+00 
98500 3.5861798921e+00 2.4924747093e-04 1.9273142754e+00 -3.3382062472e+00 1.9273142754e+00 3.3382062472e+00 
98600 3.5861798903e+00 2.4813652006e-04 1.9273078092e+00 -3.3381950474e+00 1.9273078092e+00 3.3381950474e+00 
98700 3.5861798885e+00 2.4703052616e-04 1.9273013718e+00 -3.3381838975e+00 1.9273013718e+00 3.3381838975e+00 
98800 3.5861798868e+00 2.4592946711e-04 1.9272949631e+00 -3.3381727973e+00 1.9272949631e+00 3.3381727973e+00 
98900 3.5861798851e+00 2.4483332089e-04 1.9272885830e+00 -3.3381617465e+00 1.9272885830e+00 3.3381617465e+00 
99000 3.5861798833e+00 2.4374206556e-04 1.9272822312e+00 -3.3381507450e+00 1.9272822312e+00 3.3381507450e+00 
99100 3.5861798816e+00 2.4265567931e-04 1.9272759077e+00 -3.3381397924e+00 1.9272759077e+00 3.3381397924e+00 
99200 3.5861798800e+00 2.4157414038e-04 1.9272696125e+00 -3.3381288886e+00 1.9272696125e+00 3.3381288886e+00 
99300 3.5861798783e+00 2.4049742716e-04 1.9272633452e+00 -3.3381180334e+00 1.9272633452e+00 3.3381180334e+00 
99400 3.5861798766e+00 2.3942551810e-04 1.9272571058e+00 -3.3381072266e+00 1.9272571058e+00 3.3381072266e+00 
99500 3.5861798750e+00 2.3835839175e-04 1.9272508943e+00 -3.3380964678e+00 1.9272508943e+00 3.3380964678e+00 
99600 3.5861798733e+00 2.3729602678e-04 1.9272447104e+00 -3.3380857570e+00 1.9272447104e+00 3.3380857570e+00 
99700 3.5861798717e+00 2.3623840191e-04 1.9272385540e+00 -3.3380750939e+00 1.9272385540e+00 3.3380750939e+00 
99800 3.5861798701e+00 2.3518549600e-04 1.9272324251e+00 -3.3380644783e+00 1.9272324251e+00 3.3380644783e+00 
99900 3.5861798685e+00 2.3413728798e-04 1.9272263235e+00 -3.3380539099e+00 1.9272263235e+00 3.3380539099e+00 
100000 3.5861798670e+00 2.3309375688e-04 1.9272202490e+00 -3.3380433887e+00 1.9272202490e+00 3.3380433887e+00 
100100 3.5861798654e+00 2.3205488181e-04 1.9272142016e+00 -3.3380329143e+00 1.9272142016e+00 3.3380329143e+00 
100200 3.5861798639e+00 2.3102064200e-04 1.9272081811e+00 -3.3380224865e+00 1.9272081811e+00 3.3380224865e+00 
100300 3.5861798623e+00 2.2999101675e-04 1.9272021875e+00 -3.3380121052e+00 1.9272021875e+00 3.3380121052e+00 
100400 3.5861798608e+00 2.2896598547e-04 1.9271962205e+00 -3.3380017701e+00 1.9271962205e+00 3.3380017701e+00 
100500 3.5861798593e+00 2.2794552763e-04 1.9271902801e+00 -3.3379914810e+00 1.9271902801e+00 3.3379914810e+00 
100600 3.5861798578e+00 2.2692962283e-04 1.9271843662e+00 -3.3379812378e+00 1.9271843662e+00 3.3379812378e+00 
100700 3.5861798564e+00 2.2591825073e-04 1.9271784786e+00 -3.3379710402e+00 1.9271784786e+00 3.3379710402e+00 
100800 3.5861798549e+00 2.2491139111e-04 1.9271726172e+00 -3.3379608880e+00 1.9271726172e+00 3.3379608880e+00 
100900 3.5861798534e+00 2.2390902381e-04 1.9271667820e+00 -3.3379507810e+00 1.9271667820e+00 3.3379507810e+00 
101000 3.5861798520e+00 2.2291112877e-04 1.9271609727e+00 -3.3379407191e+00 1.9271609727e+00 3.3379407191e+00 
101100 3.5861798506e+00 2.2191768604e-04 1.9271551893e+00 -3.3379307019e+00 1.9271551893e+00 3.3379307019e+00 
101200 3.5861798492e+00 2.2092867573e-04 1.9271494316e+00 -3.3379207294e+00 1.9271494316e+00 3.3379207294e+00 
101300 3.5861798478e+00 2.1994407805e-04 1.9271436996e+00 -3.3379108013e+00 1.9271436996e+00 3.3379108013e+00 
101400 3.5861798464e+00 2.1896387330e-04 1.9271379932e+00 -3.3379009174e+00 1.9271379932e+00 3.3379009174e+00 
101500 3.5861798450e+00 2.1798804186e-04 1.9271323121e+00 -3.3378910775e+00 1.9271323121e+00 3.3378910775e+00 
101600 3.5861798437e+00 2.1701656421e-04 1.9271266563e+00 -3.3378812814e+00 1.9271266563e+00 3.3378812814e+00 
101700 3.5861798423e+00 2.1604942092e-04 1.9271210258e+00 -3.3378715290e+00 1.9271210258e+00 3.3378715290e+00 
101800 3.5861798410e+00 2.1508659261e-04 1.9271154203e+00 -3.3378618200e+00 1.9271154203e+00 3.3378618200e+00 
101900 3.5861798396e+00 2.1412806004e-04 1.9271098397e+00 -3.3378521542e+00 1.9271098397e+00 3.3378521542e+00 
102000 3.5861798383e+00 2.1317380401e-04 1.9271042841e+00 -3.3378425315e+00 1.9271042841e+00 3.3378425315e+00 
102100 3.5861798370e+00 2.1222380544e-04 1.9270987531e+00 -3.3378329516e+00 1.9270987531e+00 3.3378329516e+00 
102200 3.5861798357e+00 2.1127804531e-04 1.9270932468e+00 -3.3378234144e+00 1.9270932468e+00 3.3378234144e+00 
102300 3.5861798344e+00 2.1033650469e-04 1.9270877651e+00 -3.3378139197e+00 1.9270877651e+00 3.3378139197e+00 
102400 3.5861798332e+00 2.0939916474e-04 1.9270823077e+00 -3.3378044673e+00 1.9270823077e+00 3.3378044673e+00 
102500 3.5861798319e+00 2.0846600671e-04 1.9270768746e+00 -3.3377950570e+00 1.9270768746e+00 3.3377950570e+00 
102600 3.5861798307e+00 2.0753701193e-04 1.9270714658e+00 -3.3377856885e+00 1.9270714658e+00 3.3377856885e+00 
102700 3.5861798294e+00 2.0661216179e-04 1.9270660810e+00 -3.3377763618e+00 1.9270660810e+00 3.3377763618e+00 
102800 3.5861798282e+00 2.0569143780e-04 1.9270607202e+00 -3.3377670767e+00 1.9270607202e+00 3.3377670767e+00 
102900 3.5861798270e+00 2.0477482152e-04 1.9270553833e+00 -3.3377578328e+00 1.9270553833e+00 3.3377578328e+00 
103000 3.5861798258e+00 2.0386229462e-04 1.9270500701e+00 -3.3377486302e+00 1.9270500701e+00 3.3377486302e+00 
103100 3.5861798246e+00 2.0295383883e-04 1.9270447806e+00 -3.3377394685e+00 1.9270447806e+00 3.3377394685e+00 
103200 3.5861798234e+00 2.0204943597e-04 1.9270395147e+00 -3.3377303477e+00 1.9270395147e+00 3.3377303477e+00 
103300 3.5861798223e+00 2.0114906795e-04 1.9270342722e+00 -3.3377212674e+00 1.9270342722e+00 3.3377212674e+00 
103400 3.5861798211e+00 2.0025271674e-04 1.9270290531e+00 -3.3377122276e+00 1.9270290531e+00 3.3377122276e+00 
103500 3.5861798199e+00 1.9936036440e-04 1.9270238572e+00 -3.3377032281e+00 1.9270238572e+00 3.3377032281e+00 
103600 3.5861798188e+00 1.9847199309e-04 1.9270186845e+00 -3.3376942686e+00 1.9270186845e+00 3.3376942686e+00 
103700 3.5861798177e+00 1.9758758502e-04 1.9270135347e+00 -3.3376853490e+00 1.9270135347e+00 3.3376853490e+00 
103800 3.5861798166e+00 1.9670712248e-04 1.9270084080e+00 -3.3376764692e+00 1.9270084080e+00 3.3376764692e+00 
103900 3.5861798155e+00 1.9583058787e-04 1.9270033040e+00 -3.3376676289e+00 1.9270033040e+00 3.3376676289e+00 
104000 3.5861798144e+00 1.9495796364e-04 1.9269982228e+00 -3.3376588280e+00 1.9269982228e+00 3.3376588280e+00 
104100 3.5861798133e+00 1.9408923232e-04 1.9269931642e+00 -3.3376500662e+00 1.9269931642e+00 3.3376500662e+00 
104200 3.5861798122e+00 1.9322437654e-04 1.9269881281e+00 -3.3376413435e+00 1.9269881281e+00 3.3376413435e+00 
104300 3.5861798111e+00 1.9236337897e-04 1.9269831145e+00 -3.3376326597e+00 1.9269831145e+00 3.3376326597e+00 
104400 3.5861798101e+00 1.9150622240e-04 1.9269781232e+00 -3.3376240145e+00 1.9269781232e+00 3.3376240145e+00 
104500 3.5861798090e+00 1.9065288966e-04 1.9269731541e+00 -3.3376154078e+00 1.9269731541e+00 3.3376154078e+00 
104600 3.5861798080e+00 1.8980336369e-04 1.9269682072e+00 -3.3376068394e+00 1.9269682072e+00 3.3376068394e+00 
104700 3.5861798069e+00 1.8895762747e-04 1.9269632823e+00 -3.3375983092e+00 1.9269632823e+00 3.3375983092e+00 
104800 3.5861798059e+00 1.8811566409e-04 1.9269583793e+00 -3.3375898170e+00 1.9269583793e+00 3.3375898170e+00 
104900 3.5861798049e+00 1.8727745670e-04 1.9269534981e+00 -3.3375813626e+00 1.9269534981e+00 3.3375813626e+00 
105000 3.5861798039e+00 1.8644298851e-04 1.9269486387e+00 -3.3375729458e+00 1.9269486387e+00 3.3375729458e+00 
105100 3.5861798029e+00 1.8561224283e-04 1.9269438009e+00 -3.3375645665e+00 1.9269438009e+00 3.3375645665e+00 
105200 3.5861798019e+00 1.8478520304e-04 1.9269389847e+00 -3.3375562246e+00 1.9269389847e+00 3.3375562246e+00 
105300 3.5861798009e+00 1.8396185258e-04 1.9269341899e+00 -3.3375479198e+00 1.9269341899e+00 3.3375479198e+00 
105400 3.5861797999e+00 1.8314217498e-04 1.9269294165e+00 -3.3375396519e+00 1.9269294165e+00 3.3375396519e+00 
105500 3.5861797990e+00 1.8232615383e-04 1.9269246643e+00 -3.3375314209e+00 1.9269246643e+00 3.3375314209e+00 
105600 3.5861797980e+00 1.8151377280e-04 1.9269199333e+00 -3.3375232266e+00 1.9269199333e+00 3.3375232266e+00 
105700 3.5861797971e+00 1.8070501564e-04 1.9269152233e+00 -3.3375150687e+00 1.9269152233e+00 3.3375150687e+00 
105800 3.5861797961e+00 1.7989986616e-04 1.9269105344e+00 -3.3375069472e+00 1.9269105344e+00 3.3375069472e+00 
105900 3.5861797952e+00 1.7909830825e-04 1.9269058663e+00 -3.3374988618e+00 1.9269058663e+00 3.3374988618e+00 
106000 3.5861797943e+00 1.7830032586e-04 1.9269012190e+00 -3.3374908124e+00 1.9269012190e+00 3.3374908124e+00 
106100 3.5861797934e+00 1.7750590303e-04 1.9268965924e+00 -3.3374827989e+00 1.9268965924e+00 3.3374827989e+00 
106200 3.5861797925e+00 1.7671502386e-04 1.9268919864e+00 -3.3374748211e+00 1.9268919864e+00 3.3374748211e+00 
106300 3.5861797916e+00 1.7592767253e-04 1.9268874009e+00 -3.3374668788e+00 1.9268874009e+00 3.3374668788e+00 
106400 3.5861797907e+00 1.7514383327e-04 1.9268828358e+00 -3.3374589719e+00 1.9268828358e+00 3.3374589719e+00 
106500 3.5861797898e+00 1.7436349040e-04 1.9268782911e+00 -3.3374511001e+00 1.9268782911e+00 3.3374511001e+00 
106600 3.5861797889e+00 1.7358662831e-04 1.9268737666e+00 -3.3374432635e+00 1.9268737666e+00 3.3374432635e+00 
106700 3.5861797881e+00 1.7281323144e-04 1.9268692622e+00 -3.3374354617e+00 1.9268692622e+00 3.3374354617e+00 
106800 3.5861797872e+00 1.7204328433e-04 1.9268647779e+00 -3.3374276946e+00 1.9268647779e+00 3.3374276946e+00 
106900 3.5861797864e+00 1.7127677157e-04 1.9268603136e+00 -3.3374199622e+00 1.9268603136e+00 3.3374199622e+00 
107000 3.5861797855e+00 1.7051367781e-04 1.9268558691e+00 -3.3374122642e+00 1.9268558691e+00 3.3374122642e+00 
107100 3.5861797847e+00 1.6975398778e-04 1.9268514445e+00 -3.3374046004e+00 1.9268514445e+00 3.3374046004e+00 
107200 3.5861797839e+00 1.6899768630e-04 1.9268470395e+00 -3.3373969708e+00 1.9268470395e+00 3.3373969708e+00 
107300 3.5861797831e+00 1.6824475821e-04 1.9268426542e+00 -3.3373893752e+00 1.9268426542e+00 3.3373893752e+00 
107400 3.5861797822e+00 1.6749518845e-04 1.9268382884e+00 -3.3373818134e+00 1.9268382884e+00 3.3373818134e+00 
107500 3.5861797814e+00 1.6674896203e-04 1.9268339420e+00 -3.3373742853e+00 1.9268339420e+00 3.3373742853e+00 
107600 3.5861797806e+00 1.6600606401e-04 1.9268296150e+00 -3.3373667906e+00 1.9268296150e+00 3.3373667906e+00 
107700 3.5861797799e+00 1.6526647952e-04 1.9268253072e+00 -3.3373593294e+00 1.9268253072e+00 3.3373593294e+00 
107800 3.5861797791e+00 1.6453019377e-04 1.9268210186e+00 -3.3373519014e+00 1.9268210186e+00 3.3373519014e+00 
107900 3.5861797783e+00 1.6379719203e-04 1.9268167492e+00 -3.3373445064e+00 1.9268167492e+00 3.3373445064e+00 
108000 3.5861797775e+00 1.6306745963e-04 1.9268124987e+00 -3.3373371444e+00 1.9268124987e+00 3.3373371444e+00 
108100 3.5861797768e+00 1.6234098195e-04 1.9268082672e+00 -3.3373298152e+00 1.9268082672e+00 3.3373298152e+00 
108200 3.5861797760e+00 1.6161774448e-04 1.9268040545e+00 -3.3373225186e+00 1.9268040545e+00 3.3373225186e+00 
108300 3.5861797753e+00 1.6089773274e-04 1.9267998606e+00 -3.3373152545e+00 1.9267998606e+00 3.3373152545e+00 
108400 3.5861797745e+00 1.6018093231e-04 1.9267956853e+00 -3.3373080228e+00 1.9267956853e+00 3.3373080228e+00 
108500 3.5861797738e+00 1.5946732886e-04 1.9267915286e+00 -3.3373008232e+00 1.9267915286e+00 3.3373008232e+00 
108600 3.5861797730e+00 1.5875690812e-04 1.9267873905e+00 -3.3372936557e+00 1.9267873905e+00 3.3372936557e+00 
108700 3.5861797723e+00 1.5804965585e-04 1.9267832708e+00 -3.3372865201e+00 1.9267832708e+00 3.3372865201e+00 
108800 3.5861797716e+00 1.5734555792e-04 1.9267791694e+00 -3.3372794163e+00 1.9267791694e+00 3.3372794163e+00 
108900 3.5861797709e+00 1.5664460024e-04 1.9267750862e+00 -3.3372723441e+00 1.9267750862e+00 3.3372723441e+00 
109000 3.5861797702e+00 1.5594676878e-04 1.9267710213e+00 -3.3372653035e+00 1.9267710213e+00 3.3372653035e+00 
109100 3.5861797695e+00 1.5525204957e-04 1.9267669745e+00 -3.3372582941e+00 1.9267669745e+00 3.3372582941e+00 
109200 3.5861797688e+00 1.5456042873e-04 1.9267629456e+00 -3.3372513160e+00 1.9267629456e+00 3.3372513160e+00 
109300 3.5861797681e+00 1.5387189240e-04 1.9267589348e+00 -3.3372443689e+00 1.9267589348e+00 3.3372443689e+00 
109400 3.5861797675e+00 1.5318363028e-04 1.9267549417e+00 -3.3372374528e+00 1.9267549417e+00 3.3372374528e+00 
109500 3.5861797668e+00 1.5249681579e-04 1.9267509666e+00 -3.3372305676e+00 1.9267509666e+00 3.3372305676e+00 
109600 3.5861797662e+00 1.5181209361e-04 1.9267470092e+00 -3.3372237133e+00 1.9267470092e+00 3.3372237133e+00 
109700 3.5861797655e+00 1.5112858513e-04 1.9267430696e+00 -3.3372168897e+00 1.9267430696e+00 3.3372168897e+00 
109800 3.5861797649e+00 1.5044734627e-04 1.9267391478e+00 -3.3372100968e+00 1.9267391478e+00 3.3372100968e+00 
109900 3.5861797642e+00 1.4976844052e-04 1.9267352436e+00 -3.3372033346e+00 1.9267352436e+00 3.3372033346e+00 
110000 3.5861797636e+00 1.4909292816e-04 1.9267313570e+00 -3.3371966028e+00 1.9267313570e+00 3.3371966028e+00 
110100 3.5861797630e+00 1.4841864713e-04 1.9267274879e+00 -3.3371899014e+00 1.9267274879e+00 3.3371899014e+00 
110200 3.5861797624e+00 1.4774787956e-04 1.9267236363e+00 -3.3371832303e+00 1.9267236363e+00 3.3371832303e+00 
110300 3.5861797618e+00 1.4707837289e-04 1.9267198022e+00 -3.3371765893e+00 1.9267198022e+00 3.3371765893e+00 
110400 3.5861797612e+00 1.4641116209e-04 1.9267159854e+00 -3.3371699784e+00 1.9267159854e+00 3.3371699784e+00 
110500 3.5861797606e+00 1.4574762434e-04 1.9267121859e+00 -3.3371633975e+00 1.9267121859e+00 3.3371633975e+00 
110600 3.5861797600e+00 1.4508522503e-04 1.9267084036e+00 -3.3371568464e+00 1.9267084036e+00 3.3371568464e+00 
110700 3.5861797594e+00 1.4442659045e-04 1.9267046385e+00 -3.3371503250e+00 1.9267046385e+00 3.3371503250e+00 
110800 3.5861797588e+00 1.4376924077e-04 1.9267008904e+00 -3.3371438332e+00 1.9267008904e+00 3.3371438332e+00 
110900 3.5861797582e+00 1.4311414831e-04 1.9266971595e+00 -3.3371373710e+00 1.9266971595e+00 3.3371373710e+00 
111000 3.5861797577e+00 1.4246294192e-04 1.9266934455e+00 -3.3371309382e+00 1.9266934455e+00 3.3371309382e+00 
111100 3.5861797571e+00 1.4181302981e-04 1.9266897484e+00 -3.3371245347e+00 1.9266897484e+00 3.3371245347e+00 
111200 3.5861797565e+00 1.4116535170e-04 1.9266860682e+00 -3.3371181604e+00 1.9266860682e+00 3.3371181604e+00 
111300 3.5861797560e+00 1.4052166149e-04 1.9266824048e+00 -3.3371118151e+00 1.9266824048e+00 3.3371118151e+00 
111400 3.5861797554e+00 1.3987927243e-04 1.9266787581e+00 -3.3371054988e+00 1.9266787581e+00 3.3371054988e+00 
111500 3.5861797549e+00 1.3923909467e-04 1.9266751280e+00 -3.3370992114e+00 1.9266751280e+00 3.3370992114e+00 
111600 3.5861797543e+00 1.3860298927e-04 1.9266715145e+00 -3.3370929527e+00 1.9266715145e+00 3.3370929527e+00 
111700 3.5861797538e+00 1.3796939659e-04 1.9266679176e+00 -3.3370867226e+00 1.9266679176e+00 3.3370867226e+00 
111800 3.5861797533e+00 1.3733711315e-04 1.9266643371e+00 -3.3370805209e+00 1.9266643371e+00 3.3370805209e+00 
111900 3.5861797528e+00 1.3670736528e-04 1.9266607730e+00 -3.3370743477e+00 1.9266607730e+00 3.3370743477e+00 
112000 3.5861797522e+00 1.3608015739e-04 1.9266572252e+00 -3.3370682028e+00 1.9266572252e+00 3.3370682028e+00 
112100 3.5861797517e+00 1.3545671461e-04 1.9266536937e+00 -3.3370620860e+00 1.9266536937e+00 3.3370620860e+00 
112200 3.5861797512e+00 1.3483458438e-04 1.9266501783e+00 -3.3370559973e+00 1.9266501783e+00 3.3370559973e+00 
112300 3.5861797507e+00 1.3421500608e-04 1.9266466791e+00 -3.3370499365e+00 1.9266466791e+00 3.3370499365e+00 
112400 3.5861797502e+00 1.3359921046e-04 1.9266431960e+00 -3.3370439035e+00 1.9266431960e+00 3.3370439035e+00 
112500 3.5861797497e+00 1.3298595849e-04 1.9266397289e+00 -3.3370378983e+00 1.9266397289e+00 3.3370378983e+00 
112600 3.5861797492e+00 1.3237525303e-04 1.9266362776e+00 -3.3370319205e+00 1.9266362776e+00 3.3370319205e+00 
112700 3.5861797487e+00 1.3176709642e-04 1.9266328422e+00 -3.3370259703e+00 1.9266328422e+00 3.3370259703e+00 
112800 3.5861797482e+00 1.3116193364e-04 1.9266294226e+00 -3.3370200473e+00 1.9266294226e+00 3.3370200473e+00 
112900 3.5861797477e+00 1.3055804333e-04 1.9266260187e+00 -3.3370141515e+00 1.9266260187e+00 3.3370141515e+00 
113000 3.5861797473e+00 1.2995621314e-04 1.9266226304e+00 -3.3370082829e+00 1.9266226304e+00 3.3370082829e+00 
113100 3.5861797468e+00 1.2935865581e-04 1.9266192578e+00 -3.3370024413e+00 1.9266192578e+00 3.3370024413e+00 
113200 3.5861797463e+00 1.2876236830e-04 1.9266159006e+00 -3.3369966266e+00 1.9266159006e+00 3.3369966266e+00 
113300 3.5861797458e+00 1.2816860180e-04 1.9266125590e+00 -3.3369908386e+00 1.9266125590e+00 3.3369908386e+00 
113400 3.5861797454e+00 1.2757686825e-04 1.9266092327e+00 -3.3369850774e+00 1.9266092327e+00 3.3369850774e+00 
113500 3.5861797449e+00 1.2698943680e-04 1.9266059218e+00 -3.3369793427e+00 1.9266059218e+00 3.3369793427e+00 
113600 3.5861797445e+00 1.2640450795e-04 1.9266026261e+00 -3.3369736344e+00 1.9266026261e+00 3.3369736344e+00 
113700 3.5861797440e+00 1.2582208181e-04 1.9265993456e+00 -3.3369679524e+00 1.9265993456e+00 3.3369679524e+00 
113800 3.5861797436e+00 1.2524215811e-04 1.9265960802e+00 -3.3369622966e+00 1.9265960802e+00 3.3369622966e+00 
113900 3.5861797431e+00 1.2466473617e-04 1.9265928299e+00 -3.3369566668e+00 1.9265928299e+00 3.3369566668e+00 
114000 3.5861797427e+00 1.2408981498e-04 1.9265895945e+00 -3.3369510630e+00 1.9265895945e+00 3.3369510630e+00 
114100 3.5861797423e+00 1.2351791732e-04 1.9265863741e+00 -3.3369454850e+00 1.9265863741e+00 3.3369454850e+00 
114200 3.5861797418e+00 1.2294723296e-04 1.9265831684e+00 -3.3369399327e+00 1.9265831684e+00 3.3369399327e+00 
114300 3.5861797414e+00 1.2237847451e-04 1.9265799776e+00 -3.3369344061e+00 1.9265799776e+00 3.3369344061e+00 
114400 3.5861797410e+00 1.2181399802e-04 1.9265768016e+00 -3.3369289050e+00 1.9265768016e+00 3.3369289050e+00 
114500 3.5861797406e+00 1.2125196124e-04 1.9265736402e+00 -3.3369234293e+00 1.9265736402e+00 3.3369234293e+00 
114600 3.5861797402e+00 1.2069113077e-04 1.9265704933e+00 -3.3369179788e+00 1.9265704933e+00 3.3369179788e+00 
114700 3.5861797398e+00 1.2013275161e-04 1.9265673611e+00 -3.3369125536e+00 1.9265673611e+00 3.3369125536e+00 
114800 3.5861797393e+00 1.1957682063e-04 1.9265642433e+00 -3.3369071534e+00 1.9265642433e+00 3.3369071534e+00 
114900 3.5861797389e+00 1.1902333450e-04 1.9265611399e+00 -3.3369017782e+00 1.9265611399e+00 3.3369017782e+00 
115000 3.5861797385e+00 1.1847352037e-04 1.9265580509e+00 -3.3368964279e+00 1.9265580509e+00 3.3368964279e+00 
115100 3.5861797382e+00 1.1792612874e-04 1.9265549761e+00 -3.3368911023e+00 1.9265549761e+00 3.3368911023e+00 
115200 3.5861797378e+00 1.1738115701e-04 1.9265519156e+00 -3.3368858012e+00 1.9265519156e+00 3.3368858012e+00 
115300 3.5861797374e+00 1.1683860228e-04 1.9265488692e+00 -3.3368805247e+00 1.9265488692e+00 3.3368805247e+00 
115400 3.5861797370e+00 1.1629902938e-04 1.9265458369e+00 -3.3368752726e+00 1.9265458369e+00 3.3368752726e+00 
115500 3.5861797366e+00 1.1576059208e-04 1.9265428185e+00 -3.3368700447e+00 1.9265428185e+00 3.3368700447e+00 
115600 3.5861797362e+00 1.1522395098e-04 1.9265398142e+00 -3.3368648410e+00 1.9265398142e+00 3.3368648410e+00 
115700 3.5861797359e+00 1.1469152566e-04 1.9265368237e+00 -3.3368596614e+00 1.9265368237e+00 3.3368596614e+00 
115800 3.5861797355e+00 1.1416144682e-04 1.9265338471e+00 -3.3368545057e+00 1.9265338471e+00 3.3368545057e+00 
115900 3.5861797351e+00 1.1363249332e-04 1.9265308842e+00 -3.3368493739e+00 1.9265308842e+00 3.3368493739e+00 
116000 3.5861797347e+00 1.1310711249e-04 1.9265279351e+00 -3.3368442658e+00 1.9265279351e+00 3.3368442658e+00 
116100 3.5861797344e+00 1.1258285168e-04 1.9265249996e+00 -3.3368391813e+00 1.9265249996e+00 3.3368391813e+00 
116200 3.5861797340e+00 1.1206215314e-04 1.9265220777e+00 -3.3368341204e+00 1.9265220777e+00 3.3368341204e+00 
116300 3.5861797337e+00 1.1154378232e-04 1.9265191693e+00 -3.3368290829e+00 1.9265191693e+00 3.3368290829e+00 
116400 3.5861797333e+00 1.1102832218e-04 1.9265162743e+00 -3.3368240687e+00 1.9265162743e+00 3.3368240687e+00 
116500 3.5861797330e+00 1.1051333089e-04 1.9265133927e+00 -3.3368190777e+00 1.9265133927e+00 3.3368190777e+00 
116600 3.5861797326e+00 1.1000247000e-04 1.9265105245e+00 -3.3368141098e+00 1.9265105245e+00 3.3368141098e+00 
116700 3.5861797323e+00 1.0949266058e-04 1.9265076695e+00 -3.3368091648e+00 1.9265076695e+00 3.3368091648e+00 
116800 3.5861797319e+00 1.0898512110e-04 1.9265048278e+00 -3.3368042428e+00 1.9265048278e+00 3.3368042428e+00 
116900 3.5861797316e+00 1.0847984710e-04 1.9265019992e+00 -3.3367993436e+00 1.9265019992e+00 3.3367993436e+00 
117000 3.5861797313e+00 1.0797683395e-04 1.9264991838e+00 -3.3367944670e+00 1.9264991838e+00 3.3367944670e+00 
117100 3.5861797310e+00 1.0747607694e-04 1.9264963814e+00 -3.3367896131e+00 1.9264963814e+00 3.3367896131e+00 
117200 3.5861797306e+00 1.0697757119e-04 1.9264935919e+00 -3.3367847817e+00 1.9264935919e+00 3.3367847817e+00 
117300 3.5861797303e+00 1.0648251637e-04 1.9264908155e+00 -3.3367799727e+00 1.9264908155e+00 3.3367799727e+00 
117400 3.5861797300e+00 1.0598848614e-04 1.9264880518e+00 -3.3367751859e+00 1.9264880518e+00 3.3367751859e+00 
117500 3.5861797297e+00 1.0549789456e-04 1.9264853010e+00 -3.3367704214e+00 1.9264853010e+00 3.3367704214e+00 
117600 3.5861797293e+00 1.0500952065e-04 1.9264825629e+00 -3.3367656789e+00 1.9264825629e+00 3.3367656789e+00 
117700 3.5861797290e+00 1.0452395795e-04 1.9264798375e+00 -3.3367609583e+00 1.9264798375e+00 3.3367609583e+00 
117800 3.5861797287e+00 1.0403875780e-04 1.9264771247e+00 -3.3367562595e+00 1.9264771247e+00 3.3367562595e+00 
117900 3.5861797284e+00 1.0355757013e-04 1.9264744244e+00 -3.3367515826e+00 1.9264744244e+00 3.3367515826e+00 
118000 3.5861797281e+00 1.0307733706e-04 1.9264717367e+00 -3.3367469273e+00 1.9264717367e+00 3.3367469273e+00 
118100 3.5861797278e+00 1.0259926129e-04 1.9264690614e+00 -3.3367422936e+00 1.9264690614e+00 3.3367422936e+00 
118200 3.5861797275e+00 1.0212333787e-04 1.9264663985e+00 -3.3367376813e+00 1.9264663985e+00 3.3367376813e+00 
118300 3.5861797272e+00 1.0165075395e-04 1.9264637480e+00 -3.3367330904e+00 1.9264637480e+00 3.3367330904e+00 
118400 3.5861797269e+00 1.0117910864e-04 1.9264611097e+00 -3.3367285208e+00 1.9264611097e+00 3.3367285208e+00 
118500 3.5861797266e+00 1.0071079097e-04 1.9264584837e+00 -3.3367239724e+00 1.9264584837e+00 3.3367239724e+00 
118600 3.5861797263e+00 1.0024459271e-04 1.9264558698e+00 -3.3367194450e+00 1.9264558698e+00 3.3367194450e+00 
118700 3.5861797261e+00 9.9780509345e-05 1.9264532680e+00 -3.3367149386e+00 1.9264532680e+00 3.3367149386e+00 
118800 3.5861797258e+00 9.9319136782e-05 1.9264506783e+00 -3.3367104530e+00 1.9264506783e+00 3.3367104530e+00 
118900 3.5861797255e+00 9.8858637367e-05 1.9264481005e+00 -3.3367059882e+00 1.9264481005e+00 3.3367059882e+00 
119000 3.5861797252e+00 9.8399600153e-05 1.9264455347e+00 -3.3367015440e+00 1.9264455347e+00 3.3367015440e+00 
119100 3.5861797249e+00 9.7944456090e-05 1.9264429807e+00 -3.3366971205e+00 1.9264429807e+00 3.3366971205e+00 
119200 3.5861797247e+00 9.7490172284e-05 1.9264404386e+00 -3.3366927175e+00 1.9264404386e+00 3.3366927175e+00 
119300 3.5861797244e+00 9.7039118578e-05 1.9264379083e+00 -3.3366883348e+00 1.9264379083e+00 3.3366883348e+00 
119400 3.5861797241e+00 9.6588917266e-05 1.9264353897e+00 -3.3366839725e+00 1.9264353897e+00 3.3366839725e+00 
119500 3.5861797239e+00 9.6141934822e-05 1.9264328828e+00 -3.3366796303e+00 1.9264328828e+00 3.3366796303e+00 
119600 3.5861797236e+00 9.5696974550e-05 1.9264303874e+00 -3.3366753083e+00 1.9264303874e+00 3.3366753083e+00 
119700 3.5861797233e+00 9.5254031875e-05 1.9264279036e+00 -3.3366710062e+00 1.9264279036e+00 3.3366710062e+00 
119800 3.5861797231e+00 9.4813704282e-05 1.9264254313e+00 -3.3366667241e+00 1.9264254313e+00 3.3366667241e+00 
119900 3.5861797228e+00 9.4373560493e-05 1.9264229705e+00 -3.3366624617e+00 1.9264229705e+00 3.3366624617e+00 
120000 3.5861797226e+00 9.3937208819e-05 1.9264205210e+00 -3.3366582192e+00 1.9264205210e+00 3.3366582192e+00 
120100 3.5861797223e+00 9.3501635541e-05 1.9264180829e+00 -3.3366539962e+00 1.9264180829e+00 3.3366539962e+00 
120200 3.5861797221e+00 9.3068020510e-05 1.9264156561e+00 -3.3366497928e+00 1.9264156561e+00 3.3366497928e+00 
120300 3.5861797218e+00 9.2636358694e-05 1.9264132405e+00 -3.3366456089e+00 1.9264132405e+00 3.3366456089e+00 
120400 3.5861797216e+00 9.2206644989e-05 1.9264108361e+00 -3.3366414444e+00 1.9264108361e+00 3.3366414444e+00 
120500 3.5861797213e+00 9.1780047426e-05 1.9264084429e+00 -3.3366372992e+00 1.9264084429e+00 3.3366372992e+00 
120600 3.5861797211e+00 9.1354204131e-05 1.9264060607e+00 -3.3366331732e+00 1.9264060607e+00 3.3366331732e+00 
120700 3.5861797209e+00 9.0931465834e-05 1.9264036896e+00 -3.3366290664e+00 1.9264036896e+00 3.3366290664e+00 
120800 3.5861797206e+00 9.0510643853e-05 1.9264013295e+00 -3.3366249785e+00 1.9264013295e+00 3.3366249785e+00 
120900 3.5861797204e+00 9.0091733516e-05 1.9263989803e+00 -3.3366209095e+00 1.9263989803e+00 3.3366209095e+00 
121000 3.5861797201e+00 8.9675333463e-05 1.9263966419e+00 -3.3366168594e+00 1.9263966419e+00 3.3366168594e+00 
121100 3.5861797199e+00 8.9259018976e-05 1.9263943144e+00 -3.3366128280e+00 1.9263943144e+00 3.3366128280e+00 
121200 3.5861797197e+00 8.8846384104e-05 1.9263919977e+00 -3.3366088153e+00 1.9263919977e+00 3.3366088153e+00 
121300 3.5861797195e+00 8.8434430136e-05 1.9263896916e+00 -3.3366048211e+00 1.9263896916e+00 3.3366048211e+00 
121400 3.5861797192e+00 8.8024329757e-05 1.9263873963e+00 -3.3366008455e+00 1.9263873963e+00 3.3366008455e+00 
121500 3.5861797190e+00 8.7616077953e-05 1.9263851116e+00 -3.3365968882e+00 1.9263851116e+00 3.3365968882e+00 
121600 3.5861797188e+00 8.7210837006e-05 1.9263828375e+00 -3.3365929494e+00 1.9263828375e+00 3.3365929494e+00 
121700 3.5861797186e+00 8.6806257243e-05 1.9263805739e+00 -3.3365890287e+00 1.9263805739e+00 3.3365890287e+00 
121800 3.5861797184e+00 8.6404677922e-05 1.9263783208e+00 -3.3365851262e+00 1.9263783208e+00 3.3365851262e+00 
121900 3.5861797182e+00 8.6003750970e-05 1.9263760781e+00 -3.3365812418e+00 1.9263760781e+00 3.3365812418e+00 
122000 3.5861797179e+00 8.5605813394e-05 1.9263738459e+00 -3.3365773754e+00 1.9263738459e+00 3.3365773754e+00 
122100 3.5861797177e+00 8.5209683518e-05 1.9263716239e+00 -3.3365735269e+00 1.9263716239e+00 3.3365735269e+00 
122200 3.5861797175e+00 8.4815960531e-05 1.9263694123e+00 -3.3365696962e+00 1.9263694123e+00 3.3365696962e+00 
122300 3.5861797173e+00 8.4422830627e-05 1.9263672108e+00 -3.3365658832e+00 1.9263672108e+00 3.3365658832e+00 
122400 3.5861797171e+00 8.4030856642e-05 1.9263650196e+00 -3.3365620878e+00 1.9263650196e+00 3.3365620878e+00 
122500 3.5861797169e+00 8.3642450733e-05 1.9263628385e+00 -3.3365583101e+00 1.9263628385e+00 3.3365583101e+00 
122600 3.5861797167e+00 8.3254623125e-05 1.9263606675e+00 -3.3365545498e+00 1.9263606675e+00 3.3365545498e+00 
122700 3.5861797165e+00 8.2868542354e-05 1.9263585066e+00 -3.3365508070e+00 1.9263585066e+00 3.3365508070e+00 
122800 3.5861797163e+00 8.2484203462e-05 1.9263563557e+00 -3.3365470815e+00 1.9263563557e+00 3.3365470815e+00 
122900 3.5861797161e+00 8.2102765386e-05 1.9263542147e+00 -3.3365433733e+00 1.9263542147e+00 3.3365433733e+00 
123000 3.5861797159e+00 8.1721885680e-05 1.9263520837e+00 -3.3365396822e+00 1.9263520837e+00 3.3365396822e+00 
123100 3.5861797157e+00 8.1342733399e-05 1.9263499625e+00 -3.3365360083e+00 1.9263499625e+00 3.3365360083e+00 
123200 3.5861797155e+00 8.0966466656e-05 1.9263478512e+00 -3.3365323514e+00 1.9263478512e+00 3.3365323514e+00 
123300 3.5861797153e+00 8.0591906449e-05 1.9263457497e+00 -3.3365287114e+00 1.9263457497e+00 3.3365287114e+00 
123400 3.5861797152e+00 8.0219048183e-05 1.9263436578e+00 -3.3365250882e+00 1.9263436578e+00 3.3365250882e+00 
123500 3.5861797150e+00 7.9848491782e-05 1.9263415757e+00 -3.3365214818e+00 1.9263415757e+00 3.3365214818e+00 
123600 3.5861797148e+00 7.9477822169e-05 1.9263395031e+00 -3.3365178921e+00 1.9263395031e+00 3.3365178921e+00 
123700 3.5861797146e+00 7.9110616116e-05 1.9263374402e+00 -3.3365143190e+00 1.9263374402e+00 3.3365143190e+00 
123800 3.5861797144e+00 7.8743893157e-05 1.9263353868e+00 -3.3365107624e+00 1.9263353868e+00 3.3365107624e+00 
123900 3.5861797142e+00 7.8378818481e-05 1.9263333429e+00 -3.3365072223e+00 1.9263333429e+00 3.3365072223e+00 
124000 3.5861797141e+00 7.8015387299e-05 1.9263313085e+00 -3.3365036986e+00 1.9263313085e+00 3.3365036986e+00 
124100 3.5861797139e+00 7.7653594785e-05 1.9263292836e+00 -3.3365001912e+00 1.9263292836e+00 3.3365001912e+00 
124200 3.5861797137e+00 7.7293436078e-05 1.9263272680e+00 -3.3364967001e+00 1.9263272680e+00 3.3364967001e+00 
124300 3.5861797136e+00 7.6934906286e-05 1.9263252617e+00 -3.3364932252e+00 1.9263252617e+00 3.3364932252e+00 
124400 3.5861797134e+00 7.6579163206e-05 1.9263232648e+00 -3.3364897664e+00 1.9263232648e+00 3.3364897664e+00 
124500 3.5861797132e+00 7.6223867157e-05 1.9263212771e+00 -3.3364863236e+00 1.9263212771e+00 3.3364863236e+00 
124600 3.5861797130e+00 7.5871347770e-05 1.9263192986e+00 -3.3364828968e+00 1.9263192986e+00 3.3364828968e+00 
124700 3.5861797129e+00 7.5519266711e-05 1.9263173293e+00 -3.3364794858e+00 1.9263173293e+00 3.3364794858e+00 
124800 3.5861797127e+00 7.5169951777e-05 1.9263153691e+00 -3.3364760907e+00 1.9263153691e+00 3.3364760907e+00 
124900 3.5861797125e+00 7.4822831575e-05 1.9263134180e+00 -3.3364727112e+00 1.9263134180e+00 3.3364727112e+00 
125000 3.5861797124e+00 7.4475492773e-05 1.9263114758e+00 -3.3364693473e+00 1.9263114758e+00 3.3364693473e+00 
125100 3.5861797122e+00 7.4131510385e-05 1.9263095427e+00 -3.3364659991e+00 1.9263095427e+00 3.3364659991e+00 
125200 3.5861797121e+00 7.3787300748e-05 1.9263076185e+00 -3.3364626663e+00 1.9263076185e+00 3.3364626663e+00 
125300 3.5861797119e+00 7.3446437146e-05 1.9263057033e+00 -3.3364593490e+00 1.9263057033e+00 3.3364593490e+00 
125400 3.5861797118e+00 7.3105942998e-05 1.9263037969e+00 -3.3364560470e+00 1.9263037969e+00 3.3364560470e+00 
125500 3.5861797116e+00 7.2766982728e-05 1.9263018993e+00 -3.3364527603e+00 1.9263018993e+00 3.3364527603e+00 
125600 3.5861797114e+00 7.2429551651e-05 1.9263000105e+00 -3.3364494889e+00 1.9263000105e+00 3.3364494889e+00 
125700 3.5861797113e+00 7.2093645053e-05 1.9262981305e+00 -3.3364462326e+00 1.9262981305e+00 3.3364462326e+00 
125800 3.5861797111e+00 7.1760419520e-05 1.9262962592e+00 -3.3364429914e+00 1.9262962592e+00 3.3364429914e+00 
125900 3.5861797110e+00 7.1427538636e-05 1.9262943966e+00 -3.3364397652e+00 1.9262943966e+00 3.3364397652e+00 
126000 3.5861797108e+00 7.1097329391e-05 1.9262925426e+00 -3.3364365539e+00 1.9262925426e+00 3.3364365539e+00 
126100 3.5861797107e+00 7.0767456147e-05 1.9262906971e+00 -3.3364333575e+00 1.9262906971e+00 3.3364333575e+00 
126200 3.5861797105e+00 7.0440244682e-05 1.9262888602e+00 -3.3364301760e+00 1.9262888602e+00 3.3364301760e+00 
126200 3.5861797105e+00 7.0440244682e-05 1.9262888602e+00 -3.3364301760e+00 1.9262888602e+00 3.3364301760e+00 
