# step Hamiltonian StressXX CellTensor1 CellTensor2 CellTensor3 CellTensor4 
0 6.6584689125e+00 3.9105928855e-02 1.7438352029e+00 -3.0204111715e+00 1.7438352029e+00 3.0204111715e+00 
100 6.6529758575e+00 4.4408284001e-02 1.7438352029e+00 -3.0204111715e+00 1.7438352029e+00 3.0204111715e+00 
200 6.6473467457e+00 4.8227557448e-02 1.7425620644e+00 -3.0182060309e+00 1.7425620644e+00 3.0182060309e+00 
300 6.6416609799e+00 5.1555248013e-02 1.7411784359e+00 -3.0158095161e+00 1.7411784359e+00 3.0158095161e+00 
400 6.6359442251e+00 5.4413836016e-02 1.7396981759e+00 -3.0132456305e+00 1.7396981759e+00 3.0132456305e+00 
500 6.6302204799e+00 5.6825125659e-02 1.7381345232e+00 -3.0105373046e+00 1.7381345232e+00 3.0105373046e+00 
600 6.6245121140e+00 5.8810334675e-02 1.7365001212e+00 -3.0077064373e+00 1.7365001212e+00 3.0077064373e+00 
700 6.6188399003e+00 6.0390165315e-02 1.7348070385e+00 -3.0047739320e+00 1.7348070385e+00 3.0047739320e+00 
800 6.6132230444e+00 6.1584858767e-02 1.7330667857e+00 -3.0017597257e+00 1.7330667857e+00 3.0017597257e+00 
900 6.6076792108e+00 6.2414235022e-02 1.7312903300e+00 -2.9986828143e+00 1.7312903300e+00 2.9986828143e+00 
1000 6.6022245490e+00 6.2897720080e-02 1.7294881080e+00 -2.9955612741e+00 1.7294881080e+00 2.9955612741e+00 
1100 6.5968737187e+00 6.3054362292e-02 1.7276700357e+00 -2.9924122806e+00 1.7276700357e+00 2.9924122806e+00 
1200 6.5916399158e+00 6.2902839557e-02 1.7258455192e+00 -2.9892521252e+00 1.7258455192e+00 2.9892521252e+00 
1300 6.5865349007e+00 6.2461458956e-02 1.7240234628e+00 -2.9860962310e+00 1.7240234628e+00 2.9860962310e+00 
1400 6.5815690274e+00 6.1748150326e-02 1.7222122778e+00 -2.9829591665e+00 1.7222122778e+00 2.9829591665e+00 
1500 6.5767512768e+00 6.0780455148e-02 1.7204198905e+00 -2.9798546607e+00 1.7204198905e+00 2.9798546607e+00 
1600 6.5720892919e+00 5.9575512025e-02 1.7186537506e+00 -2.9767956167e+00 1.7186537506e+00 2.9767956167e+00 
1700 6.5675894173e+00 5.8150039871e-02 1.7169208394e+00 -2.9737941264e+00 1.7169208394e+00 2.9737941264e+00 
1800 6.5632567420e+00 5.6520319851e-02 1.7152276783e+00 -2.9708614854e+00 1.7152276783e+00 2.9708614854e+00 
1900 6.5590951456e+00 5.4702176966e-02 1.7135803383e+00 -2.9680082088e+00 1.7135803383e+00 2.9680082088e+00 
2000 6.5551073485e+00 5.2710962044e-02 1.7119844494e+00 -2.9652440482e+00 1.7119844494e+00 2.9652440482e+00 
2100 6.5512949655e+00 5.0561534824e-02 1.7104452107e+00 -2.9625780085e+00 1.7104452107e+00 2.9625780085e+00 
2200 6.5476585620e+00 4.8268248635e-02 1.7089674011e+00 -2.9600183672e+00 1.7089674011e+00 2.9600183672e+00 
2300 6.5441977145e+00 4.5844937141e-02 1.7075553907e+00 -2.9575726934e+00 1.7075553907e+00 2.9575726934e+00 
2400 6.5409110721e+00 4.3304903456e-02 1.7062131524e+00 -2.9552478685e+00 1.7062131524e+00 2.9552478685e+00 
2500 6.5377964216e+00 4.0660911869e-02 1.7049442742e+00 -2.9530501071e+00 1.7049442742e+00 2.9530501071e+00 
2600 6.5348507531e+00 3.7925182333e-02 1.7037519723e+00 -2.9509849794e+00 1.7037519723e+00 2.9509849794e+00 
2700 6.5320703282e+00 3.5109387776e-02 1.7026391034e+00 -2.9490574340e+00 1.7026391034e+00 2.9490574340e+00 
2800 6.5294507481e+00 3.2224654239e-02 1.7016081790e+00 -2.9472718207e+00 1.7016081790e+00 2.9472718207e+00 
2900 6.5269870227e+00 2.9281563780e-02 1.7006613787e+00 -2.9456319144e+00 1.7006613787e+00 2.9456319144e+00 
3000 6.5246736392e+00 2.6290160020e-02 1.6998005638e+00 -2.9441409393e+00 1.6998005638e+00 2.9441409393e+00 
3100 6.5225046305e+00 2.3259956192e-02 1.6990272918e+00 -2.9428015928e+00 1.6990272918e+00 2.9428015928e+00 
3200 6.5204736425e+00 2.0199945481e-02 1.6983428297e+00 -2.9416160698e+00 1.6983428297e+00 2.9416160698e+00 
3300 6.5185740005e+00 1.7118613465e-02 1.6977481687e+00 -2.9405860866e+00 1.6977481687e+00 2.9405860866e+00 
3400 6.5167987731e+00 1.4023952385e-02 1.6972440372e+00 -2.9397129053e+00 1.6972440372e+00 2.9397129053e+00 
3500 6.5151408347e+00 1.0923477039e-02 1.6968309150e+00 -2.9389973567e+00 1.6968309150e+00 2.9389973567e+00 
3600 6.5135929253e+00 7.8242420065e-03 1.6965090464e+00 -2.9384398639e+00 1.6965090464e+00 2.9384398639e+00 
3700 6.5121477079e+00 4.7328599716e-03 1.6962784534e+00 -2.9380404650e+00 1.6962784534e+00 2.9380404650e+00 
3800 6.5107978226e+00 1.6555208934e-03 1.6961389481e+00 -2.9377988348e+00 1.6961389481e+00 2.9377988348e+00 
3900 6.5095359380e+00 -1.4019882282e-03 1.6960901457e+00 -2.9377143066e+00 1.6960901457e+00 2.9377143066e+00 
4000 6.5083547991e+00 -4.4342632123e-03 1.6961314759e+00 -2.9377858925e+00 1.6961314759e+00 2.9377858925e+00 
4100 6.5072472715e+00 -7.4362624018e-03 1.6962621945e+00 -2.9380123039e+00 1.6962621945e+00 2.9380123039e+00 
4200 6.5062063827e+00 -1.0403286410e-02 1.6964813948e+00 -2.9383919699e+00 1.6964813948e+00 2.9383919699e+00 
4300 6.5052253592e+00 -1.3330958094e-02 1.6967880177e+00 -2.9389230563e+00 1.6967880177e+00 2.9389230563e+00 
4400 6.5042976600e+00 -1.6215202911e-02 1.6971808620e+00 -2.9396034827e+00 1.6971808620e+00 2.9396034827e+00 
4500 6.5034170071e+00 -1.9052229802e-02 1.6976585944e+00 -2.9404309393e+00 1.6976585944e+00 2.9404309393e+00 
4600 6.5025774110e+00 -2.1838512736e-02 1.6982197578e+00 -2.9414029029e+00 1.6982197578e+00 2.9414029029e+00 
4700 6.5017731942e+00 -2.4570772997e-02 1.6988627809e+00 -2.9425166516e+00 1.6988627809e+00 2.9425166516e+00 
4800 6.5009990097e+00 -2.7245962322e-02 1.6995859857e+00 -2.9437692791e+00 1.6995859857e+00 2.9437692791e+00 
4900 6.5002498570e+00 -2.9861246940e-02 1.7003875957e+00 -2.9451577084e+00 1.7003875957e+00 2.9451577084e+00 
5000 6.4995210940e+00 -3.2413992574e-02 1.7012657430e+00 -2.9466787041e+00 1.7012657430e+00 2.9466787041e+00 
5100 6.4988084465e+00 -3.4901750431e-02 1.7022184753e+00 -2.9483288849e+00 1.7022184753e+00 2.9483288849e+00 
5200 6.4981080138e+00 -3.7322244216e-02 1.7032437624e+00 -2.9501047341e+00 1.7032437624e+00 2.9501047341e+00 
5300 6.4974162714e+00 -3.9673358150e-02 1.7043395023e+00 -2.9520026113e+00 1.7043395023e+00 2.9520026113e+00 
5400 6.4967300717e+00 -4.1953126027e-02 1.7055035271e+00 -2.9540187615e+00 1.7055035271e+00 2.9540187615e+00 
5500 6.4960466409e+00 -4.4159721252e-02 1.7067336086e+00 -2.9561493250e+00 1.7067336086e+00 2.9561493250e+00 
5600 6.4953635742e+00 -4.6291447877e-02 1.7080274630e+00 -2.9583903466e+00 1.7080274630e+00 2.9583903466e+00 
5700 6.4946788286e+00 -4.8346732571e-02 1.7093827563e+00 -2.9607377835e+00 1.7093827563e+00 2.9607377835e+00 
5800 6.4939907133e+00 -5.0324117513e-02 1.7107971087e+00 -2.9631875138e+00 1.7107971087e+00 2.9631875138e+00 
5900 6.4932978787e+00 -5.2222254146e-02 1.7122680991e+00 -2.9657353439e+00 1.7122680991e+00 2.9657353439e+00 
6000 6.4925993030e+00 -5.4039897759e-02 1.7137932691e+00 -2.9683770158e+00 1.7137932691e+00 2.9683770158e+00 
6100 6.4918942779e+00 -5.5775902836e-02 1.7153701272e+00 -2.9711082141e+00 1.7153701272e+00 2.9711082141e+00 
6200 6.4911823925e+00 -5.7429219131e-02 1.7169961525e+00 -2.9739245726e+00 1.7169961525e+00 2.9739245726e+00 
6300 6.4904635163e+00 -5.8998888414e-02 1.7186687985e+00 -2.9768216803e+00 1.7186687985e+00 2.9768216803e+00 
6400 6.4897377811e+00 -6.0484041822e-02 1.7203854963e+00 -2.9797950881e+00 1.7203854963e+00 2.9797950881e+00 
6500 6.4890055622e+00 -6.1883897780e-02 1.7221436584e+00 -2.9828403142e+00 1.7221436584e+00 2.9828403142e+00 
6600 6.4882674584e+00 -6.3197760428e-02 1.7239406817e+00 -2.9859528500e+00 1.7239406817e+00 2.9859528500e+00 
6700 6.4875242726e+00 -6.4425018501e-02 1.7257739509e+00 -2.9891281654e+00 1.7257739509e+00 2.9891281654e+00 
6800 6.4867769912e+00 -6.5565144623e-02 1.7276408414e+00 -2.9923617146e+00 1.7276408414e+00 2.9923617146e+00 
6900 6.4860267631e+00 -6.6617694951e-02 1.7295387224e+00 -2.9956489408e+00 1.7295387224e+00 2.9956489408e+00 
7000 6.4852748801e+00 -6.7582309137e-02 1.7314649598e+00 -2.9989852819e+00 1.7314649598e+00 2.9989852819e+00 
7100 6.4845227553e+00 -6.8458710552e-02 1.7334169193e+00 -3.0023661750e+00 1.7334169193e+00 3.0023661750e+00 
7200 6.4837719038e+00 -6.9246706743e-02 1.7353919691e+00 -3.0057870615e+00 1.7353919691e+00 3.0057870615e+00 
7300 6.4830239224e+00 -6.9946190073e-02 1.7373874825e+00 -3.0092433922e+00 1.7373874825e+00 3.0092433922e+00 
7400 6.4822804699e+00 -7.0557138510e-02 1.7394008412e+00 -3.0127306316e+00 1.7394008412e+00 3.0127306316e+00 
7500 6.4815432485e+00 -7.1079616541e-02 1.7414294372e+00 -3.0162442631e+00 1.7414294372e+00 3.0162442631e+00 
7600 6.4808139857e+00 -7.1513776163e-02 1.7434706765e+00 -3.0197797933e+00 1.7434706765e+00 3.0197797933e+00 
7700 6.4800944161e+00 -7.1859857937e-02 1.7455219809e+00 -3.0233327567e+00 1.7455219809e+00 3.0233327567e+00 
7800 6.4793862653e+00 -7.2118192071e-02 1.7475807910e+00 -3.0268987203e+00 1.7475807910e+00 3.0268987203e+00 
7900 6.4786912337e+00 -7.2289199510e-02 1.7496445687e+00 -3.0304732882e+00 1.7496445687e+00 3.0304732882e+00 
8000 6.4780109813e+00 -7.2373393011e-02 1.7517108001e+00 -3.0340521059e+00 1.7517108001e+00 3.0340521059e+00 
8100 6.4773471141e+00 -7.2371378178e-02 1.7537769973e+00 -3.0376308645e+00 1.7537769973e+00 3.0376308645e+00 
8200 6.4767011710e+00 -7.2283854457e-02 1.7558407019e+00 -3.0412053057e+00 1.7558407019e+00 3.0412053057e+00 
8300 6.4760746115e+00 -7.2111616043e-02 1.7578994866e+00 -3.0447712254e+00 1.7578994866e+00 3.0447712254e+00 
8400 6.4754688052e+00 -7.1855552723e-02 1.7599509584e+00 -3.0483244787e+00 1.7599509584e+00 3.0483244787e+00 
8500 6.4748850216e+00 -7.1516650600e-02 1.7619927604e+00 -3.0518609836e+00 1.7619927604e+00 3.0518609836e+00 
8600 6.4743244218e+00 -7.1095992728e-02 1.7640225747e+00 -3.0553767251e+00 1.7640225747e+00 3.0553767251e+00 
8700 6.4737880507e+00 -7.0594759608e-02 1.7660381247e+00 -3.0588677601e+00 1.7660381247e+00 3.0588677601e+00 
8800 6.4732768304e+00 -7.0014229568e-02 1.7680371773e+00 -3.0623302207e+00 1.7680371773e+00 3.0623302207e+00 
8900 6.4727915552e+00 -6.9355778984e-02 1.7700175452e+00 -3.0657603186e+00 1.7700175452e+00 3.0657603186e+00 
9000 6.4723328868e+00 -6.8620882372e-02 1.7719770896e+00 -3.0691543490e+00 1.7719770896e+00 3.0691543490e+00 
9100 6.4719013516e+00 -6.7811112301e-02 1.7739137220e+00 -3.0725086948e+00 1.7739137220e+00 3.0725086948e+00 
9200 6.4714973382e+00 -6.6928139154e-02 1.7758254068e+00 -3.0758198299e+00 1.7758254068e+00 3.0758198299e+00 
9300 6.4711210966e+00 -6.5973730706e-02 1.7777101631e+00 -3.0790843237e+00 1.7777101631e+00 3.0790843237e+00 
9400 6.4707727379e+00 -6.4949751522e-02 1.7795660673e+00 -3.0822988441e+00 1.7795660673e+00 3.0822988441e+00 
9500 6.4704522356e+00 -6.3858162162e-02 1.7813912550e+00 -3.0854601618e+00 1.7813912550e+00 3.0854601618e+00 
9600 6.4701594267e+00 -6.2701018190e-02 1.7831839230e+00 -3.0885651538e+00 1.7831839230e+00 3.0885651538e+00 
9700 6.4698940153e+00 -6.1480468978e-02 1.7849423313e+00 -3.0916108065e+00 1.7849423313e+00 3.0916108065e+00 
9800 6.4696555757e+00 -6.0198756289e-02 1.7866648057e+00 -3.0945942195e+00 1.7866648057e+00 3.0945942195e+00 
9900 6.4694435570e+00 -5.8858212648e-02 1.7883497386e+00 -3.0975126089e+00 1.7883497386e+00 3.0975126089e+00 
10000 6.4692572883e+00 -5.7461259476e-02 1.7899955920e+00 -3.1003633107e+00 1.7899955920e+00 3.1003633107e+00 
10100 6.4690959845e+00 -5.6010404987e-02 1.7916008987e+00 -3.1031437835e+00 1.7916008987e+00 3.1031437835e+00 
10200 6.4689587531e+00 -5.4508241843e-02 1.7931642643e+00 -3.1058516121e+00 1.7931642643e+00 3.1058516121e+00 
10300 6.4688446012e+00 -5.2957444553e-02 1.7946843686e+00 -3.1084845100e+00 1.7946843686e+00 3.1084845100e+00 
10400 6.4687524434e+00 -5.1360766611e-02 1.7961599678e+00 -3.1110403227e+00 1.7961599678e+00 3.1110403227e+00 
10500 6.4686811098e+00 -4.9721037372e-02 1.7975898954e+00 -3.1135170300e+00 1.7975898954e+00 3.1135170300e+00 
10600 6.4686293548e+00 -4.8041158646e-02 1.7989730643e+00 -3.1159127488e+00 1.7989730643e+00 3.1159127488e+00 
10700 6.4685958664e+00 -4.6324101019e-02 1.8003084677e+00 -3.1182257354e+00 1.8003084677e+00 3.1182257354e+00 
10800 6.4685792748e+00 -4.4572899886e-02 1.8015951810e+00 -3.1204543881e+00 1.8015951810e+00 3.1204543881e+00 
10900 6.4685781628e+00 -4.2790651192e-02 1.8028323623e+00 -3.1225972490e+00 1.8028323623e+00 3.1225972490e+00 
11000 6.4685910749e+00 -4.0980506889e-02 1.8040192542e+00 -3.1246530061e+00 1.8040192542e+00 3.1246530061e+00 
11100 6.4686165275e+00 -3.9145670089e-02 1.8051551845e+00 -3.1266204952e+00 1.8051551845e+00 3.1266204952e+00 
11200 6.4686530188e+00 -3.7289389934e-02 1.8062395674e+00 -3.1284987014e+00 1.8062395674e+00 3.1284987014e+00 
11300 6.4686990385e+00 -3.5414956160e-02 1.8072719039e+00 -3.1302867606e+00 1.8072719039e+00 3.1302867606e+00 
11400 6.4687530775e+00 -3.3525693382e-02 1.8082517828e+00 -3.1319839607e+00 1.8082517828e+00 3.1319839607e+00 
11500 6.4688136380e+00 -3.1624955090e-02 1.8091788815e+00 -3.1335897427e+00 1.8091788815e+00 3.1335897427e+00 
11600 6.4688792425e+00 -2.9716117368e-02 1.8100529659e+00 -3.1351037013e+00 1.8100529659e+00 3.1351037013e+00 
11700 6.4689484431e+00 -2.7802572342e-02 1.8108738911e+00 -3.1365255855e+00 1.8108738911e+00 3.1365255855e+00 
11800 6.4690198304e+00 -2.5887721378e-02 1.8116416015e+00 -3.1378552990e+00 1.8116416015e+00 3.1378552990e+00 
11900 6.4690920418e+00 -2.3974968036e-02 1.8123561309e+00 -3.1390929001e+00 1.8123561309e+00 3.1390929001e+00 
12000 6.4691637696e+00 -2.2067710796e-02 1.8130176020e+00 -3.1402386018e+00 1.8130176020e+00 3.1402386018e+00 
12100 6.4692337685e+00 -2.0169335582e-02 1.8136262267e+00 -3.1412927706e+00 1.8136262267e+00 3.1412927706e+00 
12200 6.4693008625e+00 -1.8283208107e-02 1.8141823051e+00 -3.1422559266e+00 1.8141823051e+00 3.1422559266e+00 
12300 6.4693639515e+00 -1.6412666053e-02 1.8146862251e+00 -3.1431287416e+00 1.8146862251e+00 3.1431287416e+00 
12400 6.4694220166e+00 -1.4561011123e-02 1.8151384616e+00 -3.1439120382e+00 1.8151384616e+00 3.1439120382e+00 
12500 6.4694741258e+00 -1.2731501002e-02 1.8155395755e+00 -3.1446067880e+00 1.8155395755e+00 3.1446067880e+00 
12600 6.4695194378e+00 -1.0927341235e-02 1.8158902126e+00 -3.1452141092e+00 1.8158902126e+00 3.1452141092e+00 
12700 6.4695572061e+00 -9.1516770818e-03 1.8161911020e+00 -3.1457352650e+00 1.8161911020e+00 3.1457352650e+00 
12800 6.4695867817e+00 -7.4075853778e-03 1.8164430548e+00 -3.1461716600e+00 1.8164430548e+00 3.1461716600e+00 
12900 6.4696076156e+00 -5.6980664279e-03 1.8166469623e+00 -3.1465248380e+00 1.8166469623e+00 3.1465248380e+00 
13000 6.4696192597e+00 -4.0260359904e-03 1.8168037937e+00 -3.1467964781e+00 1.8168037937e+00 3.1467964781e+00 
13100 6.4696213678e+00 -2.3943173815e-03 1.8169145948e+00 -3.1469883912e+00 1.8169145948e+00 3.1469883912e+00 
13200 6.4696136955e+00 -8.0563374601e-04 1.8169804849e+00 -3.1471025162e+00 1.8169804849e+00 3.1471025162e+00 
13300 6.4695960992e+00 7.3739946360e-04 1.8170026545e+00 -3.1471409151e+00 1.8170026545e+00 3.1471409151e+00 
13400 6.4695685343e+00 2.2322817563e-03 1.8169823629e+00 -3.1471057690e+00 1.8169823629e+00 3.1471057690e+00 
13500 6.4695310533e+00 3.6766345781e-03 1.8169209350e+00 -3.1469993727e+00 1.8169209350e+00 3.1469993727e+00 
13600 6.4694838021e+00 5.0682079515e-03 1.8168197583e+00 -3.1468241295e+00 1.8168197583e+00 3.1468241295e+00 
13700 6.4694270169e+00 6.4048867387e-03 1.8166802799e+00 -3.1465825458e+00 1.8166802799e+00 3.1465825458e+00 
13800 6.4693610194e+00 7.6846964879e-03 1.8165040027e+00 -3.1462772249e+00 1.8165040027e+00 3.1462772249e+00 
13900 6.4692862119e+00 8.9058088271e-03 1.8162924825e+00 -3.1459108611e+00 1.8162924825e+00 3.1459108611e+00 
14000 6.4692030720e+00 1.0066546369e-02 1.8160473235e+00 -3.1454862333e+00 1.8160473235e+00 3.1454862333e+00 
14100 6.4691121465e+00 1.1165387098e-02 1.8157701752e+00 -3.1450061983e+00 1.8157701752e+00 3.1450061983e+00 
14200 6.4690140446e+00 1.2200968198e-02 1.8154627279e+00 -3.1444736840e+00 1.8154627279e+00 3.1444736840e+00 
14300 6.4689094318e+00 1.3172089324e-02 1.8151267091e+00 -3.1438916823e+00 1.8151267091e+00 3.1438916823e+00 
14400 6.4687990223e+00 1.4077715252e-02 1.8147638790e+00 -3.1432632423e+00 1.8147638790e+00 3.1432632423e+00 
14500 6.4686835714e+00 1.4916977938e-02 1.8143760266e+00 -3.1425914620e+00 1.8143760266e+00 3.1425914620e+00 
14600 6.4685638686e+00 1.5689177930e-02 1.8139649647e+00 -3.1418794821e+00 1.8139649647e+00 3.1418794821e+00 
14700 6.4684407294e+00 1.6393785155e-02 1.8135325265e+00 -3.1411304772e+00 1.8135325265e+00 3.1411304772e+00 
14800 6.4683149878e+00 1.7030439059e-02 1.8130805605e+00 -3.1403476489e+00 1.8130805605e+00 3.1403476489e+00 
14900 6.4681874882e+00 1.7598948108e-02 1.8126109260e+00 -3.1395342181e+00 1.8126109260e+00 3.1395342181e+00 
15000 6.4680590786e+00 1.8099288649e-02 1.8121254891e+00 -3.1386934168e+00 1.8121254891e+00 3.1386934168e+00 
15100 6.4679306021e+00 1.8531603148e-02 1.8116261182e+00 -3.1378284810e+00 1.8116261182e+00 3.1378284810e+00 
15200 6.4678028904e+00 1.8896197815e-02 1.8111146790e+00 -3.1369426423e+00 1.8111146790e+00 3.1369426423e+00 
15300 6.4676767565e+00 1.9193539630e-02 1.8105930309e+00 -3.1360391213e+00 1.8105930309e+00 3.1360391213e+00 
15400 6.4675529880e+00 1.9424252806e-02 1.8100630222e+00 -3.1351211193e+00 1.8100630222e+00 3.1351211193e+00 
15500 6.4674323409e+00 1.9589114694e-02 1.8095264858e+00 -3.1341918110e+00 1.8095264858e+00 3.1341918110e+00 
15600 6.4673155339e+00 1.9689051182e-02 1.8089852354e+00 -3.1332543379e+00 1.8089852354e+00 3.1332543379e+00 
15700 6.4672032427e+00 1.9725131608e-02 1.8084410612e+00 -3.1323118004e+00 1.8084410612e+00 3.1323118004e+00 
15800 6.4670960953e+00 1.9698563227e-02 1.8078957257e+00 -3.1313672517e+00 1.8078957257e+00 3.1313672517e+00 
15900 6.4669946678e+00 1.9610685269e-02 1.8073509605e+00 -3.1304236907e+00 1.8073509605e+00 3.1304236907e+00 
16000 6.4668994804e+00 1.9462962625e-02 1.8068084620e+00 -3.1294840558e+00 1.8068084620e+00 3.1294840558e+00 
16100 6.4668109943e+00 1.9256979217e-02 1.8062698882e+00 -3.1285512185e+00 1.8062698882e+00 3.1285512185e+00 
16200 6.4667296096e+00 1.8994431072e-02 1.8057368551e+00 -3.1276279781e+00 1.8057368551e+00 3.1276279781e+00 
16300 6.4666556625e+00 1.8677119168e-02 1.8052109338e+00 -3.1267170558e+00 1.8052109338e+00 3.1267170558e+00 
16400 6.4665894248e+00 1.8306942072e-02 1.8046936473e+00 -3.1258210892e+00 1.8046936473e+00 3.1258210892e+00 
16500 6.4665311025e+00 1.7885888437e-02 1.8041864674e+00 -3.1249426279e+00 1.8041864674e+00 3.1249426279e+00 
16600 6.4664808364e+00 1.7416029384e-02 1.8036908128e+00 -3.1240841288e+00 1.8036908128e+00 3.1240841288e+00 
16700 6.4664387018e+00 1.6899510809e-02 1.8032080456e+00 -3.1232479517e+00 1.8032080456e+00 3.1232479517e+00 
16800 6.4664047103e+00 1.6338545680e-02 1.8027394702e+00 -3.1224363553e+00 1.8027394702e+00 3.1224363553e+00 
16900 6.4663788106e+00 1.5735406328e-02 1.8022863304e+00 -3.1216514941e+00 1.8022863304e+00 3.1216514941e+00 
17000 6.4663608914e+00 1.5092416791e-02 1.8018498079e+00 -3.1208954149e+00 1.8018498079e+00 3.1208954149e+00 
17100 6.4663507831e+00 1.4411945252e-02 1.8014310207e+00 -3.1201700542e+00 1.8014310207e+00 3.1201700542e+00 
17200 6.4663482615e+00 1.3696396570e-02 1.8010310217e+00 -3.1194772357e+00 1.8010310217e+00 3.1194772357e+00 
17300 6.4663530508e+00 1.2948204975e-02 1.8006507975e+00 -3.1188186679e+00 1.8006507975e+00 3.1188186679e+00 
17400 6.4663648277e+00 1.2169826925e-02 1.8002912671e+00 -3.1181959430e+00 1.8002912671e+00 3.1181959430e+00 
17500 6.4663832247e+00 1.1363734152e-02 1.7999532816e+00 -3.1176105350e+00 1.7999532816e+00 3.1176105350e+00 
17600 6.4664078354e+00 1.0532406938e-02 1.7996376233e+00 -3.1170637988e+00 1.7996376233e+00 3.1170637988e+00 
17700 6.4664382182e+00 9.6783276134e-03 1.7993450055e+00 -3.1165569699e+00 1.7993450055e+00 3.1165569699e+00 
17800 6.4664739015e+00 8.8039743087e-03 1.7990760719e+00 -3.1160911632e+00 1.7990760719e+00 3.1160911632e+00 
17900 6.4665143883e+00 7.9118149693e-03 1.7988313970e+00 -3.1156673739e+00 1.7988313970e+00 3.1156673739e+00 
18000 6.4665591609e+00 7.0043016422e-03 1.7986114861e+00 -3.1152864770e+00 1.7986114861e+00 3.1152864770e+00 
18100 6.4666076861e+00 6.0838650416e-03 1.7984167755e+00 -3.1149492283e+00 1.7984167755e+00 3.1149492283e+00 
18200 6.4666594199e+00 5.1529094008e-03 1.7982476331e+00 -3.1146562651e+00 1.7982476331e+00 3.1146562651e+00 
18300 6.4667138124e+00 4.2138076110e-03 1.7981043591e+00 -3.1144081073e+00 1.7981043591e+00 3.1144081073e+00 
18400 6.4667703123e+00 3.2688966494e-03 1.7979871868e+00 -3.1142051589e+00 1.7979871868e+00 3.1142051589e+00 
18500 6.4668283716e+00 2.3204732948e-03 1.7978962832e+00 -3.1140477093e+00 1.7978962832e+00 3.1140477093e+00 
18600 6.4668874500e+00 1.3707901277e-03 1.7978317506e+00 -3.1139359355e+00 1.7978317506e+00 3.1139359355e+00 
18700 6.4669470190e+00 4.2205181112e-04 1.7977936273e+00 -3.1138699040e+00 1.7977936273e+00 3.1138699040e+00 
18800 6.4670065657e+00 -5.2358835325e-04 1.7977818893e+00 -3.1138495731e+00 1.7977818893e+00 3.1138495731e+00 
18900 6.4670655967e+00 -1.4640316016e-03 1.7977964514e+00 -3.1138747954e+00 1.7977964514e+00 3.1138747954e+00 
19000 6.4671236412e+00 -2.3972366239e-03 1.7978371689e+00 -3.1139453203e+00 1.7978371689e+00 3.1139453203e+00 
19100 6.4671802542e+00 -3.3212222273e-03 1.7979038393e+00 -3.1140607968e+00 1.7979038393e+00 3.1140607968e+00 
19200 6.4672350193e+00 -4.2340697583e-03 1.7979962038e+00 -3.1142207769e+00 1.7979962038e+00 3.1142207769e+00 
19300 6.4672875508e+00 -5.1339252901e-03 1.7981139493e+00 -3.1144247179e+00 1.7981139493e+00 3.1144247179e+00 
19400 6.4673374962e+00 -6.0190015879e-03 1.7982567098e+00 -3.1146719864e+00 1.7982567098e+00 3.1146719864e+00 
19500 6.4673845373e+00 -6.8875798610e-03 1.7984240689e+00 -3.1149618609e+00 1.7984240689e+00 3.1149618609e+00 
19600 6.4674283923e+00 -7.7380113113e-03 1.7986155616e+00 -3.1152935361e+00 1.7986155616e+00 3.1152935361e+00 
19700 6.4674688160e+00 -8.5687184890e-03 1.7988306761e+00 -3.1156661253e+00 1.7988306761e+00 3.1156661253e+00 
19800 6.4675056012e+00 -9.3781964660e-03 1.7990688561e+00 -3.1160786650e+00 1.7990688561e+00 3.1160786650e+00 
19900 6.4675385785e+00 -1.0165013835e-02 1.7993295027e+00 -3.1165301182e+00 1.7993295027e+00 3.1165301182e+00 
20000 6.4675676166e+00 -1.0927813546e-02 1.7996119768e+00 -3.1170193777e+00 1.7996119768e+00 3.1170193777e+00 
20100 6.4675926219e+00 -1.1665313585e-02 1.7999156011e+00 -3.1175452705e+00 1.7999156011e+00 3.1175452705e+00 
20200 6.4676135379e+00 -1.2376307511e-02 1.8002396625e+00 -3.1181065613e+00 1.8002396625e+00 3.1181065613e+00 
20300 6.4676303442e+00 -1.3059664850e-02 1.8005834140e+00 -3.1187019563e+00 1.8005834140e+00 3.1187019563e+00 
20400 6.4676430557e+00 -1.3714331362e-02 1.8009460771e+00 -3.1193301073e+00 1.8009460771e+00 3.1193301073e+00 
20500 6.4676517207e+00 -1.4339329184e-02 1.8013268441e+00 -3.1199896149e+00 1.8013268441e+00 3.1199896149e+00 
20600 6.4676564198e+00 -1.4933756854e-02 1.8017248800e+00 -3.1206790334e+00 1.8017248800e+00 3.1206790334e+00 
20700 6.4676572638e+00 -1.5496789228e-02 1.8021393253e+00 -3.1213968738e+00 1.8021393253e+00 3.1213968738e+00 
20800 6.4676543915e+00 -1.6027677292e-02 1.8025692978e+00 -3.1221416079e+00 1.8025692978e+00 3.1221416079e+00 
20900 6.4676479683e+00 -1.6525747871e-02 1.8030138947e+00 -3.1229116724e+00 1.8030138947e+00 3.1229116724e+00 
21000 6.4676381830e+00 -1.6990403248e-02 1.8034721954e+00 -3.1237054724e+00 1.8034721954e+00 3.1237054724e+00 
21100 6.4676252461e+00 -1.7421120691e-02 1.8039432629e+00 -3.1245213852e+00 1.8039432629e+00 3.1245213852e+00 
21200 6.4676093869e+00 -1.7817451892e-02 1.8044261466e+00 -3.1253577644e+00 1.8044261466e+00 3.1253577644e+00 
21300 6.4675908514e+00 -1.8179022324e-02 1.8049198843e+00 -3.1262129432e+00 1.8049198843e+00 3.1262129432e+00 
21400 6.4675698991e+00 -1.8505530519e-02 1.8054235041e+00 -3.1270852383e+00 1.8054235041e+00 3.1270852383e+00 
21500 6.4675468011e+00 -1.8796747270e-02 1.8059360267e+00 -3.1279729534e+00 1.8059360267e+00 3.1279729534e+00 
21600 6.4675218372e+00 -1.9052514755e-02 1.8064564673e+00 -3.1288743830e+00 1.8064564673e+00 3.1288743830e+00 
21700 6.4674952930e+00 -1.9272745589e-02 1.8069838379e+00 -3.1297878157e+00 1.8069838379e+00 3.1297878157e+00 
21800 6.4674674581e+00 -1.9457421810e-02 1.8075171491e+00 -3.1307115378e+00 1.8075171491e+00 3.1307115378e+00 
21900 6.4674386230e+00 -1.9606593790e-02 1.8080554119e+00 -3.1316438364e+00 1.8080554119e+00 3.1316438364e+00 
22000 6.4674090771e+00 -1.9720379083e-02 1.8085976402e+00 -3.1325830032e+00 1.8085976402e+00 3.1325830032e+00 
22100 6.4673791062e+00 -1.9798961203e-02 1.8091428518e+00 -3.1335273375e+00 1.8091428518e+00 3.1335273375e+00 
22200 6.4673489905e+00 -1.9842588343e-02 1.8096900711e+00 -3.1344751492e+00 1.8096900711e+00 3.1344751492e+00 
22300 6.4673190024e+00 -1.9851572022e-02 1.8102383305e+00 -3.1354247622e+00 1.8102383305e+00 3.1354247622e+00 
22400 6.4672894045e+00 -1.9826285674e-02 1.8107866719e+00 -3.1363745174e+00 1.8107866719e+00 3.1363745174e+00 
22500 6.4672604482e+00 -1.9767163177e-02 1.8113341490e+00 -3.1373227756e+00 1.8113341490e+00 3.1373227756e+00 
22600 6.4672323716e+00 -1.9674697313e-02 1.8118798284e+00 -3.1382679201e+00 1.8118798284e+00 3.1382679201e+00 
22700 6.4672053982e+00 -1.9549438173e-02 1.8124227916e+00 -3.1392083598e+00 1.8124227916e+00 3.1392083598e+00 
22800 6.4671797359e+00 -1.9391991505e-02 1.8129621361e+00 -3.1401425320e+00 1.8129621361e+00 3.1401425320e+00 
22900 6.4671555752e+00 -1.9203016991e-02 1.8134969776e+00 -3.1410689045e+00 1.8134969776e+00 3.1410689045e+00 
23000 6.4671330889e+00 -1.8983226481e-02 1.8140264505e+00 -3.1419859785e+00 1.8140264505e+00 3.1419859785e+00 
23100 6.4671124309e+00 -1.8733382158e-02 1.8145497102e+00 -3.1428922909e+00 1.8145497102e+00 3.1428922909e+00 
23200 6.4670937356e+00 -1.8454294650e-02 1.8150659339e+00 -3.1437864165e+00 1.8150659339e+00 3.1437864165e+00 
23300 6.4670771176e+00 -1.8146821089e-02 1.8155743219e+00 -3.1446669704e+00 1.8155743219e+00 3.1446669704e+00 
23400 6.4670626714e+00 -1.7811863116e-02 1.8160740991e+00 -3.1455326099e+00 1.8160740991e+00 3.1455326099e+00 
23500 6.4670504710e+00 -1.7450364822e-02 1.8165645159e+00 -3.1463820367e+00 1.8165645159e+00 3.1463820367e+00 
23600 6.4670405705e+00 -1.7063310657e-02 1.8170448493e+00 -3.1472139987e+00 1.8170448493e+00 3.1472139987e+00 
23700 6.4670330037e+00 -1.6651723269e-02 1.8175144042e+00 -3.1480272916e+00 1.8175144042e+00 3.1480272916e+00 
23800 6.4670277847e+00 -1.6216661303e-02 1.8179725140e+00 -3.1488207610e+00 1.8179725140e+00 3.1488207610e+00 
23900 6.4670249086e+00 -1.5759217159e-02 1.8184185417e+00 -3.1495933037e+00 1.8184185417e+00 3.1495933037e+00 
24000 6.4670243516e+00 -1.5280514693e-02 1.8188518810e+00 -3.1503438693e+00 1.8188518810e+00 3.1503438693e+00 
24100 6.4670260724e+00 -1.4781706882e-02 1.8192719565e+00 -3.1510714615e+00 1.8192719565e+00 3.1510714615e+00 
24200 6.4670300125e+00 -1.4263973449e-02 1.8196782250e+00 -3.1517751391e+00 1.8196782250e+00 3.1517751391e+00 
24300 6.4670360974e+00 -1.3728518449e-02 1.8200701758e+00 -3.1524540177e+00 1.8200701758e+00 3.1524540177e+00 
24400 6.4670442378e+00 -1.3176567817e-02 1.8204473313e+00 -3.1531072704e+00 1.8204473313e+00 3.1531072704e+00 
24500 6.4670543304e+00 -1.2609366889e-02 1.8208092480e+00 -3.1537341284e+00 1.8208092480e+00 3.1537341284e+00 
24600 6.4670662595e+00 -1.2028177891e-02 1.8211555162e+00 -3.1543338825e+00 1.8211555162e+00 3.1543338825e+00 
24700 6.4670798981e+00 -1.1434277404e-02 1.8214857609e+00 -3.1549058832e+00 1.8214857609e+00 3.1549058832e+00 
24800 6.4670951090e+00 -1.0828953803e-02 1.8217996422e+00 -3.1554495415e+00 1.8217996422e+00 3.1554495415e+00 
24900 6.4671117468e+00 -1.0213504686e-02 1.8220968552e+00 -3.1559643294e+00 1.8220968552e+00 3.1559643294e+00 
25000 6.4671296585e+00 -9.5892342822e-03 1.8223771302e+00 -3.1564497801e+00 1.8223771302e+00 3.1564497801e+00 
25100 6.4671486855e+00 -8.9574508529e-03 1.8226402334e+00 -3.1569054882e+00 1.8226402334e+00 3.1569054882e+00 
25200 6.4671686649e+00 -8.3194640891e-03 1.8228859663e+00 -3.1573311100e+00 1.8228859663e+00 3.1573311100e+00 
25300 6.4671894308e+00 -7.6765825070e-03 1.8231141659e+00 -3.1577263633e+00 1.8231141659e+00 3.1577263633e+00 
25400 6.4672108157e+00 -7.0301108494e-03 1.8233247048e+00 -3.1580910275e+00 1.8233247048e+00 3.1580910275e+00 
25500 6.4672326519e+00 -6.3813474966e-03 1.8235174910e+00 -3.1584249429e+00 1.8235174910e+00 3.1584249429e+00 
25600 6.4672547728e+00 -5.7315818933e-03 1.8236924674e+00 -3.1587280108e+00 1.8236924674e+00 3.1587280108e+00 
25700 6.4672770143e+00 -5.0820919956e-03 1.8238496118e+00 -3.1590001931e+00 1.8238496118e+00 3.1590001931e+00 
25800 6.4672992160e+00 -4.4341417458e-03 1.8239889368e+00 -3.1592415110e+00 1.8239889368e+00 3.1592415110e+00 
25900 6.4673212223e+00 -3.7889785783e-03 1.8241104889e+00 -3.1594520453e+00 1.8241104889e+00 3.1594520453e+00 
26000 6.4673428833e+00 -3.1478309644e-03 1.8242143481e+00 -3.1596319348e+00 1.8242143481e+00 3.1596319348e+00 
26100 6.4673640564e+00 -2.5119060018e-03 1.8243006279e+00 -3.1597813757e+00 1.8243006279e+00 3.1597813757e+00 
26200 6.4673846065e+00 -1.8823870535e-03 1.8243694740e+00 -3.1599006208e+00 1.8243694740e+00 3.1599006208e+00 
26300 6.4674044075e+00 -1.2604314436e-03 1.8244210643e+00 -3.1599899778e+00 1.8244210643e+00 3.1599899778e+00 
26400 6.4674233427e+00 -6.4716821554e-04 1.8244556078e+00 -3.1600498088e+00 1.8244556078e+00 3.1600498088e+00 
26500 6.4674413055e+00 -4.3695958781e-05 1.8244733437e+00 -3.1600805284e+00 1.8244733437e+00 3.1600805284e+00 
26600 6.4674581986e+00 5.4773582023e-04 1.8244733437e+00 -3.1600805284e+00 1.8244733437e+00 3.1600805284e+00 
26700 6.4674739387e+00 1.1284883649e-03 1.8244583330e+00 -3.1600545290e+00 1.8244583330e+00 3.1600545290e+00 
26800 6.4674884529e+00 1.6963555190e-03 1.8244274064e+00 -3.1600009626e+00 1.8244274064e+00 3.1600009626e+00 
26900 6.4675016798e+00 2.2503808144e-03 1.8243809165e+00 -3.1599204397e+00 1.8243809165e+00 3.1599204397e+00 
27000 6.4675135701e+00 2.7896478676e-03 1.8243192416e+00 -3.1598136158e+00 1.8243192416e+00 3.1598136158e+00 
27100 6.4675240862e+00 3.3132820218e-03 1.8242427850e+00 -3.1596811889e+00 1.8242427850e+00 3.1596811889e+00 
27200 6.4675332030e+00 3.8204518824e-03 1.8241519732e+00 -3.1595238983e+00 1.8241519732e+00 3.1595238983e+00 
27300 6.4675409068e+00 4.3103707409e-03 1.8240472556e+00 -3.1593425221e+00 1.8240472556e+00 3.1593425221e+00 
27400 6.4675471957e+00 4.7822978830e-03 1.8239291028e+00 -3.1591378755e+00 1.8239291028e+00 3.1591378755e+00 
27500 6.4675520791e+00 5.2355397772e-03 1.8237980056e+00 -3.1589108085e+00 1.8237980056e+00 3.1589108085e+00 
27600 6.4675555773e+00 5.6694511409e-03 1.8236544735e+00 -3.1586622036e+00 1.8236544735e+00 3.1586622036e+00 
27700 6.4675577211e+00 6.0834358797e-03 1.8234990337e+00 -3.1583929739e+00 1.8234990337e+00 3.1583929739e+00 
27800 6.4675585511e+00 6.4769478988e-03 1.8233322296e+00 -3.1581040607e+00 1.8233322296e+00 3.1581040607e+00 
27900 6.4675581172e+00 6.8494917828e-03 1.8231546195e+00 -3.1577964311e+00 1.8231546195e+00 3.1577964311e+00 
28000 6.4675564779e+00 7.2006233444e-03 1.8229667755e+00 -3.1574710757e+00 1.8229667755e+00 3.1574710757e+00 
28100 6.4675536998e+00 7.5299500381e-03 1.8227692817e+00 -3.1571290064e+00 1.8227692817e+00 3.1571290064e+00 
28200 6.4675498563e+00 7.8371312404e-03 1.8225627331e+00 -3.1567712537e+00 1.8225627331e+00 3.1567712537e+00 
28300 6.4675450274e+00 8.1218783962e-03 1.8223477343e+00 -3.1563988648e+00 1.8223477343e+00 3.1563988648e+00 
28400 6.4675392985e+00 8.3839550300e-03 1.8221248978e+00 -3.1560129007e+00 1.8221248978e+00 3.1560129007e+00 
28500 6.4675327596e+00 8.6231766248e-03 1.8218948428e+00 -3.1556144337e+00 1.8218948428e+00 3.1556144337e+00 
28600 6.4675255045e+00 8.8394103699e-03 1.8216581938e+00 -3.1552045457e+00 1.8216581938e+00 3.1552045457e+00 
28700 6.4675176300e+00 9.0325747775e-03 1.8214155793e+00 -3.1547843251e+00 1.8214155793e+00 3.1547843251e+00 
28800 6.4675092347e+00 9.2026391735e-03 1.8211676301e+00 -3.1543548645e+00 1.8211676301e+00 3.1543548645e+00 
28900 6.4675004186e+00 9.3496230631e-03 1.8209149783e+00 -3.1539172587e+00 1.8209149783e+00 3.1539172587e+00 
29000 6.4674912819e+00 9.4735953759e-03 1.8206582556e+00 -3.1534726020e+00 1.8206582556e+00 3.1534726020e+00 
29100 6.4674819241e+00 9.5746735934e-03 1.8203980923e+00 -3.1530219859e+00 1.8203980923e+00 3.1530219859e+00 
29200 6.4674724437e+00 9.6530227637e-03 1.8201351157e+00 -3.1525664970e+00 1.8201351157e+00 3.1525664970e+00 
29300 6.4674629368e+00 9.7088544085e-03 1.8198699489e+00 -3.1521072146e+00 1.8198699489e+00 3.1521072146e+00 
29400 6.4674534969e+00 9.7424253256e-03 1.8196032096e+00 -3.1516452086e+00 1.8196032096e+00 3.1516452086e+00 
29500 6.4674442138e+00 9.7540362950e-03 1.8193355087e+00 -3.1511815371e+00 1.8193355087e+00 3.1511815371e+00 
29600 6.4674351731e+00 9.7440306911e-03 1.8190674494e+00 -3.1507172448e+00 1.8190674494e+00 3.1507172448e+00 
29700 6.4674264560e+00 9.7127930096e-03 1.8187996256e+00 -3.1502533603e+00 1.8187996256e+00 3.1502533603e+00 
29800 6.4674181379e+00 9.6607473138e-03 1.8185326211e+00 -3.1497908949e+00 1.8185326211e+00 3.1497908949e+00 
29900 6.4674102890e+00 9.5883556065e-03 1.8182670082e+00 -3.1493308400e+00 1.8182670082e+00 3.1493308400e+00 
30000 6.4674029729e+00 9.4961161348e-03 1.8180033472e+00 -3.1488741656e+00 1.8180033472e+00 3.1488741656e+00 
30100 6.4673962470e+00 9.3845616338e-03 1.8177421846e+00 -3.1484218188e+00 1.8177421846e+00 3.1484218188e+00 
30200 6.4673901618e+00 9.2542575162e-03 1.8174840528e+00 -3.1479747215e+00 1.8174840528e+00 3.1479747215e+00 
30300 6.4673847608e+00 9.1058000132e-03 1.8172294690e+00 -3.1475337693e+00 1.8172294690e+00 3.1475337693e+00 
30400 6.4673800804e+00 8.9398142764e-03 1.8169789340e+00 -3.1470998300e+00 1.8169789340e+00 3.1470998300e+00 
30500 6.4673761497e+00 8.7569524433e-03 1.8167329319e+00 -3.1466737419e+00 1.8167329319e+00 3.1466737419e+00 
30600 6.4673729907e+00 8.5578916766e-03 1.8164919290e+00 -3.1462563126e+00 1.8164919290e+00 3.1462563126e+00 
30700 6.4673706180e+00 8.3433321816e-03 1.8162563731e+00 -3.1458483179e+00 1.8162563731e+00 3.1458483179e+00 
30800 6.4673690392e+00 8.1139952090e-03 1.8160266931e+00 -3.1454505004e+00 1.8160266931e+00 3.1454505004e+00 
30900 6.4673682548e+00 7.8706210487e-03 1.8158032980e+00 -3.1450635687e+00 1.8158032980e+00 3.1450635687e+00 
31000 6.4673682588e+00 7.6139670216e-03 1.8155865767e+00 -3.1446881965e+00 1.8155865767e+00 3.1446881965e+00 
31100 6.4673690384e+00 7.3448054741e-03 1.8153768974e+00 -3.1443250212e+00 1.8153768974e+00 3.1443250212e+00 
31200 6.4673705747e+00 7.0639217815e-03 1.8151746069e+00 -3.1439746438e+00 1.8151746069e+00 3.1439746438e+00 
31300 6.4673728431e+00 6.7721123656e-03 1.8149800307e+00 -3.1436376279e+00 1.8149800307e+00 3.1436376279e+00 
31400 6.4673758134e+00 6.4701827318e-03 1.8147934723e+00 -3.1433144992e+00 1.8147934723e+00 3.1433144992e+00 
31500 6.4673794503e+00 6.1589455295e-03 1.8146152130e+00 -3.1430057451e+00 1.8146152130e+00 3.1430057451e+00 
31600 6.4673837140e+00 5.8392186422e-03 1.8144455117e+00 -3.1427118139e+00 1.8144455117e+00 3.1427118139e+00 
31700 6.4673885605e+00 5.5118233097e-03 1.8142846049e+00 -3.1424331151e+00 1.8142846049e+00 3.1424331151e+00 
31800 6.4673939423e+00 5.1775822871e-03 1.8141327063e+00 -3.1421700190e+00 1.8141327063e+00 3.1421700190e+00 
31900 6.4673998086e+00 4.8373180446e-03 1.8139900069e+00 -3.1419228563e+00 1.8139900069e+00 3.1419228563e+00 
32000 6.4674061060e+00 4.4918510111e-03 1.8138566749e+00 -3.1416919185e+00 1.8138566749e+00 3.1416919185e+00 
32100 6.4674127792e+00 4.1419978645e-03 1.8137328558e+00 -3.1414774576e+00 1.8137328558e+00 3.1414774576e+00 
32200 6.4674197712e+00 3.7885698719e-03 1.8136186727e+00 -3.1412796866e+00 1.8136186727e+00 3.1412796866e+00 
32300 6.4674270239e+00 3.4323712817e-03 1.8135142259e+00 -3.1410987794e+00 1.8135142259e+00 3.1410987794e+00 
32400 6.4674344789e+00 3.0741977705e-03 1.8134195935e+00 -3.1409348714e+00 1.8134195935e+00 3.1409348714e+00 
32500 6.4674420775e+00 2.7148349454e-03 1.8133348317e+00 -3.1407880597e+00 1.8133348317e+00 3.1407880597e+00 
32600 6.4674497616e+00 2.3550569059e-03 1.8132599747e+00 -3.1406584036e+00 1.8132599747e+00 3.1406584036e+00 
32700 6.4674574741e+00 1.9956248631e-03 1.8131950353e+00 -3.1405459251e+00 1.8131950353e+00 3.1405459251e+00 
32800 6.4674651592e+00 1.6372858213e-03 1.8131400049e+00 -3.1404506098e+00 1.8131400049e+00 3.1404506098e+00 
32900 6.4674727629e+00 1.2807713202e-03 1.8130948546e+00 -3.1403724070e+00 1.8130948546e+00 3.1403724070e+00 
33000 6.4674802333e+00 9.2679623904e-04 1.8130595346e+00 -3.1403112311e+00 1.8130595346e+00 3.1403112311e+00 
33100 6.4674875212e+00 5.7605766486e-04 1.8130339758e+00 -3.1402669619e+00 1.8130339758e+00 3.1402669619e+00 
33200 6.4674945802e+00 2.2923382234e-04 1.8130180893e+00 -3.1402394456e+00 1.8130180893e+00 3.1402394456e+00 
33300 6.4675013670e+00 -1.1301693203e-04 1.8130117674e+00 -3.1402284958e+00 1.8130117674e+00 3.1402284958e+00 
33400 6.4675078419e+00 -4.5005705289e-04 1.8130148842e+00 -3.1402338943e+00 1.8130148842e+00 3.1402338943e+00 
33500 6.4675139686e+00 -7.8127068567e-04 1.8130272961e+00 -3.1402553923e+00 1.8130272961e+00 3.1402553923e+00 
33600 6.4675197148e+00 -1.1060644834e-03 1.8130488421e+00 -3.1402927112e+00 1.8130488421e+00 3.1402927112e+00 
33700 6.4675250522e+00 -1.4238683609e-03 1.8130793451e+00 -3.1403455439e+00 1.8130793451e+00 3.1403455439e+00 
33800 6.4675299566e+00 -1.7341361873e-03 1.8131186118e+00 -3.1404135558e+00 1.8131186118e+00 3.1404135558e+00 
33900 6.4675344077e+00 -2.0363464169e-03 1.8131664339e+00 -3.1404963862e+00 1.8131664339e+00 3.1404963862e+00 
34000 6.4675383897e+00 -2.3300026592e-03 1.8132225887e+00 -3.1405936490e+00 1.8132225887e+00 3.1405936490e+00 
34100 6.4675418908e+00 -2.6146341898e-03 1.8132868394e+00 -3.1407049345e+00 1.8132868394e+00 3.1407049345e+00 
34200 6.4675449036e+00 -2.8897964011e-03 1.8133589364e+00 -3.1408298102e+00 1.8133589364e+00 3.1408298102e+00 
34300 6.4675474245e+00 -3.1550711959e-03 1.8134386177e+00 -3.1409678223e+00 1.8134386177e+00 3.1409678223e+00 
34400 6.4675494542e+00 -3.4100673235e-03 1.8135256098e+00 -3.1411184970e+00 1.8135256098e+00 3.1411184970e+00 
34500 6.4675509969e+00 -3.6544206588e-03 1.8136196283e+00 -3.1412813417e+00 1.8136196283e+00 3.1412813417e+00 
34600 6.4675520608e+00 -3.8877944279e-03 1.8137203786e+00 -3.1414558464e+00 1.8137203786e+00 3.1414558464e+00 
34700 6.4675526576e+00 -4.1098793776e-03 1.8138275570e+00 -3.1416414848e+00 1.8138275570e+00 3.1416414848e+00 
34800 6.4675528022e+00 -4.3203938940e-03 1.8139408511e+00 -3.1418377161e+00 1.8139408511e+00 3.1418377161e+00 
34900 6.4675525128e+00 -4.5190840672e-03 1.8140599410e+00 -3.1420439859e+00 1.8140599410e+00 3.1420439859e+00 
35000 6.4675518102e+00 -4.7057237069e-03 1.8141844997e+00 -3.1422597277e+00 1.8141844997e+00 3.1422597277e+00 
35100 6.4675507181e+00 -4.8801143073e-03 1.8143141937e+00 -3.1424843644e+00 1.8143141937e+00 3.1424843644e+00 
35200 6.4675492622e+00 -5.0420849642e-03 1.8144486846e+00 -3.1427173095e+00 1.8144486846e+00 3.1427173095e+00 
35300 6.4675474706e+00 -5.1914922444e-03 1.8145876290e+00 -3.1429579682e+00 1.8145876290e+00 3.1429579682e+00 
35400 6.4675453729e+00 -5.3282200093e-03 1.8147306797e+00 -3.1432057393e+00 1.8147306797e+00 3.1432057393e+00 
35500 6.4675430003e+00 -5.4521791933e-03 1.8148774864e+00 -3.1434600159e+00 1.8148774864e+00 3.1434600159e+00 
35600 6.4675403850e+00 -5.5633075388e-03 1.8150276964e+00 -3.1437201873e+00 1.8150276964e+00 3.1437201873e+00 
35700 6.4675375604e+00 -5.6615692884e-03 1.8151809554e+00 -3.1439856396e+00 1.8151809554e+00 3.1439856396e+00 
35800 6.4675345602e+00 -5.7469548354e-03 1.8153369081e+00 -3.1442557578e+00 1.8153369081e+00 3.1442557578e+00 
35900 6.4675314185e+00 -5.8194803352e-03 1.8154951994e+00 -3.1445299262e+00 1.8154951994e+00 3.1445299262e+00 
36000 6.4675281693e+00 -5.8791872768e-03 1.8156554743e+00 -3.1448075305e+00 1.8156554743e+00 3.1448075305e+00 
36100 6.4675248465e+00 -5.9261420168e-03 1.8158173793e+00 -3.1450879582e+00 1.8158173793e+00 3.1450879582e+00 
36200 6.4675214833e+00 -5.9604352772e-03 1.8159805628e+00 -3.1453706004e+00 1.8159805628e+00 3.1453706004e+00 
36300 6.4675181123e+00 -5.9821816078e-03 1.8161446760e+00 -3.1456548527e+00 1.8161446760e+00 3.1456548527e+00 
36400 6.4675147650e+00 -5.9915188142e-03 1.8163093730e+00 -3.1459401163e+00 1.8163093730e+00 3.1459401163e+00 
36500 6.4675114715e+00 -5.9886073540e-03 1.8164743121e+00 -3.1462257992e+00 1.8164743121e+00 3.1462257992e+00 
36600 6.4675082607e+00 -5.9736297006e-03 1.8166391561e+00 -3.1465113174e+00 1.8166391561e+00 3.1465113174e+00 
36700 6.4675051597e+00 -5.9467896772e-03 1.8168035729e+00 -3.1467960956e+00 1.8168035729e+00 3.1467960956e+00 
36800 6.4675021940e+00 -5.9083117619e-03 1.8169672361e+00 -3.1470795687e+00 1.8169672361e+00 3.1470795687e+00 
36900 6.4674993870e+00 -5.8584403656e-03 1.8171298257e+00 -3.1473611821e+00 1.8171298257e+00 3.1473611821e+00 
37000 6.4674967599e+00 -5.7974390832e-03 1.8172910285e+00 -3.1476403935e+00 1.8172910285e+00 3.1476403935e+00 
37100 6.4674943320e+00 -5.7255899202e-03 1.8174505386e+00 -3.1479166730e+00 1.8174505386e+00 3.1479166730e+00 
37200 6.4674921202e+00 -5.6431924959e-03 1.8176080579e+00 -3.1481895046e+00 1.8176080579e+00 3.1481895046e+00 
37300 6.4674901391e+00 -5.5505632250e-03 1.8177632969e+00 -3.1484583864e+00 1.8177632969e+00 3.1484583864e+00 
37400 6.4674884009e+00 -5.4480344776e-03 1.8179159747e+00 -3.1487228320e+00 1.8179159747e+00 3.1487228320e+00 
37500 6.4674869153e+00 -5.3359537215e-03 1.8180658196e+00 -3.1489823710e+00 1.8180658196e+00 3.1489823710e+00 
37600 6.4674856897e+00 -5.2146826455e-03 1.8182125697e+00 -3.1492365496e+00 1.8182125697e+00 3.1492365496e+00 
37700 6.4674847292e+00 -5.0845962681e-03 1.8183559729e+00 -3.1494849313e+00 1.8183559729e+00 3.1494849313e+00 
37800 6.4674840364e+00 -4.9460820303e-03 1.8184957877e+00 -3.1497270976e+00 1.8184957877e+00 3.1497270976e+00 
37900 6.4674836116e+00 -4.7995388764e-03 1.8186317832e+00 -3.1499626487e+00 1.8186317832e+00 3.1499626487e+00 
38000 6.4674834529e+00 -4.6453763231e-03 1.8187637394e+00 -3.1501912036e+00 1.8187637394e+00 3.1501912036e+00 
38100 6.4674835563e+00 -4.4840135190e-03 1.8188914479e+00 -3.1504124012e+00 1.8188914479e+00 3.1504124012e+00 
38200 6.4674839157e+00 -4.3158782958e-03 1.8190147115e+00 -3.1506259001e+00 1.8190147115e+00 3.1506259001e+00 
38300 6.4674845230e+00 -4.1414062134e-03 1.8191333451e+00 -3.1508313795e+00 1.8191333451e+00 3.1508313795e+00 
38400 6.4674853684e+00 -3.9610396003e-03 1.8192471754e+00 -3.1510285394e+00 1.8192471754e+00 3.1510285394e+00 
38500 6.4674864403e+00 -3.7752265906e-03 1.8193560413e+00 -3.1512171006e+00 1.8193560413e+00 3.1512171006e+00 
38600 6.4674877256e+00 -3.5844201601e-03 1.8194597940e+00 -3.1513968056e+00 1.8194597940e+00 3.1513968056e+00 
38700 6.4674892098e+00 -3.3890771630e-03 1.8195582972e+00 -3.1515674181e+00 1.8195582972e+00 3.1515674181e+00 
38800 6.4674908773e+00 -3.1896573704e-03 1.8196514271e+00 -3.1517287239e+00 1.8196514271e+00 3.1517287239e+00 
38900 6.4674927114e+00 -2.9866225131e-03 1.8197390726e+00 -3.1518805302e+00 1.8197390726e+00 3.1518805302e+00 
39000 6.4674946943e+00 -2.7804353299e-03 1.8198211350e+00 -3.1520226666e+00 1.8198211350e+00 3.1520226666e+00 
39100 6.4674968077e+00 -2.5715586241e-03 1.8198975287e+00 -3.1521549842e+00 1.8198975287e+00 3.1521549842e+00 
39200 6.4674990326e+00 -2.3604543283e-03 1.8199681803e+00 -3.1522773564e+00 1.8199681803e+00 3.1522773564e+00 
39300 6.4675013499e+00 -2.1475825810e-03 1.8200330295e+00 -3.1523896785e+00 1.8200330295e+00 3.1523896785e+00 
39400 6.4675037400e+00 -1.9334008156e-03 1.8200920282e+00 -3.1524918674e+00 1.8200920282e+00 3.1524918674e+00 
39500 6.4675061832e+00 -1.7183628645e-03 1.8201451412e+00 -3.1525838617e+00 1.8201451412e+00 3.1525838617e+00 
39600 6.4675086602e+00 -1.5029180787e-03 1.8201923454e+00 -3.1526656218e+00 1.8201923454e+00 3.1526656218e+00 
39700 6.4675111518e+00 -1.2875104662e-03 1.8202336302e+00 -3.1527371291e+00 1.8202336302e+00 3.1527371291e+00 
39800 6.4675136392e+00 -1.0725778490e-03 1.8202689969e+00 -3.1527983861e+00 1.8202689969e+00 3.1527983861e+00 
39900 6.4675161042e+00 -8.5855104236e-04 1.8202984591e+00 -3.1528494160e+00 1.8202984591e+00 3.1528494160e+00 
40000 6.4675185292e+00 -6.4585305639e-04 1.8203220418e+00 -3.1528902626e+00 1.8203220418e+00 3.1528902626e+00 
40100 6.4675208976e+00 -4.3489832207e-04 1.8203397819e+00 -3.1529209893e+00 1.8203397819e+00 3.1529209893e+00 
40200 6.4675231936e+00 -2.2609194321e-04 1.8203517275e+00 -3.1529416796e+00 1.8203517275e+00 3.1529416796e+00 
40300 6.4675254023e+00 -1.9828975774e-05 1.8203579376e+00 -3.1529524359e+00 1.8203579376e+00 3.1529524359e+00 
40400 6.4675275100e+00 1.8296343027e-04 1.8203579376e+00 -3.1529524359e+00 1.8203579376e+00 3.1529524359e+00 
40500 6.4675295043e+00 3.8301019031e-04 1.8203529121e+00 -3.1529437315e+00 1.8203529121e+00 3.1529437315e+00 
40600 6.4675313740e+00 5.7939452886e-04 1.8203423919e+00 -3.1529255099e+00 1.8203423919e+00 3.1529255099e+00 
40700 6.4675331093e+00 7.7176826050e-04 1.8203264775e+00 -3.1528979454e+00 1.8203264775e+00 3.1528979454e+00 
40800 6.4675347017e+00 9.5979639264e-04 1.8203052789e+00 -3.1528612284e+00 1.8203052789e+00 3.1528612284e+00 
40900 6.4675361439e+00 1.1431576555e-03 1.8202789154e+00 -3.1528155653e+00 1.8202789154e+00 3.1528155653e+00 
41000 6.4675374302e+00 1.3215449969e-03 1.8202475148e+00 -3.1527611780e+00 1.8202475148e+00 3.1527611780e+00 
41100 6.4675385562e+00 1.4946660400e-03 1.8202112137e+00 -3.1526983026e+00 1.8202112137e+00 3.1526983026e+00 
41200 6.4675395191e+00 1.6622435048e-03 1.8201701564e+00 -3.1526271893e+00 1.8201701564e+00 3.1526271893e+00 
41300 6.4675403172e+00 1.8240155913e-03 1.8201244948e+00 -3.1525481011e+00 1.8201244948e+00 3.1525481011e+00 
41400 6.4675409504e+00 1.9797363245e-03 1.8200743881e+00 -3.1524613138e+00 1.8200743881e+00 3.1524613138e+00 
41500 6.4675414198e+00 2.1291758605e-03 1.8200200023e+00 -3.1523671147e+00 1.8200200023e+00 3.1523671147e+00 
41600 6.4675417277e+00 2.2721207536e-03 1.8199615094e+00 -3.1522658021e+00 1.8199615094e+00 3.1522658021e+00 
41700 6.4675418777e+00 2.4083741842e-03 1.8198990875e+00 -3.1521576842e+00 1.8198990875e+00 3.1521576842e+00 
41800 6.4675418747e+00 2.5377561468e-03 1.8198329201e+00 -3.1520430790e+00 1.8198329201e+00 3.1520430790e+00 
41900 6.4675417245e+00 2.6601035987e-03 1.8197631956e+00 -3.1519223125e+00 1.8197631956e+00 3.1519223125e+00 
42000 6.4675414338e+00 2.7752705692e-03 1.8196901068e+00 -3.1517957190e+00 1.8196901068e+00 3.1517957190e+00 
42100 6.4675410105e+00 2.8831282294e-03 1.8196138507e+00 -3.1516636395e+00 1.8196138507e+00 3.1516636395e+00 
42200 6.4675404631e+00 2.9835649231e-03 1.8195346276e+00 -3.1515264211e+00 1.8195346276e+00 3.1515264211e+00 
42300 6.4675398009e+00 3.0764861590e-03 1.8194526412e+00 -3.1513844165e+00 1.8194526412e+00 3.1513844165e+00 
42400 6.4675390338e+00 3.1618145646e-03 1.8193680976e+00 -3.1512379827e+00 1.8193680976e+00 3.1512379827e+00 
42500 6.4675381724e+00 3.2394898030e-03 1.8192812051e+00 -3.1510874804e+00 1.8192812051e+00 3.1510874804e+00 
42600 6.4675372275e+00 3.3094684521e-03 1.8191921736e+00 -3.1509332735e+00 1.8191921736e+00 3.1509332735e+00 
42700 6.4675362103e+00 3.3717238482e-03 1.8191012146e+00 -3.1507757277e+00 1.8191012146e+00 3.1507757277e+00 
42800 6.4675351324e+00 3.4262458945e-03 1.8190085398e+00 -3.1506152104e+00 1.8190085398e+00 3.1506152104e+00 
42900 6.4675340053e+00 3.4730408347e-03 1.8189143617e+00 -3.1504520891e+00 1.8189143617e+00 3.1504520891e+00 
43000 6.4675328407e+00 3.5121309937e-03 1.8188188924e+00 -3.1502867313e+00 1.8188188924e+00 3.1502867313e+00 
43100 6.4675316501e+00 3.5435544861e-03 1.8187223434e+00 -3.1501195037e+00 1.8187223434e+00 3.1501195037e+00 
43200 6.4675304449e+00 3.5673648941e-03 1.8186249255e+00 -3.1499507709e+00 1.8186249255e+00 3.1499507709e+00 
43300 6.4675292363e+00 3.5836309146e-03 1.8185268478e+00 -3.1497808953e+00 1.8185268478e+00 3.1497808953e+00 
43400 6.4675280352e+00 3.5924359793e-03 1.8184283175e+00 -3.1496102359e+00 1.8184283175e+00 3.1496102359e+00 
43500 6.4675268518e+00 3.5938778468e-03 1.8183295398e+00 -3.1494391479e+00 1.8183295398e+00 3.1494391479e+00 
43600 6.4675256963e+00 3.5880681693e-03 1.8182307171e+00 -3.1492679819e+00 1.8182307171e+00 3.1492679819e+00 
43700 6.4675245780e+00 3.5751320354e-03 1.8181320488e+00 -3.1490970833e+00 1.8181320488e+00 3.1490970833e+00 
43800 6.4675235057e+00 3.5552074900e-03 1.8180337308e+00 -3.1489267917e+00 1.8180337308e+00 3.1489267917e+00 
43900 6.4675224876e+00 3.5284450334e-03 1.8179359555e+00 -3.1487574399e+00 1.8179359555e+00 3.1487574399e+00 
44000 6.4675215310e+00 3.4950071007e-03 1.8178389110e+00 -3.1485893539e+00 1.8178389110e+00 3.1485893539e+00 
44100 6.4675206427e+00 3.4550675232e-03 1.8177427811e+00 -3.1484228519e+00 1.8177427811e+00 3.1484228519e+00 
44200 6.4675198286e+00 3.4088109737e-03 1.8176477446e+00 -3.1482582439e+00 1.8176477446e+00 3.1482582439e+00 
44300 6.4675190937e+00 3.3564323972e-03 1.8175539755e+00 -3.1480958311e+00 1.8175539755e+00 3.1480958311e+00 
44400 6.4675184424e+00 3.2981364283e-03 1.8174616425e+00 -3.1479359057e+00 1.8174616425e+00 3.1479359057e+00 
44500 6.4675178781e+00 3.2341367971e-03 1.8173709086e+00 -3.1477787499e+00 1.8173709086e+00 3.1477787499e+00 
44600 6.4675174035e+00 3.1646557261e-03 1.8172819309e+00 -3.1476246360e+00 1.8172819309e+00 3.1476246360e+00 
44700 6.4675170203e+00 3.0899233178e-03 1.8171948605e+00 -3.1474738256e+00 1.8171948605e+00 3.1474738256e+00 
44800 6.4675167295e+00 3.0101769364e-03 1.8171098421e+00 -3.1473265694e+00 1.8171098421e+00 3.1473265694e+00 
44900 6.4675165314e+00 2.9256605847e-03 1.8170270140e+00 -3.1471831070e+00 1.8170270140e+00 3.1471831070e+00 
45000 6.4675164252e+00 2.8366242769e-03 1.8169465078e+00 -3.1470436662e+00 1.8169465078e+00 3.1470436662e+00 
45100 6.4675164097e+00 2.7433234098e-03 1.8168684482e+00 -3.1469084629e+00 1.8168684482e+00 3.1469084629e+00 
45200 6.4675164828e+00 2.6460181339e-03 1.8167929528e+00 -3.1467777010e+00 1.8167929528e+00 3.1467777010e+00 
45300 6.4675166417e+00 2.5449727251e-03 1.8167201321e+00 -3.1466515720e+00 1.8167201321e+00 3.1466515720e+00 
45400 6.4675168832e+00 2.4404549587e-03 1.8166500895e+00 -3.1465302546e+00 1.8166500895e+00 3.1465302546e+00 
45500 6.4675172032e+00 2.3327354881e-03 1.8165829208e+00 -3.1464139150e+00 1.8165829208e+00 3.1464139150e+00 
45600 6.4675175972e+00 2.2220872276e-03 1.8165187145e+00 -3.1463027064e+00 1.8165187145e+00 3.1463027064e+00 
45700 6.4675180603e+00 2.1087847424e-03 1.8164575515e+00 -3.1461967690e+00 1.8164575515e+00 3.1461967690e+00 
45800 6.4675185871e+00 1.9931036457e-03 1.8163995052e+00 -3.1460962298e+00 1.8163995052e+00 3.1460962298e+00 
45900 6.4675191719e+00 1.8753200054e-03 1.8163446413e+00 -3.1460012028e+00 1.8163446413e+00 3.1460012028e+00 
46000 6.4675198085e+00 1.7557097598e-03 1.8162930181e+00 -3.1459117888e+00 1.8162930181e+00 3.1459117888e+00 
46100 6.4675204906e+00 1.6345481453e-03 1.8162446861e+00 -3.1458280753e+00 1.8162446861e+00 3.1458280753e+00 
46200 6.4675212118e+00 1.5121091355e-03 1.8161996883e+00 -3.1457501368e+00 1.8161996883e+00 3.1457501368e+00 
46300 6.4675219654e+00 1.3886648936e-03 1.8161580600e+00 -3.1456780346e+00 1.8161580600e+00 3.1456780346e+00 
46400 6.4675227447e+00 1.2644852390e-03 1.8161198293e+00 -3.1456118171e+00 1.8161198293e+00 3.1456118171e+00 
46500 6.4675235429e+00 1.1398371280e-03 1.8160850166e+00 -3.1455515197e+00 1.8160850166e+00 3.1455515197e+00 
46600 6.4675243534e+00 1.0149841510e-03 1.8160536350e+00 -3.1454971651e+00 1.8160536350e+00 3.1454971651e+00 
46700 6.4675251695e+00 8.9018604473e-04 1.8160256903e+00 -3.1454487635e+00 1.8160256903e+00 3.1454487635e+00 
46800 6.4675259850e+00 7.6569822307e-04 1.8160011812e+00 -3.1454063124e+00 1.8160011812e+00 3.1454063124e+00 
46900 6.4675267934e+00 6.4177132406e-04 1.8159800992e+00 -3.1453697974e+00 1.8159800992e+00 3.1453697974e+00 
47000 6.4675275887e+00 5.1865077589e-04 1.8159624292e+00 -3.1453391919e+00 1.8159624292e+00 3.1453391919e+00 
47100 6.4675283654e+00 3.9657638129e-04 1.8159481488e+00 -3.1453144577e+00 1.8159481488e+00 3.1453144577e+00 
47200 6.4675291179e+00 2.7578192110e-04 1.8159372296e+00 -3.1452955450e+00 1.8159372296e+00 3.1452955450e+00 
47300 6.4675298412e+00 1.5649477742e-04 1.8159296362e+00 -3.1452823929e+00 1.8159296362e+00 3.1452823929e+00 
47400 6.4675305306e+00 3.8935576612e-05 1.8159253273e+00 -3.1452749296e+00 1.8159253273e+00 3.1452749296e+00 
47500 6.4675311817e+00 -7.5602433508e-05 1.8159253273e+00 -3.1452749296e+00 1.8159253273e+00 3.1452749296e+00 
47600 6.4675317909e+00 -1.8909752404e-04 1.8159274089e+00 -3.1452785351e+00 1.8159274089e+00 3.1452785351e+00 
47700 6.4675323547e+00 -3.0024480255e-04 1.8159326156e+00 -3.1452875533e+00 1.8159326156e+00 3.1452875533e+00 
47800 6.4675328703e+00 -4.0885395664e-04 1.8159408825e+00 -3.1453018721e+00 1.8159408825e+00 3.1453018721e+00 
47900 6.4675333354e+00 -5.1474290228e-04 1.8159521399e+00 -3.1453213704e+00 1.8159521399e+00 3.1453213704e+00 
48000 6.4675337478e+00 -6.1773801676e-04 1.8159663127e+00 -3.1453459185e+00 1.8159663127e+00 3.1453459185e+00 
48100 6.4675341063e+00 -7.1767435062e-04 1.8159833213e+00 -3.1453753782e+00 1.8159833213e+00 3.1453753782e+00 
48200 6.4675344097e+00 -8.1439581864e-04 1.8160030813e+00 -3.1454096034e+00 1.8160030813e+00 3.1454096034e+00 
48300 6.4675346576e+00 -9.0775536970e-04 1.8160255041e+00 -3.1454484409e+00 1.8160255041e+00 3.1454484409e+00 
48400 6.4675348500e+00 -9.9761513583e-04 1.8160504970e+00 -3.1454917300e+00 1.8160504970e+00 3.1454917300e+00 
48500 6.4675349872e+00 -1.0838465604e-03 1.8160779637e+00 -3.1455393037e+00 1.8160779637e+00 3.1455393037e+00 
48600 6.4675350700e+00 -1.1663305059e-03 1.8161078041e+00 -3.1455909887e+00 1.8161078041e+00 3.1455909887e+00 
48700 6.4675350998e+00 -1.2449573409e-03 1.8161399149e+00 -3.1456466063e+00 1.8161399149e+00 3.1456466063e+00 
48800 6.4675350781e+00 -1.3196270072e-03 1.8161741898e+00 -3.1457059722e+00 1.8161741898e+00 3.1457059722e+00 
48900 6.4675350069e+00 -1.3902490666e-03 1.8162105198e+00 -3.1457688976e+00 1.8162105198e+00 3.1457688976e+00 
49000 6.4675348886e+00 -1.4567427284e-03 1.8162487933e+00 -3.1458351892e+00 1.8162487933e+00 3.1458351892e+00 
49100 6.4675347258e+00 -1.5190368574e-03 1.8162888965e+00 -3.1459046500e+00 1.8162888965e+00 3.1459046500e+00 
49200 6.4675345214e+00 -1.5770699625e-03 1.8163307137e+00 -3.1459770795e+00 1.8163307137e+00 3.1459770795e+00 
49300 6.4675342786e+00 -1.6307901668e-03 1.8163741275e+00 -3.1460522744e+00 1.8163741275e+00 3.1460522744e+00 
49400 6.4675340007e+00 -1.6801551599e-03 1.8164190191e+00 -3.1461300289e+00 1.8164190191e+00 3.1461300289e+00 
49500 6.4675336913e+00 -1.7251321315e-03 1.8164652684e+00 -3.1462101350e+00 1.8164652684e+00 3.1462101350e+00 
49600 6.4675333541e+00 -1.7656976878e-03 1.8165127545e+00 -3.1462923835e+00 1.8165127545e+00 3.1462923835e+00 
49700 6.4675329929e+00 -1.8018377514e-03 1.8165613561e+00 -3.1463765638e+00 1.8165613561e+00 3.1463765638e+00 
49800 6.4675326115e+00 -1.8335474433e-03 1.8166109510e+00 -3.1464624648e+00 1.8166109510e+00 3.1464624648e+00 
49900 6.4675322140e+00 -1.8608309507e-03 1.8166614174e+00 -3.1465498751e+00 1.8166614174e+00 3.1465498751e+00 
50000 6.4675318040e+00 -1.8837013774e-03 1.8167126333e+00 -3.1466385837e+00 1.8167126333e+00 3.1466385837e+00 
50100 6.4675313857e+00 -1.9021805802e-03 1.8167644773e+00 -3.1467283800e+00 1.8167644773e+00 3.1467283800e+00 
50200 6.4675309629e+00 -1.9162989904e-03 1.8168168283e+00 -3.1468190546e+00 1.8168168283e+00 3.1468190546e+00 
50300 6.4675305392e+00 -1.9260954219e-03 1.8168695664e+00 -3.1469103997e+00 1.8168695664e+00 3.1469103997e+00 
50400 6.4675301183e+00 -1.9316168646e-03 1.8169225725e+00 -3.1470022090e+00 1.8169225725e+00 3.1470022090e+00 
50500 6.4675297038e+00 -1.9329182666e-03 1.8169757290e+00 -3.1470942788e+00 1.8169757290e+00 3.1470942788e+00 
50600 6.4675292990e+00 -1.9300623027e-03 1.8170289198e+00 -3.1471864080e+00 1.8170289198e+00 3.1471864080e+00 
50700 6.4675289071e+00 -1.9231191325e-03 1.8170820305e+00 -3.1472783983e+00 1.8170820305e+00 3.1472783983e+00 
50800 6.4675285310e+00 -1.9121661464e-03 1.8171349485e+00 -3.1473700550e+00 1.8171349485e+00 3.1473700550e+00 
50900 6.4675281734e+00 -1.8972877021e-03 1.8171875636e+00 -3.1474611871e+00 1.8171875636e+00 3.1474611871e+00 
51000 6.4675278369e+00 -1.8785748507e-03 1.8172397678e+00 -3.1475516074e+00 1.8172397678e+00 3.1475516074e+00 
51100 6.4675275236e+00 -1.8561250541e-03 1.8172914557e+00 -3.1476411334e+00 1.8172914557e+00 3.1476411334e+00 
51200 6.4675272357e+00 -1.8300418938e-03 1.8173425244e+00 -3.1477295870e+00 1.8173425244e+00 3.1477295870e+00 
51300 6.4675269747e+00 -1.8004347717e-03 1.8173928740e+00 -3.1478167951e+00 1.8173928740e+00 3.1478167951e+00 
51400 6.4675267422e+00 -1.7674186038e-03 1.8174424077e+00 -3.1479025899e+00 1.8174424077e+00 3.1479025899e+00 
51500 6.4675265393e+00 -1.7311135082e-03 1.8174910317e+00 -3.1479868092e+00 1.8174910317e+00 3.1479868092e+00 
51600 6.4675263669e+00 -1.6916444857e-03 1.8175386556e+00 -3.1480692962e+00 1.8175386556e+00 3.1480692962e+00 
51700 6.4675262256e+00 -1.6491410970e-03 1.8175851925e+00 -3.1481499005e+00 1.8175851925e+00 3.1481499005e+00 
51800 6.4675261157e+00 -1.6037371342e-03 1.8176305589e+00 -3.1482284775e+00 1.8176305589e+00 3.1482284775e+00 
51900 6.4675260374e+00 -1.5555702891e-03 1.8176746753e+00 -3.1483048892e+00 1.8176746753e+00 3.1483048892e+00 
52000 6.4675259903e+00 -1.5047818183e-03 1.8177174655e+00 -3.1483790041e+00 1.8177174655e+00 3.1483790041e+00 
52100 6.4675259741e+00 -1.4515162057e-03 1.8177588578e+00 -3.1484506976e+00 1.8177588578e+00 3.1484506976e+00 
52200 6.4675259881e+00 -1.3959208236e-03 1.8177987839e+00 -3.1485198517e+00 1.8177987839e+00 3.1485198517e+00 
52300 6.4675260313e+00 -1.3381455926e-03 1.8178371799e+00 -3.1485863556e+00 1.8178371799e+00 3.1485863556e+00 
52400 6.4675261027e+00 -1.2783426406e-03 1.8178739861e+00 -3.1486501056e+00 1.8178739861e+00 3.1486501056e+00 
52500 6.4675262009e+00 -1.2166659629e-03 1.8179091465e+00 -3.1487110054e+00 1.8179091465e+00 3.1487110054e+00 
52600 6.4675263244e+00 -1.1532710827e-03 1.8179426100e+00 -3.1487689657e+00 1.8179426100e+00 3.1487689657e+00 
52700 6.4675264715e+00 -1.0883147134e-03 1.8179743292e+00 -3.1488239050e+00 1.8179743292e+00 3.1488239050e+00 
52800 6.4675266405e+00 -1.0219544227e-03 1.8180042613e+00 -3.1488757490e+00 1.8180042613e+00 3.1488757490e+00 
52900 6.4675268295e+00 -9.5434830018e-04 1.8180323679e+00 -3.1489244310e+00 1.8180323679e+00 3.1489244310e+00 
53000 6.4675270362e+00 -8.8565462767e-04 1.8180586147e+00 -3.1489698918e+00 1.8180586147e+00 3.1489698918e+00 
53100 6.4675272588e+00 -8.1603155443e-04 1.8180829719e+00 -3.1490120797e+00 1.8180829719e+00 3.1490120797e+00 
53200 6.4675274949e+00 -7.4563677637e-04 1.8181054141e+00 -3.1490509507e+00 1.8181054141e+00 3.1490509507e+00 
53300 6.4675277423e+00 -6.7462722089e-04 1.8181259200e+00 -3.1490864679e+00 1.8181259200e+00 3.1490864679e+00 
53400 6.4675279988e+00 -6.0315873745e-04 1.8181444728e+00 -3.1491186024e+00 1.8181444728e+00 3.1491186024e+00 
53500 6.4675282621e+00 -5.3138579451e-04 1.8181610600e+00 -3.1491473323e+00 1.8181610600e+00 3.1491473323e+00 
53600 6.4675285300e+00 -4.5946118343e-04 1.8181756733e+00 -3.1491726433e+00 1.8181756733e+00 3.1491726433e+00 
53700 6.4675288001e+00 -3.8753572983e-04 1.8181883086e+00 -3.1491945282e+00 1.8181883086e+00 3.1491945282e+00 
53800 6.4675290704e+00 -3.1575801284e-04 1.8181989658e+00 -3.1492129870e+00 1.8181989658e+00 3.1492129870e+00 
53900 6.4675293387e+00 -2.4427409276e-04 1.8182076491e+00 -3.1492280269e+00 1.8182076491e+00 3.1492280269e+00 
54000 6.4675296030e+00 -1.7322724770e-04 1.8182143665e+00 -3.1492396618e+00 1.8182143665e+00 3.1492396618e+00 
54100 6.4675298613e+00 -1.0275771939e-04 1.8182191302e+00 -3.1492479127e+00 1.8182191302e+00 3.1492479127e+00 
54200 6.4675301119e+00 -3.3002468851e-05 1.8182219559e+00 -3.1492528071e+00 1.8182219559e+00 3.1492528071e+00 
54300 6.4675303528e+00 3.4996182255e-05 1.8182219559e+00 -3.1492528071e+00 1.8182219559e+00 3.1492528071e+00 
54400 6.4675305827e+00 1.0391074892e-04 1.8182219559e+00 -3.1492528071e+00 1.8182219559e+00 3.1492528071e+00 
54500 6.4675308000e+00 1.7073491431e-04 1.8182190985e+00 -3.1492478578e+00 1.8182190985e+00 3.1492478578e+00 
54600 6.4675310034e+00 2.3633449123e-04 1.8182144034e+00 -3.1492397257e+00 1.8182144034e+00 3.1492397257e+00 
54700 6.4675311918e+00 3.0059221158e-04 1.8182079043e+00 -3.1492284689e+00 1.8182079043e+00 3.1492284689e+00 
54800 6.4675313641e+00 3.6339533054e-04 1.8181996381e+00 -3.1492141515e+00 1.8181996381e+00 3.1492141515e+00 
54900 6.4675315196e+00 4.2463579345e-04 1.8181896449e+00 -3.1491968427e+00 1.8181896449e+00 3.1491968427e+00 
55000 6.4675316574e+00 4.8421039061e-04 1.8181779674e+00 -3.1491766168e+00 1.8181779674e+00 3.1491766168e+00 
55100 6.4675317772e+00 5.4202089976e-04 1.8181646516e+00 -3.1491535532e+00 1.8181646516e+00 3.1491535532e+00 
55200 6.4675318784e+00 5.9797421616e-04 1.8181497459e+00 -3.1491277357e+00 1.8181497459e+00 3.1491277357e+00 
55300 6.4675319611e+00 6.5198247019e-04 1.8181333014e+00 -3.1490992529e+00 1.8181333014e+00 3.1490992529e+00 
55400 6.4675320250e+00 7.0396313219e-04 1.8181153714e+00 -3.1490681973e+00 1.8181153714e+00 3.1490681973e+00 
55500 6.4675320703e+00 7.5383910475e-04 1.8180960118e+00 -3.1490346654e+00 1.8180960118e+00 3.1490346654e+00 
55600 6.4675320973e+00 8.0153880223e-04 1.8180752802e+00 -3.1489987574e+00 1.8180752802e+00 3.1489987574e+00 
55700 6.4675321064e+00 8.4699621755e-04 1.8180532367e+00 -3.1489605768e+00 1.8180532367e+00 3.1489605768e+00 
55800 6.4675320980e+00 8.9015097632e-04 1.8180299427e+00 -3.1489202304e+00 1.8180299427e+00 3.1489202304e+00 
55900 6.4675320729e+00 9.3094837833e-04 1.8180054615e+00 -3.1488778278e+00 1.8180054615e+00 3.1488778278e+00 
56000 6.4675320318e+00 9.6933942651e-04 1.8179798580e+00 -3.1488334813e+00 1.8179798580e+00 3.1488334813e+00 
56100 6.4675319756e+00 1.0052808434e-03 1.8179531983e+00 -3.1487873053e+00 1.8179531983e+00 3.1487873053e+00 
56200 6.4675319053e+00 1.0387350753e-03 1.8179255497e+00 -3.1487394164e+00 1.8179255497e+00 3.1487394164e+00 
56300 6.4675318219e+00 1.0696702846e-03 1.8178969805e+00 -3.1486899332e+00 1.8178969805e+00 3.1486899332e+00 
56400 6.4675317265e+00 1.0980603296e-03 1.8178675600e+00 -3.1486389754e+00 1.8178675600e+00 3.1486389754e+00 
56500 6.4675316204e+00 1.1238847330e-03 1.8178373583e+00 -3.1485866644e+00 1.8178373583e+00 3.1485866644e+00 
56600 6.4675315048e+00 1.1471286388e-03 1.8178064457e+00 -3.1485331222e+00 1.8178064457e+00 3.1485331222e+00 
56700 6.4675313810e+00 1.1677827580e-03 1.8177748932e+00 -3.1484784717e+00 1.8177748932e+00 3.1484784717e+00 
56800 6.4675312502e+00 1.1858433035e-03 1.8177427721e+00 -3.1484228363e+00 1.8177427721e+00 3.1484228363e+00 
56900 6.4675311138e+00 1.2013119136e-03 1.8177101536e+00 -3.1483663395e+00 1.8177101536e+00 3.1483663395e+00 
57000 6.4675309732e+00 1.2141955664e-03 1.8176771091e+00 -3.1483091046e+00 1.8176771091e+00 3.1483091046e+00 
57100 6.4675308296e+00 1.2245064832e-03 1.8176437095e+00 -3.1482512549e+00 1.8176437095e+00 3.1482512549e+00 
57200 6.4675306844e+00 1.2322620226e-03 1.8176100257e+00 -3.1481929129e+00 1.8176100257e+00 3.1481929129e+00 
57300 6.4675305388e+00 1.2374845658e-03 1.8175761280e+00 -3.1481342002e+00 1.8175761280e+00 3.1481342002e+00 
57400 6.4675303941e+00 1.2402013923e-03 1.8175420859e+00 -3.1480752377e+00 1.8175420859e+00 3.1480752377e+00 
57500 6.4675302515e+00 1.2404445474e-03 1.8175079685e+00 -3.1480161445e+00 1.8175079685e+00 3.1480161445e+00 
57600 6.4675301121e+00 1.2382507024e-03 1.8174738437e+00 -3.1479570387e+00 1.8174738437e+00 3.1479570387e+00 
57700 6.4675299770e+00 1.2336610060e-03 1.8174397786e+00 -3.1478980363e+00 1.8174397786e+00 3.1478980363e+00 
57800 6.4675298473e+00 1.2267209296e-03 1.8174058392e+00 -3.1478392515e+00 1.8174058392e+00 3.1478392515e+00 
57900 6.4675297237e+00 1.2174801051e-03 1.8173720901e+00 -3.1477807963e+00 1.8173720901e+00 3.1477807963e+00 
58000 6.4675296073e+00 1.2059921573e-03 1.8173385946e+00 -3.1477227804e+00 1.8173385946e+00 3.1477227804e+00 
58100 6.4675294988e+00 1.1923145295e-03 1.8173054145e+00 -3.1476653108e+00 1.8173054145e+00 3.1476653108e+00 
58200 6.4675293989e+00 1.1765083048e-03 1.8172726101e+00 -3.1476084920e+00 1.8172726101e+00 3.1476084920e+00 
58300 6.4675293081e+00 1.1586380222e-03 1.8172402401e+00 -3.1475524254e+00 1.8172402401e+00 3.1475524254e+00 
58400 6.4675292270e+00 1.1387714878e-03 1.8172083611e+00 -3.1474972094e+00 1.8172083611e+00 3.1474972094e+00 
58500 6.4675291559e+00 1.1169795830e-03 1.8171770282e+00 -3.1474429392e+00 1.8171770282e+00 3.1474429392e+00 
58600 6.4675290952e+00 1.0933360690e-03 1.8171462944e+00 -3.1473897066e+00 1.8171462944e+00 3.1473897066e+00 
58700 6.4675290452e+00 1.0679173881e-03 1.8171162106e+00 -3.1473376000e+00 1.8171162106e+00 3.1473376000e+00 
58800 6.4675290058e+00 1.0408024629e-03 1.8170868257e+00 -3.1472867039e+00 1.8170868257e+00 3.1472867039e+00 
58900 6.4675289772e+00 1.0120724933e-03 1.8170581865e+00 -3.1472370993e+00 1.8170581865e+00 3.1472370993e+00 
59000 6.4675289592e+00 9.8181075234e-04 1.8170303373e+00 -3.1471888632e+00 1.8170303373e+00 3.1471888632e+00 
59100 6.4675289518e+00 9.5010238054e-04 1.8170033205e+00 -3.1471420686e+00 1.8170033205e+00 3.1471420686e+00 
59200 6.4675289547e+00 9.1703418012e-04 1.8169771758e+00 -3.1470967847e+00 1.8169771758e+00 3.1470967847e+00 
59300 6.4675289677e+00 8.8269440880e-04 1.8169519407e+00 -3.1470530762e+00 1.8169519407e+00 3.1470530762e+00 
59400 6.4675289902e+00 8.4717257400e-04 1.8169276502e+00 -3.1470110039e+00 1.8169276502e+00 3.1470110039e+00 
59500 6.4675290220e+00 8.1055922780e-04 1.8169043369e+00 -3.1469706241e+00 1.8169043369e+00 3.1469706241e+00 
59600 6.4675290624e+00 7.7294576306e-04 1.8168820309e+00 -3.1469319889e+00 1.8168820309e+00 3.1469319889e+00 
59700 6.4675291109e+00 7.3442421117e-04 1.8168607598e+00 -3.1468951462e+00 1.8168607598e+00 3.1468951462e+00 
59800 6.4675291670e+00 6.9508704161e-04 1.8168405484e+00 -3.1468601392e+00 1.8168405484e+00 3.1468601392e+00 
59900 6.4675292299e+00 6.5502696412e-04 1.8168214195e+00 -3.1468270068e+00 1.8168214195e+00 3.1468270068e+00 
60000 6.4675292989e+00 6.1433673343e-04 1.8168033928e+00 -3.1467957837e+00 1.8168033928e+00 3.1467957837e+00 
60100 6.4675293734e+00 5.7310895717e-04 1.8167864857e+00 -3.1467664998e+00 1.8167864857e+00 3.1467664998e+00 
60200 6.4675294526e+00 5.3143590724e-04 1.8167707131e+00 -3.1467391809e+00 1.8167707131e+00 3.1467391809e+00 
60300 6.4675295357e+00 4.8940933492e-04 1.8167560873e+00 -3.1467138482e+00 1.8167560873e+00 3.1467138482e+00 
60400 6.4675296220e+00 4.4712029018e-04 1.8167426180e+00 -3.1466905187e+00 1.8167426180e+00 3.1466905187e+00 
60500 6.4675297107e+00 4.0465894526e-04 1.8167303125e+00 -3.1466692049e+00 1.8167303125e+00 3.1466692049e+00 
60600 6.4675298010e+00 3.6211442314e-04 1.8167191755e+00 -3.1466499150e+00 1.8167191755e+00 3.1466499150e+00 
60700 6.4675298922e+00 3.1957463081e-04 1.8167092093e+00 -3.1466326532e+00 1.8167092093e+00 3.1466326532e+00 
60800 6.4675299835e+00 2.7712609788e-04 1.8167004139e+00 -3.1466174190e+00 1.8167004139e+00 3.1466174190e+00 
60900 6.4675300742e+00 2.3485382063e-04 1.8166927867e+00 -3.1466042084e+00 1.8166927867e+00 3.1466042084e+00 
61000 6.4675301636e+00 1.9284111182e-04 1.8166863230e+00 -3.1465930128e+00 1.8166863230e+00 3.1465930128e+00 
61100 6.4675302511e+00 1.5116945630e-04 1.8166810155e+00 -3.1465838200e+00 1.8166810155e+00 3.1465838200e+00 
61200 6.4675303359e+00 1.0991837283e-04 1.8166768549e+00 -3.1465766136e+00 1.8166768549e+00 3.1465766136e+00 
61300 6.4675304177e+00 6.9165282165e-05 1.8166738296e+00 -3.1465713737e+00 1.8166738296e+00 3.1465713737e+00 
61400 6.4675304956e+00 3.0898887436e-05 1.8166738296e+00 -3.1465713737e+00 1.8166738296e+00 3.1465713737e+00 
61500 6.4675305692e+00 -7.8240624768e-06 1.8166738296e+00 -3.1465713737e+00 1.8166738296e+00 3.1465713737e+00 
61600 6.4675306381e+00 -4.6918269487e-05 1.8166738296e+00 -3.1465713737e+00 1.8166738296e+00 3.1465713737e+00 
61700 6.4675307021e+00 -8.6300320005e-05 1.8166738296e+00 -3.1465713737e+00 1.8166738296e+00 3.1465713737e+00 
61800 6.4675307607e+00 -1.2350157586e-04 1.8166762049e+00 -3.1465754877e+00 1.8166762049e+00 3.1465754877e+00 
61900 6.4675308136e+00 -1.5978969571e-04 1.8166796040e+00 -3.1465813751e+00 1.8166796040e+00 3.1465813751e+00 
62000 6.4675308606e+00 -1.9510519868e-04 1.8166840018e+00 -3.1465889924e+00 1.8166840018e+00 3.1465889924e+00 
62100 6.4675309014e+00 -2.2939151013e-04 1.8166893716e+00 -3.1465982932e+00 1.8166893716e+00 3.1465982932e+00 
62200 6.4675309361e+00 -2.6259503168e-04 1.8166956851e+00 -3.1466092285e+00 1.8166956851e+00 3.1466092285e+00 
62300 6.4675309644e+00 -2.9466520428e-04 1.8167029124e+00 -3.1466217465e+00 1.8167029124e+00 3.1466217465e+00 
62400 6.4675309865e+00 -3.2555456386e-04 1.8167110223e+00 -3.1466357932e+00 1.8167110223e+00 3.1466357932e+00 
62500 6.4675310022e+00 -3.5521878995e-04 1.8167199823e+00 -3.1466513124e+00 1.8167199823e+00 3.1466513124e+00 
62600 6.4675310118e+00 -3.8361674714e-04 1.8167297587e+00 -3.1466682456e+00 1.8167297587e+00 3.1466682456e+00 
62700 6.4675310153e+00 -4.1071051927e-04 1.8167403166e+00 -3.1466865324e+00 1.8167403166e+00 3.1466865324e+00 
62800 6.4675310129e+00 -4.3646543678e-04 1.8167516201e+00 -3.1467061107e+00 1.8167516201e+00 3.1467061107e+00 
62900 6.4675310049e+00 -4.6085009682e-04 1.8167636323e+00 -3.1467269165e+00 1.8167636323e+00 3.1467269165e+00 
63000 6.4675309915e+00 -4.8383637658e-04 1.8167763156e+00 -3.1467488846e+00 1.8167763156e+00 3.1467488846e+00 
63100 6.4675309729e+00 -5.0539943974e-04 1.8167896314e+00 -3.1467719483e+00 1.8167896314e+00 3.1467719483e+00 
63200 6.4675309496e+00 -5.2551773609e-04 1.8168035406e+00 -3.1467960397e+00 1.8168035406e+00 3.1467960397e+00 
63300 6.4675309218e+00 -5.4417299461e-04 1.8168180033e+00 -3.1468210898e+00 1.8168180033e+00 3.1468210898e+00 
63400 6.4675308900e+00 -5.6135020996e-04 1.8168329793e+00 -3.1468470290e+00 1.8168329793e+00 3.1468470290e+00 
63500 6.4675308546e+00 -5.7703762267e-04 1.8168484279e+00 -3.1468737868e+00 1.8168484279e+00 3.1468737868e+00 
63600 6.4675308159e+00 -5.9122669292e-04 1.8168643081e+00 -3.1469012921e+00 1.8168643081e+00 3.1469012921e+00 
63700 6.4675307744e+00 -6.0391206841e-04 1.8168805787e+00 -3.1469294735e+00 1.8168805787e+00 3.1469294735e+00 
63800 6.4675307305e+00 -6.1509154618e-04 1.8168971982e+00 -3.1469582594e+00 1.8168971982e+00 3.1469582594e+00 
63900 6.4675306848e+00 -6.2476602868e-04 1.8169141252e+00 -3.1469875778e+00 1.8169141252e+00 3.1469875778e+00 
64000 6.4675306376e+00 -6.3293947425e-04 1.8169313183e+00 -3.1470173571e+00 1.8169313183e+00 3.1470173571e+00 
64100 6.4675305894e+00 -6.3961884226e-04 1.8169487361e+00 -3.1470475257e+00 1.8169487361e+00 3.1470475257e+00 
64200 6.4675305406e+00 -6.4481403289e-04 1.8169663376e+00 -3.1470780123e+00 1.8169663376e+00 3.1470780123e+00 
64300 6.4675304917e+00 -6.4853782205e-04 1.8169840819e+00 -3.1471087463e+00 1.8169840819e+00 3.1471087463e+00 
64400 6.4675304430e+00 -6.5080579143e-04 1.8170019284e+00 -3.1471396575e+00 1.8170019284e+00 3.1471396575e+00 
64500 6.4675303951e+00 -6.5163625389e-04 1.8170198373e+00 -3.1471706765e+00 1.8170198373e+00 3.1471706765e+00 
64600 6.4675303482e+00 -6.5105017461e-04 1.8170377687e+00 -3.1472017347e+00 1.8170377687e+00 3.1472017347e+00 
64700 6.4675303027e+00 -6.4907108795e-04 1.8170556839e+00 -3.1472327647e+00 1.8170556839e+00 3.1472327647e+00 
64800 6.4675302590e+00 -6.4572501047e-04 1.8170735445e+00 -3.1472637001e+00 1.8170735445e+00 3.1472637001e+00 
64900 6.4675302175e+00 -6.4104035021e-04 1.8170913128e+00 -3.1472944757e+00 1.8170913128e+00 3.1472944757e+00 
65000 6.4675301783e+00 -6.3504781251e-04 1.8171089520e+00 -3.1473250277e+00 1.8171089520e+00 3.1473250277e+00 
65100 6.4675301417e+00 -6.2778030266e-04 1.8171264261e+00 -3.1473552938e+00 1.8171264261e+00 3.1473552938e+00 
65200 6.4675301081e+00 -6.1927282547e-04 1.8171437001e+00 -3.1473852133e+00 1.8171437001e+00 3.1473852133e+00 
65300 6.4675300775e+00 -6.0956238220e-04 1.8171607399e+00 -3.1474147270e+00 1.8171607399e+00 3.1474147270e+00 
65400 6.4675300502e+00 -5.9868786493e-04 1.8171775123e+00 -3.1474437777e+00 1.8171775123e+00 3.1474437777e+00 
65500 6.4675300262e+00 -5.8668994873e-04 1.8171939854e+00 -3.1474723098e+00 1.8171939854e+00 3.1474723098e+00 
65600 6.4675300058e+00 -5.7361098178e-04 1.8172101281e+00 -3.1475002699e+00 1.8172101281e+00 3.1475002699e+00 
65700 6.4675299890e+00 -5.5949487383e-04 1.8172259109e+00 -3.1475276065e+00 1.8172259109e+00 3.1475276065e+00 
65800 6.4675299757e+00 -5.4438698305e-04 1.8172413051e+00 -3.1475542701e+00 1.8172413051e+00 3.1475542701e+00 
65900 6.4675299661e+00 -5.2833400170e-04 1.8172562835e+00 -3.1475802134e+00 1.8172562835e+00 3.1475802134e+00 
66000 6.4675299601e+00 -5.1138384073e-04 1.8172708201e+00 -3.1476053916e+00 1.8172708201e+00 3.1476053916e+00 
66100 6.4675299577e+00 -4.9358551376e-04 1.8172848902e+00 -3.1476297617e+00 1.8172848902e+00 3.1476297617e+00 
66200 6.4675299587e+00 -4.7498902033e-04 1.8172984706e+00 -3.1476532835e+00 1.8172984706e+00 3.1476532835e+00 
66300 6.4675299632e+00 -4.5564522906e-04 1.8173115391e+00 -3.1476759189e+00 1.8173115391e+00 3.1476759189e+00 
66400 6.4675299709e+00 -4.3560576067e-04 1.8173240754e+00 -3.1476976324e+00 1.8173240754e+00 3.1476976324e+00 
66500 6.4675299817e+00 -4.1492287124e-04 1.8173360602e+00 -3.1477183907e+00 1.8173360602e+00 3.1477183907e+00 
66600 6.4675299955e+00 -3.9364933590e-04 1.8173474759e+00 -3.1477381633e+00 1.8173474759e+00 3.1477381633e+00 
66700 6.4675300120e+00 -3.7183833316e-04 1.8173583062e+00 -3.1477569220e+00 1.8173583062e+00 3.1477569220e+00 
66800 6.4675300311e+00 -3.4954333014e-04 1.8173685364e+00 -3.1477746412e+00 1.8173685364e+00 3.1477746412e+00 
66900 6.4675300525e+00 -3.2681796891e-04 1.8173781532e+00 -3.1477912979e+00 1.8173781532e+00 3.1477912979e+00 
67000 6.4675300760e+00 -3.0371595413e-04 1.8173871447e+00 -3.1478068716e+00 1.8173871447e+00 3.1478068716e+00 
67100 6.4675301014e+00 -2.8029094222e-04 1.8173955005e+00 -3.1478213444e+00 1.8173955005e+00 3.1478213444e+00 
67200 6.4675301283e+00 -2.5659643230e-04 1.8174032119e+00 -3.1478347008e+00 1.8174032119e+00 3.1478347008e+00 
67300 6.4675301567e+00 -2.3268565899e-04 1.8174102713e+00 -3.1478469281e+00 1.8174102713e+00 3.1478469281e+00 
67400 6.4675301861e+00 -2.0861148739e-04 1.8174166729e+00 -3.1478580159e+00 1.8174166729e+00 3.1478580159e+00 
67500 6.4675302163e+00 -1.8442631034e-04 1.8174224121e+00 -3.1478679566e+00 1.8174224121e+00 3.1478679566e+00 
67600 6.4675302471e+00 -1.6018194812e-04 1.8174274859e+00 -3.1478767447e+00 1.8174274859e+00 3.1478767447e+00 
67700 6.4675302783e+00 -1.3592955090e-04 1.8174318928e+00 -3.1478843776e+00 1.8174318928e+00 3.1478843776e+00 
67800 6.4675303095e+00 -1.1171950390e-04 1.8174356324e+00 -3.1478908548e+00 1.8174356324e+00 3.1478908548e+00 
67900 6.4675303405e+00 -8.7601335546e-05 1.8174387059e+00 -3.1478961783e+00 1.8174387059e+00 3.1478961783e+00 
68000 6.4675303711e+00 -6.3623628796e-05 1.8174411160e+00 -3.1479003526e+00 1.8174411160e+00 3.1479003526e+00 
68100 6.4675304011e+00 -4.1589908264e-05 1.8174411160e+00 -3.1479003526e+00 1.8174411160e+00 3.1479003526e+00 
68200 6.4675304301e+00 -1.9142503267e-05 1.8174411160e+00 -3.1479003526e+00 1.8174411160e+00 3.1479003526e+00 
68300 6.4675304579e+00 3.6680170733e-06 1.8174411160e+00 -3.1479003526e+00 1.8174411160e+00 3.1479003526e+00 
68400 6.4675304846e+00 2.6791909305e-05 1.8174411160e+00 -3.1479003526e+00 1.8174411160e+00 3.1479003526e+00 
68500 6.4675305099e+00 5.0180319255e-05 1.8174411160e+00 -3.1479003526e+00 1.8174411160e+00 3.1479003526e+00 
68600 6.4675305338e+00 7.3785342322e-05 1.8174411160e+00 -3.1479003526e+00 1.8174411160e+00 3.1479003526e+00 
68700 6.4675305559e+00 9.5523387757e-05 1.8174390860e+00 -3.1478968367e+00 1.8174390860e+00 3.1478968367e+00 
68800 6.4675305762e+00 1.1677543310e-04 1.8174364581e+00 -3.1478922849e+00 1.8174364581e+00 3.1478922849e+00 
68900 6.4675305945e+00 1.3750490538e-04 1.8174332454e+00 -3.1478867204e+00 1.8174332454e+00 3.1478867204e+00 
69000 6.4675306109e+00 1.5767686282e-04 1.8174294625e+00 -3.1478801682e+00 1.8174294625e+00 3.1478801682e+00 
69100 6.4675306252e+00 1.7725804215e-04 1.8174251246e+00 -3.1478726547e+00 1.8174251246e+00 3.1478726547e+00 
69200 6.4675306375e+00 1.9621690188e-04 1.8174202480e+00 -3.1478642082e+00 1.8174202480e+00 3.1478642082e+00 
69300 6.4675306476e+00 2.1452366124e-04 1.8174148497e+00 -3.1478548582e+00 1.8174148497e+00 3.1478548582e+00 
69400 6.4675306555e+00 2.3215033497e-04 1.8174089478e+00 -3.1478446358e+00 1.8174089478e+00 3.1478446358e+00 
69500 6.4675306614e+00 2.4907076388e-04 1.8174025610e+00 -3.1478335735e+00 1.8174025610e+00 3.1478335735e+00 
69600 6.4675306651e+00 2.6526064110e-04 1.8173957086e+00 -3.1478217048e+00 1.8173957086e+00 3.1478217048e+00 
69700 6.4675306668e+00 2.8069753418e-04 1.8173884108e+00 -3.1478090646e+00 1.8173884108e+00 3.1478090646e+00 
69800 6.4675306665e+00 2.9536090291e-04 1.8173806883e+00 -3.1477956888e+00 1.8173806883e+00 3.1477956888e+00 
69900 6.4675306643e+00 3.0923211301e-04 1.8173725623e+00 -3.1477816141e+00 1.8173725623e+00 3.1477816141e+00 
70000 6.4675306602e+00 3.2229444557e-04 1.8173640546e+00 -3.1477668784e+00 1.8173640546e+00 3.1477668784e+00 
70100 6.4675306544e+00 3.3453310255e-04 1.8173551875e+00 -3.1477515202e+00 1.8173551875e+00 3.1477515202e+00 
70200 6.4675306469e+00 3.4593520800e-04 1.8173459837e+00 -3.1477355787e+00 1.8173459837e+00 3.1477355787e+00 
70300 6.4675306380e+00 3.5648980542e-04 1.8173364661e+00 -3.1477190937e+00 1.8173364661e+00 3.1477190937e+00 
70400 6.4675306276e+00 3.6618785115e-04 1.8173266581e+00 -3.1477021057e+00 1.8173266581e+00 3.1477021057e+00 
70500 6.4675306160e+00 3.7502220386e-04 1.8173165832e+00 -3.1476846555e+00 1.8173165832e+00 3.1476846555e+00 
70600 6.4675306033e+00 3.8298761030e-04 1.8173062652e+00 -3.1476667842e+00 1.8173062652e+00 3.1476667842e+00 
70700 6.4675305897e+00 3.9008068730e-04 1.8172957279e+00 -3.1476485332e+00 1.8172957279e+00 3.1476485332e+00 
70800 6.4675305752e+00 3.9629990020e-04 1.8172849955e+00 -3.1476299440e+00 1.8172849955e+00 3.1476299440e+00 
70900 6.4675305600e+00 4.0164553778e-04 1.8172740919e+00 -3.1476110584e+00 1.8172740919e+00 3.1476110584e+00 
71000 6.4675305444e+00 4.0611968373e-04 1.8172630411e+00 -3.1475919180e+00 1.8172630411e+00 3.1475919180e+00 
71100 6.4675305284e+00 4.0972618494e-04 1.8172518672e+00 -3.1475725642e+00 1.8172518672e+00 3.1475725642e+00 
71200 6.4675305121e+00 4.1247061648e-04 1.8172405940e+00 -3.1475530384e+00 1.8172405940e+00 3.1475530384e+00 
71300 6.4675304958e+00 4.1436024367e-04 1.8172292452e+00 -3.1475333816e+00 1.8172292452e+00 3.1475333816e+00 
71400 6.4675304796e+00 4.1540398113e-04 1.8172178443e+00 -3.1475136348e+00 1.8172178443e+00 3.1475136348e+00 
71500 6.4675304636e+00 4.1561234904e-04 1.8172064147e+00 -3.1474938380e+00 1.8172064147e+00 3.1474938380e+00 
71600 6.4675304479e+00 4.1499742685e-04 1.8171949792e+00 -3.1474740312e+00 1.8171949792e+00 3.1474740312e+00 
71700 6.4675304327e+00 4.1357280431e-04 1.8171835606e+00 -3.1474542536e+00 1.8171835606e+00 3.1474542536e+00 
71800 6.4675304181e+00 4.1135353025e-04 1.8171721811e+00 -3.1474345437e+00 1.8171721811e+00 3.1474345437e+00 
71900 6.4675304042e+00 4.0835605910e-04 1.8171608626e+00 -3.1474149395e+00 1.8171608626e+00 3.1474149395e+00 
72000 6.4675303911e+00 4.0459819524e-04 1.8171496265e+00 -3.1473954781e+00 1.8171496265e+00 3.1473954781e+00 
72100 6.4675303789e+00 4.0009903554e-04 1.8171384937e+00 -3.1473761956e+00 1.8171384937e+00 3.1473761956e+00 
72200 6.4675303676e+00 3.9487891004e-04 1.8171274847e+00 -3.1473571274e+00 1.8171274847e+00 3.1473571274e+00 
72300 6.4675303574e+00 3.8895932099e-04 1.8171166193e+00 -3.1473383078e+00 1.8171166193e+00 3.1473383078e+00 
72400 6.4675303482e+00 3.8236288041e-04 1.8171059166e+00 -3.1473197703e+00 1.8171059166e+00 3.1473197703e+00 
72500 6.4675303402e+00 3.7511324641e-04 1.8170953954e+00 -3.1473015471e+00 1.8170953954e+00 3.1473015471e+00 
72600 6.4675303334e+00 3.6723505820e-04 1.8170850736e+00 -3.1472836692e+00 1.8170850736e+00 3.1472836692e+00 
72700 6.4675303277e+00 3.5875387014e-04 1.8170749686e+00 -3.1472661668e+00 1.8170749686e+00 3.1472661668e+00 
72800 6.4675303233e+00 3.4969608500e-04 1.8170650969e+00 -3.1472490684e+00 1.8170650969e+00 3.1472490684e+00 
72900 6.4675303201e+00 3.4008888636e-04 1.8170554743e+00 -3.1472324017e+00 1.8170554743e+00 3.1472324017e+00 
73000 6.4675303182e+00 3.2996017059e-04 1.8170461161e+00 -3.1472161928e+00 1.8170461161e+00 3.1472161928e+00 
73100 6.4675303174e+00 3.1933847829e-04 1.8170370365e+00 -3.1472004665e+00 1.8170370365e+00 3.1472004665e+00 
73200 6.4675303178e+00 3.0825292562e-04 1.8170282492e+00 -3.1471852464e+00 1.8170282492e+00 3.1471852464e+00 
73300 6.4675303194e+00 2.9673313535e-04 1.8170197669e+00 -3.1471705545e+00 1.8170197669e+00 3.1471705545e+00 
73400 6.4675303221e+00 2.8480916809e-04 1.8170116015e+00 -3.1471564117e+00 1.8170116015e+00 3.1471564117e+00 
73500 6.4675303258e+00 2.7251145358e-04 1.8170037642e+00 -3.1471428371e+00 1.8170037642e+00 3.1471428371e+00 
73600 6.4675303305e+00 2.5987072239e-04 1.8169962653e+00 -3.1471298486e+00 1.8169962653e+00 3.1471298486e+00 
73700 6.4675303362e+00 2.4691793799e-04 1.8169891142e+00 -3.1471174625e+00 1.8169891142e+00 3.1471174625e+00 
73800 6.4675303427e+00 2.3368422943e-04 1.8169823195e+00 -3.1471056938e+00 1.8169823195e+00 3.1471056938e+00 
73900 6.4675303500e+00 2.2020082476e-04 1.8169758889e+00 -3.1470945557e+00 1.8169758889e+00 3.1470945557e+00 
74000 6.4675303580e+00 2.0649898529e-04 1.8169698294e+00 -3.1470840603e+00 1.8169698294e+00 3.1470840603e+00 
74100 6.4675303667e+00 1.9260994074e-04 1.8169641469e+00 -3.1470742179e+00 1.8169641469e+00 3.1470742179e+00 
74200 6.4675303759e+00 1.7856482560e-04 1.8169588465e+00 -3.1470650375e+00 1.8169588465e+00 3.1470650375e+00 
74300 6.4675303856e+00 1.6439461655e-04 1.8169539327e+00 -3.1470565265e+00 1.8169539327e+00 3.1470565265e+00 
74400 6.4675303957e+00 1.5013007125e-04 1.8169494088e+00 -3.1470486908e+00 1.8169494088e+00 3.1470486908e+00 
74500 6.4675304060e+00 1.3580166862e-04 1.8169452774e+00 -3.1470415351e+00 1.8169452774e+00 3.1470415351e+00 
74600 6.4675304165e+00 1.2143955042e-04 1.8169415403e+00 -3.1470350623e+00 1.8169415403e+00 3.1470350623e+00 
74700 6.4675304272e+00 1.0707346472e-04 1.8169381985e+00 -3.1470292740e+00 1.8169381985e+00 3.1470292740e+00 
74800 6.4675304379e+00 9.2732710761e-05 1.8169352519e+00 -3.1470241704e+00 1.8169352519e+00 3.1470241704e+00 
74900 6.4675304485e+00 7.8446085890e-05 1.8169327000e+00 -3.1470197504e+00 1.8169327000e+00 3.1470197504e+00 
75000 6.4675304590e+00 6.4241834148e-05 1.8169305413e+00 -3.1470160113e+00 1.8169305413e+00 3.1470160113e+00 
75100 6.4675304693e+00 5.1923492887e-05 1.8169305413e+00 -3.1470160113e+00 1.8169305413e+00 3.1470160113e+00 
75200 6.4675304793e+00 3.9360972686e-05 1.8169305413e+00 -3.1470160113e+00 1.8169305413e+00 3.1470160113e+00 
75300 6.4675304889e+00 2.6584549717e-05 1.8169305413e+00 -3.1470160113e+00 1.8169305413e+00 3.1470160113e+00 
75400 6.4675304980e+00 1.3623979896e-05 1.8169305413e+00 -3.1470160113e+00 1.8169305413e+00 3.1470160113e+00 
75500 6.4675305066e+00 5.0846178775e-07 1.8169305413e+00 -3.1470160113e+00 1.8169305413e+00 3.1470160113e+00 
75600 6.4675305147e+00 -1.2733398414e-05 1.8169305413e+00 -3.1470160113e+00 1.8169305413e+00 3.1470160113e+00 
75700 6.4675305222e+00 -2.6073619923e-05 1.8169305413e+00 -3.1470160113e+00 1.8169305413e+00 3.1470160113e+00 
75800 6.4675305292e+00 -3.9484878325e-05 1.8169305413e+00 -3.1470160113e+00 1.8169305413e+00 3.1470160113e+00 
75900 6.4675305356e+00 -5.2940534533e-05 1.8169305413e+00 -3.1470160113e+00 1.8169305413e+00 3.1470160113e+00 
76000 6.4675305414e+00 -6.6414661690e-05 1.8169305413e+00 -3.1470160113e+00 1.8169305413e+00 3.1470160113e+00 
76100 6.4675305466e+00 -7.9882070077e-05 1.8169305413e+00 -3.1470160113e+00 1.8169305413e+00 3.1470160113e+00 
76200 6.4675305509e+00 -9.1110377352e-05 1.8169327396e+00 -3.1470198189e+00 1.8169327396e+00 3.1470198189e+00 
76300 6.4675305546e+00 -1.0196307663e-04 1.8169352468e+00 -3.1470241616e+00 1.8169352468e+00 3.1470241616e+00 
76400 6.4675305575e+00 -1.1242369850e-04 1.8169380527e+00 -3.1470290215e+00 1.8169380527e+00 3.1470290215e+00 
76500 6.4675305597e+00 -1.2247683749e-04 1.8169411465e+00 -3.1470343801e+00 1.8169411465e+00 3.1470343801e+00 
76600 6.4675305612e+00 -1.3210816685e-04 1.8169445169e+00 -3.1470402178e+00 1.8169445169e+00 3.1470402178e+00 
76700 6.4675305619e+00 -1.4130445086e-04 1.8169481524e+00 -3.1470465146e+00 1.8169481524e+00 3.1470465146e+00 
76800 6.4675305621e+00 -1.5005355481e-04 1.8169520409e+00 -3.1470532497e+00 1.8169520409e+00 3.1470532497e+00 
76900 6.4675305615e+00 -1.5834445252e-04 1.8169561701e+00 -3.1470604018e+00 1.8169561701e+00 3.1470604018e+00 
77000 6.4675305603e+00 -1.6616723150e-04 1.8169605276e+00 -3.1470679491e+00 1.8169605276e+00 3.1470679491e+00 
77100 6.4675305586e+00 -1.7351309583e-04 1.8169651002e+00 -3.1470758692e+00 1.8169651002e+00 3.1470758692e+00 
77200 6.4675305562e+00 -1.8037436667e-04 1.8169698750e+00 -3.1470841394e+00 1.8169698750e+00 3.1470841394e+00 
77300 6.4675305534e+00 -1.8674448051e-04 1.8169748386e+00 -3.1470927366e+00 1.8169748386e+00 3.1470927366e+00 
77400 6.4675305501e+00 -1.9261798519e-04 1.8169799775e+00 -3.1471016374e+00 1.8169799775e+00 3.1471016374e+00 
77500 6.4675305463e+00 -1.9799053370e-04 1.8169852780e+00 -3.1471108182e+00 1.8169852780e+00 3.1471108182e+00 
77600 6.4675305422e+00 -2.0285887590e-04 1.8169907264e+00 -3.1471202549e+00 1.8169907264e+00 3.1471202549e+00 
77700 6.4675305377e+00 -2.0722084803e-04 1.8169963086e+00 -3.1471299237e+00 1.8169963086e+00 3.1471299237e+00 
77800 6.4675305330e+00 -2.1107536028e-04 1.8170020109e+00 -3.1471398004e+00 1.8170020109e+00 3.1471398004e+00 
77900 6.4675305280e+00 -2.1442238230e-04 1.8170078193e+00 -3.1471498607e+00 1.8170078193e+00 3.1471498607e+00 
78000 6.4675305228e+00 -2.1726292680e-04 1.8170137197e+00 -3.1471600806e+00 1.8170137197e+00 3.1471600806e+00 
78100 6.4675305175e+00 -2.1959903134e-04 1.8170196983e+00 -3.1471704358e+00 1.8170196983e+00 3.1471704358e+00 
78200 6.4675305121e+00 -2.2143373818e-04 1.8170257411e+00 -3.1471809023e+00 1.8170257411e+00 3.1471809023e+00 
78300 6.4675305067e+00 -2.2277107257e-04 1.8170318344e+00 -3.1471914562e+00 1.8170318344e+00 3.1471914562e+00 
78400 6.4675305013e+00 -2.2361601919e-04 1.8170379645e+00 -3.1472020738e+00 1.8170379645e+00 3.1472020738e+00 
78500 6.4675304960e+00 -2.2397449720e-04 1.8170441178e+00 -3.1472127317e+00 1.8170441178e+00 3.1472127317e+00 
78600 6.4675304908e+00 -2.2385333359e-04 1.8170502810e+00 -3.1472234066e+00 1.8170502810e+00 3.1472234066e+00 
78700 6.4675304857e+00 -2.2326023521e-04 1.8170564408e+00 -3.1472340757e+00 1.8170564408e+00 3.1472340757e+00 
78800 6.4675304808e+00 -2.2220375940e-04 1.8170625842e+00 -3.1472447165e+00 1.8170625842e+00 3.1472447165e+00 
78900 6.4675304762e+00 -2.2069328329e-04 1.8170686986e+00 -3.1472553069e+00 1.8170686986e+00 3.1472553069e+00 
79000 6.4675304718e+00 -2.1873897202e-04 1.8170747714e+00 -3.1472658252e+00 1.8170747714e+00 3.1472658252e+00 
79100 6.4675304677e+00 -2.1635174574e-04 1.8170807904e+00 -3.1472762504e+00 1.8170807904e+00 3.1472762504e+00 
79200 6.4675304639e+00 -2.1354324559e-04 1.8170867437e+00 -3.1472865618e+00 1.8170867437e+00 3.1472865618e+00 
79300 6.4675304605e+00 -2.1032579876e-04 1.8170926197e+00 -3.1472967393e+00 1.8170926197e+00 3.1472967393e+00 
79400 6.4675304574e+00 -2.0671238271e-04 1.8170984071e+00 -3.1473067634e+00 1.8170984071e+00 3.1473067634e+00 
79500 6.4675304548e+00 -2.0271658853e-04 1.8171040951e+00 -3.1473166153e+00 1.8171040951e+00 3.1473166153e+00 
79600 6.4675304525e+00 -1.9835258368e-04 1.8171096731e+00 -3.1473262767e+00 1.8171096731e+00 3.1473262767e+00 
79700 6.4675304506e+00 -1.9363507409e-04 1.8171151310e+00 -3.1473357301e+00 1.8171151310e+00 3.1473357301e+00 
79800 6.4675304491e+00 -1.8857926575e-04 1.8171204591e+00 -3.1473449586e+00 1.8171204591e+00 3.1473449586e+00 
79900 6.4675304481e+00 -1.8320082588e-04 1.8171256481e+00 -3.1473539462e+00 1.8171256481e+00 3.1473539462e+00 
80000 6.4675304474e+00 -1.7751584370e-04 1.8171306890e+00 -3.1473626774e+00 1.8171306890e+00 3.1473626774e+00 
80100 6.4675304472e+00 -1.7154079101e-04 1.8171355735e+00 -3.1473711376e+00 1.8171355735e+00 3.1473711376e+00 
80200 6.4675304473e+00 -1.6529248253e-04 1.8171402936e+00 -3.1473793130e+00 1.8171402936e+00 3.1473793130e+00 
80300 6.4675304479e+00 -1.5878803615e-04 1.8171448418e+00 -3.1473871906e+00 1.8171448418e+00 3.1473871906e+00 
80400 6.4675304488e+00 -1.5204483321e-04 1.8171492109e+00 -3.1473947583e+00 1.8171492109e+00 3.1473947583e+00 
80500 6.4675304500e+00 -1.4508047879e-04 1.8171533945e+00 -3.1474020045e+00 1.8171533945e+00 3.1474020045e+00 
80600 6.4675304517e+00 -1.3791276218e-04 1.8171573865e+00 -3.1474089188e+00 1.8171573865e+00 3.1474089188e+00 
80700 6.4675304536e+00 -1.3055961758e-04 1.8171611813e+00 -3.1474154915e+00 1.8171611813e+00 3.1474154915e+00 
80800 6.4675304558e+00 -1.2303908506e-04 1.8171647737e+00 -3.1474217137e+00 1.8171647737e+00 3.1474217137e+00 
80900 6.4675304583e+00 -1.1536927194e-04 1.8171681591e+00 -3.1474275775e+00 1.8171681591e+00 3.1474275775e+00 
81000 6.4675304611e+00 -1.0756831462e-04 1.8171713336e+00 -3.1474330758e+00 1.8171713336e+00 3.1474330758e+00 
81100 6.4675304640e+00 -9.9654340873e-05 1.8171742933e+00 -3.1474382023e+00 1.8171742933e+00 3.1474382023e+00 
81200 6.4675304672e+00 -9.1645432796e-05 1.8171770353e+00 -3.1474429516e+00 1.8171770353e+00 3.1474429516e+00 
81300 6.4675304705e+00 -8.3559590406e-05 1.8171795570e+00 -3.1474473192e+00 1.8171795570e+00 3.1474473192e+00 
81400 6.4675304739e+00 -7.5414695907e-05 1.8171818561e+00 -3.1474513014e+00 1.8171818561e+00 3.1474513014e+00 
81500 6.4675304775e+00 -6.7228478795e-05 1.8171839312e+00 -3.1474548955e+00 1.8171839312e+00 3.1474548955e+00 
81600 6.4675304812e+00 -6.0875323445e-05 1.8171839312e+00 -3.1474548955e+00 1.8171839312e+00 3.1474548955e+00 
81700 6.4675304849e+00 -5.4297832891e-05 1.8171839312e+00 -3.1474548955e+00 1.8171839312e+00 3.1474548955e+00 
81800 6.4675304886e+00 -4.7513951525e-05 1.8171839312e+00 -3.1474548955e+00 1.8171839312e+00 3.1474548955e+00 
81900 6.4675304922e+00 -4.0541465787e-05 1.8171839312e+00 -3.1474548955e+00 1.8171839312e+00 3.1474548955e+00 
82000 6.4675304957e+00 -3.3397977500e-05 1.8171839312e+00 -3.1474548955e+00 1.8171839312e+00 3.1474548955e+00 
82100 6.4675304991e+00 -2.6100878300e-05 1.8171839312e+00 -3.1474548955e+00 1.8171839312e+00 3.1474548955e+00 
82200 6.4675305025e+00 -1.8667325141e-05 1.8171839312e+00 -3.1474548955e+00 1.8171839312e+00 3.1474548955e+00 
82300 6.4675305056e+00 -1.1114216915e-05 1.8171839312e+00 -3.1474548955e+00 1.8171839312e+00 3.1474548955e+00 
82400 6.4675305087e+00 -3.4581721646e-06 1.8171839312e+00 -3.1474548955e+00 1.8171839312e+00 3.1474548955e+00 
82500 6.4675305116e+00 4.2844920699e-06 1.8171839312e+00 -3.1474548955e+00 1.8171839312e+00 3.1474548955e+00 
82600 6.4675305143e+00 1.2097780285e-05 1.8171839312e+00 -3.1474548955e+00 1.8171839312e+00 3.1474548955e+00 
82700 6.4675305169e+00 1.9966037398e-05 1.8171839312e+00 -3.1474548955e+00 1.8171839312e+00 3.1474548955e+00 
82800 6.4675305192e+00 2.7873966522e-05 1.8171839312e+00 -3.1474548955e+00 1.8171839312e+00 3.1474548955e+00 
82900 6.4675305214e+00 3.5806645595e-05 1.8171839312e+00 -3.1474548955e+00 1.8171839312e+00 3.1474548955e+00 
83000 6.4675305234e+00 4.3749542869e-05 1.8171839312e+00 -3.1474548955e+00 1.8171839312e+00 3.1474548955e+00 
83100 6.4675305253e+00 5.1688531281e-05 1.8171839312e+00 -3.1474548955e+00 1.8171839312e+00 3.1474548955e+00 
83200 6.4675305269e+00 5.9609901704e-05 1.8171839312e+00 -3.1474548955e+00 1.8171839312e+00 3.1474548955e+00 
83300 6.4675305283e+00 6.7500375070e-05 1.8171839312e+00 -3.1474548955e+00 1.8171839312e+00 3.1474548955e+00 
83400 6.4675305296e+00 7.5347113398e-05 1.8171839312e+00 -3.1474548955e+00 1.8171839312e+00 3.1474548955e+00 
83500 6.4675305305e+00 8.1056376211e-05 1.8171818580e+00 -3.1474513047e+00 1.8171818580e+00 3.1474513047e+00 
83600 6.4675305311e+00 8.6529902385e-05 1.8171796277e+00 -3.1474474417e+00 1.8171796277e+00 3.1474474417e+00 
83700 6.4675305315e+00 9.1759592583e-05 1.8171772468e+00 -3.1474433179e+00 1.8171772468e+00 3.1474433179e+00 
83800 6.4675305317e+00 9.6737989542e-05 1.8171747221e+00 -3.1474389448e+00 1.8171747221e+00 3.1474389448e+00 
83900 6.4675305317e+00 1.0145828284e-04 1.8171720603e+00 -3.1474343345e+00 1.8171720603e+00 3.1474343345e+00 
84000 6.4675305314e+00 1.0591431233e-04 1.8171692686e+00 -3.1474294992e+00 1.8171692686e+00 3.1474294992e+00 
84100 6.4675305309e+00 1.1010057014e-04 1.8171663544e+00 -3.1474244516e+00 1.8171663544e+00 3.1474244516e+00 
84200 6.4675305303e+00 1.1401220146e-04 1.8171633249e+00 -3.1474192044e+00 1.8171633249e+00 3.1474192044e+00 
84300 6.4675305294e+00 1.1764500383e-04 1.8171601878e+00 -3.1474137708e+00 1.8171601878e+00 3.1474137708e+00 
84400 6.4675305284e+00 1.2099542528e-04 1.8171569508e+00 -3.1474081641e+00 1.8171569508e+00 3.1474081641e+00 
84500 6.4675305273e+00 1.2406056107e-04 1.8171536215e+00 -3.1474023976e+00 1.8171536215e+00 3.1474023976e+00 
84600 6.4675305260e+00 1.2683814927e-04 1.8171502079e+00 -3.1473964851e+00 1.8171502079e+00 3.1473964851e+00 
84700 6.4675305246e+00 1.2932656498e-04 1.8171467179e+00 -3.1473904402e+00 1.8171467179e+00 3.1473904402e+00 
84800 6.4675305230e+00 1.3152481350e-04 1.8171431594e+00 -3.1473842767e+00 1.8171431594e+00 3.1473842767e+00 
84900 6.4675305214e+00 1.3343252219e-04 1.8171395404e+00 -3.1473780084e+00 1.8171395404e+00 3.1473780084e+00 
85000 6.4675305198e+00 1.3504993132e-04 1.8171358689e+00 -3.1473716492e+00 1.8171358689e+00 3.1473716492e+00 
85100 6.4675305181e+00 1.3637788368e-04 1.8171321529e+00 -3.1473652129e+00 1.8171321529e+00 3.1473652129e+00 
85200 6.4675305163e+00 1.3741781327e-04 1.8171284003e+00 -3.1473587133e+00 1.8171284003e+00 3.1473587133e+00 
85300 6.4675305145e+00 1.3817173285e-04 1.8171246192e+00 -3.1473521641e+00 1.8171246192e+00 3.1473521641e+00 
85400 6.4675305128e+00 1.3864222054e-04 1.8171208172e+00 -3.1473455789e+00 1.8171208172e+00 3.1473455789e+00 
85500 6.4675305110e+00 1.3883240556e-04 1.8171170023e+00 -3.1473389713e+00 1.8171170023e+00 3.1473389713e+00 
85600 6.4675305093e+00 1.3874595291e-04 1.8171131822e+00 -3.1473323547e+00 1.8171131822e+00 3.1473323547e+00 
85700 6.4675305076e+00 1.3838704733e-04 1.8171093645e+00 -3.1473257421e+00 1.8171093645e+00 3.1473257421e+00 
85800 6.4675305060e+00 1.3776037641e-04 1.8171055566e+00 -3.1473191467e+00 1.8171055566e+00 3.1473191467e+00 
85900 6.4675305044e+00 1.3687111290e-04 1.8171017659e+00 -3.1473125811e+00 1.8171017659e+00 3.1473125811e+00 
86000 6.4675305030e+00 1.3572489637e-04 1.8170979997e+00 -3.1473060578e+00 1.8170979997e+00 3.1473060578e+00 
86100 6.4675305016e+00 1.3432781418e-04 1.8170942651e+00 -3.1472995892e+00 1.8170942651e+00 3.1472995892e+00 
86200 6.4675305003e+00 1.3268638177e-04 1.8170905688e+00 -3.1472931872e+00 1.8170905688e+00 3.1472931872e+00 
86300 6.4675304991e+00 1.3080752250e-04 1.8170869178e+00 -3.1472868633e+00 1.8170869178e+00 3.1472868633e+00 
86400 6.4675304981e+00 1.2869854688e-04 1.8170833184e+00 -3.1472806290e+00 1.8170833184e+00 3.1472806290e+00 
86500 6.4675304972e+00 1.2636713138e-04 1.8170797770e+00 -3.1472744953e+00 1.8170797770e+00 3.1472744953e+00 
86600 6.4675304964e+00 1.2382129675e-04 1.8170762998e+00 -3.1472684726e+00 1.8170762998e+00 3.1472684726e+00 
86700 6.4675304957e+00 1.2106938614e-04 1.8170728927e+00 -3.1472625712e+00 1.8170728927e+00 3.1472625712e+00 
86800 6.4675304952e+00 1.1812004270e-04 1.8170695612e+00 -3.1472568010e+00 1.8170695612e+00 3.1472568010e+00 
86900 6.4675304948e+00 1.1498218703e-04 1.8170663110e+00 -3.1472511713e+00 1.8170663110e+00 3.1472511713e+00 
87000 6.4675304946e+00 1.1166499446e-04 1.8170631470e+00 -3.1472456912e+00 1.8170631470e+00 3.1472456912e+00 
87100 6.4675304945e+00 1.0817787202e-04 1.8170600743e+00 -3.1472403691e+00 1.8170600743e+00 3.1472403691e+00 
87200 6.4675304945e+00 1.0453043541e-04 1.8170570976e+00 -3.1472352133e+00 1.8170570976e+00 3.1472352133e+00 
87300 6.4675304947e+00 1.0073248589e-04 1.8170542212e+00 -3.1472302313e+00 1.8170542212e+00 3.1472302313e+00 
87400 6.4675304949e+00 9.6793987110e-05 1.8170514494e+00 -3.1472254303e+00 1.8170514494e+00 3.1472254303e+00 
87500 6.4675304953e+00 9.2725042016e-05 1.8170487859e+00 -3.1472208170e+00 1.8170487859e+00 3.1472208170e+00 
87600 6.4675304959e+00 8.8535869778e-05 1.8170462344e+00 -3.1472163976e+00 1.8170462344e+00 3.1472163976e+00 
87700 6.4675304965e+00 8.4236782919e-05 1.8170437981e+00 -3.1472121779e+00 1.8170437981e+00 3.1472121779e+00 
87800 6.4675304972e+00 7.9838164531e-05 1.8170414801e+00 -3.1472081631e+00 1.8170414801e+00 3.1472081631e+00 
87900 6.4675304980e+00 7.5350445753e-05 1.8170392832e+00 -3.1472043579e+00 1.8170392832e+00 3.1472043579e+00 
88000 6.4675304989e+00 7.0784083486e-05 1.8170372098e+00 -3.1472007666e+00 1.8170372098e+00 3.1472007666e+00 
88100 6.4675304999e+00 6.6149538423e-05 1.8170352620e+00 -3.1471973929e+00 1.8170352620e+00 3.1471973929e+00 
88200 6.4675305011e+00 6.3285320686e-05 1.8170352620e+00 -3.1471973929e+00 1.8170352620e+00 3.1471973929e+00 
88300 6.4675305023e+00 6.0252812315e-05 1.8170352620e+00 -3.1471973929e+00 1.8170352620e+00 3.1471973929e+00 
88400 6.4675305035e+00 5.7062530722e-05 1.8170352620e+00 -3.1471973929e+00 1.8170352620e+00 3.1471973929e+00 
88500 6.4675305047e+00 5.3724961211e-05 1.8170352620e+00 -3.1471973929e+00 1.8170352620e+00 3.1471973929e+00 
88600 6.4675305060e+00 5.0250539583e-05 1.8170352620e+00 -3.1471973929e+00 1.8170352620e+00 3.1471973929e+00 
88700 6.4675305072e+00 4.6649635310e-05 1.8170352620e+00 -3.1471973929e+00 1.8170352620e+00 3.1471973929e+00 
88800 6.4675305084e+00 4.2932535309e-05 1.8170352620e+00 -3.1471973929e+00 1.8170352620e+00 3.1471973929e+00 
88900 6.4675305095e+00 3.9109428296e-05 1.8170352620e+00 -3.1471973929e+00 1.8170352620e+00 3.1471973929e+00 
89000 6.4675305107e+00 3.5190389758e-05 1.8170352620e+00 -3.1471973929e+00 1.8170352620e+00 3.1471973929e+00 
89100 6.4675305118e+00 3.1185367570e-05 1.8170352620e+00 -3.1471973929e+00 1.8170352620e+00 3.1471973929e+00 
89200 6.4675305129e+00 2.7104168206e-05 1.8170352620e+00 -3.1471973929e+00 1.8170352620e+00 3.1471973929e+00 
89300 6.4675305139e+00 2.2956443601e-05 1.8170352620e+00 -3.1471973929e+00 1.8170352620e+00 3.1471973929e+00 
89400 6.4675305149e+00 1.8751678672e-05 1.8170352620e+00 -3.1471973929e+00 1.8170352620e+00 3.1471973929e+00 
89500 6.4675305158e+00 1.4499179458e-05 1.8170352620e+00 -3.1471973929e+00 1.8170352620e+00 3.1471973929e+00 
89600 6.4675305167e+00 1.0208061938e-05 1.8170352620e+00 -3.1471973929e+00 1.8170352620e+00 3.1471973929e+00 
89700 6.4675305175e+00 5.8872414791e-06 1.8170352620e+00 -3.1471973929e+00 1.8170352620e+00 3.1471973929e+00 
89800 6.4675305182e+00 1.5454229422e-06 1.8170352620e+00 -3.1471973929e+00 1.8170352620e+00 3.1471973929e+00 
89900 6.4675305189e+00 -2.8089085403e-06 1.8170352620e+00 -3.1471973929e+00 1.8170352620e+00 3.1471973929e+00 
90000 6.4675305196e+00 -7.1674961663e-06 1.8170352620e+00 -3.1471973929e+00 1.8170352620e+00 3.1471973929e+00 
90100 6.4675305201e+00 -1.1522319403e-05 1.8170352620e+00 -3.1471973929e+00 1.8170352620e+00 3.1471973929e+00 
90200 6.4675305206e+00 -1.5865601274e-05 1.8170352620e+00 -3.1471973929e+00 1.8170352620e+00 3.1471973929e+00 
90300 6.4675305211e+00 -2.0189815031e-05 1.8170352620e+00 -3.1471973929e+00 1.8170352620e+00 3.1471973929e+00 
90400 6.4675305215e+00 -2.4487690167e-05 1.8170352620e+00 -3.1471973929e+00 1.8170352620e+00 3.1471973929e+00 
90500 6.4675305218e+00 -2.8752217827e-05 1.8170352620e+00 -3.1471973929e+00 1.8170352620e+00 3.1471973929e+00 
90600 6.4675305221e+00 -3.2976655596e-05 1.8170352620e+00 -3.1471973929e+00 1.8170352620e+00 3.1471973929e+00 
90700 6.4675305223e+00 -3.7154531660e-05 1.8170352620e+00 -3.1471973929e+00 1.8170352620e+00 3.1471973929e+00 
90800 6.4675305225e+00 -4.1279648393e-05 1.8170352620e+00 -3.1471973929e+00 1.8170352620e+00 3.1471973929e+00 
90900 6.4675305226e+00 -4.5346085355e-05 1.8170352620e+00 -3.1471973929e+00 1.8170352620e+00 3.1471973929e+00 
91000 6.4675305226e+00 -4.9348201686e-05 1.8170352620e+00 -3.1471973929e+00 1.8170352620e+00 3.1471973929e+00 
91100 6.4675305227e+00 -5.3280637968e-05 1.8170352620e+00 -3.1471973929e+00 1.8170352620e+00 3.1471973929e+00 
91200 6.4675305226e+00 -5.7138317521e-05 1.8170352620e+00 -3.1471973929e+00 1.8170352620e+00 3.1471973929e+00 
91300 6.4675305226e+00 -6.0916447155e-05 1.8170352620e+00 -3.1471973929e+00 1.8170352620e+00 3.1471973929e+00 
91400 6.4675305225e+00 -6.4610517414e-05 1.8170352620e+00 -3.1471973929e+00 1.8170352620e+00 3.1471973929e+00 
91500 6.4675305224e+00 -6.8216302288e-05 1.8170352620e+00 -3.1471973929e+00 1.8170352620e+00 3.1471973929e+00 
91600 6.4675305222e+00 -7.1729858453e-05 1.8170352620e+00 -3.1471973929e+00 1.8170352620e+00 3.1471973929e+00 
91700 6.4675305218e+00 -7.3165491792e-05 1.8170372358e+00 -3.1472008117e+00 1.8170372358e+00 3.1472008117e+00 
91800 6.4675305215e+00 -7.4452746132e-05 1.8170392491e+00 -3.1472042988e+00 1.8170392491e+00 3.1472042988e+00 
91900 6.4675305210e+00 -7.5590149205e-05 1.8170412979e+00 -3.1472078473e+00 1.8170412979e+00 3.1472078473e+00 
92000 6.4675305206e+00 -7.6576607592e-05 1.8170433779e+00 -3.1472114501e+00 1.8170433779e+00 3.1472114501e+00 
92100 6.4675305201e+00 -7.7411401014e-05 1.8170454851e+00 -3.1472150998e+00 1.8170454851e+00 3.1472150998e+00 
92200 6.4675305196e+00 -7.8094175988e-05 1.8170476152e+00 -3.1472187893e+00 1.8170476152e+00 3.1472187893e+00 
92300 6.4675305190e+00 -7.8624938969e-05 1.8170497641e+00 -3.1472225114e+00 1.8170497641e+00 3.1472225114e+00 
92400 6.4675305185e+00 -7.9004048916e-05 1.8170519277e+00 -3.1472262587e+00 1.8170519277e+00 3.1472262587e+00 
92500 6.4675305179e+00 -7.9232209362e-05 1.8170541016e+00 -3.1472300241e+00 1.8170541016e+00 3.1472300241e+00 
92600 6.4675305174e+00 -7.9310459934e-05 1.8170562819e+00 -3.1472338004e+00 1.8170562819e+00 3.1472338004e+00 
92700 6.4675305169e+00 -7.9240167452e-05 1.8170584643e+00 -3.1472375804e+00 1.8170584643e+00 3.1472375804e+00 
92800 6.4675305163e+00 -7.9023016514e-05 1.8170606447e+00 -3.1472413571e+00 1.8170606447e+00 3.1472413571e+00 
92900 6.4675305158e+00 -7.8660999676e-05 1.8170628192e+00 -3.1472451234e+00 1.8170628192e+00 3.1472451234e+00 
93000 6.4675305153e+00 -7.8156407213e-05 1.8170649837e+00 -3.1472488724e+00 1.8170649837e+00 3.1472488724e+00 
93100 6.4675305149e+00 -7.7511816466e-05 1.8170671343e+00 -3.1472525974e+00 1.8170671343e+00 3.1472525974e+00 
93200 6.4675305144e+00 -7.6730080877e-05 1.8170692672e+00 -3.1472562917e+00 1.8170692672e+00 3.1472562917e+00 
93300 6.4675305140e+00 -7.5814318624e-05 1.8170713786e+00 -3.1472599487e+00 1.8170713786e+00 3.1472599487e+00 
93400 6.4675305136e+00 -7.4767900992e-05 1.8170734647e+00 -3.1472635620e+00 1.8170734647e+00 3.1472635620e+00 
93500 6.4675305132e+00 -7.3594440438e-05 1.8170755221e+00 -3.1472671255e+00 1.8170755221e+00 3.1472671255e+00 
93600 6.4675305129e+00 -7.2297778366e-05 1.8170775472e+00 -3.1472706330e+00 1.8170775472e+00 3.1472706330e+00 
93700 6.4675305127e+00 -7.0881972745e-05 1.8170795366e+00 -3.1472740788e+00 1.8170795366e+00 3.1472740788e+00 
93800 6.4675305124e+00 -6.9351285426e-05 1.8170814870e+00 -3.1472774570e+00 1.8170814870e+00 3.1472774570e+00 
93900 6.4675305124e+00 -6.9626215490e-05 1.8170814870e+00 -3.1472774570e+00 1.8170814870e+00 3.1472774570e+00 
94000 6.4675305124e+00 -6.9759144305e-05 1.8170814870e+00 -3.1472774570e+00 1.8170814870e+00 3.1472774570e+00 
94100 6.4675305124e+00 -6.9753932819e-05 1.8170814870e+00 -3.1472774570e+00 1.8170814870e+00 3.1472774570e+00 
94200 6.4675305124e+00 -6.9614573775e-05 1.8170814870e+00 -3.1472774570e+00 1.8170814870e+00 3.1472774570e+00 
94300 6.4675305125e+00 -6.9345180935e-05 1.8170814870e+00 -3.1472774570e+00 1.8170814870e+00 3.1472774570e+00 
94400 6.4675305126e+00 -6.8949978403e-05 1.8170814870e+00 -3.1472774570e+00 1.8170814870e+00 3.1472774570e+00 
94500 6.4675305128e+00 -6.8433290019e-05 1.8170814870e+00 -3.1472774570e+00 1.8170814870e+00 3.1472774570e+00 
94600 6.4675305129e+00 -6.7799528913e-05 1.8170814870e+00 -3.1472774570e+00 1.8170814870e+00 3.1472774570e+00 
94700 6.4675305131e+00 -6.7053187177e-05 1.8170814870e+00 -3.1472774570e+00 1.8170814870e+00 3.1472774570e+00 
94800 6.4675305133e+00 -6.6198825667e-05 1.8170814870e+00 -3.1472774570e+00 1.8170814870e+00 3.1472774570e+00 
94900 6.4675305135e+00 -6.5241064006e-05 1.8170814870e+00 -3.1472774570e+00 1.8170814870e+00 3.1472774570e+00 
95000 6.4675305138e+00 -6.4184570738e-05 1.8170814870e+00 -3.1472774570e+00 1.8170814870e+00 3.1472774570e+00 
95100 6.4675305140e+00 -6.3034053684e-05 1.8170814870e+00 -3.1472774570e+00 1.8170814870e+00 3.1472774570e+00 
95200 6.4675305143e+00 -6.1794250494e-05 1.8170814870e+00 -3.1472774570e+00 1.8170814870e+00 3.1472774570e+00 
95300 6.4675305145e+00 -6.0469919412e-05 1.8170814870e+00 -3.1472774570e+00 1.8170814870e+00 3.1472774570e+00 
95400 6.4675305148e+00 -5.9065830280e-05 1.8170814870e+00 -3.1472774570e+00 1.8170814870e+00 3.1472774570e+00 
95500 6.4675305151e+00 -5.7586755763e-05 1.8170814870e+00 -3.1472774570e+00 1.8170814870e+00 3.1472774570e+00 
95600 6.4675305154e+00 -5.6037462813e-05 1.8170814870e+00 -3.1472774570e+00 1.8170814870e+00 3.1472774570e+00 
95700 6.4675305157e+00 -5.4422704390e-05 1.8170814870e+00 -3.1472774570e+00 1.8170814870e+00 3.1472774570e+00 
95800 6.4675305159e+00 -5.2747211462e-05 1.8170814870e+00 -3.1472774570e+00 1.8170814870e+00 3.1472774570e+00 
95900 6.4675305162e+00 -5.1015685240e-05 1.8170814870e+00 -3.1472774570e+00 1.8170814870e+00 3.1472774570e+00 
96000 6.4675305165e+00 -4.9232789705e-05 1.8170814870e+00 -3.1472774570e+00 1.8170814870e+00 3.1472774570e+00 
96100 6.4675305168e+00 -4.7403144407e-05 1.8170814870e+00 -3.1472774570e+00 1.8170814870e+00 3.1472774570e+00 
96200 6.4675305170e+00 -4.5531317559e-05 1.8170814870e+00 -3.1472774570e+00 1.8170814870e+00 3.1472774570e+00 
96300 6.4675305173e+00 -4.3621819403e-05 1.8170814870e+00 -3.1472774570e+00 1.8170814870e+00 3.1472774570e+00 
96400 6.4675305175e+00 -4.1679095882e-05 1.8170814870e+00 -3.1472774570e+00 1.8170814870e+00 3.1472774570e+00 
96500 6.4675305178e+00 -3.9707522599e-05 1.8170814870e+00 -3.1472774570e+00 1.8170814870e+00 3.1472774570e+00 
96600 6.4675305180e+00 -3.7711399083e-05 1.8170814870e+00 -3.1472774570e+00 1.8170814870e+00 3.1472774570e+00 
96700 6.4675305182e+00 -3.5694943332e-05 1.8170814870e+00 -3.1472774570e+00 1.8170814870e+00 3.1472774570e+00 
96800 6.4675305184e+00 -3.3662286694e-05 1.8170814870e+00 -3.1472774570e+00 1.8170814870e+00 3.1472774570e+00 
96900 6.4675305186e+00 -3.1617469009e-05 1.8170814870e+00 -3.1472774570e+00 1.8170814870e+00 3.1472774570e+00 
97000 6.4675305188e+00 -2.9564434090e-05 1.8170814870e+00 -3.1472774570e+00 1.8170814870e+00 3.1472774570e+00 
97100 6.4675305189e+00 -2.7507025470e-05 1.8170814870e+00 -3.1472774570e+00 1.8170814870e+00 3.1472774570e+00 
97200 6.4675305191e+00 -2.5448982482e-05 1.8170814870e+00 -3.1472774570e+00 1.8170814870e+00 3.1472774570e+00 
97300 6.4675305192e+00 -2.3393936615e-05 1.8170814870e+00 -3.1472774570e+00 1.8170814870e+00 3.1472774570e+00 
97400 6.4675305194e+00 -2.1345408164e-05 1.8170814870e+00 -3.1472774570e+00 1.8170814870e+00 3.1472774570e+00 
97500 6.4675305195e+00 -1.9306803210e-05 1.8170814870e+00 -3.1472774570e+00 1.8170814870e+00 3.1472774570e+00 
97600 6.4675305196e+00 -1.7281410836e-05 1.8170814870e+00 -3.1472774570e+00 1.8170814870e+00 3.1472774570e+00 
97700 6.4675305196e+00 -1.5272400683e-05 1.8170814870e+00 -3.1472774570e+00 1.8170814870e+00 3.1472774570e+00 
97800 6.4675305197e+00 -1.3282820758e-05 1.8170814870e+00 -3.1472774570e+00 1.8170814870e+00 3.1472774570e+00 
97900 6.4675305198e+00 -1.1315595526e-05 1.8170814870e+00 -3.1472774570e+00 1.8170814870e+00 3.1472774570e+00 
98000 6.4675305198e+00 -9.3735242996e-06 1.8170814870e+00 -3.1472774570e+00 1.8170814870e+00 3.1472774570e+00 
98100 6.4675305199e+00 -7.4592798650e-06 1.8170814870e+00 -3.1472774570e+00 1.8170814870e+00 3.1472774570e+00 
98200 6.4675305199e+00 -5.5754074045e-06 1.8170814870e+00 -3.1472774570e+00 1.8170814870e+00 3.1472774570e+00 
98300 6.4675305199e+00 -3.7243236475e-06 1.8170814870e+00 -3.1472774570e+00 1.8170814870e+00 3.1472774570e+00 
98400 6.4675305199e+00 -3.0777052629e-06 1.8170814870e+00 -3.1472774570e+00 1.8170814870e+00 3.1472774570e+00 
98400 6.4675305199e+00 -3.0777052629e-06 1.8170814870e+00 -3.1472774570e+00 1.8170814870e+00 3.1472774570e+00 
