# step Hamiltonian StressXX CellTensor1 CellTensor2 CellTensor3 CellTensor4 
0 6.5239857174e+00 2.0614826267e-01 2.8378601290e+00 -4.9153179282e+00 2.8378601290e+00 4.9153179282e+00 
100 6.5598099540e+00 2.4699144536e-01 2.8378601290e+00 -4.9153179282e+00 2.8378601290e+00 4.9153179282e+00 
200 6.5934902148e+00 2.8464511329e-01 2.8335095230e+00 -4.9077824576e+00 2.8335095230e+00 4.9077824576e+00 
300 6.6257888474e+00 3.1949282938e-01 2.8284881729e+00 -4.8990852241e+00 2.8284881729e+00 4.8990852241e+00 
400 6.6568619179e+00 3.5188839085e-01 2.8228422895e+00 -4.8893062671e+00 2.8228422895e+00 4.8893062671e+00 
500 6.6867848906e+00 3.8210968606e-01 2.8166117145e+00 -4.8785145947e+00 2.8166117145e+00 4.8785145947e+00 
600 6.7155521303e+00 4.1033860133e-01 2.8098312992e+00 -4.8667705709e+00 2.8098312992e+00 4.8667705709e+00 
700 6.7430718339e+00 4.3663050233e-01 2.8025326330e+00 -4.8541289101e+00 2.8025326330e+00 4.8541289101e+00 
800 6.7691564152e+00 4.6087222813e-01 2.7947463247e+00 -4.8406426286e+00 2.7947463247e+00 4.8406426286e+00 
900 6.7935111783e+00 4.8273382314e-01 2.7865050590e+00 -4.8263683377e+00 2.7865050590e+00 4.8263683377e+00 
1000 6.8157302093e+00 5.0163510469e-01 2.7778475663e+00 -4.8113731205e+00 2.7778475663e+00 4.8113731205e+00 
1100 6.8353179291e+00 5.1677541013e-01 2.7688232687e+00 -4.7957425785e+00 2.7688232687e+00 4.7957425785e+00 
1200 6.8517618993e+00 5.2729776747e-01 2.7594964881e+00 -4.7795881208e+00 2.7594964881e+00 4.7795881208e+00 
1300 6.8646700510e+00 5.3262497976e-01 2.7499477818e+00 -4.7630492762e+00 2.7499477818e+00 4.7630492762e+00 
1400 6.8739353941e+00 5.3285776584e-01 2.7402692115e+00 -4.7462855008e+00 2.7402692115e+00 4.7462855008e+00 
1500 6.8798285614e+00 5.2894627272e-01 2.7305522549e+00 -4.7294552382e+00 2.7305522549e+00 4.7294552382e+00 
1600 6.8829305921e+00 5.2241138299e-01 2.7208723001e+00 -4.7126890646e+00 2.7208723001e+00 4.7126890646e+00 
1700 6.8839384354e+00 5.1477382844e-01 2.7112778937e+00 -4.6960710653e+00 2.7112778937e+00 4.6960710653e+00 
1800 6.8834754717e+00 5.0710534200e-01 2.7017902574e+00 -4.6796379972e+00 2.7017902574e+00 4.6796379972e+00 
1900 6.8820018859e+00 4.9992577936e-01 2.6924110921e+00 -4.6633928064e+00 2.6924110921e+00 4.6633928064e+00 
2000 6.8798186298e+00 4.9334756351e-01 2.6831324667e+00 -4.6473217558e+00 2.6831324667e+00 4.6473217558e+00 
2100 6.8771116076e+00 4.8727332071e-01 2.6739442349e+00 -4.6314072715e+00 2.6739442349e+00 4.6314072715e+00 
2200 6.8739961589e+00 4.8153904589e-01 2.6648379186e+00 -4.6156346689e+00 2.6648379186e+00 4.6156346689e+00 
2300 6.8705480343e+00 4.7598788501e-01 2.6558079883e+00 -4.5999943708e+00 2.6558079883e+00 4.5999943708e+00 
2400 6.8668214998e+00 4.7049677102e-01 2.6468517817e+00 -4.5844817661e+00 2.6468517817e+00 4.5844817661e+00 
2500 6.8628589527e+00 4.6497938355e-01 2.6379689162e+00 -4.5690961916e+00 2.6379689162e+00 4.5690961916e+00 
2600 6.8586957821e+00 4.5938012319e-01 2.6291606318e+00 -4.5538397955e+00 2.6291606318e+00 4.5538397955e+00 
2700 6.8543627865e+00 4.5366622920e-01 2.6204292355e+00 -4.5387165735e+00 2.6204292355e+00 4.5387165735e+00 
2800 6.8498873990e+00 4.4782080186e-01 2.6117776829e+00 -4.5237316448e+00 2.6117776829e+00 4.5237316448e+00 
2900 6.8452943425e+00 4.4183744281e-01 2.6032092851e+00 -4.5088907446e+00 2.6032092851e+00 4.5088907446e+00 
3000 6.8406060159e+00 4.3571642581e-01 2.5947275123e+00 -4.4941998831e+00 2.5947275123e+00 4.4941998831e+00 
3100 6.8358427520e+00 4.2946207854e-01 2.5863358667e+00 -4.4796651265e+00 2.5863358667e+00 4.4796651265e+00 
3200 6.8310230131e+00 4.2308104748e-01 2.5780378035e+00 -4.4652924595e+00 2.5780378035e+00 4.4652924595e+00 
3300 6.8261635534e+00 4.1658117765e-01 2.5698366845e+00 -4.4510877047e+00 2.5698366845e+00 4.4510877047e+00 
3400 6.8212795620e+00 4.0997080892e-01 2.5617357514e+00 -4.4370564769e+00 2.5617357514e+00 4.4370564769e+00 
3500 6.8163847933e+00 4.0325834857e-01 2.5537381132e+00 -4.4232041613e+00 2.5537381132e+00 4.4232041613e+00 
3600 6.8114916870e+00 3.9645202421e-01 2.5458467420e+00 -4.4095359054e+00 2.5458467420e+00 4.4095359054e+00 
3700 6.8066114792e+00 3.8955975243e-01 2.5380644723e+00 -4.3960566189e+00 2.5380644723e+00 4.3960566189e+00 
3800 6.8017543039e+00 3.8258908010e-01 2.5303940044e+00 -4.3827709789e+00 2.5303940044e+00 4.3827709789e+00 
3900 6.7969292880e+00 3.7554717025e-01 2.5228379084e+00 -4.3696834366e+00 2.5228379084e+00 4.3696834366e+00 
4000 6.7921446368e+00 3.6844081390e-01 2.5153986281e+00 -4.3567982252e+00 2.5153986281e+00 4.3567982252e+00 
4100 6.7874077134e+00 3.6127645609e-01 2.5080784861e+00 -4.3441193673e+00 2.5080784861e+00 4.3441193673e+00 
4200 6.7827251095e+00 3.5406022858e-01 2.5008796873e+00 -4.3316506820e+00 2.5008796873e+00 4.3316506820e+00 
4300 6.7781027109e+00 3.4679798442e-01 2.4938043224e+00 -4.3193957905e+00 2.4938043224e+00 4.3193957905e+00 
4400 6.7735457557e+00 3.3949533161e-01 2.4868543709e+00 -4.3073581215e+00 2.4868543709e+00 4.3073581215e+00 
4500 6.7690588872e+00 3.3215766436e-01 2.4800317037e+00 -4.2955409151e+00 2.4800317037e+00 4.2955409151e+00 
4600 6.7646462014e+00 3.2479019086e-01 2.4733380841e+00 -4.2839472259e+00 2.4733380841e+00 4.2839472259e+00 
4700 6.7603112899e+00 3.1739795753e-01 2.4667751699e+00 -4.2725799252e+00 2.4667751699e+00 4.2725799252e+00 
4800 6.7560572781e+00 3.0998586946e-01 2.4603445143e+00 -4.2614417029e+00 2.4603445143e+00 4.2614417029e+00 
4900 6.7518868600e+00 3.0255870740e-01 2.4540475660e+00 -4.2505350685e+00 2.4540475660e+00 4.2505350685e+00 
5000 6.7478023292e+00 2.9512114146e-01 2.4478856700e+00 -4.2398623515e+00 2.4478856700e+00 4.2398623515e+00 
5100 6.7438056070e+00 2.8767774184e-01 2.4418600676e+00 -4.2294257020e+00 2.4418600676e+00 4.2294257020e+00 
5200 6.7398982679e+00 2.8023298705e-01 2.4359718964e+00 -4.2192270904e+00 2.4359718964e+00 4.2192270904e+00 
5300 6.7360815628e+00 2.7279126975e-01 2.4302221905e+00 -4.2092683075e+00 2.4302221905e+00 4.2092683075e+00 
5400 6.7323564404e+00 2.6535690078e-01 2.4246118798e+00 -4.1995509645e+00 2.4246118798e+00 4.1995509645e+00 
5500 6.7287235659e+00 2.5793411147e-01 2.4191417907e+00 -4.1900764923e+00 2.4191417907e+00 4.1900764923e+00 
5600 6.7251833398e+00 2.5052705460e-01 2.4138126453e+00 -4.1808461417e+00 2.4138126453e+00 4.1808461417e+00 
5700 6.7217359140e+00 2.4313980439e-01 2.4086250618e+00 -4.1718609835e+00 2.4086250618e+00 4.1718609835e+00 
5800 6.7183812075e+00 2.3577635539e-01 2.4035795545e+00 -4.1631219084e+00 2.4035795545e+00 4.1631219084e+00 
5900 6.7151189214e+00 2.2844062095e-01 2.3986765338e+00 -4.1546296275e+00 2.3986765338e+00 4.1546296275e+00 
6000 6.7119485525e+00 2.2113643096e-01 2.3939163070e+00 -4.1463846728e+00 2.3939163070e+00 4.1463846728e+00 
6100 6.7088694067e+00 2.1386752942e-01 2.3892990782e+00 -4.1383873979e+00 2.3892990782e+00 4.1383873979e+00 
6200 6.7058806116e+00 2.0663757167e-01 2.3848249494e+00 -4.1306379795e+00 2.3848249494e+00 4.1306379795e+00 
6300 6.7029811289e+00 1.9945012159e-01 2.3804939210e+00 -4.1231364182e+00 2.3804939210e+00 4.1231364182e+00 
6400 6.7001697662e+00 1.9230864872e-01 2.3763058926e+00 -4.1158825404e+00 2.3763058926e+00 4.1158825404e+00 
6500 6.6974451884e+00 1.8521652545e-01 2.3722606647e+00 -4.1088760001e+00 2.3722606647e+00 4.1088760001e+00 
6600 6.6948059290e+00 1.7817702439e-01 2.3683579393e+00 -4.1021162813e+00 2.3683579393e+00 4.1021162813e+00 
6700 6.6922504009e+00 1.7119331581e-01 2.3645973214e+00 -4.0956027001e+00 2.3645973214e+00 4.0956027001e+00 
6800 6.6897769071e+00 1.6426846531e-01 2.3609783211e+00 -4.0893344077e+00 2.3609783211e+00 4.0893344077e+00 
6900 6.6873836507e+00 1.5740543181e-01 2.3575003547e+00 -4.0833103932e+00 2.3575003547e+00 4.0833103932e+00 
7000 6.6850687458e+00 1.5060706562e-01 2.3541627469e+00 -4.0775294869e+00 2.3541627469e+00 4.0775294869e+00 
7100 6.6828302267e+00 1.4387610691e-01 2.3509647328e+00 -4.0719903641e+00 2.3509647328e+00 4.0719903641e+00 
7200 6.6806660575e+00 1.3721518435e-01 2.3479054599e+00 -4.0666915479e+00 2.3479054599e+00 4.0666915479e+00 
7300 6.6785741420e+00 1.3062681407e-01 2.3449839903e+00 -4.0616314142e+00 2.3449839903e+00 4.0616314142e+00 
7400 6.6765523324e+00 1.2411339882e-01 2.3421993034e+00 -4.0568081949e+00 2.3421993034e+00 4.0568081949e+00 
7500 6.6745984381e+00 1.1767722742e-01 2.3395502980e+00 -4.0522199830e+00 2.3395502980e+00 4.0522199830e+00 
7600 6.6727102343e+00 1.1132047437e-01 2.3370357951e+00 -4.0478647362e+00 2.3370357951e+00 4.0478647362e+00 
7700 6.6708854703e+00 1.0504519982e-01 2.3346545404e+00 -4.0437402821e+00 2.3346545404e+00 4.0437402821e+00 
7800 6.6691218773e+00 9.8853349523e-02 2.3324052073e+00 -4.0398443229e+00 2.3324052073e+00 4.0398443229e+00 
7900 6.6674171757e+00 9.2746755220e-02 2.3302863995e+00 -4.0361744402e+00 2.3302863995e+00 4.0361744402e+00 
8000 6.6657690830e+00 8.6727135003e-02 2.3282966539e+00 -4.0327280997e+00 2.3282966539e+00 4.0327280997e+00 
8100 6.6641753199e+00 8.0796093935e-02 2.3264344436e+00 -4.0295026567e+00 2.3264344436e+00 4.0295026567e+00 
8200 6.6626336172e+00 7.4955124783e-02 2.3246981807e+00 -4.0264953612e+00 2.3246981807e+00 4.0264953612e+00 
8300 6.6611417217e+00 6.9205608877e-02 2.3230862197e+00 -4.0237033629e+00 2.3230862197e+00 4.0237033629e+00 
8400 6.6596974023e+00 6.3548817083e-02 2.3215968602e+00 -4.0211237166e+00 2.3215968602e+00 4.0211237166e+00 
8500 6.6582984548e+00 5.7985910883e-02 2.3202283503e+00 -4.0187533878e+00 2.3202283503e+00 4.0187533878e+00 
8600 6.6569427073e+00 5.2517943537e-02 2.3189788891e+00 -4.0165892576e+00 2.3189788891e+00 4.0165892576e+00 
8700 6.6556280247e+00 4.7145861336e-02 2.3178466307e+00 -4.0146281285e+00 2.3178466307e+00 4.0146281285e+00 
8800 6.6543523127e+00 4.1870504927e-02 2.3168296865e+00 -4.0128667296e+00 2.3168296865e+00 4.0128667296e+00 
8900 6.6531135215e+00 3.6692610701e-02 2.3159261289e+00 -4.0113017219e+00 2.3159261289e+00 4.0113017219e+00 
9000 6.6519096497e+00 3.1612812254e-02 2.3151339940e+00 -4.0099297040e+00 2.3151339940e+00 4.0099297040e+00 
9100 6.6507387467e+00 2.6631641905e-02 2.3144512850e+00 -4.0087472172e+00 2.3144512850e+00 4.0087472172e+00 
9200 6.6495989158e+00 2.1749532270e-02 2.3138759750e+00 -4.0077507511e+00 2.3138759750e+00 4.0077507511e+00 
9300 6.6484883162e+00 1.6966817900e-02 2.3134060104e+00 -4.0069367486e+00 2.3134060104e+00 4.0069367486e+00 
9400 6.6474051652e+00 1.2283736972e-02 2.3130393136e+00 -4.0063016111e+00 2.3130393136e+00 4.0063016111e+00 
9500 6.6463477397e+00 7.7004330464e-03 2.3127737863e+00 -4.0058417044e+00 2.3127737863e+00 4.0058417044e+00 
9600 6.6453143770e+00 3.2169568734e-03 2.3126073122e+00 -4.0055533627e+00 2.3126073122e+00 4.0055533627e+00 
9700 6.6443034767e+00 -1.1667317249e-03 2.3125377600e+00 -4.0054328947e+00 2.3125377600e+00 4.0054328947e+00 
9800 6.6433135005e+00 -5.4507619149e-03 2.3125629862e+00 -4.0054765878e+00 2.3125629862e+00 4.0054765878e+00 
9900 6.6423429727e+00 -9.6353498419e-03 2.3126808383e+00 -4.0056807137e+00 2.3126808383e+00 4.0056807137e+00 
10000 6.6413904808e+00 -1.3720796550e-02 2.3128891570e+00 -4.0060415323e+00 2.3128891570e+00 4.0060415323e+00 
10100 6.6404546749e+00 -1.7707485831e-02 2.3131857793e+00 -4.0065552972e+00 2.3131857793e+00 4.0065552972e+00 
10200 6.6395342671e+00 -2.1595881995e-02 2.3135685409e+00 -4.0072182597e+00 2.3135685409e+00 4.0072182597e+00 
10300 6.6386280315e+00 -2.5386527570e-02 2.3140352790e+00 -4.0080266737e+00 2.3140352790e+00 4.0080266737e+00 
10400 6.6377348028e+00 -2.9080040921e-02 2.3145838344e+00 -4.0089767995e+00 2.3145838344e+00 4.0089767995e+00 
10500 6.6368534758e+00 -3.2677113792e-02 2.3152120543e+00 -4.0100649084e+00 2.3152120543e+00 4.0100649084e+00 
10600 6.6359830038e+00 -3.6178508772e-02 2.3159177947e+00 -4.0112872866e+00 2.3159177947e+00 4.0112872866e+00 
10700 6.6351223975e+00 -3.9585056687e-02 2.3166989222e+00 -4.0126402391e+00 2.3166989222e+00 4.0126402391e+00 
10800 6.6342707235e+00 -4.2897653912e-02 2.3175533166e+00 -4.0141200935e+00 2.3175533166e+00 4.0141200935e+00 
10900 6.6334271029e+00 -4.6117259620e-02 2.3184788726e+00 -4.0157232036e+00 2.3184788726e+00 4.0157232036e+00 
11000 6.6325907094e+00 -4.9244892959e-02 2.3194735022e+00 -4.0174459526e+00 2.3194735022e+00 4.0174459526e+00 
11100 6.6317607677e+00 -5.2281630168e-02 2.3205351364e+00 -4.0192847570e+00 2.3205351364e+00 4.0192847570e+00 
11200 6.6309365516e+00 -5.5228601633e-02 2.3216617269e+00 -4.0212360690e+00 2.3216617269e+00 4.0212360690e+00 
11300 6.6301173824e+00 -5.8086988897e-02 2.3228512481e+00 -4.0232963801e+00 2.3228512481e+00 4.0232963801e+00 
11400 6.6293026267e+00 -6.0858021620e-02 2.3241016983e+00 -4.0254622234e+00 2.3241016983e+00 4.0254622234e+00 
11500 6.6284916945e+00 -6.3542974506e-02 2.3254111017e+00 -4.0277301766e+00 2.3254111017e+00 4.0277301766e+00 
11600 6.6276840376e+00 -6.6143164196e-02 2.3267775094e+00 -4.0300968642e+00 2.3267775094e+00 4.0300968642e+00 
11700 6.6268791473e+00 -6.8659946146e-02 2.3281990010e+00 -4.0325589599e+00 2.3281990010e+00 4.0325589599e+00 
11800 6.6260765527e+00 -7.1094711490e-02 2.3296736857e+00 -4.0351131887e+00 2.3296736857e+00 4.0351131887e+00 
11900 6.6252758185e+00 -7.3448883899e-02 2.3311997034e+00 -4.0377563289e+00 2.3311997034e+00 4.0377563289e+00 
12000 6.6244765437e+00 -7.5723916446e-02 2.3327752259e+00 -4.0404852139e+00 2.3327752259e+00 4.0404852139e+00 
12100 6.6236783589e+00 -7.7921288487e-02 2.3343984576e+00 -4.0432967336e+00 2.3343984576e+00 4.0432967336e+00 
12200 6.6228809253e+00 -8.0042502570e-02 2.3360676363e+00 -4.0461878360e+00 2.3360676363e+00 4.0461878360e+00 
12300 6.6220839327e+00 -8.2089081371e-02 2.3377810345e+00 -4.0491555287e+00 2.3377810345e+00 4.0491555287e+00 
12400 6.6212870974e+00 -8.4062564678e-02 2.3395369591e+00 -4.0521968794e+00 2.3395369591e+00 4.0521968794e+00 
12500 6.6204901611e+00 -8.5964506421e-02 2.3413337531e+00 -4.0553090178e+00 2.3413337531e+00 4.0553090178e+00 
12600 6.6196928890e+00 -8.7796471769e-02 2.3431697948e+00 -4.0584891354e+00 2.3431697948e+00 4.0584891354e+00 
12700 6.6188950684e+00 -8.9560034285e-02 2.3450434995e+00 -4.0617344870e+00 2.3450434995e+00 4.0617344870e+00 
12800 6.6180965073e+00 -9.1256773167e-02 2.3469533186e+00 -4.0650423908e+00 2.3469533186e+00 4.0650423908e+00 
12900 6.6172970327e+00 -9.2888270557e-02 2.3488977408e+00 -4.0684102288e+00 2.3488977408e+00 4.0684102288e+00 
13000 6.6164964897e+00 -9.4456108951e-02 2.3508752916e+00 -4.0718354473e+00 2.3508752916e+00 4.0718354473e+00 
13100 6.6156947402e+00 -9.5961868693e-02 2.3528845336e+00 -4.0753155566e+00 2.3528845336e+00 4.0753155566e+00 
13200 6.6148916613e+00 -9.7407125574e-02 2.3549240668e+00 -4.0788481316e+00 2.3549240668e+00 4.0788481316e+00 
13300 6.6140871447e+00 -9.8793448529e-02 2.3569925277e+00 -4.0824308111e+00 2.3569925277e+00 4.0824308111e+00 
13400 6.6132810953e+00 -1.0012239744e-01 2.3590885903e+00 -4.0860612979e+00 2.3590885903e+00 4.0860612979e+00 
13500 6.6124734306e+00 -1.0139552107e-01 2.3612109649e+00 -4.0897373586e+00 2.3612109649e+00 4.0897373586e+00 
13600 6.6116640795e+00 -1.0261435507e-01 2.3633583985e+00 -4.0934568227e+00 2.3633583985e+00 4.0934568227e+00 
13700 6.6108529815e+00 -1.0378042011e-01 2.3655296741e+00 -4.0972175824e+00 2.3655296741e+00 4.0972175824e+00 
13800 6.6100400860e+00 -1.0489522018e-01 2.3677236108e+00 -4.1010175921e+00 2.3677236108e+00 4.1010175921e+00 
13900 6.6092253515e+00 -1.0596024094e-01 2.3699390628e+00 -4.1048548676e+00 2.3699390628e+00 4.1048548676e+00 
14000 6.6084087452e+00 -1.0697694818e-01 2.3721749195e+00 -4.1087274850e+00 2.3721749195e+00 4.1087274850e+00 
14100 6.6075902420e+00 -1.0794678648e-01 2.3744301048e+00 -4.1126335805e+00 2.3744301048e+00 4.1126335805e+00 
14200 6.6067698241e+00 -1.0887117788e-01 2.3767035765e+00 -4.1165713490e+00 2.3767035765e+00 4.1165713490e+00 
14300 6.6059474807e+00 -1.0975152075e-01 2.3789943259e+00 -4.1205390434e+00 2.3789943259e+00 4.1205390434e+00 
14400 6.6051232073e+00 -1.1058918870e-01 2.3813013772e+00 -4.1245349735e+00 2.3813013772e+00 4.1245349735e+00 
14500 6.6042970053e+00 -1.1138552964e-01 2.3836237868e+00 -4.1285575049e+00 2.3836237868e+00 4.1285575049e+00 
14600 6.6034688818e+00 -1.1214186496e-01 2.3859606428e+00 -4.1326050582e+00 2.3859606428e+00 4.1326050582e+00 
14700 6.6026388490e+00 -1.1285948875e-01 2.3883110641e+00 -4.1366761073e+00 2.3883110641e+00 4.1366761073e+00 
14800 6.6018069241e+00 -1.1353966718e-01 2.3906742002e+00 -4.1407691790e+00 2.3906742002e+00 4.1407691790e+00 
14900 6.6009731291e+00 -1.1418363796e-01 2.3930492299e+00 -4.1448828511e+00 2.3930492299e+00 4.1448828511e+00 
15000 6.6001374901e+00 -1.1479260985e-01 2.3954353611e+00 -4.1490157517e+00 2.3954353611e+00 4.1490157517e+00 
15100 6.5993000377e+00 -1.1536776236e-01 2.3978318300e+00 -4.1531665576e+00 2.3978318300e+00 4.1531665576e+00 
15200 6.5984608065e+00 -1.1591024539e-01 2.4002379002e+00 -4.1573339935e+00 2.4002379002e+00 4.1573339935e+00 
15300 6.5976198347e+00 -1.1642117909e-01 2.4026528621e+00 -4.1615168301e+00 2.4026528621e+00 4.1615168301e+00 
15400 6.5967771645e+00 -1.1690165371e-01 2.4050760321e+00 -4.1657138836e+00 2.4050760321e+00 4.1657138836e+00 
15500 6.5959328415e+00 -1.1735272953e-01 2.4075067519e+00 -4.1699240139e+00 2.4075067519e+00 4.1699240139e+00 
15600 6.5950869148e+00 -1.1777543690e-01 2.4099443881e+00 -4.1741461236e+00 2.4099443881e+00 4.1741461236e+00 
15700 6.5942394367e+00 -1.1817077631e-01 2.4123883308e+00 -4.1783791565e+00 2.4123883308e+00 4.1783791565e+00 
15800 6.5933904630e+00 -1.1853971852e-01 2.4148379934e+00 -4.1826220967e+00 2.4148379934e+00 4.1826220967e+00 
15900 6.5925400525e+00 -1.1888320476e-01 2.4172928119e+00 -4.1868739670e+00 2.4172928119e+00 4.1868739670e+00 
16000 6.5916882671e+00 -1.1920214695e-01 2.4197522438e+00 -4.1911338280e+00 2.4197522438e+00 4.1911338280e+00 
16100 6.5908351717e+00 -1.1949742802e-01 2.4222157677e+00 -4.1954007765e+00 2.4222157677e+00 4.1954007765e+00 
16200 6.5899808344e+00 -1.1976990221e-01 2.4246828825e+00 -4.1996739448e+00 2.4246828825e+00 4.1996739448e+00 
16300 6.5891253258e+00 -1.2002039547e-01 2.4271531069e+00 -4.2039524989e+00 2.4271531069e+00 4.2039524989e+00 
16400 6.5882687196e+00 -1.2024970585e-01 2.4296259783e+00 -4.2082356378e+00 2.4296259783e+00 4.2082356378e+00 
16500 6.5874110923e+00 -1.2045860393e-01 2.4321010527e+00 -4.2125225923e+00 2.4321010527e+00 4.2125225923e+00 
16600 6.5865525231e+00 -1.2064783333e-01 2.4345779034e+00 -4.2168126236e+00 2.4345779034e+00 4.2168126236e+00 
16700 6.5856930939e+00 -1.2081811115e-01 2.4370561210e+00 -4.2211050225e+00 2.4370561210e+00 4.2211050225e+00 
16800 6.5848328892e+00 -1.2097012853e-01 2.4395353124e+00 -4.2253991079e+00 2.4395353124e+00 4.2253991079e+00 
16900 6.5839719961e+00 -1.2110455116e-01 2.4420151002e+00 -4.2296942264e+00 2.4420151002e+00 4.2296942264e+00 
17000 6.5831105042e+00 -1.2122201986e-01 2.4444951223e+00 -4.2339897506e+00 2.4444951223e+00 4.2339897506e+00 
17100 6.5822485057e+00 -1.2132315111e-01 2.4469750309e+00 -4.2382850784e+00 2.4469750309e+00 4.2382850784e+00 
17200 6.5813860950e+00 -1.2140853768e-01 2.4494544926e+00 -4.2425796320e+00 2.4494544926e+00 4.2425796320e+00 
17300 6.5805233690e+00 -1.2147874918e-01 2.4519331871e+00 -4.2468728569e+00 2.4519331871e+00 4.2468728569e+00 
17400 6.5796604269e+00 -1.2153433267e-01 2.4544108073e+00 -4.2511642209e+00 2.4544108073e+00 4.2511642209e+00 
17500 6.5787973701e+00 -1.2157581329e-01 2.4568870583e+00 -4.2554532135e+00 2.4568870583e+00 4.2554532135e+00 
17600 6.5779343021e+00 -1.2160369481e-01 2.4593616572e+00 -4.2597393444e+00 2.4593616572e+00 4.2597393444e+00 
17700 6.5770713284e+00 -1.2161846032e-01 2.4618343323e+00 -4.2640221434e+00 2.4618343323e+00 4.2640221434e+00 
17800 6.5762085566e+00 -1.2162057275e-01 2.4643048230e+00 -4.2683011588e+00 2.4643048230e+00 4.2683011588e+00 
17900 6.5753460962e+00 -1.2161047555e-01 2.4667728791e+00 -4.2725759573e+00 2.4667728791e+00 4.2725759573e+00 
18000 6.5744840584e+00 -1.2158859328e-01 2.4692382603e+00 -4.2768461228e+00 2.4692382603e+00 4.2768461228e+00 
18100 6.5736225564e+00 -1.2155533218e-01 2.4717007359e+00 -4.2811112557e+00 2.4717007359e+00 4.2811112557e+00 
18200 6.5727617047e+00 -1.2151108080e-01 2.4741600843e+00 -4.2853709721e+00 2.4741600843e+00 4.2853709721e+00 
18300 6.5719016195e+00 -1.2145621060e-01 2.4766160928e+00 -4.2896249035e+00 2.4766160928e+00 4.2896249035e+00 
18400 6.5710424184e+00 -1.2139107649e-01 2.4790685567e+00 -4.2938726956e+00 2.4790685567e+00 4.2938726956e+00 
18500 6.5701842204e+00 -1.2131601748e-01 2.4815172796e+00 -4.2981140081e+00 2.4815172796e+00 4.2981140081e+00 
18600 6.5693271456e+00 -1.2123135716e-01 2.4839620724e+00 -4.3023485135e+00 2.4839620724e+00 4.3023485135e+00 
18700 6.5684713153e+00 -1.2113740435e-01 2.4864027536e+00 -4.3065758973e+00 2.4864027536e+00 4.3065758973e+00 
18800 6.5676168519e+00 -1.2103445357e-01 2.4888391482e+00 -4.3107958565e+00 2.4888391482e+00 4.3107958565e+00 
18900 6.5667638785e+00 -1.2092278564e-01 2.4912710880e+00 -4.3150080999e+00 2.4912710880e+00 4.3150080999e+00 
19000 6.5659125189e+00 -1.2080266819e-01 2.4936984112e+00 -4.3192123469e+00 2.4936984112e+00 4.3192123469e+00 
19100 6.5650628979e+00 -1.2067435616e-01 2.4961209617e+00 -4.3234083274e+00 2.4961209617e+00 4.3234083274e+00 
19200 6.5642151406e+00 -1.2053809234e-01 2.4985385892e+00 -4.3275957811e+00 2.4985385892e+00 4.3275957811e+00 
19300 6.5633693724e+00 -1.2039410785e-01 2.5009511488e+00 -4.3317744570e+00 2.5009511488e+00 4.3317744570e+00 
19400 6.5625257193e+00 -1.2024262261e-01 2.5033585010e+00 -4.3359441132e+00 2.5033585010e+00 4.3359441132e+00 
19500 6.5616843072e+00 -1.2008384583e-01 2.5057605107e+00 -4.3401045161e+00 2.5057605107e+00 4.3401045161e+00 
19600 6.5608452622e+00 -1.1991797647e-01 2.5081570479e+00 -4.3442554403e+00 2.5081570479e+00 4.3442554403e+00 
19700 6.5600087103e+00 -1.1974520369e-01 2.5105479869e+00 -4.3483966681e+00 2.5105479869e+00 4.3483966681e+00 
19800 6.5591747772e+00 -1.1956570727e-01 2.5129332060e+00 -4.3525279889e+00 2.5129332060e+00 4.3525279889e+00 
19900 6.5583435883e+00 -1.1937965804e-01 2.5153125879e+00 -4.3566491992e+00 2.5153125879e+00 4.3566491992e+00 
20000 6.5575152687e+00 -1.1918721831e-01 2.5176860188e+00 -4.3607601021e+00 2.5176860188e+00 4.3607601021e+00 
20100 6.5566899428e+00 -1.1898854222e-01 2.5200533886e+00 -4.3648605068e+00 2.5200533886e+00 4.3648605068e+00 
20200 6.5558677343e+00 -1.1878377621e-01 2.5224145906e+00 -4.3689502287e+00 2.5224145906e+00 4.3689502287e+00 
20300 6.5550487661e+00 -1.1857305931e-01 2.5247695215e+00 -4.3730290886e+00 2.5247695215e+00 4.3730290886e+00 
20400 6.5542331602e+00 -1.1835652353e-01 2.5271180808e+00 -4.3770969128e+00 2.5271180808e+00 4.3770969128e+00 
20500 6.5534210374e+00 -1.1813429427e-01 2.5294601714e+00 -4.3811535325e+00 2.5294601714e+00 4.3811535325e+00 
20600 6.5526125177e+00 -1.1790649055e-01 2.5317956984e+00 -4.3851987841e+00 2.5317956984e+00 4.3851987841e+00 
20700 6.5518077194e+00 -1.1767322546e-01 2.5341245701e+00 -4.3892325082e+00 2.5341245701e+00 4.3892325082e+00 
20800 6.5510067596e+00 -1.1743460637e-01 2.5364466971e+00 -4.3932545500e+00 2.5364466971e+00 4.3932545500e+00 
20900 6.5502097540e+00 -1.1719073531e-01 2.5387619922e+00 -4.3972647588e+00 2.5387619922e+00 4.3972647588e+00 
21000 6.5494168165e+00 -1.1694170924e-01 2.5410703708e+00 -4.4012629878e+00 2.5410703708e+00 4.4012629878e+00 
21100 6.5486280593e+00 -1.1668762035e-01 2.5433717502e+00 -4.4052490939e+00 2.5433717502e+00 4.4052490939e+00 
21200 6.5478435929e+00 -1.1642855629e-01 2.5456660500e+00 -4.4092229377e+00 2.5456660500e+00 4.4092229377e+00 
21300 6.5470635258e+00 -1.1616460051e-01 2.5479531915e+00 -4.4131843831e+00 2.5479531915e+00 4.4131843831e+00 
21400 6.5462879646e+00 -1.1589583245e-01 2.5502330982e+00 -4.4171332971e+00 2.5502330982e+00 4.4171332971e+00 
21500 6.5455170136e+00 -1.1562232781e-01 2.5525056949e+00 -4.4210695501e+00 2.5525056949e+00 4.4210695501e+00 
21600 6.5447507751e+00 -1.1534415881e-01 2.5547709085e+00 -4.4249930152e+00 2.5547709085e+00 4.4249930152e+00 
21700 6.5439893491e+00 -1.1506139437e-01 2.5570286673e+00 -4.4289035681e+00 2.5570286673e+00 4.4289035681e+00 
21800 6.5432328330e+00 -1.1477410039e-01 2.5592789012e+00 -4.4328010876e+00 2.5592789012e+00 4.4328010876e+00 
21900 6.5424813221e+00 -1.1448233989e-01 2.5615215416e+00 -4.4366854547e+00 2.5615215416e+00 4.4366854547e+00 
22000 6.5417349090e+00 -1.1418617327e-01 2.5637565213e+00 -4.4405565531e+00 2.5637565213e+00 4.4405565531e+00 
22100 6.5409936837e+00 -1.1388565847e-01 2.5659837743e+00 -4.4444142685e+00 2.5659837743e+00 4.4444142685e+00 
22200 6.5402577336e+00 -1.1358085119e-01 2.5682032361e+00 -4.4482584891e+00 2.5682032361e+00 4.4482584891e+00 
22300 6.5395271435e+00 -1.1327180502e-01 2.5704148433e+00 -4.4520891052e+00 2.5704148433e+00 4.4520891052e+00 
22400 6.5388019951e+00 -1.1295857165e-01 2.5726185338e+00 -4.4559060090e+00 2.5726185338e+00 4.4559060090e+00 
22500 6.5380823676e+00 -1.1264120102e-01 2.5748142465e+00 -4.4597090950e+00 2.5748142465e+00 4.4597090950e+00 
22600 6.5373683372e+00 -1.1231974148e-01 2.5770019215e+00 -4.4634982593e+00 2.5770019215e+00 4.4634982593e+00 
22700 6.5366599770e+00 -1.1199423994e-01 2.5791815000e+00 -4.4672733999e+00 2.5791815000e+00 4.4672733999e+00 
22800 6.5359573575e+00 -1.1166474198e-01 2.5813529241e+00 -4.4710344169e+00 2.5813529241e+00 4.4710344169e+00 
22900 6.5352605457e+00 -1.1133129207e-01 2.5835161371e+00 -4.4747812117e+00 2.5835161371e+00 4.4747812117e+00 
23000 6.5345696061e+00 -1.1099393360e-01 2.5856710831e+00 -4.4785136876e+00 2.5856710831e+00 4.4785136876e+00 
23100 6.5338845996e+00 -1.1065270907e-01 2.5878177072e+00 -4.4822317496e+00 2.5878177072e+00 4.4822317496e+00 
23200 6.5332055844e+00 -1.1030766019e-01 2.5899559554e+00 -4.4859353041e+00 2.5899559554e+00 4.4859353041e+00 
23300 6.5325326152e+00 -1.0995882800e-01 2.5920857747e+00 -4.4896242594e+00 2.5920857747e+00 4.4896242594e+00 
23400 6.5318657439e+00 -1.0960625297e-01 2.5942071129e+00 -4.4932985250e+00 2.5942071129e+00 4.4932985250e+00 
23500 6.5312050191e+00 -1.0924997508e-01 2.5963199187e+00 -4.4969580119e+00 2.5963199187e+00 4.4969580119e+00 
23600 6.5305504861e+00 -1.0889003397e-01 2.5984241417e+00 -4.5006026330e+00 2.5984241417e+00 4.5006026330e+00 
23700 6.5299021872e+00 -1.0852646899e-01 2.6005197321e+00 -4.5042323021e+00 2.6005197321e+00 4.5042323021e+00 
23800 6.5292601614e+00 -1.0815931929e-01 2.6026066413e+00 -4.5078469349e+00 2.6026066413e+00 4.5078469349e+00 
23900 6.5286244445e+00 -1.0778862394e-01 2.6046848213e+00 -4.5114464482e+00 2.6046848213e+00 4.5114464482e+00 
24000 6.5279950693e+00 -1.0741442196e-01 2.6067542249e+00 -4.5150307604e+00 2.6067542249e+00 4.5150307604e+00 
24100 6.5273720652e+00 -1.0703675241e-01 2.6088148058e+00 -4.5185997912e+00 2.6088148058e+00 4.5185997912e+00 
24200 6.5267554585e+00 -1.0665565448e-01 2.6108665185e+00 -4.5221534619e+00 2.6108665185e+00 4.5221534619e+00 
24300 6.5261452725e+00 -1.0627116753e-01 2.6129093183e+00 -4.5256916948e+00 2.6129093183e+00 4.5256916948e+00 
24400 6.5255415272e+00 -1.0588333118e-01 2.6149431612e+00 -4.5292144141e+00 2.6149431612e+00 4.5292144141e+00 
24500 6.5249442395e+00 -1.0549218532e-01 2.6169680041e+00 -4.5327215449e+00 2.6169680041e+00 4.5327215449e+00 
24600 6.5243534234e+00 -1.0509777022e-01 2.6189838048e+00 -4.5362130141e+00 2.6189838048e+00 4.5362130141e+00 
24700 6.5237690897e+00 -1.0470012654e-01 2.6209905216e+00 -4.5396887496e+00 2.6209905216e+00 4.5396887496e+00 
24800 6.5231912461e+00 -1.0429929540e-01 2.6229881140e+00 -4.5431486812e+00 2.6229881140e+00 4.5431486812e+00 
24900 6.5226198975e+00 -1.0389531841e-01 2.6249765421e+00 -4.5465927395e+00 2.6249765421e+00 4.5465927395e+00 
25000 6.5220550459e+00 -1.0348823772e-01 2.6269557667e+00 -4.5500208571e+00 2.6269557667e+00 4.5500208571e+00 
25100 6.5214966901e+00 -1.0307809605e-01 2.6289257496e+00 -4.5534329676e+00 2.6289257496e+00 4.5534329676e+00 
25200 6.5209448263e+00 -1.0266493674e-01 2.6308864535e+00 -4.5568290064e+00 2.6308864535e+00 4.5568290064e+00 
25300 6.5203994479e+00 -1.0224880375e-01 2.6328378417e+00 -4.5602089099e+00 2.6328378417e+00 4.5602089099e+00 
25400 6.5198605453e+00 -1.0182974173e-01 2.6347798786e+00 -4.5635726164e+00 2.6347798786e+00 4.5635726164e+00 
25500 6.5193281064e+00 -1.0140779599e-01 2.6367125292e+00 -4.5669200655e+00 2.6367125292e+00 4.5669200655e+00 
25600 6.5188021165e+00 -1.0098301260e-01 2.6386357596e+00 -4.5702511983e+00 2.6386357596e+00 4.5702511983e+00 
25700 6.5182825580e+00 -1.0055543833e-01 2.6405495366e+00 -4.5735659573e+00 2.6405495366e+00 4.5735659573e+00 
25800 6.5177694110e+00 -1.0012512072e-01 2.6424538280e+00 -4.5768642867e+00 2.6424538280e+00 4.5768642867e+00 
25900 6.5172626531e+00 -9.9692108090e-02 2.6443486024e+00 -4.5801461322e+00 2.6443486024e+00 4.5801461322e+00 
26000 6.5167622595e+00 -9.9256449521e-02 2.6462338293e+00 -4.5834114411e+00 2.6462338293e+00 4.5834114411e+00 
26100 6.5162682029e+00 -9.8818194901e-02 2.6481094792e+00 -4.5866601620e+00 2.6481094792e+00 4.5866601620e+00 
26200 6.5157804538e+00 -9.8377394917e-02 2.6499755235e+00 -4.5898922455e+00 2.6499755235e+00 4.5898922455e+00 
26300 6.5152989805e+00 -9.7934101067e-02 2.6518319345e+00 -4.5931076436e+00 2.6518319345e+00 4.5931076436e+00 
26400 6.5148237491e+00 -9.7488365656e-02 2.6536786853e+00 -4.5963063100e+00 2.6536786853e+00 4.5963063100e+00 
26500 6.5143547236e+00 -9.7040241805e-02 2.6555157503e+00 -4.5994881999e+00 2.6555157503e+00 4.5994881999e+00 
26600 6.5138918662e+00 -9.6589783451e-02 2.6573431046e+00 -4.6026532704e+00 2.6573431046e+00 4.6026532704e+00 
26700 6.5134351369e+00 -9.6137045338e-02 2.6591607244e+00 -4.6058014801e+00 2.6591607244e+00 4.6058014801e+00 
26800 6.5129844938e+00 -9.5682083022e-02 2.6609685867e+00 -4.6089327895e+00 2.6609685867e+00 4.6089327895e+00 
26900 6.5125398935e+00 -9.5224952858e-02 2.6627666698e+00 -4.6120471607e+00 2.6627666698e+00 4.6120471607e+00 
27000 6.5121012907e+00 -9.4765711996e-02 2.6645549527e+00 -4.6151445576e+00 2.6645549527e+00 4.6151445576e+00 
27100 6.5116686383e+00 -9.4304418372e-02 2.6663334156e+00 -4.6182249458e+00 2.6663334156e+00 4.6182249458e+00 
27200 6.5112418880e+00 -9.3841130692e-02 2.6681020398e+00 -4.6212882928e+00 2.6681020398e+00 4.6212882928e+00 
27300 6.5108209898e+00 -9.3375908427e-02 2.6698608075e+00 -4.6243345677e+00 2.6698608075e+00 4.6243345677e+00 
27400 6.5104058922e+00 -9.2908811792e-02 2.6716097020e+00 -4.6273637418e+00 2.6716097020e+00 4.6273637418e+00 
27500 6.5099965425e+00 -9.2439901733e-02 2.6733487075e+00 -4.6303757878e+00 2.6733487075e+00 4.6303757878e+00 
27600 6.5095928867e+00 -9.1969239909e-02 2.6750778097e+00 -4.6333706806e+00 2.6750778097e+00 4.6333706806e+00 
27700 6.5091948696e+00 -9.1496888672e-02 2.6767969949e+00 -4.6363483967e+00 2.6767969949e+00 4.6363483967e+00 
27800 6.5088024349e+00 -9.1022911050e-02 2.6785062507e+00 -4.6393089147e+00 2.6785062507e+00 4.6393089147e+00 
27900 6.5084155252e+00 -9.0547370722e-02 2.6802055659e+00 -4.6422522149e+00 2.6802055659e+00 4.6422522149e+00 
28000 6.5080340824e+00 -9.0070331994e-02 2.6818949303e+00 -4.6451782799e+00 2.6818949303e+00 4.6451782799e+00 
28100 6.5076580471e+00 -8.9591859779e-02 2.6835743348e+00 -4.6480870937e+00 2.6835743348e+00 4.6480870937e+00 
28200 6.5072873594e+00 -8.9112019568e-02 2.6852437713e+00 -4.6509786426e+00 2.6852437713e+00 4.6509786426e+00 
28300 6.5069219586e+00 -8.8630877405e-02 2.6869032332e+00 -4.6538529149e+00 2.6869032332e+00 4.6538529149e+00 
28400 6.5065617833e+00 -8.8148499859e-02 2.6885527146e+00 -4.6567099005e+00 2.6885527146e+00 4.6567099005e+00 
28500 6.5062067713e+00 -8.7664953991e-02 2.6901922110e+00 -4.6595495916e+00 2.6901922110e+00 4.6595495916e+00 
28600 6.5058568604e+00 -8.7180307333e-02 2.6918217191e+00 -4.6623719824e+00 2.6918217191e+00 4.6623719824e+00 
28700 6.5055119873e+00 -8.6694627845e-02 2.6934412365e+00 -4.6651770688e+00 2.6934412365e+00 4.6651770688e+00 
28800 6.5051720889e+00 -8.6207983895e-02 2.6950507622e+00 -4.6679648491e+00 2.6950507622e+00 4.6679648491e+00 
28900 6.5048371013e+00 -8.5720444217e-02 2.6966502962e+00 -4.6707353232e+00 2.6966502962e+00 4.6707353232e+00 
29000 6.5045069607e+00 -8.5232077882e-02 2.6982398397e+00 -4.6734884933e+00 2.6982398397e+00 4.6734884933e+00 
29100 6.5041816029e+00 -8.4742954262e-02 2.6998193951e+00 -4.6762243636e+00 2.6998193951e+00 4.6762243636e+00 
29200 6.5038609636e+00 -8.4253142994e-02 2.7013889660e+00 -4.6789429401e+00 2.7013889660e+00 4.6789429401e+00 
29300 6.5035449785e+00 -8.3762713946e-02 2.7029485571e+00 -4.6816442312e+00 2.7029485571e+00 4.6816442312e+00 
29400 6.5032335832e+00 -8.3271737179e-02 2.7044981743e+00 -4.6843282469e+00 2.7044981743e+00 4.6843282469e+00 
29500 6.5029267134e+00 -8.2780282908e-02 2.7060378247e+00 -4.6869949996e+00 2.7060378247e+00 4.6869949996e+00 
29600 6.5026243050e+00 -8.2288421467e-02 2.7075675165e+00 -4.6896445035e+00 2.7075675165e+00 4.6896445035e+00 
29700 6.5023262938e+00 -8.1796223272e-02 2.7090872591e+00 -4.6922767749e+00 2.7090872591e+00 4.6922767749e+00 
29800 6.5020326160e+00 -8.1303758776e-02 2.7105970631e+00 -4.6948918322e+00 2.7105970631e+00 4.6948918322e+00 
29900 6.5017432081e+00 -8.0811098434e-02 2.7120969403e+00 -4.6974896956e+00 2.7120969403e+00 4.6974896956e+00 
30000 6.5014580067e+00 -8.0318312666e-02 2.7135869035e+00 -4.7000703876e+00 2.7135869035e+00 4.7000703876e+00 
30100 6.5011769489e+00 -7.9825471812e-02 2.7150669668e+00 -4.7026339325e+00 2.7150669668e+00 4.7026339325e+00 
30200 6.5008999723e+00 -7.9332646094e-02 2.7165371455e+00 -4.7051803566e+00 2.7165371455e+00 4.7051803566e+00 
30300 6.5006270147e+00 -7.8839905575e-02 2.7179974559e+00 -4.7077096885e+00 2.7179974559e+00 4.7077096885e+00 
30400 6.5003580145e+00 -7.8347320123e-02 2.7194479156e+00 -4.7102219583e+00 2.7194479156e+00 4.7102219583e+00 
30500 6.5000929107e+00 -7.7854959364e-02 2.7208885431e+00 -4.7127171985e+00 2.7208885431e+00 4.7127171985e+00 
30600 6.4998316427e+00 -7.7362892645e-02 2.7223193584e+00 -4.7151954432e+00 2.7223193584e+00 4.7151954432e+00 
30700 6.4995741506e+00 -7.6871188995e-02 2.7237403824e+00 -4.7176567289e+00 2.7237403824e+00 4.7176567289e+00 
30800 6.4993203751e+00 -7.6379917081e-02 2.7251516370e+00 -4.7201010936e+00 2.7251516370e+00 4.7201010936e+00 
30900 6.4990702575e+00 -7.5889145171e-02 2.7265531454e+00 -4.7225285774e+00 2.7265531454e+00 4.7225285774e+00 
31000 6.4988237398e+00 -7.5398941093e-02 2.7279449319e+00 -4.7249392223e+00 2.7279449319e+00 4.7249392223e+00 
31100 6.4985807648e+00 -7.4909372194e-02 2.7293270218e+00 -4.7273330723e+00 2.7293270218e+00 4.7273330723e+00 
31200 6.4983412760e+00 -7.4420505304e-02 2.7306994416e+00 -4.7297101730e+00 2.7306994416e+00 4.7297101730e+00 
31300 6.4981052175e+00 -7.3932406694e-02 2.7320622187e+00 -4.7320705722e+00 2.7320622187e+00 4.7320705722e+00 
31400 6.4978725344e+00 -7.3445142039e-02 2.7334153816e+00 -4.7344143191e+00 2.7334153816e+00 4.7344143191e+00 
31500 6.4976431725e+00 -7.2958776379e-02 2.7347589600e+00 -4.7367414651e+00 2.7347589600e+00 4.7367414651e+00 
31600 6.4974170783e+00 -7.2473374082e-02 2.7360929844e+00 -4.7390520632e+00 2.7360929844e+00 4.7390520632e+00 
31700 6.4971941994e+00 -7.1988998807e-02 2.7374174865e+00 -4.7413461681e+00 2.7374174865e+00 4.7413461681e+00 
31800 6.4969744840e+00 -7.1505713470e-02 2.7387324989e+00 -4.7436238364e+00 2.7387324989e+00 4.7436238364e+00 
31900 6.4967578812e+00 -7.1023580205e-02 2.7400380552e+00 -4.7458851263e+00 2.7400380552e+00 4.7458851263e+00 
32000 6.4965443410e+00 -7.0542660329e-02 2.7413341901e+00 -4.7481300977e+00 2.7413341901e+00 4.7481300977e+00 
32100 6.4963338143e+00 -7.0063014312e-02 2.7426209390e+00 -4.7503588122e+00 2.7426209390e+00 4.7503588122e+00 
32200 6.4961262527e+00 -6.9584701741e-02 2.7438983385e+00 -4.7525713330e+00 2.7438983385e+00 4.7525713330e+00 
32300 6.4959216090e+00 -6.9107781287e-02 2.7451664259e+00 -4.7547677248e+00 2.7451664259e+00 4.7547677248e+00 
32400 6.4957198366e+00 -6.8632310676e-02 2.7464252395e+00 -4.7569480540e+00 2.7464252395e+00 4.7569480540e+00 
32500 6.4955208898e+00 -6.8158346655e-02 2.7476748186e+00 -4.7591123886e+00 2.7476748186e+00 4.7591123886e+00 
32600 6.4953247240e+00 -6.7685944969e-02 2.7489152033e+00 -4.7612607977e+00 2.7489152033e+00 4.7612607977e+00 
32700 6.4951312953e+00 -6.7215160325e-02 2.7501464343e+00 -4.7633933525e+00 2.7501464343e+00 4.7633933525e+00 
32800 6.4949405606e+00 -6.6746046369e-02 2.7513685535e+00 -4.7655101251e+00 2.7513685535e+00 4.7655101251e+00 
32900 6.4947524780e+00 -6.6278655659e-02 2.7525816035e+00 -4.7676111892e+00 2.7525816035e+00 4.7676111892e+00 
33000 6.4945670060e+00 -6.5813039642e-02 2.7537856274e+00 -4.7696966199e+00 2.7537856274e+00 4.7696966199e+00 
33100 6.4943841045e+00 -6.5349248624e-02 2.7549806696e+00 -4.7717664936e+00 2.7549806696e+00 4.7717664936e+00 
33200 6.4942037337e+00 -6.4887331755e-02 2.7561667747e+00 -4.7738208880e+00 2.7561667747e+00 4.7738208880e+00 
33300 6.4940258552e+00 -6.4427337002e-02 2.7573439885e+00 -4.7758598820e+00 2.7573439885e+00 4.7758598820e+00 
33400 6.4938504309e+00 -6.3969311133e-02 2.7585123571e+00 -4.7778835558e+00 2.7585123571e+00 4.7778835558e+00 
33500 6.4936774240e+00 -6.3513299692e-02 2.7596719276e+00 -4.7798919908e+00 2.7596719276e+00 4.7798919908e+00 
33600 6.4935067982e+00 -6.3059346989e-02 2.7608227476e+00 -4.7818852695e+00 2.7608227476e+00 4.7818852695e+00 
33700 6.4933385180e+00 -6.2607496077e-02 2.7619648653e+00 -4.7838634755e+00 2.7619648653e+00 4.7838634755e+00 
33800 6.4931725489e+00 -6.2157788741e-02 2.7630983297e+00 -4.7858266934e+00 2.7630983297e+00 4.7858266934e+00 
33900 6.4930088571e+00 -6.1710265483e-02 2.7642231902e+00 -4.7877750089e+00 2.7642231902e+00 4.7877750089e+00 
34000 6.4928474094e+00 -6.1264965509e-02 2.7653394969e+00 -4.7897085088e+00 2.7653394969e+00 4.7897085088e+00 
34100 6.4926881735e+00 -6.0821926720e-02 2.7664473004e+00 -4.7916272807e+00 2.7664473004e+00 4.7916272807e+00 
34200 6.4925311178e+00 -6.0381185699e-02 2.7675466518e+00 -4.7935314132e+00 2.7675466518e+00 4.7935314132e+00 
34300 6.4923762114e+00 -5.9942777706e-02 2.7686376027e+00 -4.7954209956e+00 2.7686376027e+00 4.7954209956e+00 
34400 6.4922234241e+00 -5.9506736669e-02 2.7697202052e+00 -4.7972961182e+00 2.7697202052e+00 4.7972961182e+00 
34500 6.4920727264e+00 -5.9073095179e-02 2.7707945120e+00 -4.7991568721e+00 2.7707945120e+00 4.7991568721e+00 
34600 6.4919240893e+00 -5.8641884487e-02 2.7718605759e+00 -4.8010033490e+00 2.7718605759e+00 4.8010033490e+00 
34700 6.4917774847e+00 -5.8213134496e-02 2.7729184504e+00 -4.8028356414e+00 2.7729184504e+00 4.8028356414e+00 
34800 6.4916328850e+00 -5.7786873767e-02 2.7739681893e+00 -4.8046538424e+00 2.7739681893e+00 4.8046538424e+00 
34900 6.4914902632e+00 -5.7363129512e-02 2.7750098467e+00 -4.8064580459e+00 2.7750098467e+00 4.8064580459e+00 
35000 6.4913495929e+00 -5.6941927600e-02 2.7760434770e+00 -4.8082483462e+00 2.7760434770e+00 4.8082483462e+00 
35100 6.4912108482e+00 -5.6523292554e-02 2.7770691352e+00 -4.8100248383e+00 2.7770691352e+00 4.8100248383e+00 
35200 6.4910740040e+00 -5.6107247560e-02 2.7780868762e+00 -4.8117876174e+00 2.7780868762e+00 4.8117876174e+00 
35300 6.4909390354e+00 -5.5693814467e-02 2.7790967554e+00 -4.8135367796e+00 2.7790967554e+00 4.8135367796e+00 
35400 6.4908059183e+00 -5.5283013796e-02 2.7800988285e+00 -4.8152724210e+00 2.7800988285e+00 4.8152724210e+00 
35500 6.4906746289e+00 -5.4874864746e-02 2.7810931512e+00 -4.8169946385e+00 2.7810931512e+00 4.8169946385e+00 
35600 6.4905451441e+00 -5.4469385202e-02 2.7820797796e+00 -4.8187035290e+00 2.7820797796e+00 4.8187035290e+00 
35700 6.4904174411e+00 -5.4066591747e-02 2.7830587698e+00 -4.8203991898e+00 2.7830587698e+00 4.8203991898e+00 
35800 6.4902914976e+00 -5.3666499666e-02 2.7840301783e+00 -4.8220817186e+00 2.7840301783e+00 4.8220817186e+00 
35900 6.4901672916e+00 -5.3269122968e-02 2.7849940614e+00 -4.8237512131e+00 2.7849940614e+00 4.8237512131e+00 
36000 6.4900448019e+00 -5.2874474388e-02 2.7859504758e+00 -4.8254077715e+00 2.7859504758e+00 4.8254077715e+00 
36100 6.4899240073e+00 -5.2482565407e-02 2.7868994783e+00 -4.8270514919e+00 2.7868994783e+00 4.8270514919e+00 
36200 6.4898048871e+00 -5.2093406268e-02 2.7878411254e+00 -4.8286824727e+00 2.7878411254e+00 4.8286824727e+00 
36300 6.4896874212e+00 -5.1707005985e-02 2.7887754741e+00 -4.8303008121e+00 2.7887754741e+00 4.8303008121e+00 
36400 6.4895715895e+00 -5.1323372365e-02 2.7897025812e+00 -4.8319066087e+00 2.7897025812e+00 4.8319066087e+00 
36500 6.4894573724e+00 -5.0942512026e-02 2.7906225035e+00 -4.8334999608e+00 2.7906225035e+00 4.8334999608e+00 
36600 6.4893447507e+00 -5.0564430411e-02 2.7915352978e+00 -4.8350809670e+00 2.7915352978e+00 4.8350809670e+00 
36700 6.4892337055e+00 -5.0189131809e-02 2.7924410210e+00 -4.8366497255e+00 2.7924410210e+00 4.8366497255e+00 
36800 6.4891242181e+00 -4.9816619378e-02 2.7933397297e+00 -4.8382063347e+00 2.7933397297e+00 4.8382063347e+00 
36900 6.4890162701e+00 -4.9446895160e-02 2.7942314807e+00 -4.8397508927e+00 2.7942314807e+00 4.8397508927e+00 
37000 6.4889098435e+00 -4.9079960107e-02 2.7951163305e+00 -4.8412834976e+00 2.7951163305e+00 4.8412834976e+00 
37100 6.4888049204e+00 -4.8715814100e-02 2.7959943357e+00 -4.8428042470e+00 2.7959943357e+00 4.8428042470e+00 
37200 6.4887014832e+00 -4.8354455974e-02 2.7968655524e+00 -4.8443132387e+00 2.7968655524e+00 4.8443132387e+00 
37300 6.4885995147e+00 -4.7995883538e-02 2.7977300371e+00 -4.8458105701e+00 2.7977300371e+00 4.8458105701e+00 
37400 6.4884989977e+00 -4.7640093602e-02 2.7985878456e+00 -4.8472963381e+00 2.7985878456e+00 4.8472963381e+00 
37500 6.4883999154e+00 -4.7287081997e-02 2.7994390340e+00 -4.8487706395e+00 2.7994390340e+00 4.8487706395e+00 
37600 6.4883022510e+00 -4.6936843605e-02 2.8002836578e+00 -4.8502335709e+00 2.8002836578e+00 4.8502335709e+00 
37700 6.4882059882e+00 -4.6589372378e-02 2.8011217726e+00 -4.8516852284e+00 2.8011217726e+00 4.8516852284e+00 
37800 6.4881111106e+00 -4.6244661367e-02 2.8019534337e+00 -4.8531257076e+00 2.8019534337e+00 4.8531257076e+00 
37900 6.4880176022e+00 -4.5902702748e-02 2.8027786960e+00 -4.8545551038e+00 2.8027786960e+00 4.8545551038e+00 
38000 6.4879254469e+00 -4.5563487846e-02 2.8035976143e+00 -4.8559735120e+00 2.8035976143e+00 4.8559735120e+00 
38100 6.4878346292e+00 -4.5227007159e-02 2.8044102432e+00 -4.8573810265e+00 2.8044102432e+00 4.8573810265e+00 
38200 6.4877451334e+00 -4.4893250392e-02 2.8052166369e+00 -4.8587777413e+00 2.8052166369e+00 4.8587777413e+00 
38300 6.4876569441e+00 -4.4562206474e-02 2.8060168493e+00 -4.8601637499e+00 2.8060168493e+00 4.8601637499e+00 
38400 6.4875700459e+00 -4.4233863591e-02 2.8068109341e+00 -4.8615391451e+00 2.8068109341e+00 4.8615391451e+00 
38500 6.4874844239e+00 -4.3908209212e-02 2.8075989447e+00 -4.8629040194e+00 2.8075989447e+00 4.8629040194e+00 
38600 6.4874000629e+00 -4.3585230112e-02 2.8083809340e+00 -4.8642584646e+00 2.8083809340e+00 4.8642584646e+00 
38700 6.4873169481e+00 -4.3264912404e-02 2.8091569547e+00 -4.8656025720e+00 2.8091569547e+00 4.8656025720e+00 
38800 6.4872350649e+00 -4.2947241561e-02 2.8099270592e+00 -4.8669364321e+00 2.8099270592e+00 4.8669364321e+00 
38900 6.4871543984e+00 -4.2632202445e-02 2.8106912995e+00 -4.8682601351e+00 2.8106912995e+00 4.8682601351e+00 
39000 6.4870749344e+00 -4.2319779336e-02 2.8114497271e+00 -4.8695737703e+00 2.8114497271e+00 4.8695737703e+00 
39100 6.4869966585e+00 -4.2009955953e-02 2.8122023934e+00 -4.8708774265e+00 2.8122023934e+00 4.8708774265e+00 
39200 6.4869195562e+00 -4.1702715484e-02 2.8129493491e+00 -4.8721711918e+00 2.8129493491e+00 4.8721711918e+00 
39300 6.4868436136e+00 -4.1398040614e-02 2.8136906448e+00 -4.8734551536e+00 2.8136906448e+00 4.8734551536e+00 
39400 6.4867688166e+00 -4.1095913544e-02 2.8144263306e+00 -4.8747293988e+00 2.8144263306e+00 4.8747293988e+00 
39500 6.4866951513e+00 -4.0796316025e-02 2.8151564561e+00 -4.8759940133e+00 2.8151564561e+00 4.8759940133e+00 
39600 6.4866226038e+00 -4.0499229379e-02 2.8158810707e+00 -4.8772490825e+00 2.8158810707e+00 4.8772490825e+00 
39700 6.4865511604e+00 -4.0204634525e-02 2.8166002231e+00 -4.8784946910e+00 2.8166002231e+00 4.8784946910e+00 
39800 6.4864808076e+00 -3.9912512002e-02 2.8173139618e+00 -4.8797309227e+00 2.8173139618e+00 4.8797309227e+00 
39900 6.4864115316e+00 -3.9622841999e-02 2.8180223348e+00 -4.8809578608e+00 2.8180223348e+00 4.8809578608e+00 
40000 6.4863433193e+00 -3.9335604374e-02 2.8187253897e+00 -4.8821755876e+00 2.8187253897e+00 4.8821755876e+00 
40100 6.4862761571e+00 -3.9050778679e-02 2.8194231737e+00 -4.8833841848e+00 2.8194231737e+00 4.8833841848e+00 
40200 6.4862100320e+00 -3.8768344185e-02 2.8201157334e+00 -4.8845837334e+00 2.8201157334e+00 4.8845837334e+00 
40300 6.4861449307e+00 -3.8488279905e-02 2.8208031151e+00 -4.8857743134e+00 2.8208031151e+00 4.8857743134e+00 
40400 6.4860808402e+00 -3.8210564616e-02 2.8214853646e+00 -4.8869560043e+00 2.8214853646e+00 4.8869560043e+00 
40500 6.4860177475e+00 -3.7935176879e-02 2.8221625273e+00 -4.8881288844e+00 2.8221625273e+00 4.8881288844e+00 
40600 6.4859556399e+00 -3.7662095065e-02 2.8228346481e+00 -4.8892930318e+00 2.8228346481e+00 4.8892930318e+00 
40700 6.4858945045e+00 -3.7391297375e-02 2.8235017714e+00 -4.8904485233e+00 2.8235017714e+00 4.8904485233e+00 
40800 6.4858343287e+00 -3.7122761857e-02 2.8241639413e+00 -4.8915954353e+00 2.8241639413e+00 4.8915954353e+00 
40900 6.4857751000e+00 -3.6856466432e-02 2.8248212014e+00 -4.8927338430e+00 2.8248212014e+00 4.8927338430e+00 
41000 6.4857168057e+00 -3.6592388911e-02 2.8254735946e+00 -4.8938638213e+00 2.8254735946e+00 4.8938638213e+00 
41100 6.4856594336e+00 -3.6330507014e-02 2.8261211637e+00 -4.8949854438e+00 2.8261211637e+00 4.8949854438e+00 
41200 6.4856029713e+00 -3.6070798388e-02 2.8267639507e+00 -4.8960987837e+00 2.8267639507e+00 4.8960987837e+00 
41300 6.4855474067e+00 -3.5813240630e-02 2.8274019976e+00 -4.8972039132e+00 2.8274019976e+00 4.8972039132e+00 
41400 6.4854927277e+00 -3.5557811298e-02 2.8280353454e+00 -4.8983009038e+00 2.8280353454e+00 4.8983009038e+00 
41500 6.4854389222e+00 -3.5304487933e-02 2.8286640350e+00 -4.8993898261e+00 2.8286640350e+00 4.8993898261e+00 
41600 6.4853859784e+00 -3.5053248075e-02 2.8292881067e+00 -4.9004707501e+00 2.8292881067e+00 4.9004707501e+00 
41700 6.4853338845e+00 -3.4804069277e-02 2.8299076005e+00 -4.9015437448e+00 2.8299076005e+00 4.9015437448e+00 
41800 6.4852826286e+00 -3.4556929121e-02 2.8305225557e+00 -4.9026088785e+00 2.8305225557e+00 4.9026088785e+00 
41900 6.4852321993e+00 -3.4311805237e-02 2.8311330114e+00 -4.9036662187e+00 2.8311330114e+00 4.9036662187e+00 
42000 6.4851825850e+00 -3.4068675311e-02 2.8317390060e+00 -4.9047158322e+00 2.8317390060e+00 4.9047158322e+00 
42100 6.4851337743e+00 -3.3827517105e-02 2.8323405777e+00 -4.9057577850e+00 2.8323405777e+00 4.9057577850e+00 
42200 6.4850857558e+00 -3.3588308465e-02 2.8329377641e+00 -4.9067921422e+00 2.8329377641e+00 4.9067921422e+00 
42300 6.4850385184e+00 -3.3351027339e-02 2.8335306024e+00 -4.9078189682e+00 2.8335306024e+00 4.9078189682e+00 
42400 6.4849920510e+00 -3.3115651784e-02 2.8341191294e+00 -4.9088383268e+00 2.8341191294e+00 4.9088383268e+00 
42500 6.4849463424e+00 -3.2882159983e-02 2.8347033813e+00 -4.9098502807e+00 2.8347033813e+00 4.9098502807e+00 
42600 6.4849013819e+00 -3.2650530253e-02 2.8352833940e+00 -4.9108548922e+00 2.8352833940e+00 4.9108548922e+00 
42700 6.4848571586e+00 -3.2420741054e-02 2.8358592030e+00 -4.9118522227e+00 2.8358592030e+00 4.9118522227e+00 
42800 6.4848136618e+00 -3.2192771004e-02 2.8364308433e+00 -4.9128423328e+00 2.8364308433e+00 4.9128423328e+00 
42900 6.4847708809e+00 -3.1966598885e-02 2.8369983496e+00 -4.9138252825e+00 2.8369983496e+00 4.9138252825e+00 
43000 6.4847288054e+00 -3.1742203654e-02 2.8375617559e+00 -4.9148011309e+00 2.8375617559e+00 4.9148011309e+00 
43100 6.4846874250e+00 -3.1519564450e-02 2.8381210961e+00 -4.9157699365e+00 2.8381210961e+00 4.9157699365e+00 
43200 6.4846467292e+00 -3.1298660602e-02 2.8386764035e+00 -4.9167317571e+00 2.8386764035e+00 4.9167317571e+00 
43300 6.4846067080e+00 -3.1079471639e-02 2.8392277110e+00 -4.9176866497e+00 2.8392277110e+00 4.9176866497e+00 
43400 6.4845673513e+00 -3.0861977294e-02 2.8397750512e+00 -4.9186346708e+00 2.8397750512e+00 4.9186346708e+00 
43500 6.4845286490e+00 -3.0646157514e-02 2.8403184563e+00 -4.9195758759e+00 2.8403184563e+00 4.9195758759e+00 
43600 6.4844905914e+00 -3.0431992463e-02 2.8408579579e+00 -4.9205103201e+00 2.8408579579e+00 4.9205103201e+00 
43700 6.4844531687e+00 -3.0219462530e-02 2.8413935874e+00 -4.9214380577e+00 2.8413935874e+00 4.9214380577e+00 
43800 6.4844163712e+00 -3.0008548332e-02 2.8419253758e+00 -4.9223591423e+00 2.8419253758e+00 4.9223591423e+00 
43900 6.4843801894e+00 -2.9799230722e-02 2.8424533538e+00 -4.9232736269e+00 2.8424533538e+00 4.9232736269e+00 
44000 6.4843446139e+00 -2.9591490791e-02 2.8429775514e+00 -4.9241815638e+00 2.8429775514e+00 4.9241815638e+00 
44100 6.4843096353e+00 -2.9385309872e-02 2.8434979986e+00 -4.9250830048e+00 2.8434979986e+00 4.9250830048e+00 
44200 6.4842752443e+00 -2.9180669544e-02 2.8440147248e+00 -4.9259780009e+00 2.8440147248e+00 4.9259780009e+00 
44300 6.4842414320e+00 -2.8977551637e-02 2.8445277592e+00 -4.9268666025e+00 2.8445277592e+00 4.9268666025e+00 
44400 6.4842081893e+00 -2.8775938232e-02 2.8450371305e+00 -4.9277488595e+00 2.8450371305e+00 4.9277488595e+00 
44500 6.4841755072e+00 -2.8575811666e-02 2.8455428671e+00 -4.9286248210e+00 2.8455428671e+00 4.9286248210e+00 
44600 6.4841433770e+00 -2.8377154532e-02 2.8460449972e+00 -4.9294945358e+00 2.8460449972e+00 4.9294945358e+00 
44700 6.4841117901e+00 -2.8179949680e-02 2.8465435484e+00 -4.9303580518e+00 2.8465435484e+00 4.9303580518e+00 
44800 6.4840807377e+00 -2.7984180224e-02 2.8470385481e+00 -4.9312154165e+00 2.8470385481e+00 4.9312154165e+00 
44900 6.4840502115e+00 -2.7789829535e-02 2.8475300235e+00 -4.9320666768e+00 2.8475300235e+00 4.9320666768e+00 
45000 6.4840202031e+00 -2.7596881248e-02 2.8480180012e+00 -4.9329118789e+00 2.8480180012e+00 4.9329118789e+00 
45100 6.4839907043e+00 -2.7405319261e-02 2.8485025077e+00 -4.9337510688e+00 2.8485025077e+00 4.9337510688e+00 
45200 6.4839617068e+00 -2.7215127732e-02 2.8489835690e+00 -4.9345842915e+00 2.8489835690e+00 4.9345842915e+00 
45300 6.4839332026e+00 -2.7026291085e-02 2.8494612111e+00 -4.9354115918e+00 2.8494612111e+00 4.9354115918e+00 
45400 6.4839051838e+00 -2.6838794002e-02 2.8499354594e+00 -4.9362330139e+00 2.8499354594e+00 4.9362330139e+00 
45500 6.4838776425e+00 -2.6652621429e-02 2.8504063390e+00 -4.9370486014e+00 2.8504063390e+00 4.9370486014e+00 
45600 6.4838505711e+00 -2.6467758574e-02 2.8508738750e+00 -4.9378583975e+00 2.8508738750e+00 4.9378583975e+00 
45700 6.4838239618e+00 -2.6284190900e-02 2.8513380919e+00 -4.9386624447e+00 2.8513380919e+00 4.9386624447e+00 
45800 6.4837978071e+00 -2.6101904134e-02 2.8517990141e+00 -4.9394607854e+00 2.8517990141e+00 4.9394607854e+00 
45900 6.4837720996e+00 -2.5920884254e-02 2.8522566656e+00 -4.9402534610e+00 2.8522566656e+00 4.9402534610e+00 
46000 6.4837468321e+00 -2.5741117497e-02 2.8527110702e+00 -4.9410405129e+00 2.8527110702e+00 4.9410405129e+00 
46100 6.4837219971e+00 -2.5562590351e-02 2.8531622515e+00 -4.9418219818e+00 2.8531622515e+00 4.9418219818e+00 
46200 6.4836975877e+00 -2.5385289556e-02 2.8536102326e+00 -4.9425979079e+00 2.8536102326e+00 4.9425979079e+00 
46300 6.4836735968e+00 -2.5209202101e-02 2.8540550367e+00 -4.9433683312e+00 2.8540550367e+00 4.9433683312e+00 
46400 6.4836500175e+00 -2.5034315220e-02 2.8544966864e+00 -4.9441332909e+00 2.8544966864e+00 4.9441332909e+00 
46500 6.4836268430e+00 -2.4860616392e-02 2.8549352043e+00 -4.9448928262e+00 2.8549352043e+00 4.9448928262e+00 
46600 6.4836040664e+00 -2.4688093336e-02 2.8553706126e+00 -4.9456469754e+00 2.8553706126e+00 4.9456469754e+00 
46700 6.4835816812e+00 -2.4516734010e-02 2.8558029333e+00 -4.9463957768e+00 2.8558029333e+00 4.9463957768e+00 
46800 6.4835596809e+00 -2.4346526606e-02 2.8562321882e+00 -4.9471392681e+00 2.8562321882e+00 4.9471392681e+00 
46900 6.4835380590e+00 -2.4177459550e-02 2.8566583988e+00 -4.9478774866e+00 2.8566583988e+00 4.9478774866e+00 
47000 6.4835168091e+00 -2.4009521496e-02 2.8570815866e+00 -4.9486104693e+00 2.8570815866e+00 4.9486104693e+00 
47100 6.4834959251e+00 -2.3842701323e-02 2.8575017725e+00 -4.9493382527e+00 2.8575017725e+00 4.9493382527e+00 
47200 6.4834754007e+00 -2.3676988134e-02 2.8579189775e+00 -4.9500608730e+00 2.8579189775e+00 4.9500608730e+00 
47300 6.4834552298e+00 -2.3512371249e-02 2.8583332223e+00 -4.9507783660e+00 2.8583332223e+00 4.9507783660e+00 
47400 6.4834354066e+00 -2.3348840206e-02 2.8587445273e+00 -4.9514907671e+00 2.8587445273e+00 4.9514907671e+00 
47500 6.4834159251e+00 -2.3186384751e-02 2.8591529128e+00 -4.9521981116e+00 2.8591529128e+00 4.9521981116e+00 
47600 6.4833967795e+00 -2.3024994843e-02 2.8595583988e+00 -4.9529004340e+00 2.8595583988e+00 4.9529004340e+00 
47700 6.4833779641e+00 -2.2864660642e-02 2.8599610053e+00 -4.9535977689e+00 2.8599610053e+00 4.9535977689e+00 
47800 6.4833594733e+00 -2.2705372509e-02 2.8603607519e+00 -4.9542901503e+00 2.8603607519e+00 4.9542901503e+00 
47900 6.4833413015e+00 -2.2547121005e-02 2.8607576581e+00 -4.9549776120e+00 2.8607576581e+00 4.9549776120e+00 
48000 6.4833234433e+00 -2.2389896882e-02 2.8611517432e+00 -4.9556601874e+00 2.8611517432e+00 4.9556601874e+00 
48100 6.4833058934e+00 -2.2233691081e-02 2.8615430263e+00 -4.9563379096e+00 2.8615430263e+00 4.9563379096e+00 
48200 6.4832886465e+00 -2.2078494730e-02 2.8619315264e+00 -4.9570108115e+00 2.8619315264e+00 4.9570108115e+00 
48300 6.4832716973e+00 -2.1924299139e-02 2.8623172622e+00 -4.9576789255e+00 2.8623172622e+00 4.9576789255e+00 
48400 6.4832550407e+00 -2.1771095796e-02 2.8627002524e+00 -4.9583422840e+00 2.8627002524e+00 4.9583422840e+00 
48500 6.4832386718e+00 -2.1618876362e-02 2.8630805154e+00 -4.9590009188e+00 2.8630805154e+00 4.9590009188e+00 
48600 6.4832225856e+00 -2.1467632670e-02 2.8634580694e+00 -4.9596548615e+00 2.8634580694e+00 4.9596548615e+00 
48700 6.4832067771e+00 -2.1317356718e-02 2.8638329326e+00 -4.9603041436e+00 2.8638329326e+00 4.9603041436e+00 
48800 6.4831912417e+00 -2.1168040669e-02 2.8642051229e+00 -4.9609487962e+00 2.8642051229e+00 4.9609487962e+00 
48900 6.4831759745e+00 -2.1019676842e-02 2.8645746582e+00 -4.9615888500e+00 2.8645746582e+00 4.9615888500e+00 
49000 6.4831609710e+00 -2.0872257714e-02 2.8649415560e+00 -4.9622243357e+00 2.8649415560e+00 4.9622243357e+00 
49100 6.4831462266e+00 -2.0725775911e-02 2.8653058340e+00 -4.9628552836e+00 2.8653058340e+00 4.9628552836e+00 
49200 6.4831317367e+00 -2.0580224209e-02 2.8656675093e+00 -4.9634817238e+00 2.8656675093e+00 4.9634817238e+00 
49300 6.4831174971e+00 -2.0435595527e-02 2.8660265994e+00 -4.9641036860e+00 2.8660265994e+00 4.9641036860e+00 
49400 6.4831035033e+00 -2.0291882924e-02 2.8663831212e+00 -4.9647211999e+00 2.8663831212e+00 4.9647211999e+00 
49500 6.4830897510e+00 -2.0149079595e-02 2.8667370917e+00 -4.9653342947e+00 2.8667370917e+00 4.9653342947e+00 
49600 6.4830762361e+00 -2.0007178871e-02 2.8670885277e+00 -4.9659429997e+00 2.8670885277e+00 4.9659429997e+00 
49700 6.4830629544e+00 -1.9866174209e-02 2.8674374458e+00 -4.9665473437e+00 2.8674374458e+00 4.9665473437e+00 
49800 6.4830499020e+00 -1.9726059196e-02 2.8677838627e+00 -4.9671473553e+00 2.8677838627e+00 4.9671473553e+00 
49900 6.4830370746e+00 -1.9586827538e-02 2.8681277947e+00 -4.9677430630e+00 2.8681277947e+00 4.9677430630e+00 
50000 6.4830244686e+00 -1.9448473063e-02 2.8684692581e+00 -4.9683344951e+00 2.8684692581e+00 4.9683344951e+00 
50100 6.4830120799e+00 -1.9310989714e-02 2.8688082692e+00 -4.9689216794e+00 2.8688082692e+00 4.9689216794e+00 
50200 6.4829999048e+00 -1.9174371545e-02 2.8691448439e+00 -4.9695046440e+00 2.8691448439e+00 4.9695046440e+00 
50300 6.4829879396e+00 -1.9038612723e-02 2.8694789983e+00 -4.9700834162e+00 2.8694789983e+00 4.9700834162e+00 
50400 6.4829761805e+00 -1.8903707518e-02 2.8698107480e+00 -4.9706580237e+00 2.8698107480e+00 4.9706580237e+00 
50500 6.4829646241e+00 -1.8769650304e-02 2.8701401089e+00 -4.9712284935e+00 2.8701401089e+00 4.9712284935e+00 
50600 6.4829532667e+00 -1.8636435556e-02 2.8704670966e+00 -4.9717948527e+00 2.8704670966e+00 4.9717948527e+00 
50700 6.4829421049e+00 -1.8504057845e-02 2.8707917264e+00 -4.9723571281e+00 2.8707917264e+00 4.9723571281e+00 
50800 6.4829311352e+00 -1.8372511835e-02 2.8711140139e+00 -4.9729153464e+00 2.8711140139e+00 4.9729153464e+00 
50900 6.4829203542e+00 -1.8241792285e-02 2.8714339743e+00 -4.9734695340e+00 2.8714339743e+00 4.9734695340e+00 
51000 6.4829097588e+00 -1.8111894037e-02 2.8717516227e+00 -4.9740197172e+00 2.8717516227e+00 4.9740197172e+00 
51100 6.4828993455e+00 -1.7982812023e-02 2.8720669742e+00 -4.9745659220e+00 2.8720669742e+00 4.9745659220e+00 
51200 6.4828891113e+00 -1.7854541255e-02 2.8723800438e+00 -4.9751081745e+00 2.8723800438e+00 4.9751081745e+00 
51300 6.4828790530e+00 -1.7727076826e-02 2.8726908464e+00 -4.9756465004e+00 2.8726908464e+00 4.9756465004e+00 
51400 6.4828691674e+00 -1.7600413907e-02 2.8729993967e+00 -4.9761809253e+00 2.8729993967e+00 4.9761809253e+00 
51500 6.4828594517e+00 -1.7474547743e-02 2.8733057095e+00 -4.9767114745e+00 2.8733057095e+00 4.9767114745e+00 
51600 6.4828499027e+00 -1.7349473652e-02 2.8736097992e+00 -4.9772381734e+00 2.8736097992e+00 4.9772381734e+00 
51700 6.4828405176e+00 -1.7225187022e-02 2.8739116805e+00 -4.9777610470e+00 2.8739116805e+00 4.9777610470e+00 
51800 6.4828312935e+00 -1.7101683310e-02 2.8742113676e+00 -4.9782801203e+00 2.8742113676e+00 4.9782801203e+00 
51900 6.4828222275e+00 -1.6978958036e-02 2.8745088749e+00 -4.9787954181e+00 2.8745088749e+00 4.9787954181e+00 
52000 6.4828133170e+00 -1.6857006785e-02 2.8748042166e+00 -4.9793069650e+00 2.8748042166e+00 4.9793069650e+00 
52100 6.4828045591e+00 -1.6735825202e-02 2.8750974069e+00 -4.9798147855e+00 2.8750974069e+00 4.9798147855e+00 
52200 6.4827959512e+00 -1.6615408992e-02 2.8753884598e+00 -4.9803189039e+00 2.8753884598e+00 4.9803189039e+00 
52300 6.4827874907e+00 -1.6495753915e-02 2.8756773892e+00 -4.9808193443e+00 2.8756773892e+00 4.9808193443e+00 
52400 6.4827791749e+00 -1.6376855788e-02 2.8759642091e+00 -4.9813161309e+00 2.8759642091e+00 4.9813161309e+00 
52500 6.4827710014e+00 -1.6258710479e-02 2.8762489332e+00 -4.9818092875e+00 2.8762489332e+00 4.9818092875e+00 
52600 6.4827629676e+00 -1.6141313909e-02 2.8765315752e+00 -4.9822988379e+00 2.8765315752e+00 4.9822988379e+00 
52700 6.4827550711e+00 -1.6024662046e-02 2.8768121488e+00 -4.9827848056e+00 2.8768121488e+00 4.9827848056e+00 
52800 6.4827473094e+00 -1.5908750906e-02 2.8770906675e+00 -4.9832672141e+00 2.8770906675e+00 4.9832672141e+00 
52900 6.4827396803e+00 -1.5793576552e-02 2.8773671448e+00 -4.9837460869e+00 2.8773671448e+00 4.9837460869e+00 
53000 6.4827321814e+00 -1.5679135090e-02 2.8776415941e+00 -4.9842214470e+00 2.8776415941e+00 4.9842214470e+00 
53100 6.4827248104e+00 -1.5565422667e-02 2.8779140287e+00 -4.9846933176e+00 2.8779140287e+00 4.9846933176e+00 
53200 6.4827175651e+00 -1.5452435472e-02 2.8781844619e+00 -4.9851617215e+00 2.8781844619e+00 4.9851617215e+00 
53300 6.4827104433e+00 -1.5340169734e-02 2.8784529067e+00 -4.9856266816e+00 2.8784529067e+00 4.9856266816e+00 
53400 6.4827034427e+00 -1.5228621718e-02 2.8787193764e+00 -4.9860882206e+00 2.8787193764e+00 4.9860882206e+00 
53500 6.4826965614e+00 -1.5117787728e-02 2.8789838838e+00 -4.9865463609e+00 2.8789838838e+00 4.9865463609e+00 
53600 6.4826897971e+00 -1.5007664099e-02 2.8792464420e+00 -4.9870011251e+00 2.8792464420e+00 4.9870011251e+00 
53700 6.4826831479e+00 -1.4898247204e-02 2.8795070639e+00 -4.9874525354e+00 2.8795070639e+00 4.9874525354e+00 
53800 6.4826766117e+00 -1.4789533444e-02 2.8797657622e+00 -4.9879006139e+00 2.8797657622e+00 4.9879006139e+00 
53900 6.4826701866e+00 -1.4681519255e-02 2.8800225496e+00 -4.9883453828e+00 2.8800225496e+00 4.9883453828e+00 
54000 6.4826638707e+00 -1.4574201100e-02 2.8802774388e+00 -4.9887868640e+00 2.8802774388e+00 4.9887868640e+00 
54100 6.4826576619e+00 -1.4467575473e-02 2.8805304425e+00 -4.9892250791e+00 2.8805304425e+00 4.9892250791e+00 
54200 6.4826515585e+00 -1.4361638893e-02 2.8807815731e+00 -4.9896600501e+00 2.8807815731e+00 4.9896600501e+00 
54300 6.4826455586e+00 -1.4256387908e-02 2.8810308430e+00 -4.9900917983e+00 2.8810308430e+00 4.9900917983e+00 
54400 6.4826396603e+00 -1.4151819091e-02 2.8812782647e+00 -4.9905203453e+00 2.8812782647e+00 4.9905203453e+00 
54500 6.4826338620e+00 -1.4047929037e-02 2.8815238505e+00 -4.9909457124e+00 2.8815238505e+00 4.9909457124e+00 
54600 6.4826281619e+00 -1.3944714369e-02 2.8817676127e+00 -4.9913679207e+00 2.8817676127e+00 4.9913679207e+00 
54700 6.4826225582e+00 -1.3842171729e-02 2.8820095633e+00 -4.9917869915e+00 2.8820095633e+00 4.9917869915e+00 
54800 6.4826170494e+00 -1.3740297781e-02 2.8822497145e+00 -4.9922029457e+00 2.8822497145e+00 4.9922029457e+00 
54900 6.4826116336e+00 -1.3639089213e-02 2.8824880785e+00 -4.9926158041e+00 2.8824880785e+00 4.9926158041e+00 
55000 6.4826063094e+00 -1.3538542729e-02 2.8827246670e+00 -4.9930255876e+00 2.8827246670e+00 4.9930255876e+00 
55100 6.4826010751e+00 -1.3438655054e-02 2.8829594922e+00 -4.9934323167e+00 2.8829594922e+00 4.9934323167e+00 
55200 6.4825959291e+00 -1.3339422933e-02 2.8831925658e+00 -4.9938360120e+00 2.8831925658e+00 4.9938360120e+00 
55300 6.4825908700e+00 -1.3240843127e-02 2.8834238997e+00 -4.9942366940e+00 2.8834238997e+00 4.9942366940e+00 
55400 6.4825858962e+00 -1.3142912414e-02 2.8836535055e+00 -4.9946343830e+00 2.8836535055e+00 4.9946343830e+00 
55500 6.4825810061e+00 -1.3045627588e-02 2.8838813950e+00 -4.9950290992e+00 2.8838813950e+00 4.9950290992e+00 
55600 6.4825761985e+00 -1.2948985461e-02 2.8841075797e+00 -4.9954208626e+00 2.8841075797e+00 4.9954208626e+00 
55700 6.4825714718e+00 -1.2852982859e-02 2.8843320712e+00 -4.9958096933e+00 2.8843320712e+00 4.9958096933e+00 
55800 6.4825668247e+00 -1.2757616621e-02 2.8845548810e+00 -4.9961956112e+00 2.8845548810e+00 4.9961956112e+00 
55900 6.4825622557e+00 -1.2662883603e-02 2.8847760205e+00 -4.9965786360e+00 2.8847760205e+00 4.9965786360e+00 
56000 6.4825577634e+00 -1.2568780671e-02 2.8849955011e+00 -4.9969587874e+00 2.8849955011e+00 4.9969587874e+00 
56100 6.4825533467e+00 -1.2475304708e-02 2.8852133340e+00 -4.9973360851e+00 2.8852133340e+00 4.9973360851e+00 
56200 6.4825490041e+00 -1.2382452605e-02 2.8854295305e+00 -4.9977105484e+00 2.8854295305e+00 4.9977105484e+00 
56300 6.4825447344e+00 -1.2290221269e-02 2.8856441017e+00 -4.9980821968e+00 2.8856441017e+00 4.9980821968e+00 
56400 6.4825405364e+00 -1.2198607616e-02 2.8858570589e+00 -4.9984510494e+00 2.8858570589e+00 4.9984510494e+00 
56500 6.4825364087e+00 -1.2107608575e-02 2.8860684130e+00 -4.9988171255e+00 2.8860684130e+00 4.9988171255e+00 
56600 6.4825323501e+00 -1.2017221083e-02 2.8862781751e+00 -4.9991804441e+00 2.8862781751e+00 4.9991804441e+00 
56700 6.4825283595e+00 -1.1927442090e-02 2.8864863561e+00 -4.9995410242e+00 2.8864863561e+00 4.9995410242e+00 
56800 6.4825244357e+00 -1.1838268556e-02 2.8866929669e+00 -4.9998988846e+00 2.8866929669e+00 4.9998988846e+00 
56900 6.4825205776e+00 -1.1749697448e-02 2.8868980183e+00 -5.0002540440e+00 2.8868980183e+00 5.0002540440e+00 
57000 6.4825167839e+00 -1.1661725744e-02 2.8871015211e+00 -5.0006065212e+00 2.8871015211e+00 5.0006065212e+00 
57100 6.4825130537e+00 -1.1574350432e-02 2.8873034860e+00 -5.0009563346e+00 2.8873034860e+00 5.0009563346e+00 
57200 6.4825093857e+00 -1.1487568507e-02 2.8875039236e+00 -5.0013035027e+00 2.8875039236e+00 5.0013035027e+00 
57300 6.4825057790e+00 -1.1401376974e-02 2.8877028445e+00 -5.0016480439e+00 2.8877028445e+00 5.0016480439e+00 
57400 6.4825022324e+00 -1.1315772843e-02 2.8879002594e+00 -5.0019899764e+00 2.8879002594e+00 5.0019899764e+00 
57500 6.4824987449e+00 -1.1230753136e-02 2.8880961785e+00 -5.0023293184e+00 2.8880961785e+00 5.0023293184e+00 
57600 6.4824953156e+00 -1.1146314880e-02 2.8882906125e+00 -5.0026660879e+00 2.8882906125e+00 5.0026660879e+00 
57700 6.4824919434e+00 -1.1062455110e-02 2.8884835716e+00 -5.0030003028e+00 2.8884835716e+00 5.0030003028e+00 
57800 6.4824886273e+00 -1.0979170868e-02 2.8886750661e+00 -5.0033319811e+00 2.8886750661e+00 5.0033319811e+00 
57900 6.4824853664e+00 -1.0896459203e-02 2.8888651064e+00 -5.0036611405e+00 2.8888651064e+00 5.0036611405e+00 
58000 6.4824821597e+00 -1.0814317173e-02 2.8890537026e+00 -5.0039877986e+00 2.8890537026e+00 5.0039877986e+00 
58100 6.4824790063e+00 -1.0732741839e-02 2.8892408648e+00 -5.0043119731e+00 2.8892408648e+00 5.0043119731e+00 
58200 6.4824759052e+00 -1.0651730270e-02 2.8894266031e+00 -5.0046336814e+00 2.8894266031e+00 5.0046336814e+00 
58300 6.4824728556e+00 -1.0571279544e-02 2.8896109277e+00 -5.0049529408e+00 2.8896109277e+00 5.0049529408e+00 
58400 6.4824698567e+00 -1.0491386740e-02 2.8897938483e+00 -5.0052697687e+00 2.8897938483e+00 5.0052697687e+00 
58500 6.4824669074e+00 -1.0412048947e-02 2.8899753751e+00 -5.0055841822e+00 2.8899753751e+00 5.0055841822e+00 
58600 6.4824640070e+00 -1.0333263259e-02 2.8901555177e+00 -5.0058961985e+00 2.8901555177e+00 5.0058961985e+00 
58700 6.4824611546e+00 -1.0255026775e-02 2.8903342861e+00 -5.0062058344e+00 2.8903342861e+00 5.0062058344e+00 
58800 6.4824583495e+00 -1.0177336601e-02 2.8905116900e+00 -5.0065131070e+00 2.8905116900e+00 5.0065131070e+00 
58900 6.4824555907e+00 -1.0100189847e-02 2.8906877391e+00 -5.0068180330e+00 2.8906877391e+00 5.0068180330e+00 
59000 6.4824528776e+00 -1.0023583630e-02 2.8908624431e+00 -5.0071206291e+00 2.8908624431e+00 5.0071206291e+00 
59100 6.4824502093e+00 -9.9475150726e-03 2.8910358115e+00 -5.0074209120e+00 2.8910358115e+00 5.0074209120e+00 
59200 6.4824475850e+00 -9.8719813012e-03 2.8912078539e+00 -5.0077188981e+00 2.8912078539e+00 5.0077188981e+00 
59300 6.4824450040e+00 -9.7969794487e-03 2.8913785797e+00 -5.0080146040e+00 2.8913785797e+00 5.0080146040e+00 
59400 6.4824424657e+00 -9.7225066531e-03 2.8915479985e+00 -5.0083080459e+00 2.8915479985e+00 5.0083080459e+00 
59500 6.4824399691e+00 -9.6485600575e-03 2.8917161195e+00 -5.0085992401e+00 2.8917161195e+00 5.0085992401e+00 
59600 6.4824375137e+00 -9.5751368102e-03 2.8918829521e+00 -5.0088882027e+00 2.8918829521e+00 5.0088882027e+00 
59700 6.4824350987e+00 -9.5022340646e-03 2.8920485057e+00 -5.0091749498e+00 2.8920485057e+00 5.0091749498e+00 
59800 6.4824327234e+00 -9.4298489793e-03 2.8922127893e+00 -5.0094594974e+00 2.8922127893e+00 5.0094594974e+00 
59900 6.4824303872e+00 -9.3579787180e-03 2.8923758122e+00 -5.0097418613e+00 2.8923758122e+00 5.0097418613e+00 
60000 6.4824280894e+00 -9.2866204493e-03 2.8925375834e+00 -5.0100220573e+00 2.8925375834e+00 5.0100220573e+00 
60100 6.4824258293e+00 -9.2157713470e-03 2.8926981122e+00 -5.0103001012e+00 2.8926981122e+00 5.0103001012e+00 
60200 6.4824236063e+00 -9.1454285900e-03 2.8928574073e+00 -5.0105760085e+00 2.8928574073e+00 5.0105760085e+00 
60300 6.4824214197e+00 -9.0755893621e-03 2.8930154779e+00 -5.0108497948e+00 2.8930154779e+00 5.0108497948e+00 
60400 6.4824192691e+00 -9.0062508522e-03 2.8931723327e+00 -5.0111214754e+00 2.8931723327e+00 5.0111214754e+00 
60500 6.4824171536e+00 -8.9374102543e-03 2.8933279808e+00 -5.0113910657e+00 2.8933279808e+00 5.0113910657e+00 
60600 6.4824150728e+00 -8.8690647674e-03 2.8934824308e+00 -5.0116585809e+00 2.8934824308e+00 5.0116585809e+00 
60700 6.4824130260e+00 -8.8012115955e-03 2.8936356915e+00 -5.0119240362e+00 2.8936356915e+00 5.0119240362e+00 
60800 6.4824110127e+00 -8.7338479480e-03 2.8937877716e+00 -5.0121874467e+00 2.8937877716e+00 5.0121874467e+00 
60900 6.4824090322e+00 -8.6669710391e-03 2.8939386797e+00 -5.0124488273e+00 2.8939386797e+00 5.0124488273e+00 
61000 6.4824070841e+00 -8.6005780884e-03 2.8940884245e+00 -5.0127081929e+00 2.8940884245e+00 5.0127081929e+00 
61100 6.4824051678e+00 -8.5346663204e-03 2.8942370145e+00 -5.0129655583e+00 2.8942370145e+00 5.0129655583e+00 
61200 6.4824032828e+00 -8.4692329652e-03 2.8943844582e+00 -5.0132209383e+00 2.8943844582e+00 5.0132209383e+00 
61300 6.4824014285e+00 -8.4042752577e-03 2.8945307640e+00 -5.0134743473e+00 2.8945307640e+00 5.0134743473e+00 
61400 6.4823996043e+00 -8.3397904386e-03 2.8946759403e+00 -5.0137258001e+00 2.8946759403e+00 5.0137258001e+00 
61500 6.4823978099e+00 -8.2757757535e-03 2.8948199955e+00 -5.0139753109e+00 2.8948199955e+00 5.0139753109e+00 
61600 6.4823960446e+00 -8.2122284538e-03 2.8949629378e+00 -5.0142228942e+00 2.8949629378e+00 5.0142228942e+00 
61700 6.4823943081e+00 -8.1491457959e-03 2.8951047754e+00 -5.0144685643e+00 2.8951047754e+00 5.0144685643e+00 
61800 6.4823925997e+00 -8.0865250421e-03 2.8952455166e+00 -5.0147123352e+00 2.8952455166e+00 5.0147123352e+00 
61900 6.4823909191e+00 -8.0243634601e-03 2.8953851696e+00 -5.0149542212e+00 2.8953851696e+00 5.0149542212e+00 
62000 6.4823892657e+00 -7.9626583230e-03 2.8955237423e+00 -5.0151942361e+00 2.8955237423e+00 5.0151942361e+00 
62100 6.4823876391e+00 -7.9014069100e-03 2.8956612428e+00 -5.0154323941e+00 2.8956612428e+00 5.0154323941e+00 
62200 6.4823860389e+00 -7.8406065058e-03 2.8957976792e+00 -5.0156687087e+00 2.8957976792e+00 5.0156687087e+00 
62300 6.4823844645e+00 -7.7802544008e-03 2.8959330593e+00 -5.0159031940e+00 2.8959330593e+00 5.0159031940e+00 
62400 6.4823829156e+00 -7.7203478915e-03 2.8960673910e+00 -5.0161358634e+00 2.8960673910e+00 5.0161358634e+00 
62500 6.4823813918e+00 -7.6608842803e-03 2.8962006822e+00 -5.0163667305e+00 2.8962006822e+00 5.0163667305e+00 
62600 6.4823798926e+00 -7.6018608754e-03 2.8963329407e+00 -5.0165958089e+00 2.8963329407e+00 5.0165958089e+00 
62700 6.4823784175e+00 -7.5432749913e-03 2.8964641742e+00 -5.0168231120e+00 2.8964641742e+00 5.0168231120e+00 
62800 6.4823769663e+00 -7.4851239487e-03 2.8965943904e+00 -5.0170486531e+00 2.8965943904e+00 5.0170486531e+00 
62900 6.4823755384e+00 -7.4274050744e-03 2.8967235970e+00 -5.0172724454e+00 2.8967235970e+00 5.0172724454e+00 
63000 6.4823741336e+00 -7.3701157016e-03 2.8968518015e+00 -5.0174945021e+00 2.8968518015e+00 5.0174945021e+00 
63100 6.4823727513e+00 -7.3132531699e-03 2.8969790115e+00 -5.0177148363e+00 2.8969790115e+00 5.0177148363e+00 
63200 6.4823713913e+00 -7.2568148253e-03 2.8971052344e+00 -5.0179334609e+00 2.8971052344e+00 5.0179334609e+00 
63300 6.4823700531e+00 -7.2007980205e-03 2.8972304778e+00 -5.0181503889e+00 2.8972304778e+00 5.0181503889e+00 
63400 6.4823687364e+00 -7.1452001147e-03 2.8973547491e+00 -5.0183656330e+00 2.8973547491e+00 5.0183656330e+00 
63500 6.4823674408e+00 -7.0900184740e-03 2.8974780556e+00 -5.0185792060e+00 2.8974780556e+00 5.0185792060e+00 
63600 6.4823661660e+00 -7.0352504711e-03 2.8976004045e+00 -5.0187911207e+00 2.8976004045e+00 5.0187911207e+00 
63700 6.4823649116e+00 -6.9808934860e-03 2.8977218032e+00 -5.0190013894e+00 2.8977218032e+00 5.0190013894e+00 
63800 6.4823636773e+00 -6.9269449052e-03 2.8978422589e+00 -5.0192100248e+00 2.8978422589e+00 5.0192100248e+00 
63900 6.4823624627e+00 -6.8734021227e-03 2.8979617788e+00 -5.0194170392e+00 2.8979617788e+00 5.0194170392e+00 
64000 6.4823612675e+00 -6.8202625394e-03 2.8980803699e+00 -5.0196224450e+00 2.8980803699e+00 5.0196224450e+00 
64100 6.4823600915e+00 -6.7675235636e-03 2.8981980393e+00 -5.0198262544e+00 2.8981980393e+00 5.0198262544e+00 
64200 6.4823589342e+00 -6.7151826109e-03 2.8983147940e+00 -5.0200284796e+00 2.8983147940e+00 5.0200284796e+00 
64300 6.4823577953e+00 -6.6632371044e-03 2.8984306411e+00 -5.0202291327e+00 2.8984306411e+00 5.0202291327e+00 
64400 6.4823566746e+00 -6.6116844747e-03 2.8985455875e+00 -5.0204282256e+00 2.8985455875e+00 5.0204282256e+00 
64500 6.4823555717e+00 -6.5605221600e-03 2.8986596400e+00 -5.0206257704e+00 2.8986596400e+00 5.0206257704e+00 
64600 6.4823544863e+00 -6.5097476064e-03 2.8987728055e+00 -5.0208217787e+00 2.8987728055e+00 5.0208217787e+00 
64700 6.4823534182e+00 -6.4593582675e-03 2.8988850908e+00 -5.0210162625e+00 2.8988850908e+00 5.0210162625e+00 
64800 6.4823523671e+00 -6.4093516051e-03 2.8989965026e+00 -5.0212092334e+00 2.8989965026e+00 5.0212092334e+00 
64900 6.4823513326e+00 -6.3597250888e-03 2.8991070476e+00 -5.0214007030e+00 2.8991070476e+00 5.0214007030e+00 
65000 6.4823503146e+00 -6.3104761965e-03 2.8992167325e+00 -5.0215906828e+00 2.8992167325e+00 5.0215906828e+00 
65100 6.4823493126e+00 -6.2616024140e-03 2.8993255639e+00 -5.0217791843e+00 2.8993255639e+00 5.0217791843e+00 
65200 6.4823483265e+00 -6.2131012357e-03 2.8994335483e+00 -5.0219662189e+00 2.8994335483e+00 5.0219662189e+00 
65300 6.4823473561e+00 -6.1649701641e-03 2.8995406923e+00 -5.0221517977e+00 2.8995406923e+00 5.0221517977e+00 
65400 6.4823464009e+00 -6.1172067103e-03 2.8996470024e+00 -5.0223359322e+00 2.8996470024e+00 5.0223359322e+00 
65500 6.4823454608e+00 -6.0698083940e-03 2.8997524850e+00 -5.0225186334e+00 2.8997524850e+00 5.0225186334e+00 
65600 6.4823445355e+00 -6.0227727434e-03 2.8998571464e+00 -5.0226999123e+00 2.8998571464e+00 5.0226999123e+00 
65700 6.4823436249e+00 -5.9760972955e-03 2.8999609931e+00 -5.0228797799e+00 2.8999609931e+00 5.0228797799e+00 
65800 6.4823427285e+00 -5.9297795962e-03 2.9000640312e+00 -5.0230582473e+00 2.9000640312e+00 5.0230582473e+00 
65900 6.4823418463e+00 -5.8838172002e-03 2.9001662671e+00 -5.0232353251e+00 2.9001662671e+00 5.0232353251e+00 
66000 6.4823409779e+00 -5.8382076713e-03 2.9002677070e+00 -5.0234110241e+00 2.9002677070e+00 5.0234110241e+00 
66100 6.4823401232e+00 -5.7929485824e-03 2.9003683571e+00 -5.0235853551e+00 2.9003683571e+00 5.0235853551e+00 
66200 6.4823392818e+00 -5.7480375155e-03 2.9004682234e+00 -5.0237583286e+00 2.9004682234e+00 5.0237583286e+00 
66300 6.4823384537e+00 -5.7034720619e-03 2.9005673120e+00 -5.0239299552e+00 2.9005673120e+00 5.0239299552e+00 
66400 6.4823376385e+00 -5.6592498222e-03 2.9006656291e+00 -5.0241002454e+00 2.9006656291e+00 5.0241002454e+00 
66500 6.4823368361e+00 -5.6153684067e-03 2.9007631805e+00 -5.0242692094e+00 2.9007631805e+00 5.0242692094e+00 
66600 6.4823360462e+00 -5.5718254349e-03 2.9008599723e+00 -5.0244368576e+00 2.9008599723e+00 5.0244368576e+00 
66700 6.4823352687e+00 -5.5286185362e-03 2.9009560103e+00 -5.0246032004e+00 2.9009560103e+00 5.0246032004e+00 
66800 6.4823345033e+00 -5.4857453494e-03 2.9010513004e+00 -5.0247682477e+00 2.9010513004e+00 5.0247682477e+00 
66900 6.4823337498e+00 -5.4432035232e-03 2.9011458485e+00 -5.0249320097e+00 2.9011458485e+00 5.0249320097e+00 
67000 6.4823330081e+00 -5.4009907164e-03 2.9012396602e+00 -5.0250944965e+00 2.9012396602e+00 5.0250944965e+00 
67100 6.4823322779e+00 -5.3591045973e-03 2.9013327415e+00 -5.0252557179e+00 2.9013327415e+00 5.0252557179e+00 
67200 6.4823315590e+00 -5.3175428446e-03 2.9014250979e+00 -5.0254156839e+00 2.9014250979e+00 5.0254156839e+00 
67300 6.4823308514e+00 -5.2763031469e-03 2.9015167351e+00 -5.0255744042e+00 2.9015167351e+00 5.0255744042e+00 
67400 6.4823301547e+00 -5.2353832029e-03 2.9016076588e+00 -5.0257318886e+00 2.9016076588e+00 5.0257318886e+00 
67500 6.4823294688e+00 -5.1947807218e-03 2.9016978745e+00 -5.0258881468e+00 2.9016978745e+00 5.0258881468e+00 
67600 6.4823287935e+00 -5.1544934228e-03 2.9017873877e+00 -5.0260431882e+00 2.9017873877e+00 5.0260431882e+00 
67700 6.4823281287e+00 -5.1145190358e-03 2.9018762040e+00 -5.0261970226e+00 2.9018762040e+00 5.0261970226e+00 
67800 6.4823274741e+00 -5.0748553009e-03 2.9019643288e+00 -5.0263496592e+00 2.9019643288e+00 5.0263496592e+00 
67900 6.4823268297e+00 -5.0354999689e-03 2.9020517675e+00 -5.0265011075e+00 2.9020517675e+00 5.0265011075e+00 
68000 6.4823261952e+00 -4.9964508011e-03 2.9021385255e+00 -5.0266513768e+00 2.9021385255e+00 5.0266513768e+00 
68100 6.4823255705e+00 -4.9577055695e-03 2.9022246082e+00 -5.0268004763e+00 2.9022246082e+00 5.0268004763e+00 
68200 6.4823249555e+00 -4.9192620569e-03 2.9023100207e+00 -5.0269484152e+00 2.9023100207e+00 5.0269484152e+00 
68300 6.4823243498e+00 -4.8811180568e-03 2.9023947685e+00 -5.0270952027e+00 2.9023947685e+00 5.0270952027e+00 
68400 6.4823237535e+00 -4.8432713735e-03 2.9024788567e+00 -5.0272408477e+00 2.9024788567e+00 5.0272408477e+00 
68500 6.4823231664e+00 -4.8057198223e-03 2.9025622904e+00 -5.0273853592e+00 2.9025622904e+00 5.0273853592e+00 
68600 6.4823225883e+00 -4.7684612294e-03 2.9026450749e+00 -5.0275287461e+00 2.9026450749e+00 5.0275287461e+00 
68700 6.4823220190e+00 -4.7314934322e-03 2.9027272153e+00 -5.0276710173e+00 2.9027272153e+00 5.0276710173e+00 
68800 6.4823214584e+00 -4.6948142790e-03 2.9028087165e+00 -5.0278121816e+00 2.9028087165e+00 5.0278121816e+00 
68900 6.4823209064e+00 -4.6584216293e-03 2.9028895836e+00 -5.0279522475e+00 2.9028895836e+00 5.0279522475e+00 
69000 6.4823203629e+00 -4.6223133537e-03 2.9029698216e+00 -5.0280912239e+00 2.9029698216e+00 5.0280912239e+00 
69100 6.4823198276e+00 -4.5864873342e-03 2.9030494355e+00 -5.0282291192e+00 2.9030494355e+00 5.0282291192e+00 
69200 6.4823193006e+00 -4.5509414640e-03 2.9031284302e+00 -5.0283659420e+00 2.9031284302e+00 5.0283659420e+00 
69300 6.4823187815e+00 -4.5156736476e-03 2.9032068105e+00 -5.0285017006e+00 2.9032068105e+00 5.0285017006e+00 
69400 6.4823182704e+00 -4.4806818010e-03 2.9032845813e+00 -5.0286364036e+00 2.9032845813e+00 5.0286364036e+00 
69500 6.4823177670e+00 -4.4459638513e-03 2.9033617474e+00 -5.0287700592e+00 2.9033617474e+00 5.0287700592e+00 
69600 6.4823172713e+00 -4.4115177375e-03 2.9034383135e+00 -5.0289026756e+00 2.9034383135e+00 5.0289026756e+00 
69700 6.4823167831e+00 -4.3773414097e-03 2.9035142844e+00 -5.0290342611e+00 2.9035142844e+00 5.0290342611e+00 
69800 6.4823163023e+00 -4.3434328298e-03 2.9035896648e+00 -5.0291648237e+00 2.9035896648e+00 5.0291648237e+00 
69900 6.4823158288e+00 -4.3097899712e-03 2.9036644593e+00 -5.0292943716e+00 2.9036644593e+00 5.0292943716e+00 
70000 6.4823153624e+00 -4.2764108188e-03 2.9037386725e+00 -5.0294229128e+00 2.9037386725e+00 5.0294229128e+00 
70100 6.4823149031e+00 -4.2432933693e-03 2.9038123091e+00 -5.0295504551e+00 2.9038123091e+00 5.0295504551e+00 
70200 6.4823144508e+00 -4.2104356310e-03 2.9038853736e+00 -5.0296770065e+00 2.9038853736e+00 5.0296770065e+00 
70300 6.4823140053e+00 -4.1778356237e-03 2.9039578705e+00 -5.0298025748e+00 2.9039578705e+00 5.0298025748e+00 
70400 6.4823135665e+00 -4.1454913792e-03 2.9040298043e+00 -5.0299271677e+00 2.9040298043e+00 5.0299271677e+00 
70500 6.4823131342e+00 -4.1134009409e-03 2.9041011794e+00 -5.0300507930e+00 2.9041011794e+00 5.0300507930e+00 
70600 6.4823127086e+00 -4.0815623641e-03 2.9041720002e+00 -5.0301734583e+00 2.9041720002e+00 5.0301734583e+00 
70700 6.4823122892e+00 -4.0499737156e-03 2.9042422712e+00 -5.0302951712e+00 2.9042422712e+00 5.0302951712e+00 
70800 6.4823118762e+00 -4.0186330743e-03 2.9043119966e+00 -5.0304159392e+00 2.9043119966e+00 5.0304159392e+00 
70900 6.4823114694e+00 -3.9875385307e-03 2.9043811808e+00 -5.0305357697e+00 2.9043811808e+00 5.0305357697e+00 
71000 6.4823110687e+00 -3.9566881873e-03 2.9044498280e+00 -5.0306546702e+00 2.9044498280e+00 5.0306546702e+00 
71100 6.4823106740e+00 -3.9260801583e-03 2.9045179425e+00 -5.0307726480e+00 2.9045179425e+00 5.0307726480e+00 
71200 6.4823102852e+00 -3.8957125700e-03 2.9045855285e+00 -5.0308897104e+00 2.9045855285e+00 5.0308897104e+00 
71300 6.4823099022e+00 -3.8655835602e-03 2.9046525902e+00 -5.0310058646e+00 2.9046525902e+00 5.0310058646e+00 
71400 6.4823095249e+00 -3.8356912789e-03 2.9047191317e+00 -5.0311211178e+00 2.9047191317e+00 5.0311211178e+00 
71500 6.4823091533e+00 -3.8060338877e-03 2.9047851571e+00 -5.0312354772e+00 2.9047851571e+00 5.0312354772e+00 
71600 6.4823087871e+00 -3.7766095605e-03 2.9048506705e+00 -5.0313489498e+00 2.9048506705e+00 5.0313489498e+00 
71700 6.4823084265e+00 -3.7474164826e-03 2.9049156760e+00 -5.0314615426e+00 2.9049156760e+00 5.0314615426e+00 
71800 6.4823080712e+00 -3.7184528514e-03 2.9049801775e+00 -5.0315732625e+00 2.9049801775e+00 5.0315732625e+00 
71900 6.4823077211e+00 -3.6897168763e-03 2.9050441791e+00 -5.0316841165e+00 2.9050441791e+00 5.0316841165e+00 
72000 6.4823073763e+00 -3.6612067784e-03 2.9051076847e+00 -5.0317941114e+00 2.9051076847e+00 5.0317941114e+00 
72100 6.4823070366e+00 -3.6329207908e-03 2.9051706982e+00 -5.0319032539e+00 2.9051706982e+00 5.0319032539e+00 
72200 6.4823067019e+00 -3.6048571584e-03 2.9052332235e+00 -5.0320115510e+00 2.9052332235e+00 5.0320115510e+00 
72300 6.4823063721e+00 -3.5770141378e-03 2.9052952645e+00 -5.0321190091e+00 2.9052952645e+00 5.0321190091e+00 
72400 6.4823060473e+00 -3.5493899979e-03 2.9053568250e+00 -5.0322256349e+00 2.9053568250e+00 5.0322256349e+00 
72500 6.4823057272e+00 -3.5219830189e-03 2.9054179087e+00 -5.0323314351e+00 2.9054179087e+00 5.0323314351e+00 
72600 6.4823054118e+00 -3.4947914932e-03 2.9054785195e+00 -5.0324364161e+00 2.9054785195e+00 5.0324364161e+00 
72700 6.4823051011e+00 -3.4678137249e-03 2.9055386612e+00 -5.0325405845e+00 2.9055386612e+00 5.0325405845e+00 
72800 6.4823047950e+00 -3.4410480298e-03 2.9055983373e+00 -5.0326439465e+00 2.9055983373e+00 5.0326439465e+00 
72900 6.4823044934e+00 -3.4144927356e-03 2.9056575516e+00 -5.0327465087e+00 2.9056575516e+00 5.0327465087e+00 
73000 6.4823041962e+00 -3.3881461816e-03 2.9057163077e+00 -5.0328482773e+00 2.9057163077e+00 5.0328482773e+00 
73100 6.4823039034e+00 -3.3620067190e-03 2.9057746093e+00 -5.0329492587e+00 2.9057746093e+00 5.0329492587e+00 
73200 6.4823036148e+00 -3.3360727107e-03 2.9058324599e+00 -5.0330494589e+00 2.9058324599e+00 5.0330494589e+00 
73300 6.4823033305e+00 -3.3103425310e-03 2.9058898632e+00 -5.0331488842e+00 2.9058898632e+00 5.0331488842e+00 
73400 6.4823030504e+00 -3.2848145663e-03 2.9059468225e+00 -5.0332475407e+00 2.9059468225e+00 5.0332475407e+00 
73500 6.4823027743e+00 -3.2594872143e-03 2.9060033416e+00 -5.0333454346e+00 2.9060033416e+00 5.0333454346e+00 
73600 6.4823025023e+00 -3.2343588844e-03 2.9060594237e+00 -5.0334425717e+00 2.9060594237e+00 5.0334425717e+00 
73700 6.4823022343e+00 -3.2094279975e-03 2.9061150724e+00 -5.0335389581e+00 2.9061150724e+00 5.0335389581e+00 
73800 6.4823019701e+00 -3.1846929861e-03 2.9061702911e+00 -5.0336345997e+00 2.9061702911e+00 5.0336345997e+00 
73900 6.4823017098e+00 -3.1601522943e-03 2.9062250832e+00 -5.0337295023e+00 2.9062250832e+00 5.0337295023e+00 
74000 6.4823014533e+00 -3.1358043775e-03 2.9062794521e+00 -5.0338236720e+00 2.9062794521e+00 5.0338236720e+00 
74100 6.4823012005e+00 -3.1116477026e-03 2.9063334010e+00 -5.0339171143e+00 2.9063334010e+00 5.0339171143e+00 
74200 6.4823009514e+00 -3.0876807479e-03 2.9063869334e+00 -5.0340098350e+00 2.9063869334e+00 5.0340098350e+00 
74300 6.4823007060e+00 -3.0639020030e-03 2.9064400524e+00 -5.0341018399e+00 2.9064400524e+00 5.0341018399e+00 
74400 6.4823004640e+00 -3.0403099689e-03 2.9064927614e+00 -5.0341931346e+00 2.9064927614e+00 5.0341931346e+00 
74500 6.4823002256e+00 -3.0169031579e-03 2.9065450636e+00 -5.0342837246e+00 2.9065450636e+00 5.0342837246e+00 
74600 6.4822999906e+00 -2.9936800934e-03 2.9065969622e+00 -5.0343736156e+00 2.9065969622e+00 5.0343736156e+00 
74700 6.4822997591e+00 -2.9706393100e-03 2.9066484604e+00 -5.0344628131e+00 2.9066484604e+00 5.0344628131e+00 
74800 6.4822995308e+00 -2.9477793537e-03 2.9066995613e+00 -5.0345513225e+00 2.9066995613e+00 5.0345513225e+00 
74900 6.4822993059e+00 -2.9250987812e-03 2.9067502681e+00 -5.0346391492e+00 2.9067502681e+00 5.0346391492e+00 
75000 6.4822990842e+00 -2.9025961605e-03 2.9068005838e+00 -5.0347262987e+00 2.9068005838e+00 5.0347262987e+00 
75100 6.4822988657e+00 -2.8802700706e-03 2.9068505117e+00 -5.0348127762e+00 2.9068505117e+00 5.0348127762e+00 
75200 6.4822986503e+00 -2.8581191015e-03 2.9069000546e+00 -5.0348985871e+00 2.9069000546e+00 5.0348985871e+00 
75300 6.4822984381e+00 -2.8361418538e-03 2.9069492157e+00 -5.0349837366e+00 2.9069492157e+00 5.0349837366e+00 
75400 6.4822982289e+00 -2.8143369394e-03 2.9069979979e+00 -5.0350682299e+00 2.9069979979e+00 5.0350682299e+00 
75500 6.4822980227e+00 -2.7927029807e-03 2.9070464043e+00 -5.0351520722e+00 2.9070464043e+00 5.0351520722e+00 
75600 6.4822978194e+00 -2.7712386109e-03 2.9070944378e+00 -5.0352352686e+00 2.9070944378e+00 5.0352352686e+00 
75700 6.4822976191e+00 -2.7499424740e-03 2.9071421013e+00 -5.0353178242e+00 2.9071421013e+00 5.0353178242e+00 
75800 6.4822974216e+00 -2.7288132246e-03 2.9071893977e+00 -5.0353997441e+00 2.9071893977e+00 5.0353997441e+00 
75900 6.4822972270e+00 -2.7078495277e-03 2.9072363300e+00 -5.0354810332e+00 2.9072363300e+00 5.0354810332e+00 
76000 6.4822970351e+00 -2.6870500592e-03 2.9072829010e+00 -5.0355616965e+00 2.9072829010e+00 5.0355616965e+00 
76100 6.4822968460e+00 -2.6664135052e-03 2.9073291135e+00 -5.0356417389e+00 2.9073291135e+00 5.0356417389e+00 
76200 6.4822966596e+00 -2.6459385623e-03 2.9073749704e+00 -5.0357211653e+00 2.9073749704e+00 5.0357211653e+00 
76300 6.4822964758e+00 -2.6256239375e-03 2.9074204744e+00 -5.0357999806e+00 2.9074204744e+00 5.0357999806e+00 
76400 6.4822962946e+00 -2.6054683481e-03 2.9074656284e+00 -5.0358781896e+00 2.9074656284e+00 5.0358781896e+00 
76500 6.4822961161e+00 -2.5854705215e-03 2.9075104350e+00 -5.0359557969e+00 2.9075104350e+00 5.0359557969e+00 
76600 6.4822959400e+00 -2.5656291956e-03 2.9075548970e+00 -5.0360328075e+00 2.9075548970e+00 5.0360328075e+00 
76700 6.4822957665e+00 -2.5459431180e-03 2.9075990172e+00 -5.0361092258e+00 2.9075990172e+00 5.0361092258e+00 
76800 6.4822955954e+00 -2.5264110467e-03 2.9076427982e+00 -5.0361850567e+00 2.9076427982e+00 5.0361850567e+00 
76900 6.4822954268e+00 -2.5070317496e-03 2.9076862426e+00 -5.0362603046e+00 2.9076862426e+00 5.0362603046e+00 
77000 6.4822952605e+00 -2.4878040046e-03 2.9077293531e+00 -5.0363349742e+00 2.9077293531e+00 5.0363349742e+00 
77100 6.4822950966e+00 -2.4687265993e-03 2.9077721324e+00 -5.0364090701e+00 2.9077721324e+00 5.0364090701e+00 
77200 6.4822949350e+00 -2.4497983313e-03 2.9078145830e+00 -5.0364825967e+00 2.9078145830e+00 5.0364825967e+00 
77300 6.4822947757e+00 -2.4310180079e-03 2.9078567074e+00 -5.0365555584e+00 2.9078567074e+00 5.0365555584e+00 
77400 6.4822946187e+00 -2.4123844460e-03 2.9078985084e+00 -5.0366279598e+00 2.9078985084e+00 5.0366279598e+00 
77500 6.4822944639e+00 -2.3938964723e-03 2.9079399884e+00 -5.0366998052e+00 2.9079399884e+00 5.0366998052e+00 
77600 6.4822943112e+00 -2.3755529229e-03 2.9079811498e+00 -5.0367710990e+00 2.9079811498e+00 5.0367710990e+00 
77700 6.4822941607e+00 -2.3573526436e-03 2.9080219953e+00 -5.0368418454e+00 2.9080219953e+00 5.0368418454e+00 
77800 6.4822940123e+00 -2.3392944893e-03 2.9080625273e+00 -5.0369120489e+00 2.9080625273e+00 5.0369120489e+00 
77900 6.4822938661e+00 -2.3213773245e-03 2.9081027483e+00 -5.0369817136e+00 2.9081027483e+00 5.0369817136e+00 
78000 6.4822937218e+00 -2.3036000230e-03 2.9081426606e+00 -5.0370508438e+00 2.9081426606e+00 5.0370508438e+00 
78100 6.4822935796e+00 -2.2859614679e-03 2.9081822667e+00 -5.0371194436e+00 2.9081822667e+00 5.0371194436e+00 
78200 6.4822934394e+00 -2.2684605512e-03 2.9082215690e+00 -5.0371875172e+00 2.9082215690e+00 5.0371875172e+00 
78300 6.4822933012e+00 -2.2510961743e-03 2.9082605699e+00 -5.0372550688e+00 2.9082605699e+00 5.0372550688e+00 
78400 6.4822931649e+00 -2.2338672474e-03 2.9082992718e+00 -5.0373221023e+00 2.9082992718e+00 5.0373221023e+00 
78500 6.4822930305e+00 -2.2167726898e-03 2.9083376769e+00 -5.0373886220e+00 2.9083376769e+00 5.0373886220e+00 
78600 6.4822928979e+00 -2.1998114298e-03 2.9083757876e+00 -5.0374546317e+00 2.9083757876e+00 5.0374546317e+00 
78700 6.4822927673e+00 -2.1829824044e-03 2.9084136063e+00 -5.0375201355e+00 2.9084136063e+00 5.0375201355e+00 
78800 6.4822926385e+00 -2.1662845592e-03 2.9084511351e+00 -5.0375851373e+00 2.9084511351e+00 5.0375851373e+00 
78900 6.4822925114e+00 -2.1497168490e-03 2.9084883764e+00 -5.0376496411e+00 2.9084883764e+00 5.0376496411e+00 
79000 6.4822923862e+00 -2.1332782367e-03 2.9085253324e+00 -5.0377136508e+00 2.9085253324e+00 5.0377136508e+00 
79100 6.4822922626e+00 -2.1169676942e-03 2.9085620053e+00 -5.0377771702e+00 2.9085620053e+00 5.0377771702e+00 
79200 6.4822921408e+00 -2.1007842016e-03 2.9085983974e+00 -5.0378402031e+00 2.9085983974e+00 5.0378402031e+00 
79300 6.4822920208e+00 -2.0847267477e-03 2.9086345108e+00 -5.0379027534e+00 2.9086345108e+00 5.0379027534e+00 
79400 6.4822919023e+00 -2.0687943293e-03 2.9086703477e+00 -5.0379648248e+00 2.9086703477e+00 5.0379648248e+00 
79500 6.4822917856e+00 -2.0529859520e-03 2.9087059104e+00 -5.0380264210e+00 2.9087059104e+00 5.0380264210e+00 
79600 6.4822916704e+00 -2.0373006292e-03 2.9087412008e+00 -5.0380875458e+00 2.9087412008e+00 5.0380875458e+00 
79700 6.4822915568e+00 -2.0217373828e-03 2.9087762212e+00 -5.0381482029e+00 2.9087762212e+00 5.0381482029e+00 
79800 6.4822914449e+00 -2.0062952426e-03 2.9088109736e+00 -5.0382083959e+00 2.9088109736e+00 5.0382083959e+00 
79900 6.4822913344e+00 -1.9909732464e-03 2.9088454602e+00 -5.0382681284e+00 2.9088454602e+00 5.0382681284e+00 
80000 6.4822912256e+00 -1.9757704403e-03 2.9088796830e+00 -5.0383274041e+00 2.9088796830e+00 5.0383274041e+00 
80100 6.4822911182e+00 -1.9606858780e-03 2.9089136441e+00 -5.0383862264e+00 2.9089136441e+00 5.0383862264e+00 
80200 6.4822910123e+00 -1.9457186211e-03 2.9089473455e+00 -5.0384445990e+00 2.9089473455e+00 5.0384445990e+00 
80300 6.4822909078e+00 -1.9308677390e-03 2.9089807893e+00 -5.0385025252e+00 2.9089807893e+00 5.0385025252e+00 
80400 6.4822908049e+00 -1.9161323089e-03 2.9090139774e+00 -5.0385600087e+00 2.9090139774e+00 5.0385600087e+00 
80500 6.4822907033e+00 -1.9015114157e-03 2.9090469118e+00 -5.0386170529e+00 2.9090469118e+00 5.0386170529e+00 
80600 6.4822906031e+00 -1.8870041515e-03 2.9090795946e+00 -5.0386736611e+00 2.9090795946e+00 5.0386736611e+00 
80700 6.4822905044e+00 -1.8726096164e-03 2.9091120277e+00 -5.0387298368e+00 2.9091120277e+00 5.0387298368e+00 
80800 6.4822904070e+00 -1.8583269178e-03 2.9091442130e+00 -5.0387855834e+00 2.9091442130e+00 5.0387855834e+00 
80900 6.4822903109e+00 -1.8441551702e-03 2.9091761524e+00 -5.0388409042e+00 2.9091761524e+00 5.0388409042e+00 
81000 6.4822902161e+00 -1.8300934959e-03 2.9092078480e+00 -5.0388958025e+00 2.9092078480e+00 5.0388958025e+00 
81100 6.4822901227e+00 -1.8161410242e-03 2.9092393015e+00 -5.0389502816e+00 2.9092393015e+00 5.0389502816e+00 
81200 6.4822900305e+00 -1.8022968916e-03 2.9092705149e+00 -5.0390043448e+00 2.9092705149e+00 5.0390043448e+00 
81300 6.4822899397e+00 -1.7885602418e-03 2.9093014900e+00 -5.0390579953e+00 2.9093014900e+00 5.0390579953e+00 
81400 6.4822898500e+00 -1.7749302255e-03 2.9093322287e+00 -5.0391112363e+00 2.9093322287e+00 5.0391112363e+00 
81500 6.4822897616e+00 -1.7614060007e-03 2.9093627329e+00 -5.0391640710e+00 2.9093627329e+00 5.0391640710e+00 
81600 6.4822896744e+00 -1.7479867319e-03 2.9093930043e+00 -5.0392165026e+00 2.9093930043e+00 5.0392165026e+00 
81700 6.4822895885e+00 -1.7346715909e-03 2.9094230447e+00 -5.0392685342e+00 2.9094230447e+00 5.0392685342e+00 
81800 6.4822895037e+00 -1.7214597561e-03 2.9094528560e+00 -5.0393201689e+00 2.9094528560e+00 5.0393201689e+00 
81900 6.4822894200e+00 -1.7083504128e-03 2.9094824400e+00 -5.0393714098e+00 2.9094824400e+00 5.0393714098e+00 
82000 6.4822893375e+00 -1.6953427529e-03 2.9095117984e+00 -5.0394222600e+00 2.9095117984e+00 5.0394222600e+00 
82100 6.4822892561e+00 -1.6824359751e-03 2.9095409329e+00 -5.0394727225e+00 2.9095409329e+00 5.0394727225e+00 
82200 6.4822891759e+00 -1.6696292845e-03 2.9095698453e+00 -5.0395228003e+00 2.9095698453e+00 5.0395228003e+00 
82300 6.4822890967e+00 -1.6569218930e-03 2.9095985374e+00 -5.0395724964e+00 2.9095985374e+00 5.0395724964e+00 
82400 6.4822890187e+00 -1.6443130186e-03 2.9096270108e+00 -5.0396218139e+00 2.9096270108e+00 5.0396218139e+00 
82500 6.4822889417e+00 -1.6318018862e-03 2.9096552673e+00 -5.0396707555e+00 2.9096552673e+00 5.0396707555e+00 
82600 6.4822888657e+00 -1.6193877266e-03 2.9096833085e+00 -5.0397193243e+00 2.9096833085e+00 5.0397193243e+00 
82700 6.4822887908e+00 -1.6070697773e-03 2.9097111361e+00 -5.0397675231e+00 2.9097111361e+00 5.0397675231e+00 
82800 6.4822887169e+00 -1.5948472817e-03 2.9097387518e+00 -5.0398153548e+00 2.9097387518e+00 5.0398153548e+00 
82900 6.4822886441e+00 -1.5827194896e-03 2.9097661572e+00 -5.0398628223e+00 2.9097661572e+00 5.0398628223e+00 
83000 6.4822885722e+00 -1.5706856569e-03 2.9097933539e+00 -5.0399099284e+00 2.9097933539e+00 5.0399099284e+00 
83100 6.4822885013e+00 -1.5587450456e-03 2.9098203436e+00 -5.0399566760e+00 2.9098203436e+00 5.0399566760e+00 
83200 6.4822884314e+00 -1.5468969236e-03 2.9098471278e+00 -5.0400030676e+00 2.9098471278e+00 5.0400030676e+00 
83300 6.4822883624e+00 -1.5351405650e-03 2.9098737082e+00 -5.0400491063e+00 2.9098737082e+00 5.0400491063e+00 
83400 6.4822882944e+00 -1.5234752496e-03 2.9099000864e+00 -5.0400947946e+00 2.9099000864e+00 5.0400947946e+00 
83500 6.4822882272e+00 -1.5119002632e-03 2.9099262639e+00 -5.0401401354e+00 2.9099262639e+00 5.0401401354e+00 
83600 6.4822881611e+00 -1.5004148974e-03 2.9099522423e+00 -5.0401851312e+00 2.9099522423e+00 5.0401851312e+00 
83700 6.4822880958e+00 -1.4890184494e-03 2.9099780231e+00 -5.0402297848e+00 2.9099780231e+00 5.0402297848e+00 
83800 6.4822880314e+00 -1.4777102223e-03 2.9100036078e+00 -5.0402740989e+00 2.9100036078e+00 5.0402740989e+00 
83900 6.4822879678e+00 -1.4664895248e-03 2.9100289980e+00 -5.0403180760e+00 2.9100289980e+00 5.0403180760e+00 
84000 6.4822879052e+00 -1.4553556711e-03 2.9100541952e+00 -5.0403617189e+00 2.9100541952e+00 5.0403617189e+00 
84100 6.4822878434e+00 -1.4443079811e-03 2.9100792009e+00 -5.0404050300e+00 2.9100792009e+00 5.0404050300e+00 
84200 6.4822877824e+00 -1.4333457802e-03 2.9101040165e+00 -5.0404480120e+00 2.9101040165e+00 5.0404480120e+00 
84300 6.4822877223e+00 -1.4224683990e-03 2.9101286436e+00 -5.0404906673e+00 2.9101286436e+00 5.0404906673e+00 
84400 6.4822876629e+00 -1.4116751739e-03 2.9101530836e+00 -5.0405329986e+00 2.9101530836e+00 5.0405329986e+00 
84500 6.4822876044e+00 -1.4009654464e-03 2.9101773380e+00 -5.0405750084e+00 2.9101773380e+00 5.0405750084e+00 
84600 6.4822875467e+00 -1.3903385632e-03 2.9102014081e+00 -5.0406166991e+00 2.9102014081e+00 5.0406166991e+00 
84700 6.4822874898e+00 -1.3797938766e-03 2.9102252955e+00 -5.0406580732e+00 2.9102252955e+00 5.0406580732e+00 
84800 6.4822874336e+00 -1.3693307439e-03 2.9102490015e+00 -5.0406991332e+00 2.9102490015e+00 5.0406991332e+00 
84900 6.4822873782e+00 -1.3589485275e-03 2.9102725275e+00 -5.0407398815e+00 2.9102725275e+00 5.0407398815e+00 
85000 6.4822873235e+00 -1.3486465950e-03 2.9102958750e+00 -5.0407803205e+00 2.9102958750e+00 5.0407803205e+00 
85100 6.4822872696e+00 -1.3384243191e-03 2.9103190453e+00 -5.0408204526e+00 2.9103190453e+00 5.0408204526e+00 
85200 6.4822872165e+00 -1.3282810776e-03 2.9103420398e+00 -5.0408602803e+00 2.9103420398e+00 5.0408602803e+00 
85300 6.4822871640e+00 -1.3182162530e-03 2.9103648598e+00 -5.0408998057e+00 2.9103648598e+00 5.0408998057e+00 
85400 6.4822871123e+00 -1.3082292331e-03 2.9103875068e+00 -5.0409390314e+00 2.9103875068e+00 5.0409390314e+00 
85500 6.4822870612e+00 -1.2983194103e-03 2.9104099820e+00 -5.0409779596e+00 2.9104099820e+00 5.0409779596e+00 
85600 6.4822870109e+00 -1.2884861819e-03 2.9104322867e+00 -5.0410165926e+00 2.9104322867e+00 5.0410165926e+00 
85700 6.4822869612e+00 -1.2787289501e-03 2.9104544224e+00 -5.0410549327e+00 2.9104544224e+00 5.0410549327e+00 
85800 6.4822869122e+00 -1.2690471219e-03 2.9104763903e+00 -5.0410929822e+00 2.9104763903e+00 5.0410929822e+00 
85900 6.4822868639e+00 -1.2594401088e-03 2.9104981917e+00 -5.0411307433e+00 2.9104981917e+00 5.0411307433e+00 
86000 6.4822868162e+00 -1.2499073272e-03 2.9105198279e+00 -5.0411682183e+00 2.9105198279e+00 5.0411682183e+00 
86100 6.4822867691e+00 -1.2404481980e-03 2.9105413001e+00 -5.0412054094e+00 2.9105413001e+00 5.0412054094e+00 
86200 6.4822867228e+00 -1.2310621468e-03 2.9105626097e+00 -5.0412423187e+00 2.9105626097e+00 5.0412423187e+00 
86300 6.4822866770e+00 -1.2217486036e-03 2.9105837580e+00 -5.0412789485e+00 2.9105837580e+00 5.0412789485e+00 
86400 6.4822866318e+00 -1.2125070031e-03 2.9106047460e+00 -5.0413153008e+00 2.9106047460e+00 5.0413153008e+00 
86500 6.4822865873e+00 -1.2033367843e-03 2.9106255752e+00 -5.0413513780e+00 2.9106255752e+00 5.0413513780e+00 
86600 6.4822865434e+00 -1.1942373908e-03 2.9106462466e+00 -5.0413871820e+00 2.9106462466e+00 5.0413871820e+00 
86700 6.4822865000e+00 -1.1852082705e-03 2.9106667616e+00 -5.0414227151e+00 2.9106667616e+00 5.0414227151e+00 
86800 6.4822864573e+00 -1.1762488756e-03 2.9106871214e+00 -5.0414579792e+00 2.9106871214e+00 5.0414579792e+00 
86900 6.4822864151e+00 -1.1673586627e-03 2.9107073271e+00 -5.0414929765e+00 2.9107073271e+00 5.0414929765e+00 
87000 6.4822863735e+00 -1.1585370927e-03 2.9107273800e+00 -5.0415277091e+00 2.9107273800e+00 5.0415277091e+00 
87100 6.4822863324e+00 -1.1497836307e-03 2.9107472812e+00 -5.0415621790e+00 2.9107472812e+00 5.0415621790e+00 
87200 6.4822862920e+00 -1.1410977460e-03 2.9107670318e+00 -5.0415963881e+00 2.9107670318e+00 5.0415963881e+00 
87300 6.4822862520e+00 -1.1324789121e-03 2.9107866332e+00 -5.0416303387e+00 2.9107866332e+00 5.0416303387e+00 
87400 6.4822862126e+00 -1.1239266066e-03 2.9108060864e+00 -5.0416640325e+00 2.9108060864e+00 5.0416640325e+00 
87500 6.4822861738e+00 -1.1154403113e-03 2.9108253925e+00 -5.0416974717e+00 2.9108253925e+00 5.0416974717e+00 
87600 6.4822861354e+00 -1.1070195119e-03 2.9108445527e+00 -5.0417306582e+00 2.9108445527e+00 5.0417306582e+00 
87700 6.4822860976e+00 -1.0986636982e-03 2.9108635682e+00 -5.0417635940e+00 2.9108635682e+00 5.0417635940e+00 
87800 6.4822860603e+00 -1.0903723641e-03 2.9108824400e+00 -5.0417962809e+00 2.9108824400e+00 5.0417962809e+00 
87900 6.4822860235e+00 -1.0821450074e-03 2.9109011692e+00 -5.0418287209e+00 2.9109011692e+00 5.0418287209e+00 
88000 6.4822859872e+00 -1.0739811296e-03 2.9109197570e+00 -5.0418609160e+00 2.9109197570e+00 5.0418609160e+00 
88100 6.4822859513e+00 -1.0658802365e-03 2.9109382045e+00 -5.0418928679e+00 2.9109382045e+00 5.0418928679e+00 
88200 6.4822859160e+00 -1.0578418374e-03 2.9109565127e+00 -5.0419245787e+00 2.9109565127e+00 5.0419245787e+00 
88300 6.4822858811e+00 -1.0498654457e-03 2.9109746828e+00 -5.0419560501e+00 2.9109746828e+00 5.0419560501e+00 
88400 6.4822858468e+00 -1.0419505784e-03 2.9109927157e+00 -5.0419872840e+00 2.9109927157e+00 5.0419872840e+00 
88500 6.4822858128e+00 -1.0340967563e-03 2.9110106125e+00 -5.0420182822e+00 2.9110106125e+00 5.0420182822e+00 
88600 6.4822857794e+00 -1.0263035041e-03 2.9110283743e+00 -5.0420490466e+00 2.9110283743e+00 5.0420490466e+00 
88700 6.4822857464e+00 -1.0185703500e-03 2.9110460022e+00 -5.0420795790e+00 2.9110460022e+00 5.0420795790e+00 
88800 6.4822857138e+00 -1.0108968259e-03 2.9110634971e+00 -5.0421098811e+00 2.9110634971e+00 5.0421098811e+00 
88900 6.4822856817e+00 -1.0032824674e-03 2.9110808602e+00 -5.0421399548e+00 2.9110808602e+00 5.0421399548e+00 
89000 6.4822856500e+00 -9.9572681380e-04 2.9110980923e+00 -5.0421698017e+00 2.9110980923e+00 5.0421698017e+00 
89100 6.4822856187e+00 -9.8822940776e-04 2.9111151946e+00 -5.0421994237e+00 2.9111151946e+00 5.0421994237e+00 
89200 6.4822855879e+00 -9.8078979564e-04 2.9111321680e+00 -5.0422288225e+00 2.9111321680e+00 5.0422288225e+00 
89300 6.4822855575e+00 -9.7340752728e-04 2.9111490135e+00 -5.0422579998e+00 2.9111490135e+00 5.0422579998e+00 
89400 6.4822855274e+00 -9.6608215603e-04 2.9111657321e+00 -5.0422869573e+00 2.9111657321e+00 5.0422869573e+00 
89500 6.4822854978e+00 -9.5881323868e-04 2.9111823249e+00 -5.0423156968e+00 2.9111823249e+00 5.0423156968e+00 
89600 6.4822854686e+00 -9.5160033548e-04 2.9111987926e+00 -5.0423442198e+00 2.9111987926e+00 5.0423442198e+00 
89700 6.4822854398e+00 -9.4444301007e-04 2.9112151364e+00 -5.0423725281e+00 2.9112151364e+00 5.0423725281e+00 
89800 6.4822854114e+00 -9.3734082947e-04 2.9112313572e+00 -5.0424006233e+00 2.9112313572e+00 5.0424006233e+00 
89900 6.4822853834e+00 -9.3029336408e-04 2.9112474559e+00 -5.0424285071e+00 2.9112474559e+00 5.0424285071e+00 
90000 6.4822853557e+00 -9.2330018759e-04 2.9112634335e+00 -5.0424561811e+00 2.9112634335e+00 5.0424561811e+00 
90100 6.4822853284e+00 -9.1636087701e-04 2.9112792909e+00 -5.0424836469e+00 2.9112792909e+00 5.0424836469e+00 
90200 6.4822853015e+00 -9.0947501263e-04 2.9112950291e+00 -5.0425109061e+00 2.9112950291e+00 5.0425109061e+00 
90300 6.4822852750e+00 -9.0264217796e-04 2.9113106488e+00 -5.0425379604e+00 2.9113106488e+00 5.0425379604e+00 
90400 6.4822852488e+00 -8.9586195975e-04 2.9113261512e+00 -5.0425648112e+00 2.9113261512e+00 5.0425648112e+00 
90500 6.4822852229e+00 -8.8913394794e-04 2.9113415370e+00 -5.0425914603e+00 2.9113415370e+00 5.0425914603e+00 
90600 6.4822851974e+00 -8.8245773566e-04 2.9113568072e+00 -5.0426179090e+00 2.9113568072e+00 5.0426179090e+00 
90700 6.4822851723e+00 -8.7583291914e-04 2.9113719626e+00 -5.0426441590e+00 2.9113719626e+00 5.0426441590e+00 
90800 6.4822851475e+00 -8.6925909778e-04 2.9113870042e+00 -5.0426702118e+00 2.9113870042e+00 5.0426702118e+00 
90900 6.4822851230e+00 -8.6273587403e-04 2.9114019329e+00 -5.0426960690e+00 2.9114019329e+00 5.0426960690e+00 
91000 6.4822850989e+00 -8.5626285345e-04 2.9114167494e+00 -5.0427217319e+00 2.9114167494e+00 5.0427217319e+00 
91100 6.4822850751e+00 -8.4983964462e-04 2.9114314546e+00 -5.0427472022e+00 2.9114314546e+00 5.0427472022e+00 
91200 6.4822850516e+00 -8.4346585916e-04 2.9114460495e+00 -5.0427724813e+00 2.9114460495e+00 5.0427724813e+00 
91300 6.4822850284e+00 -8.3714111168e-04 2.9114605349e+00 -5.0427975707e+00 2.9114605349e+00 5.0427975707e+00 
91400 6.4822850056e+00 -8.3086501977e-04 2.9114749116e+00 -5.0428224718e+00 2.9114749116e+00 5.0428224718e+00 
91500 6.4822849831e+00 -8.2463720397e-04 2.9114891804e+00 -5.0428471861e+00 2.9114891804e+00 5.0428471861e+00 
91600 6.4822849608e+00 -8.1845728775e-04 2.9115033422e+00 -5.0428717150e+00 2.9115033422e+00 5.0428717150e+00 
91700 6.4822849389e+00 -8.1232489750e-04 2.9115173977e+00 -5.0428960600e+00 2.9115173977e+00 5.0428960600e+00 
91800 6.4822849172e+00 -8.0623966247e-04 2.9115313480e+00 -5.0429202225e+00 2.9115313480e+00 5.0429202225e+00 
91900 6.4822848959e+00 -8.0020121479e-04 2.9115451936e+00 -5.0429442038e+00 2.9115451936e+00 5.0429442038e+00 
92000 6.4822848748e+00 -7.9420918944e-04 2.9115589355e+00 -5.0429680055e+00 2.9115589355e+00 5.0429680055e+00 
92100 6.4822848541e+00 -7.8826322420e-04 2.9115725744e+00 -5.0429916287e+00 2.9115725744e+00 5.0429916287e+00 
92200 6.4822848336e+00 -7.8236295965e-04 2.9115861111e+00 -5.0430150751e+00 2.9115861111e+00 5.0430150751e+00 
92300 6.4822848134e+00 -7.7650803915e-04 2.9115995465e+00 -5.0430383458e+00 2.9115995465e+00 5.0430383458e+00 
92400 6.4822847935e+00 -7.7069810883e-04 2.9116128812e+00 -5.0430614422e+00 2.9116128812e+00 5.0430614422e+00 
92500 6.4822847738e+00 -7.6493281752e-04 2.9116261161e+00 -5.0430843658e+00 2.9116261161e+00 5.0430843658e+00 
92600 6.4822847544e+00 -7.5921181679e-04 2.9116392520e+00 -5.0431071177e+00 2.9116392520e+00 5.0431071177e+00 
92700 6.4822847353e+00 -7.5353476090e-04 2.9116522895e+00 -5.0431296994e+00 2.9116522895e+00 5.0431296994e+00 
92800 6.4822847164e+00 -7.4790130677e-04 2.9116652295e+00 -5.0431521121e+00 2.9116652295e+00 5.0431521121e+00 
92900 6.4822846978e+00 -7.4231111397e-04 2.9116780727e+00 -5.0431743572e+00 2.9116780727e+00 5.0431743572e+00 
93000 6.4822846794e+00 -7.3676384473e-04 2.9116908198e+00 -5.0431964359e+00 2.9116908198e+00 5.0431964359e+00 
93100 6.4822846613e+00 -7.3125916385e-04 2.9117034717e+00 -5.0432183495e+00 2.9117034717e+00 5.0432183495e+00 
93200 6.4822846434e+00 -7.2579673875e-04 2.9117160289e+00 -5.0432400993e+00 2.9117160289e+00 5.0432400993e+00 
93300 6.4822846258e+00 -7.2037623943e-04 2.9117284923e+00 -5.0432616865e+00 2.9117284923e+00 5.0432616865e+00 
93400 6.4822846084e+00 -7.1499733840e-04 2.9117408626e+00 -5.0432831125e+00 2.9117408626e+00 5.0432831125e+00 
93500 6.4822845913e+00 -7.0965971076e-04 2.9117531404e+00 -5.0433043783e+00 2.9117531404e+00 5.0433043783e+00 
93600 6.4822845744e+00 -7.0436303409e-04 2.9117653265e+00 -5.0433254853e+00 2.9117653265e+00 5.0433254853e+00 
93700 6.4822845577e+00 -6.9910698847e-04 2.9117774217e+00 -5.0433464347e+00 2.9117774217e+00 5.0433464347e+00 
93800 6.4822845412e+00 -6.9389125645e-04 2.9117894265e+00 -5.0433672276e+00 2.9117894265e+00 5.0433672276e+00 
93900 6.4822845250e+00 -6.8871552307e-04 2.9118013417e+00 -5.0433878654e+00 2.9118013417e+00 5.0433878654e+00 
94000 6.4822845090e+00 -6.8357947578e-04 2.9118131680e+00 -5.0434083491e+00 2.9118131680e+00 5.0434083491e+00 
94100 6.4822844932e+00 -6.7848280447e-04 2.9118249060e+00 -5.0434286800e+00 2.9118249060e+00 5.0434286800e+00 
94200 6.4822844776e+00 -6.7342520141e-04 2.9118365565e+00 -5.0434488592e+00 2.9118365565e+00 5.0434488592e+00 
94300 6.4822844623e+00 -6.6840636130e-04 2.9118481201e+00 -5.0434688880e+00 2.9118481201e+00 5.0434688880e+00 
94400 6.4822844471e+00 -6.6342598115e-04 2.9118595975e+00 -5.0434887673e+00 2.9118595975e+00 5.0434887673e+00 
94500 6.4822844322e+00 -6.5848376038e-04 2.9118709893e+00 -5.0435084985e+00 2.9118709893e+00 5.0435084985e+00 
94600 6.4822844174e+00 -6.5357940069e-04 2.9118822962e+00 -5.0435280826e+00 2.9118822962e+00 5.0435280826e+00 
94700 6.4822844029e+00 -6.4871260614e-04 2.9118935188e+00 -5.0435475208e+00 2.9118935188e+00 5.0435475208e+00 
94800 6.4822843885e+00 -6.4388308307e-04 2.9119046578e+00 -5.0435668142e+00 2.9119046578e+00 5.0435668142e+00 
94900 6.4822843744e+00 -6.3909054009e-04 2.9119157139e+00 -5.0435859638e+00 2.9119157139e+00 5.0435859638e+00 
95000 6.4822843605e+00 -6.3433468809e-04 2.9119266876e+00 -5.0436049708e+00 2.9119266876e+00 5.0436049708e+00 
95100 6.4822843467e+00 -6.2961524021e-04 2.9119375796e+00 -5.0436238364e+00 2.9119375796e+00 5.0436238364e+00 
95200 6.4822843331e+00 -6.2493191181e-04 2.9119483906e+00 -5.0436425615e+00 2.9119483906e+00 5.0436425615e+00 
95300 6.4822843197e+00 -6.2028442046e-04 2.9119591210e+00 -5.0436611472e+00 2.9119591210e+00 5.0436611472e+00 
95400 6.4822843065e+00 -6.1567248596e-04 2.9119697717e+00 -5.0436795947e+00 2.9119697717e+00 5.0436795947e+00 
95500 6.4822842935e+00 -6.1109583025e-04 2.9119803431e+00 -5.0436979049e+00 2.9119803431e+00 5.0436979049e+00 
95600 6.4822842807e+00 -6.0655417747e-04 2.9119908359e+00 -5.0437160789e+00 2.9119908359e+00 5.0437160789e+00 
95700 6.4822842680e+00 -6.0204725389e-04 2.9120012507e+00 -5.0437341179e+00 2.9120012507e+00 5.0437341179e+00 
95800 6.4822842555e+00 -5.9757478791e-04 2.9120115880e+00 -5.0437520227e+00 2.9120115880e+00 5.0437520227e+00 
95900 6.4822842432e+00 -5.9313651006e-04 2.9120218485e+00 -5.0437697944e+00 2.9120218485e+00 5.0437697944e+00 
96000 6.4822842310e+00 -5.8873215298e-04 2.9120320328e+00 -5.0437874341e+00 2.9120320328e+00 5.0437874341e+00 
96100 6.4822842191e+00 -5.8436145136e-04 2.9120421414e+00 -5.0438049428e+00 2.9120421414e+00 5.0438049428e+00 
96200 6.4822842072e+00 -5.8002414201e-04 2.9120521750e+00 -5.0438223214e+00 2.9120521750e+00 5.0438223214e+00 
96300 6.4822841956e+00 -5.7571996376e-04 2.9120621340e+00 -5.0438395709e+00 2.9120621340e+00 5.0438395709e+00 
96400 6.4822841841e+00 -5.7144865750e-04 2.9120720191e+00 -5.0438566924e+00 2.9120720191e+00 5.0438566924e+00 
96500 6.4822841728e+00 -5.6720996612e-04 2.9120818308e+00 -5.0438736868e+00 2.9120818308e+00 5.0438736868e+00 
96600 6.4822841616e+00 -5.6300363455e-04 2.9120915697e+00 -5.0438905551e+00 2.9120915697e+00 5.0438905551e+00 
96700 6.4822841505e+00 -5.5882940970e-04 2.9121012364e+00 -5.0439072982e+00 2.9121012364e+00 5.0439072982e+00 
96800 6.4822841397e+00 -5.5468704046e-04 2.9121108314e+00 -5.0439239172e+00 2.9121108314e+00 5.0439239172e+00 
96900 6.4822841289e+00 -5.5057627769e-04 2.9121203552e+00 -5.0439404129e+00 2.9121203552e+00 5.0439404129e+00 
97000 6.4822841184e+00 -5.4649687420e-04 2.9121298084e+00 -5.0439567863e+00 2.9121298084e+00 5.0439567863e+00 
97100 6.4822841079e+00 -5.4244858473e-04 2.9121391915e+00 -5.0439730383e+00 2.9121391915e+00 5.0439730383e+00 
97200 6.4822840976e+00 -5.3843116596e-04 2.9121485051e+00 -5.0439891699e+00 2.9121485051e+00 5.0439891699e+00 
97300 6.4822840875e+00 -5.3444437645e-04 2.9121577496e+00 -5.0440051820e+00 2.9121577496e+00 5.0440051820e+00 
97400 6.4822840775e+00 -5.3048797667e-04 2.9121669257e+00 -5.0440210755e+00 2.9121669257e+00 5.0440210755e+00 
97500 6.4822840676e+00 -5.2656172898e-04 2.9121760339e+00 -5.0440368512e+00 2.9121760339e+00 5.0440368512e+00 
97600 6.4822840579e+00 -5.2266539759e-04 2.9121850746e+00 -5.0440525102e+00 2.9121850746e+00 5.0440525102e+00 
97700 6.4822840483e+00 -5.1879874855e-04 2.9121940483e+00 -5.0440680532e+00 2.9121940483e+00 5.0440680532e+00 
97800 6.4822840388e+00 -5.1496154978e-04 2.9122029557e+00 -5.0440834812e+00 2.9122029557e+00 5.0440834812e+00 
97900 6.4822840295e+00 -5.1115357100e-04 2.9122117971e+00 -5.0440987950e+00 2.9122117971e+00 5.0440987950e+00 
98000 6.4822840203e+00 -5.0737458374e-04 2.9122205732e+00 -5.0441139956e+00 2.9122205732e+00 5.0441139956e+00 
98100 6.4822840112e+00 -5.0362436134e-04 2.9122292843e+00 -5.0441290837e+00 2.9122292843e+00 5.0441290837e+00 
98200 6.4822840023e+00 -4.9990267892e-04 2.9122379310e+00 -5.0441440603e+00 2.9122379310e+00 5.0441440603e+00 
98300 6.4822839934e+00 -4.9620931336e-04 2.9122465138e+00 -5.0441589261e+00 2.9122465138e+00 5.0441589261e+00 
98400 6.4822839847e+00 -4.9254404330e-04 2.9122550332e+00 -5.0441736821e+00 2.9122550332e+00 5.0441736821e+00 
98500 6.4822839762e+00 -4.8890664912e-04 2.9122634896e+00 -5.0441883290e+00 2.9122634896e+00 5.0441883290e+00 
98600 6.4822839677e+00 -4.8529691295e-04 2.9122718835e+00 -5.0442028677e+00 2.9122718835e+00 5.0442028677e+00 
98700 6.4822839594e+00 -4.8171461862e-04 2.9122802155e+00 -5.0442172991e+00 2.9122802155e+00 5.0442172991e+00 
98800 6.4822839511e+00 -4.7815955166e-04 2.9122884859e+00 -5.0442316238e+00 2.9122884859e+00 5.0442316238e+00 
98900 6.4822839430e+00 -4.7463149929e-04 2.9122966952e+00 -5.0442458428e+00 2.9122966952e+00 5.0442458428e+00 
99000 6.4822839350e+00 -4.7113025043e-04 2.9123048440e+00 -5.0442599569e+00 2.9123048440e+00 5.0442599569e+00 
99100 6.4822839271e+00 -4.6765559565e-04 2.9123129326e+00 -5.0442739668e+00 2.9123129326e+00 5.0442739668e+00 
99200 6.4822839193e+00 -4.6420732717e-04 2.9123209615e+00 -5.0442878733e+00 2.9123209615e+00 5.0442878733e+00 
99300 6.4822839117e+00 -4.6078523886e-04 2.9123289312e+00 -5.0443016773e+00 2.9123289312e+00 5.0443016773e+00 
99400 6.4822839041e+00 -4.5738912622e-04 2.9123368422e+00 -5.0443153794e+00 2.9123368422e+00 5.0443153794e+00 
99500 6.4822838967e+00 -4.5401878634e-04 2.9123446948e+00 -5.0443289806e+00 2.9123446948e+00 5.0443289806e+00 
99600 6.4822838893e+00 -4.5067401796e-04 2.9123524895e+00 -5.0443424814e+00 2.9123524895e+00 5.0443424814e+00 
99700 6.4822838820e+00 -4.4735462136e-04 2.9123602268e+00 -5.0443558828e+00 2.9123602268e+00 5.0443558828e+00 
99800 6.4822838749e+00 -4.4406039844e-04 2.9123679071e+00 -5.0443691854e+00 2.9123679071e+00 5.0443691854e+00 
99900 6.4822838678e+00 -4.4079115265e-04 2.9123755308e+00 -5.0443823901e+00 2.9123755308e+00 5.0443823901e+00 
100000 6.4822838609e+00 -4.3754668899e-04 2.9123830984e+00 -5.0443954975e+00 2.9123830984e+00 5.0443954975e+00 
100100 6.4822838540e+00 -4.3432681402e-04 2.9123906102e+00 -5.0444085084e+00 2.9123906102e+00 5.0444085084e+00 
100200 6.4822838473e+00 -4.3113133582e-04 2.9123980667e+00 -5.0444214235e+00 2.9123980667e+00 5.0444214235e+00 
100300 6.4822838406e+00 -4.2796006398e-04 2.9124054684e+00 -5.0444342435e+00 2.9124054684e+00 5.0444342435e+00 
100400 6.4822838341e+00 -4.2481280963e-04 2.9124128156e+00 -5.0444469692e+00 2.9124128156e+00 5.0444469692e+00 
100500 6.4822838276e+00 -4.2168938535e-04 2.9124201087e+00 -5.0444596013e+00 2.9124201087e+00 5.0444596013e+00 
100600 6.4822838212e+00 -4.1858960526e-04 2.9124273482e+00 -5.0444721405e+00 2.9124273482e+00 5.0444721405e+00 
100700 6.4822838149e+00 -4.1551328491e-04 2.9124345345e+00 -5.0444845875e+00 2.9124345345e+00 5.0444845875e+00 
100800 6.4822838087e+00 -4.1246024133e-04 2.9124416680e+00 -5.0444969430e+00 2.9124416680e+00 5.0444969430e+00 
100900 6.4822838026e+00 -4.0943029301e-04 2.9124487490e+00 -5.0445092076e+00 2.9124487490e+00 5.0445092076e+00 
101000 6.4822837965e+00 -4.0642325985e-04 2.9124557779e+00 -5.0445213822e+00 2.9124557779e+00 5.0445213822e+00 
101100 6.4822837906e+00 -4.0343896321e-04 2.9124627553e+00 -5.0445334673e+00 2.9124627553e+00 5.0445334673e+00 
101200 6.4822837847e+00 -4.0047722586e-04 2.9124696813e+00 -5.0445454636e+00 2.9124696813e+00 5.0445454636e+00 
101300 6.4822837789e+00 -3.9753787197e-04 2.9124765566e+00 -5.0445573718e+00 2.9124765566e+00 5.0445573718e+00 
101400 6.4822837732e+00 -3.9462072710e-04 2.9124833813e+00 -5.0445691926e+00 2.9124833813e+00 5.0445691926e+00 
101500 6.4822837676e+00 -3.9172561821e-04 2.9124901560e+00 -5.0445809267e+00 2.9124901560e+00 5.0445809267e+00 
101600 6.4822837621e+00 -3.8885237364e-04 2.9124968809e+00 -5.0445925746e+00 2.9124968809e+00 5.0445925746e+00 
101700 6.4822837566e+00 -3.8600082307e-04 2.9125035565e+00 -5.0446041370e+00 2.9125035565e+00 5.0446041370e+00 
101800 6.4822837512e+00 -3.8317079754e-04 2.9125101831e+00 -5.0446156147e+00 2.9125101831e+00 5.0446156147e+00 
101900 6.4822837459e+00 -3.8036212946e-04 2.9125167611e+00 -5.0446270081e+00 2.9125167611e+00 5.0446270081e+00 
102000 6.4822837407e+00 -3.7757465252e-04 2.9125232909e+00 -5.0446383181e+00 2.9125232909e+00 5.0446383181e+00 
102100 6.4822837355e+00 -3.7480820179e-04 2.9125297728e+00 -5.0446495451e+00 2.9125297728e+00 5.0446495451e+00 
102200 6.4822837304e+00 -3.7206261361e-04 2.9125362072e+00 -5.0446606898e+00 2.9125362072e+00 5.0446606898e+00 
102300 6.4822837254e+00 -3.6933772564e-04 2.9125425945e+00 -5.0446717529e+00 2.9125425945e+00 5.0446717529e+00 
102400 6.4822837205e+00 -3.6663337682e-04 2.9125489350e+00 -5.0446827349e+00 2.9125489350e+00 5.0446827349e+00 
102500 6.4822837156e+00 -3.6394940738e-04 2.9125552290e+00 -5.0446936365e+00 2.9125552290e+00 5.0446936365e+00 
102600 6.4822837108e+00 -3.6128565882e-04 2.9125614769e+00 -5.0447044582e+00 2.9125614769e+00 5.0447044582e+00 
102700 6.4822837061e+00 -3.5864197389e-04 2.9125676791e+00 -5.0447152007e+00 2.9125676791e+00 5.0447152007e+00 
102800 6.4822837014e+00 -3.5601819661e-04 2.9125738359e+00 -5.0447258646e+00 2.9125738359e+00 5.0447258646e+00 
102900 6.4822836968e+00 -3.5341417222e-04 2.9125799477e+00 -5.0447364505e+00 2.9125799477e+00 5.0447364505e+00 
103000 6.4822836922e+00 -3.5082974721e-04 2.9125860147e+00 -5.0447469589e+00 2.9125860147e+00 5.0447469589e+00 
103100 6.4822836878e+00 -3.4826476928e-04 2.9125920374e+00 -5.0447573904e+00 2.9125920374e+00 5.0447573904e+00 
103200 6.4822836834e+00 -3.4571908735e-04 2.9125980160e+00 -5.0447677457e+00 2.9125980160e+00 5.0447677457e+00 
103300 6.4822836790e+00 -3.4319255154e-04 2.9126039509e+00 -5.0447780252e+00 2.9126039509e+00 5.0447780252e+00 
103400 6.4822836747e+00 -3.4068501315e-04 2.9126098424e+00 -5.0447882296e+00 2.9126098424e+00 5.0447882296e+00 
103500 6.4822836705e+00 -3.3819632468e-04 2.9126156908e+00 -5.0447983594e+00 2.9126156908e+00 5.0447983594e+00 
103600 6.4822836664e+00 -3.3572633980e-04 2.9126214965e+00 -5.0448084152e+00 2.9126214965e+00 5.0448084152e+00 
103700 6.4822836623e+00 -3.3327491335e-04 2.9126272599e+00 -5.0448183976e+00 2.9126272599e+00 5.0448183976e+00 
103800 6.4822836582e+00 -3.3084190131e-04 2.9126329811e+00 -5.0448283070e+00 2.9126329811e+00 5.0448283070e+00 
103900 6.4822836542e+00 -3.2842716083e-04 2.9126386605e+00 -5.0448381441e+00 2.9126386605e+00 5.0448381441e+00 
104000 6.4822836503e+00 -3.2603055016e-04 2.9126442985e+00 -5.0448479093e+00 2.9126442985e+00 5.0448479093e+00 
104100 6.4822836464e+00 -3.2365192873e-04 2.9126498953e+00 -5.0448576033e+00 2.9126498953e+00 5.0448576033e+00 
104200 6.4822836426e+00 -3.2129115704e-04 2.9126554512e+00 -5.0448672265e+00 2.9126554512e+00 5.0448672265e+00 
104300 6.4822836388e+00 -3.1894809673e-04 2.9126609667e+00 -5.0448767795e+00 2.9126609667e+00 5.0448767795e+00 
104400 6.4822836351e+00 -3.1662261054e-04 2.9126664419e+00 -5.0448862628e+00 2.9126664419e+00 5.0448862628e+00 
104500 6.4822836315e+00 -3.1431456228e-04 2.9126718772e+00 -5.0448956770e+00 2.9126718772e+00 5.0448956770e+00 
104600 6.4822836279e+00 -3.1202381688e-04 2.9126772728e+00 -5.0449050225e+00 2.9126772728e+00 5.0449050225e+00 
104700 6.4822836243e+00 -3.0975024031e-04 2.9126826291e+00 -5.0449142999e+00 2.9126826291e+00 5.0449142999e+00 
104800 6.4822836208e+00 -3.0749369964e-04 2.9126879464e+00 -5.0449235097e+00 2.9126879464e+00 5.0449235097e+00 
104900 6.4822836174e+00 -3.0525406297e-04 2.9126932249e+00 -5.0449326524e+00 2.9126932249e+00 5.0449326524e+00 
105000 6.4822836140e+00 -3.0303119946e-04 2.9126984650e+00 -5.0449417285e+00 2.9126984650e+00 5.0449417285e+00 
105100 6.4822836106e+00 -3.0082497932e-04 2.9127036669e+00 -5.0449507384e+00 2.9127036669e+00 5.0449507384e+00 
105200 6.4822836073e+00 -2.9863527379e-04 2.9127088309e+00 -5.0449596827e+00 2.9127088309e+00 5.0449596827e+00 
105300 6.4822836041e+00 -2.9646195512e-04 2.9127139573e+00 -5.0449685620e+00 2.9127139573e+00 5.0449685620e+00 
105400 6.4822836009e+00 -2.9430489659e-04 2.9127190464e+00 -5.0449773766e+00 2.9127190464e+00 5.0449773766e+00 
105500 6.4822835977e+00 -2.9216397249e-04 2.9127240985e+00 -5.0449861270e+00 2.9127240985e+00 5.0449861270e+00 
105600 6.4822835946e+00 -2.9003905812e-04 2.9127291138e+00 -5.0449948138e+00 2.9127291138e+00 5.0449948138e+00 
105700 6.4822835915e+00 -2.8793002973e-04 2.9127340926e+00 -5.0450034373e+00 2.9127340926e+00 5.0450034373e+00 
105800 6.4822835885e+00 -2.8583676461e-04 2.9127390352e+00 -5.0450119982e+00 2.9127390352e+00 5.0450119982e+00 
105900 6.4822835855e+00 -2.8375914099e-04 2.9127439419e+00 -5.0450204968e+00 2.9127439419e+00 5.0450204968e+00 
106000 6.4822835826e+00 -2.8169703808e-04 2.9127488129e+00 -5.0450289336e+00 2.9127488129e+00 5.0450289336e+00 
106100 6.4822835797e+00 -2.7965033606e-04 2.9127536485e+00 -5.0450373091e+00 2.9127536485e+00 5.0450373091e+00 
106200 6.4822835769e+00 -2.7761891603e-04 2.9127584489e+00 -5.0450456237e+00 2.9127584489e+00 5.0450456237e+00 
106300 6.4822835740e+00 -2.7560266008e-04 2.9127632145e+00 -5.0450538779e+00 2.9127632145e+00 5.0450538779e+00 
106400 6.4822835713e+00 -2.7360145121e-04 2.9127679454e+00 -5.0450620721e+00 2.9127679454e+00 5.0450620721e+00 
106500 6.4822835685e+00 -2.7161517335e-04 2.9127726420e+00 -5.0450702069e+00 2.9127726420e+00 5.0450702069e+00 
106600 6.4822835659e+00 -2.6964371137e-04 2.9127773045e+00 -5.0450782825e+00 2.9127773045e+00 5.0450782825e+00 
106700 6.4822835632e+00 -2.6768695105e-04 2.9127819331e+00 -5.0450862996e+00 2.9127819331e+00 5.0450862996e+00 
106800 6.4822835606e+00 -2.6574477906e-04 2.9127865282e+00 -5.0450942584e+00 2.9127865282e+00 5.0450942584e+00 
106900 6.4822835580e+00 -2.6381708298e-04 2.9127910899e+00 -5.0451021595e+00 2.9127910899e+00 5.0451021595e+00 
107000 6.4822835555e+00 -2.6190375130e-04 2.9127956185e+00 -5.0451100033e+00 2.9127956185e+00 5.0451100033e+00 
107100 6.4822835530e+00 -2.6000467338e-04 2.9128001142e+00 -5.0451177901e+00 2.9128001142e+00 5.0451177901e+00 
107200 6.4822835505e+00 -2.5811973946e-04 2.9128045774e+00 -5.0451255205e+00 2.9128045774e+00 5.0451255205e+00 
107300 6.4822835481e+00 -2.5624884066e-04 2.9128090081e+00 -5.0451331948e+00 2.9128090081e+00 5.0451331948e+00 
107400 6.4822835457e+00 -2.5439186894e-04 2.9128134068e+00 -5.0451408135e+00 2.9128134068e+00 5.0451408135e+00 
107500 6.4822835434e+00 -2.5254871716e-04 2.9128177736e+00 -5.0451483770e+00 2.9128177736e+00 5.0451483770e+00 
107600 6.4822835410e+00 -2.5071927900e-04 2.9128221087e+00 -5.0451558857e+00 2.9128221087e+00 5.0451558857e+00 
107700 6.4822835387e+00 -2.4890344898e-04 2.9128264124e+00 -5.0451633399e+00 2.9128264124e+00 5.0451633399e+00 
107800 6.4822835365e+00 -2.4710112248e-04 2.9128306850e+00 -5.0451707402e+00 2.9128306850e+00 5.0451707402e+00 
107900 6.4822835343e+00 -2.4531219570e-04 2.9128349266e+00 -5.0451780869e+00 2.9128349266e+00 5.0451780869e+00 
108000 6.4822835321e+00 -2.4353656566e-04 2.9128391374e+00 -5.0451853803e+00 2.9128391374e+00 5.0451853803e+00 
108100 6.4822835299e+00 -2.4177413019e-04 2.9128433178e+00 -5.0451926210e+00 2.9128433178e+00 5.0451926210e+00 
108200 6.4822835278e+00 -2.4002478795e-04 2.9128474680e+00 -5.0451998092e+00 2.9128474680e+00 5.0451998092e+00 
108300 6.4822835257e+00 -2.3828843839e-04 2.9128515881e+00 -5.0452069455e+00 2.9128515881e+00 5.0452069455e+00 
108400 6.4822835237e+00 -2.3656498177e-04 2.9128556784e+00 -5.0452140301e+00 2.9128556784e+00 5.0452140301e+00 
108500 6.4822835216e+00 -2.3485431912e-04 2.9128597391e+00 -5.0452210634e+00 2.9128597391e+00 5.0452210634e+00 
108600 6.4822835196e+00 -2.3315635227e-04 2.9128637704e+00 -5.0452280459e+00 2.9128637704e+00 5.0452280459e+00 
108700 6.4822835177e+00 -2.3147098382e-04 2.9128677726e+00 -5.0452349779e+00 2.9128677726e+00 5.0452349779e+00 
108800 6.4822835157e+00 -2.2979811715e-04 2.9128717459e+00 -5.0452418598e+00 2.9128717459e+00 5.0452418598e+00 
108900 6.4822835138e+00 -2.2813765640e-04 2.9128756904e+00 -5.0452486919e+00 2.9128756904e+00 5.0452486919e+00 
109000 6.4822835119e+00 -2.2648950647e-04 2.9128796064e+00 -5.0452554746e+00 2.9128796064e+00 5.0452554746e+00 
109100 6.4822835101e+00 -2.2485357302e-04 2.9128834941e+00 -5.0452622084e+00 2.9128834941e+00 5.0452622084e+00 
109200 6.4822835082e+00 -2.2322976243e-04 2.9128873538e+00 -5.0452688935e+00 2.9128873538e+00 5.0452688935e+00 
109300 6.4822835064e+00 -2.2161798187e-04 2.9128911855e+00 -5.0452755303e+00 2.9128911855e+00 5.0452755303e+00 
109400 6.4822835047e+00 -2.2001813919e-04 2.9128949896e+00 -5.0452821192e+00 2.9128949896e+00 5.0452821192e+00 
109500 6.4822835029e+00 -2.1843014301e-04 2.9128987663e+00 -5.0452886605e+00 2.9128987663e+00 5.0452886605e+00 
109600 6.4822835012e+00 -2.1685390264e-04 2.9129025156e+00 -5.0452951545e+00 2.9129025156e+00 5.0452951545e+00 
109700 6.4822834995e+00 -2.1528932815e-04 2.9129062379e+00 -5.0453016018e+00 2.9129062379e+00 5.0453016018e+00 
109800 6.4822834978e+00 -2.1373633028e-04 2.9129099334e+00 -5.0453080024e+00 2.9129099334e+00 5.0453080024e+00 
109900 6.4822834962e+00 -2.1219482050e-04 2.9129136021e+00 -5.0453143570e+00 2.9129136021e+00 5.0453143570e+00 
110000 6.4822834946e+00 -2.1066471096e-04 2.9129172444e+00 -5.0453206656e+00 2.9129172444e+00 5.0453206656e+00 
110100 6.4822834930e+00 -2.0914591452e-04 2.9129208605e+00 -5.0453269288e+00 2.9129208605e+00 5.0453269288e+00 
110200 6.4822834914e+00 -2.0763834473e-04 2.9129244505e+00 -5.0453331468e+00 2.9129244505e+00 5.0453331468e+00 
110300 6.4822834899e+00 -2.0614191581e-04 2.9129280145e+00 -5.0453393200e+00 2.9129280145e+00 5.0453393200e+00 
110400 6.4822834883e+00 -2.0465654266e-04 2.9129315529e+00 -5.0453454487e+00 2.9129315529e+00 5.0453454487e+00 
110500 6.4822834868e+00 -2.0318214087e-04 2.9129350658e+00 -5.0453515332e+00 2.9129350658e+00 5.0453515332e+00 
110600 6.4822834853e+00 -2.0171862668e-04 2.9129385534e+00 -5.0453575739e+00 2.9129385534e+00 5.0453575739e+00 
110700 6.4822834839e+00 -2.0026591698e-04 2.9129420159e+00 -5.0453635710e+00 2.9129420159e+00 5.0453635710e+00 
110800 6.4822834825e+00 -1.9882392933e-04 2.9129454534e+00 -5.0453695250e+00 2.9129454534e+00 5.0453695250e+00 
110900 6.4822834810e+00 -1.9739258196e-04 2.9129488662e+00 -5.0453754361e+00 2.9129488662e+00 5.0453754361e+00 
111000 6.4822834796e+00 -1.9597179370e-04 2.9129522544e+00 -5.0453813046e+00 2.9129522544e+00 5.0453813046e+00 
111100 6.4822834783e+00 -1.9456148405e-04 2.9129556182e+00 -5.0453871309e+00 2.9129556182e+00 5.0453871309e+00 
111200 6.4822834769e+00 -1.9316157315e-04 2.9129589578e+00 -5.0453929152e+00 2.9129589578e+00 5.0453929152e+00 
111300 6.4822834756e+00 -1.9177198174e-04 2.9129622733e+00 -5.0453986579e+00 2.9129622733e+00 5.0453986579e+00 
111400 6.4822834743e+00 -1.9039263122e-04 2.9129655650e+00 -5.0454043593e+00 2.9129655650e+00 5.0454043593e+00 
111500 6.4822834730e+00 -1.8902344358e-04 2.9129688330e+00 -5.0454100197e+00 2.9129688330e+00 5.0454100197e+00 
111600 6.4822834717e+00 -1.8766434144e-04 2.9129720776e+00 -5.0454156394e+00 2.9129720776e+00 5.0454156394e+00 
111700 6.4822834705e+00 -1.8631524802e-04 2.9129752987e+00 -5.0454212186e+00 2.9129752987e+00 5.0454212186e+00 
111800 6.4822834692e+00 -1.8497608715e-04 2.9129784968e+00 -5.0454267577e+00 2.9129784968e+00 5.0454267577e+00 
111900 6.4822834680e+00 -1.8364678327e-04 2.9129816718e+00 -5.0454322571e+00 2.9129816718e+00 5.0454322571e+00 
112000 6.4822834668e+00 -1.8232726139e-04 2.9129848240e+00 -5.0454377169e+00 2.9129848240e+00 5.0454377169e+00 
112100 6.4822834657e+00 -1.8101744712e-04 2.9129879536e+00 -5.0454431374e+00 2.9129879536e+00 5.0454431374e+00 
112200 6.4822834645e+00 -1.7971726667e-04 2.9129910606e+00 -5.0454485190e+00 2.9129910606e+00 5.0454485190e+00 
112300 6.4822834634e+00 -1.7842664682e-04 2.9129941454e+00 -5.0454538620e+00 2.9129941454e+00 5.0454538620e+00 
112400 6.4822834622e+00 -1.7714551491e-04 2.9129972080e+00 -5.0454591666e+00 2.9129972080e+00 5.0454591666e+00 
112500 6.4822834611e+00 -1.7587379887e-04 2.9130002486e+00 -5.0454644330e+00 2.9130002486e+00 5.0454644330e+00 
112600 6.4822834600e+00 -1.7461142720e-04 2.9130032674e+00 -5.0454696617e+00 2.9130032674e+00 5.0454696617e+00 
112700 6.4822834590e+00 -1.7335832894e-04 2.9130062645e+00 -5.0454748529e+00 2.9130062645e+00 5.0454748529e+00 
112800 6.4822834579e+00 -1.7211443371e-04 2.9130092401e+00 -5.0454800067e+00 2.9130092401e+00 5.0454800067e+00 
112900 6.4822834569e+00 -1.7087967166e-04 2.9130121943e+00 -5.0454851236e+00 2.9130121943e+00 5.0454851236e+00 
113000 6.4822834558e+00 -1.6965397351e-04 2.9130151274e+00 -5.0454902038e+00 2.9130151274e+00 5.0454902038e+00 
113100 6.4822834548e+00 -1.6843727051e-04 2.9130180394e+00 -5.0454952475e+00 2.9130180394e+00 5.0454952475e+00 
113200 6.4822834538e+00 -1.6722949446e-04 2.9130209305e+00 -5.0455002551e+00 2.9130209305e+00 5.0455002551e+00 
113300 6.4822834529e+00 -1.6603057768e-04 2.9130238008e+00 -5.0455052267e+00 2.9130238008e+00 5.0455052267e+00 
113400 6.4822834519e+00 -1.6484045303e-04 2.9130266506e+00 -5.0455101627e+00 2.9130266506e+00 5.0455101627e+00 
113500 6.4822834509e+00 -1.6365905390e-04 2.9130294800e+00 -5.0455150633e+00 2.9130294800e+00 5.0455150633e+00 
113600 6.4822834500e+00 -1.6248631420e-04 2.9130322891e+00 -5.0455199288e+00 2.9130322891e+00 5.0455199288e+00 
113700 6.4822834491e+00 -1.6132216834e-04 2.9130350781e+00 -5.0455247594e+00 2.9130350781e+00 5.0455247594e+00 
113800 6.4822834482e+00 -1.6016655128e-04 2.9130378470e+00 -5.0455295554e+00 2.9130378470e+00 5.0455295554e+00 
113900 6.4822834473e+00 -1.5901939846e-04 2.9130405962e+00 -5.0455343171e+00 2.9130405962e+00 5.0455343171e+00 
114000 6.4822834464e+00 -1.5788064583e-04 2.9130433256e+00 -5.0455390446e+00 2.9130433256e+00 5.0455390446e+00 
114100 6.4822834456e+00 -1.5675022984e-04 2.9130460355e+00 -5.0455437383e+00 2.9130460355e+00 5.0455437383e+00 
114200 6.4822834447e+00 -1.5562808746e-04 2.9130487260e+00 -5.0455483983e+00 2.9130487260e+00 5.0455483983e+00 
114300 6.4822834439e+00 -1.5451415613e-04 2.9130513972e+00 -5.0455530250e+00 2.9130513972e+00 5.0455530250e+00 
114400 6.4822834431e+00 -1.5340837378e-04 2.9130540493e+00 -5.0455576186e+00 2.9130540493e+00 5.0455576186e+00 
114500 6.4822834422e+00 -1.5231067884e-04 2.9130566824e+00 -5.0455621793e+00 2.9130566824e+00 5.0455621793e+00 
114600 6.4822834414e+00 -1.5122101021e-04 2.9130592967e+00 -5.0455667074e+00 2.9130592967e+00 5.0455667074e+00 
114700 6.4822834407e+00 -1.5013930726e-04 2.9130618923e+00 -5.0455712030e+00 2.9130618923e+00 5.0455712030e+00 
114800 6.4822834399e+00 -1.4906550985e-04 2.9130644693e+00 -5.0455756665e+00 2.9130644693e+00 5.0455756665e+00 
114900 6.4822834391e+00 -1.4799955831e-04 2.9130670278e+00 -5.0455800981e+00 2.9130670278e+00 5.0455800981e+00 
115000 6.4822834384e+00 -1.4694139342e-04 2.9130695681e+00 -5.0455844980e+00 2.9130695681e+00 5.0455844980e+00 
115100 6.4822834376e+00 -1.4589095645e-04 2.9130720902e+00 -5.0455888664e+00 2.9130720902e+00 5.0455888664e+00 
115200 6.4822834369e+00 -1.4484818909e-04 2.9130745943e+00 -5.0455932036e+00 2.9130745943e+00 5.0455932036e+00 
115300 6.4822834362e+00 -1.4381303352e-04 2.9130770805e+00 -5.0455975097e+00 2.9130770805e+00 5.0455975097e+00 
115400 6.4822834355e+00 -1.4278543235e-04 2.9130795489e+00 -5.0456017851e+00 2.9130795489e+00 5.0456017851e+00 
115500 6.4822834348e+00 -1.4176532865e-04 2.9130819996e+00 -5.0456060300e+00 2.9130819996e+00 5.0456060300e+00 
115600 6.4822834341e+00 -1.4075266593e-04 2.9130844329e+00 -5.0456102445e+00 2.9130844329e+00 5.0456102445e+00 
115700 6.4822834335e+00 -1.3974738813e-04 2.9130868488e+00 -5.0456144289e+00 2.9130868488e+00 5.0456144289e+00 
115800 6.4822834328e+00 -1.3874943965e-04 2.9130892474e+00 -5.0456185834e+00 2.9130892474e+00 5.0456185834e+00 
115900 6.4822834321e+00 -1.3775876531e-04 2.9130916289e+00 -5.0456227083e+00 2.9130916289e+00 5.0456227083e+00 
116000 6.4822834315e+00 -1.3677531036e-04 2.9130939933e+00 -5.0456268037e+00 2.9130939933e+00 5.0456268037e+00 
116100 6.4822834309e+00 -1.3579902047e-04 2.9130963409e+00 -5.0456308698e+00 2.9130963409e+00 5.0456308698e+00 
116200 6.4822834303e+00 -1.3482984174e-04 2.9130986718e+00 -5.0456349070e+00 2.9130986718e+00 5.0456349070e+00 
116300 6.4822834296e+00 -1.3386772070e-04 2.9131009860e+00 -5.0456389153e+00 2.9131009860e+00 5.0456389153e+00 
116400 6.4822834290e+00 -1.3291260428e-04 2.9131032837e+00 -5.0456428950e+00 2.9131032837e+00 5.0456428950e+00 
116500 6.4822834285e+00 -1.3196443983e-04 2.9131055649e+00 -5.0456468463e+00 2.9131055649e+00 5.0456468463e+00 
116600 6.4822834279e+00 -1.3102317512e-04 2.9131078300e+00 -5.0456507694e+00 2.9131078300e+00 5.0456507694e+00 
116700 6.4822834273e+00 -1.3008875830e-04 2.9131100788e+00 -5.0456546645e+00 2.9131100788e+00 5.0456546645e+00 
116800 6.4822834267e+00 -1.2916113795e-04 2.9131123116e+00 -5.0456585319e+00 2.9131123116e+00 5.0456585319e+00 
116900 6.4822834262e+00 -1.2824026303e-04 2.9131145285e+00 -5.0456623717e+00 2.9131145285e+00 5.0456623717e+00 
117000 6.4822834256e+00 -1.2732608292e-04 2.9131167296e+00 -5.0456661841e+00 2.9131167296e+00 5.0456661841e+00 
117100 6.4822834251e+00 -1.2641854737e-04 2.9131189150e+00 -5.0456699693e+00 2.9131189150e+00 5.0456699693e+00 
117200 6.4822834246e+00 -1.2551760653e-04 2.9131210848e+00 -5.0456737275e+00 2.9131210848e+00 5.0456737275e+00 
117300 6.4822834241e+00 -1.2462321094e-04 2.9131232392e+00 -5.0456774589e+00 2.9131232392e+00 5.0456774589e+00 
117400 6.4822834236e+00 -1.2373531152e-04 2.9131253782e+00 -5.0456811638e+00 2.9131253782e+00 5.0456811638e+00 
117500 6.4822834231e+00 -1.2285385957e-04 2.9131275019e+00 -5.0456848422e+00 2.9131275019e+00 5.0456848422e+00 
117600 6.4822834226e+00 -1.2197880678e-04 2.9131296105e+00 -5.0456884945e+00 2.9131296105e+00 5.0456884945e+00 
117700 6.4822834221e+00 -1.2111010521e-04 2.9131317041e+00 -5.0456921207e+00 2.9131317041e+00 5.0456921207e+00 
117800 6.4822834216e+00 -1.2024770727e-04 2.9131337828e+00 -5.0456957211e+00 2.9131337828e+00 5.0456957211e+00 
117900 6.4822834211e+00 -1.1939156577e-04 2.9131358467e+00 -5.0456992959e+00 2.9131358467e+00 5.0456992959e+00 
118000 6.4822834207e+00 -1.1854163387e-04 2.9131378959e+00 -5.0457028452e+00 2.9131378959e+00 5.0457028452e+00 
118100 6.4822834202e+00 -1.1769786509e-04 2.9131399305e+00 -5.0457063692e+00 2.9131399305e+00 5.0457063692e+00 
118200 6.4822834198e+00 -1.1686021334e-04 2.9131419506e+00 -5.0457098682e+00 2.9131419506e+00 5.0457098682e+00 
118300 6.4822834193e+00 -1.1602863284e-04 2.9131439564e+00 -5.0457133422e+00 2.9131439564e+00 5.0457133422e+00 
118400 6.4822834189e+00 -1.1520307820e-04 2.9131459479e+00 -5.0457167916e+00 2.9131459479e+00 5.0457167916e+00 
118500 6.4822834185e+00 -1.1438350438e-04 2.9131479252e+00 -5.0457202163e+00 2.9131479252e+00 5.0457202163e+00 
118600 6.4822834180e+00 -1.1356986666e-04 2.9131498884e+00 -5.0457236167e+00 2.9131498884e+00 5.0457236167e+00 
118700 6.4822834176e+00 -1.1276212070e-04 2.9131518376e+00 -5.0457269930e+00 2.9131518376e+00 5.0457269930e+00 
118800 6.4822834172e+00 -1.1196022249e-04 2.9131537730e+00 -5.0457303452e+00 2.9131537730e+00 5.0457303452e+00 
118900 6.4822834168e+00 -1.1116412836e-04 2.9131556947e+00 -5.0457336735e+00 2.9131556947e+00 5.0457336735e+00 
119000 6.4822834164e+00 -1.1037379497e-04 2.9131576026e+00 -5.0457369782e+00 2.9131576026e+00 5.0457369782e+00 
119100 6.4822834160e+00 -1.0958917933e-04 2.9131594970e+00 -5.0457402594e+00 2.9131594970e+00 5.0457402594e+00 
119200 6.4822834157e+00 -1.0881023878e-04 2.9131613780e+00 -5.0457435173e+00 2.9131613780e+00 5.0457435173e+00 
119300 6.4822834153e+00 -1.0803693098e-04 2.9131632455e+00 -5.0457467520e+00 2.9131632455e+00 5.0457467520e+00 
119400 6.4822834149e+00 -1.0726921393e-04 2.9131650998e+00 -5.0457499637e+00 2.9131650998e+00 5.0457499637e+00 
119500 6.4822834146e+00 -1.0650704595e-04 2.9131669409e+00 -5.0457531526e+00 2.9131669409e+00 5.0457531526e+00 
119600 6.4822834142e+00 -1.0575038567e-04 2.9131687690e+00 -5.0457563189e+00 2.9131687690e+00 5.0457563189e+00 
119700 6.4822834138e+00 -1.0499919206e-04 2.9131705840e+00 -5.0457594626e+00 2.9131705840e+00 5.0457594626e+00 
119800 6.4822834135e+00 -1.0425342439e-04 2.9131723862e+00 -5.0457625840e+00 2.9131723862e+00 5.0457625840e+00 
119900 6.4822834132e+00 -1.0351304226e-04 2.9131741755e+00 -5.0457656833e+00 2.9131741755e+00 5.0457656833e+00 
120000 6.4822834128e+00 -1.0277800557e-04 2.9131759521e+00 -5.0457687605e+00 2.9131759521e+00 5.0457687605e+00 
120100 6.4822834125e+00 -1.0204827454e-04 2.9131777162e+00 -5.0457718159e+00 2.9131777162e+00 5.0457718159e+00 
120200 6.4822834122e+00 -1.0132380968e-04 2.9131794677e+00 -5.0457748495e+00 2.9131794677e+00 5.0457748495e+00 
120300 6.4822834119e+00 -1.0060457182e-04 2.9131812067e+00 -5.0457778617e+00 2.9131812067e+00 5.0457778617e+00 
120400 6.4822834116e+00 -9.9890522088e-05 2.9131829334e+00 -5.0457808524e+00 2.9131829334e+00 5.0457808524e+00 
120500 6.4822834113e+00 -9.9181621913e-05 2.9131846479e+00 -5.0457838220e+00 2.9131846479e+00 5.0457838220e+00 
120600 6.4822834109e+00 -9.8477833017e-05 2.9131863502e+00 -5.0457867704e+00 2.9131863502e+00 5.0457867704e+00 
120700 6.4822834107e+00 -9.7779117422e-05 2.9131880404e+00 -5.0457896979e+00 2.9131880404e+00 5.0457896979e+00 
120800 6.4822834104e+00 -9.7085437438e-05 2.9131897186e+00 -5.0457926047e+00 2.9131897186e+00 5.0457926047e+00 
120900 6.4822834101e+00 -9.6396755671e-05 2.9131913849e+00 -5.0457954908e+00 2.9131913849e+00 5.0457954908e+00 
121000 6.4822834098e+00 -9.5713035011e-05 2.9131930394e+00 -5.0457983565e+00 2.9131930394e+00 5.0457983565e+00 
121100 6.4822834095e+00 -9.5034238632e-05 2.9131946821e+00 -5.0458012018e+00 2.9131946821e+00 5.0458012018e+00 
121200 6.4822834092e+00 -9.4360330000e-05 2.9131963132e+00 -5.0458040270e+00 2.9131963132e+00 5.0458040270e+00 
121300 6.4822834090e+00 -9.3691272856e-05 2.9131979328e+00 -5.0458068321e+00 2.9131979328e+00 5.0458068321e+00 
121400 6.4822834087e+00 -9.3027031216e-05 2.9131995408e+00 -5.0458096173e+00 2.9131995408e+00 5.0458096173e+00 
121500 6.4822834085e+00 -9.2367569382e-05 2.9132011375e+00 -5.0458123828e+00 2.9132011375e+00 5.0458123828e+00 
121600 6.4822834082e+00 -9.1712851927e-05 2.9132027228e+00 -5.0458151286e+00 2.9132027228e+00 5.0458151286e+00 
121700 6.4822834080e+00 -9.1062843693e-05 2.9132042969e+00 -5.0458178550e+00 2.9132042969e+00 5.0458178550e+00 
121800 6.4822834077e+00 -9.0417509794e-05 2.9132058598e+00 -5.0458205621e+00 2.9132058598e+00 5.0458205621e+00 
121900 6.4822834075e+00 -8.9776815618e-05 2.9132074117e+00 -5.0458232500e+00 2.9132074117e+00 5.0458232500e+00 
122000 6.4822834072e+00 -8.9140726811e-05 2.9132089525e+00 -5.0458259189e+00 2.9132089525e+00 5.0458259189e+00 
122100 6.4822834070e+00 -8.8509209288e-05 2.9132104825e+00 -5.0458285688e+00 2.9132104825e+00 5.0458285688e+00 
122200 6.4822834068e+00 -8.7882229223e-05 2.9132120016e+00 -5.0458312000e+00 2.9132120016e+00 5.0458312000e+00 
122300 6.4822834065e+00 -8.7259753051e-05 2.9132135099e+00 -5.0458338125e+00 2.9132135099e+00 5.0458338125e+00 
122400 6.4822834063e+00 -8.6641747464e-05 2.9132150076e+00 -5.0458364065e+00 2.9132150076e+00 5.0458364065e+00 
122500 6.4822834061e+00 -8.6028179414e-05 2.9132164946e+00 -5.0458389821e+00 2.9132164946e+00 5.0458389821e+00 
122600 6.4822834059e+00 -8.5419016098e-05 2.9132179711e+00 -5.0458415395e+00 2.9132179711e+00 5.0458415395e+00 
122700 6.4822834057e+00 -8.4814224973e-05 2.9132194372e+00 -5.0458440788e+00 2.9132194372e+00 5.0458440788e+00 
122800 6.4822834055e+00 -8.4213773740e-05 2.9132208929e+00 -5.0458466001e+00 2.9132208929e+00 5.0458466001e+00 
122900 6.4822834053e+00 -8.3617630351e-05 2.9132223382e+00 -5.0458491036e+00 2.9132223382e+00 5.0458491036e+00 
123000 6.4822834051e+00 -8.3025763002e-05 2.9132237734e+00 -5.0458515893e+00 2.9132237734e+00 5.0458515893e+00 
123100 6.4822834049e+00 -8.2438140133e-05 2.9132251984e+00 -5.0458540575e+00 2.9132251984e+00 5.0458540575e+00 
123200 6.4822834047e+00 -8.1854730427e-05 2.9132266133e+00 -5.0458565081e+00 2.9132266133e+00 5.0458565081e+00 
123300 6.4822834045e+00 -8.1275502805e-05 2.9132280181e+00 -5.0458589415e+00 2.9132280181e+00 5.0458589415e+00 
123400 6.4822834043e+00 -8.0700426426e-05 2.9132294131e+00 -5.0458613576e+00 2.9132294131e+00 5.0458613576e+00 
123500 6.4822834041e+00 -8.0129470691e-05 2.9132307982e+00 -5.0458637566e+00 2.9132307982e+00 5.0458637566e+00 
123600 6.4822834039e+00 -7.9562605224e-05 2.9132321734e+00 -5.0458661386e+00 2.9132321734e+00 5.0458661386e+00 
123700 6.4822834038e+00 -7.8999799889e-05 2.9132335390e+00 -5.0458685038e+00 2.9132335390e+00 5.0458685038e+00 
123800 6.4822834036e+00 -7.8441024783e-05 2.9132348948e+00 -5.0458708522e+00 2.9132348948e+00 5.0458708522e+00 
123900 6.4822834034e+00 -7.7886250227e-05 2.9132362411e+00 -5.0458731841e+00 2.9132362411e+00 5.0458731841e+00 
124000 6.4822834033e+00 -7.7335446769e-05 2.9132375779e+00 -5.0458754994e+00 2.9132375779e+00 5.0458754994e+00 
124100 6.4822834031e+00 -7.6788585183e-05 2.9132389052e+00 -5.0458777984e+00 2.9132389052e+00 5.0458777984e+00 
124200 6.4822834029e+00 -7.6245636465e-05 2.9132402231e+00 -5.0458800811e+00 2.9132402231e+00 5.0458800811e+00 
124300 6.4822834028e+00 -7.5706571838e-05 2.9132415317e+00 -5.0458823477e+00 2.9132415317e+00 5.0458823477e+00 
124400 6.4822834026e+00 -7.5171362735e-05 2.9132428311e+00 -5.0458845982e+00 2.9132428311e+00 5.0458845982e+00 
124500 6.4822834025e+00 -7.4639980819e-05 2.9132441212e+00 -5.0458868329e+00 2.9132441212e+00 5.0458868329e+00 
124600 6.4822834023e+00 -7.4112397960e-05 2.9132454023e+00 -5.0458890517e+00 2.9132454023e+00 5.0458890517e+00 
124700 6.4822834022e+00 -7.3588586246e-05 2.9132466743e+00 -5.0458912548e+00 2.9132466743e+00 5.0458912548e+00 
124800 6.4822834020e+00 -7.3068517980e-05 2.9132479373e+00 -5.0458934424e+00 2.9132479373e+00 5.0458934424e+00 
124900 6.4822834019e+00 -7.2552165673e-05 2.9132491914e+00 -5.0458956145e+00 2.9132491914e+00 5.0458956145e+00 
125000 6.4822834017e+00 -7.2039502047e-05 2.9132504366e+00 -5.0458977713e+00 2.9132504366e+00 5.0458977713e+00 
125100 6.4822834016e+00 -7.1530500032e-05 2.9132516730e+00 -5.0458999128e+00 2.9132516730e+00 5.0458999128e+00 
125200 6.4822834015e+00 -7.1025132763e-05 2.9132529007e+00 -5.0459020392e+00 2.9132529007e+00 5.0459020392e+00 
125300 6.4822834013e+00 -7.0523373581e-05 2.9132541197e+00 -5.0459041506e+00 2.9132541197e+00 5.0459041506e+00 
125400 6.4822834013e+00 -7.0815841324e-05 2.9132541197e+00 -5.0459041506e+00 2.9132541197e+00 5.0459041506e+00 
125500 6.4822834011e+00 -7.0319911960e-05 2.9132553351e+00 -5.0459062557e+00 2.9132553351e+00 5.0459062557e+00 
125600 6.4822834011e+00 -7.0615386039e-05 2.9132553351e+00 -5.0459062557e+00 2.9132553351e+00 5.0459062557e+00 
125700 6.4822834010e+00 -7.0915952193e-05 2.9132553351e+00 -5.0459062557e+00 2.9132553351e+00 5.0459062557e+00 
125800 6.4822834009e+00 -7.0426155484e-05 2.9132565522e+00 -5.0459083639e+00 2.9132565522e+00 5.0459083639e+00 
125900 6.4822834008e+00 -7.0728142667e-05 2.9132565522e+00 -5.0459083639e+00 2.9132565522e+00 5.0459083639e+00 
126000 6.4822834007e+00 -7.0241635312e-05 2.9132577661e+00 -5.0459104664e+00 2.9132577661e+00 5.0459104664e+00 
126100 6.4822834006e+00 -7.0544612887e-05 2.9132577661e+00 -5.0459104664e+00 2.9132577661e+00 5.0459104664e+00 
126200 6.4822834006e+00 -7.0851843675e-05 2.9132577661e+00 -5.0459104664e+00 2.9132577661e+00 5.0459104664e+00 
126300 6.4822834005e+00 -7.0368680600e-05 2.9132589821e+00 -5.0459125726e+00 2.9132589821e+00 5.0459125726e+00 
126400 6.4822834004e+00 -7.0675921239e-05 2.9132589821e+00 -5.0459125726e+00 2.9132589821e+00 5.0459125726e+00 
126500 6.4822834004e+00 -7.0987004490e-05 2.9132589821e+00 -5.0459125726e+00 2.9132589821e+00 5.0459125726e+00 
126600 6.4822834002e+00 -7.0505804074e-05 2.9132602005e+00 -5.0459146829e+00 2.9132602005e+00 5.0459146829e+00 
126700 6.4822834002e+00 -7.0816168210e-05 2.9132602005e+00 -5.0459146829e+00 2.9132602005e+00 5.0459146829e+00 
126800 6.4822834001e+00 -7.0336125132e-05 2.9132614159e+00 -5.0459167880e+00 2.9132614159e+00 5.0459167880e+00 
126900 6.4822834000e+00 -7.0645701322e-05 2.9132614159e+00 -5.0459167880e+00 2.9132614159e+00 5.0459167880e+00 
127000 6.4822834000e+00 -7.0958746552e-05 2.9132614159e+00 -5.0459167880e+00 2.9132614159e+00 5.0459167880e+00 
127100 6.4822833999e+00 -7.0479463845e-05 2.9132626337e+00 -5.0459188974e+00 2.9132626337e+00 5.0459188974e+00 
127200 6.4822833999e+00 -7.0791086616e-05 2.9132626337e+00 -5.0459188974e+00 2.9132626337e+00 5.0459188974e+00 
127300 6.4822833998e+00 -7.0312243786e-05 2.9132638487e+00 -5.0459210018e+00 2.9132638487e+00 5.0459210018e+00 
127400 6.4822833997e+00 -7.0622413905e-05 2.9132638487e+00 -5.0459210018e+00 2.9132638487e+00 5.0459210018e+00 
127500 6.4822833997e+00 -7.0935729713e-05 2.9132638487e+00 -5.0459210018e+00 2.9132638487e+00 5.0459210018e+00 
127600 6.4822833996e+00 -7.0456656199e-05 2.9132650662e+00 -5.0459231105e+00 2.9132650662e+00 5.0459231105e+00 
127700 6.4822833995e+00 -7.0767921155e-05 2.9132650662e+00 -5.0459231105e+00 2.9132650662e+00 5.0459231105e+00 
127800 6.4822833994e+00 -7.0288669187e-05 2.9132662807e+00 -5.0459252142e+00 2.9132662807e+00 5.0459252142e+00 
127900 6.4822833994e+00 -7.0597868444e-05 2.9132662807e+00 -5.0459252142e+00 2.9132662807e+00 5.0459252142e+00 
128000 6.4822833994e+00 -7.0909909935e-05 2.9132662807e+00 -5.0459252142e+00 2.9132662807e+00 5.0459252142e+00 
128100 6.4822833993e+00 -7.0429549444e-05 2.9132674978e+00 -5.0459273222e+00 2.9132674978e+00 5.0459273222e+00 
128200 6.4822833993e+00 -7.0738943978e-05 2.9132674978e+00 -5.0459273222e+00 2.9132674978e+00 5.0459273222e+00 
128300 6.4822833992e+00 -7.0257849068e-05 2.9132687118e+00 -5.0459294250e+00 2.9132687118e+00 5.0459294250e+00 
128400 6.4822833991e+00 -7.0564591310e-05 2.9132687118e+00 -5.0459294250e+00 2.9132687118e+00 5.0459294250e+00 
128500 6.4822833991e+00 -7.0873884161e-05 2.9132687118e+00 -5.0459294250e+00 2.9132687118e+00 5.0459294250e+00 
128600 6.4822833990e+00 -7.0390888623e-05 2.9132699282e+00 -5.0459315319e+00 2.9132699282e+00 5.0459315319e+00 
128700 6.4822833990e+00 -7.0696962793e-05 2.9132699282e+00 -5.0459315319e+00 2.9132699282e+00 5.0459315319e+00 
128800 6.4822833990e+00 -7.1005337014e-05 2.9132699282e+00 -5.0459315319e+00 2.9132699282e+00 5.0459315319e+00 
128900 6.4822833989e+00 -7.0519710891e-05 2.9132711469e+00 -5.0459336427e+00 2.9132711469e+00 5.0459336427e+00 
129000 6.4822833989e+00 -7.0824389129e-05 2.9132711469e+00 -5.0459336427e+00 2.9132711469e+00 5.0459336427e+00 
129100 6.4822833988e+00 -7.0337118648e-05 2.9132723624e+00 -5.0459357480e+00 2.9132723624e+00 5.0459357480e+00 
129200 6.4822833988e+00 -7.0638148224e-05 2.9132723624e+00 -5.0459357480e+00 2.9132723624e+00 5.0459357480e+00 
129300 6.4822833988e+00 -7.0941251439e-05 2.9132723624e+00 -5.0459357480e+00 2.9132723624e+00 5.0459357480e+00 
129400 6.4822833987e+00 -7.0450842322e-05 2.9132735800e+00 -5.0459378569e+00 2.9132735800e+00 5.0459378569e+00 
129500 6.4822833987e+00 -7.0749795379e-05 2.9132735800e+00 -5.0459378569e+00 2.9132735800e+00 5.0459378569e+00 
129600 6.4822833986e+00 -7.0257402500e-05 2.9132747943e+00 -5.0459399601e+00 2.9132747943e+00 5.0459399601e+00 
129700 6.4822833986e+00 -7.0552249758e-05 2.9132747943e+00 -5.0459399601e+00 2.9132747943e+00 5.0459399601e+00 
129800 6.4822833986e+00 -7.0848938677e-05 2.9132747943e+00 -5.0459399601e+00 2.9132747943e+00 5.0459399601e+00 
129900 6.4822833985e+00 -7.0352919414e-05 2.9132760102e+00 -5.0459420662e+00 2.9132760102e+00 5.0459420662e+00 
130000 6.4822833985e+00 -7.0645010349e-05 2.9132760102e+00 -5.0459420662e+00 2.9132760102e+00 5.0459420662e+00 
130100 6.4822833985e+00 -7.0938727857e-05 2.9132760102e+00 -5.0459420662e+00 2.9132760102e+00 5.0459420662e+00 
130200 6.4822833984e+00 -7.0438528612e-05 2.9132772277e+00 -5.0459441750e+00 2.9132772277e+00 5.0459441750e+00 
130300 6.4822833984e+00 -7.0727247957e-05 2.9132772277e+00 -5.0459441750e+00 2.9132772277e+00 5.0459441750e+00 
130400 6.4822833983e+00 -7.0224469481e-05 2.9132784416e+00 -5.0459462775e+00 2.9132784416e+00 5.0459462775e+00 
130500 6.4822833983e+00 -7.0508291441e-05 2.9132784416e+00 -5.0459462775e+00 2.9132784416e+00 5.0459462775e+00 
130600 6.4822833983e+00 -7.0793576424e-05 2.9132784416e+00 -5.0459462775e+00 2.9132784416e+00 5.0459462775e+00 
130700 6.4822833982e+00 -7.0286406153e-05 2.9132796566e+00 -5.0459483820e+00 2.9132796566e+00 5.0459483820e+00 
130800 6.4822833982e+00 -7.0566377209e-05 2.9132796566e+00 -5.0459483820e+00 2.9132796566e+00 5.0459483820e+00 
130900 6.4822833982e+00 -7.0847630240e-05 2.9132796566e+00 -5.0459483820e+00 2.9132796566e+00 5.0459483820e+00 
131000 6.4822833981e+00 -7.0335653366e-05 2.9132808726e+00 -5.0459504880e+00 2.9132808726e+00 5.0459504880e+00 
131100 6.4822833981e+00 -7.0611261665e-05 2.9132808726e+00 -5.0459504880e+00 2.9132808726e+00 5.0459504880e+00 
131200 6.4822833981e+00 -7.0888005350e-05 2.9132808726e+00 -5.0459504880e+00 2.9132808726e+00 5.0459504880e+00 
131300 6.4822833981e+00 -7.0370928421e-05 2.9132820892e+00 -5.0459525953e+00 2.9132820892e+00 5.0459525953e+00 
131400 6.4822833980e+00 -7.0641755823e-05 2.9132820892e+00 -5.0459525953e+00 2.9132820892e+00 5.0459525953e+00 
131500 6.4822833980e+00 -7.0913596470e-05 2.9132820892e+00 -5.0459525953e+00 2.9132820892e+00 5.0459525953e+00 
131600 6.4822833980e+00 -7.0391213747e-05 2.9132833063e+00 -5.0459547033e+00 2.9132833063e+00 5.0459547033e+00 
131700 6.4822833980e+00 -7.0656910529e-05 2.9132833063e+00 -5.0459547033e+00 2.9132833063e+00 5.0459547033e+00 
131800 6.4822833980e+00 -7.0923516918e-05 2.9132833063e+00 -5.0459547033e+00 2.9132833063e+00 5.0459547033e+00 
131900 6.4822833979e+00 -7.0395690049e-05 2.9132845235e+00 -5.0459568117e+00 2.9132845235e+00 5.0459568117e+00 
132000 6.4822833979e+00 -7.0655959769e-05 2.9132845235e+00 -5.0459568117e+00 2.9132845235e+00 5.0459568117e+00 
132100 6.4822833979e+00 -7.0917050339e-05 2.9132845235e+00 -5.0459568117e+00 2.9132845235e+00 5.0459568117e+00 
132200 6.4822833979e+00 -7.0383695554e-05 2.9132857407e+00 -5.0459589198e+00 2.9132857407e+00 5.0459589198e+00 
132300 6.4822833978e+00 -7.0638285738e-05 2.9132857407e+00 -5.0459589198e+00 2.9132857407e+00 5.0459589198e+00 
132400 6.4822833978e+00 -7.0893620590e-05 2.9132857407e+00 -5.0459589198e+00 2.9132857407e+00 5.0459589198e+00 
132500 6.4822833978e+00 -7.0354700258e-05 2.9132869574e+00 -5.0459610272e+00 2.9132869574e+00 5.0459610272e+00 
132600 6.4822833978e+00 -7.0603396457e-05 2.9132869574e+00 -5.0459610272e+00 2.9132869574e+00 5.0459610272e+00 
132700 6.4822833978e+00 -7.0852772226e-05 2.9132869574e+00 -5.0459610272e+00 2.9132869574e+00 5.0459610272e+00 
132800 6.4822833977e+00 -7.0308289039e-05 2.9132881734e+00 -5.0459631335e+00 2.9132881734e+00 5.0459631335e+00 
132900 6.4822833977e+00 -7.0550910911e-05 2.9132881734e+00 -5.0459631335e+00 2.9132881734e+00 5.0459631335e+00 
133000 6.4822833977e+00 -7.0794157298e-05 2.9132881734e+00 -5.0459631335e+00 2.9132881734e+00 5.0459631335e+00 
133100 6.4822833977e+00 -7.0244149987e-05 2.9132893884e+00 -5.0459652379e+00 2.9132893884e+00 5.0459652379e+00 
133200 6.4822833977e+00 -7.0480548533e-05 2.9132893884e+00 -5.0459652379e+00 2.9132893884e+00 5.0459652379e+00 
133300 6.4822833977e+00 -7.0717525823e-05 2.9132893884e+00 -5.0459652379e+00 2.9132893884e+00 5.0459652379e+00 
133400 6.4822833976e+00 -7.0162065794e-05 2.9132906021e+00 -5.0459673401e+00 2.9132906021e+00 5.0459673401e+00 
133500 6.4822833976e+00 -7.0392121269e-05 2.9132906021e+00 -5.0459673401e+00 2.9132906021e+00 5.0459673401e+00 
133600 6.4822833976e+00 -7.0622718378e-05 2.9132906021e+00 -5.0459673401e+00 2.9132906021e+00 5.0459673401e+00 
133700 6.4822833976e+00 -7.0853683970e-05 2.9132906021e+00 -5.0459673401e+00 2.9132906021e+00 5.0459673401e+00 
133800 6.4822833976e+00 -7.0290502382e-05 2.9132918182e+00 -5.0459694464e+00 2.9132918182e+00 5.0459694464e+00 
133900 6.4822833976e+00 -7.0514189374e-05 2.9132918182e+00 -5.0459694464e+00 2.9132918182e+00 5.0459694464e+00 
134000 6.4822833976e+00 -7.0738279277e-05 2.9132918182e+00 -5.0459694464e+00 2.9132918182e+00 5.0459694464e+00 
134100 6.4822833975e+00 -7.0169542857e-05 2.9132930323e+00 -5.0459715492e+00 2.9132930323e+00 5.0459715492e+00 
134200 6.4822833975e+00 -7.0386414966e-05 2.9132930323e+00 -5.0459715492e+00 2.9132930323e+00 5.0459715492e+00 
134300 6.4822833976e+00 -7.0603706259e-05 2.9132930323e+00 -5.0459715492e+00 2.9132930323e+00 5.0459715492e+00 
134400 6.4822833976e+00 -7.0821257470e-05 2.9132930323e+00 -5.0459715492e+00 2.9132930323e+00 5.0459715492e+00 
134500 6.4822833975e+00 -7.0244928476e-05 2.9132942477e+00 -5.0459736545e+00 2.9132942477e+00 5.0459736545e+00 
134600 6.4822833975e+00 -7.0455023687e-05 2.9132942477e+00 -5.0459736545e+00 2.9132942477e+00 5.0459736545e+00 
134700 6.4822833975e+00 -7.0665446787e-05 2.9132942477e+00 -5.0459736545e+00 2.9132942477e+00 5.0459736545e+00 
134800 6.4822833975e+00 -7.0876050926e-05 2.9132942477e+00 -5.0459736545e+00 2.9132942477e+00 5.0459736545e+00 
134900 6.4822833975e+00 -7.0292092069e-05 2.9132954642e+00 -5.0459757614e+00 2.9132954642e+00 5.0459757614e+00 
135000 6.4822833975e+00 -7.0495107566e-05 2.9132954642e+00 -5.0459757614e+00 2.9132954642e+00 5.0459757614e+00 
135100 6.4822833975e+00 -7.0698400690e-05 2.9132954642e+00 -5.0459757614e+00 2.9132954642e+00 5.0459757614e+00 
135200 6.4822833975e+00 -7.0901831742e-05 2.9132954642e+00 -5.0459757614e+00 2.9132954642e+00 5.0459757614e+00 
135300 6.4822833974e+00 -7.0310373646e-05 2.9132966810e+00 -5.0459778691e+00 2.9132966810e+00 5.0459778691e+00 
135400 6.4822833974e+00 -7.0506145385e-05 2.9132966810e+00 -5.0459778691e+00 2.9132966810e+00 5.0459778691e+00 
135500 6.4822833975e+00 -7.0702168676e-05 2.9132966810e+00 -5.0459778691e+00 2.9132966810e+00 5.0459778691e+00 
135600 6.4822833975e+00 -7.0898308267e-05 2.9132966810e+00 -5.0459778691e+00 2.9132966810e+00 5.0459778691e+00 
135700 6.4822833974e+00 -7.0299580339e-05 2.9132978978e+00 -5.0459799766e+00 2.9132978978e+00 5.0459799766e+00 
135800 6.4822833974e+00 -7.0488029489e-05 2.9132978978e+00 -5.0459799766e+00 2.9132978978e+00 5.0459799766e+00 
135900 6.4822833974e+00 -7.0676719476e-05 2.9132978978e+00 -5.0459799766e+00 2.9132978978e+00 5.0459799766e+00 
136000 6.4822833974e+00 -7.0865518077e-05 2.9132978978e+00 -5.0459799766e+00 2.9132978978e+00 5.0459799766e+00 
136100 6.4822833974e+00 -7.0259811672e-05 2.9132991141e+00 -5.0459820832e+00 2.9132991141e+00 5.0459820832e+00 
136200 6.4822833974e+00 -7.0440916221e-05 2.9132991141e+00 -5.0459820832e+00 2.9132991141e+00 5.0459820832e+00 
136300 6.4822833974e+00 -7.0622261477e-05 2.9132991141e+00 -5.0459820832e+00 2.9132991141e+00 5.0459820832e+00 
136400 6.4822833974e+00 -7.0803717485e-05 2.9132991141e+00 -5.0459820832e+00 2.9132991141e+00 5.0459820832e+00 
136500 6.4822833974e+00 -7.0191365448e-05 2.9133003293e+00 -5.0459841880e+00 2.9133003293e+00 5.0459841880e+00 
136600 6.4822833974e+00 -7.0365144646e-05 2.9133003293e+00 -5.0459841880e+00 2.9133003293e+00 5.0459841880e+00 
136700 6.4822833974e+00 -7.0539172331e-05 2.9133003293e+00 -5.0459841880e+00 2.9133003293e+00 5.0459841880e+00 
136800 6.4822833974e+00 -7.0713320399e-05 2.9133003293e+00 -5.0459841880e+00 2.9133003293e+00 5.0459841880e+00 
136900 6.4822833973e+00 -7.0094685157e-05 2.9133015429e+00 -5.0459862900e+00 2.9133015429e+00 5.0459862900e+00 
137000 6.4822833974e+00 -7.0261190638e-05 2.9133015429e+00 -5.0459862900e+00 2.9133015429e+00 5.0459862900e+00 
137100 6.4822833974e+00 -7.0427958715e-05 2.9133015429e+00 -5.0459862900e+00 2.9133015429e+00 5.0459862900e+00 
137200 6.4822833974e+00 -7.0594862898e-05 2.9133015429e+00 -5.0459862900e+00 2.9133015429e+00 5.0459862900e+00 
137300 6.4822833974e+00 -7.0761796201e-05 2.9133015429e+00 -5.0459862900e+00 2.9133015429e+00 5.0459862900e+00 
137400 6.4822833973e+00 -7.0135328788e-05 2.9133027573e+00 -5.0459883936e+00 2.9133027573e+00 5.0459883936e+00 
137500 6.4822833973e+00 -7.0294482450e-05 2.9133027573e+00 -5.0459883936e+00 2.9133027573e+00 5.0459883936e+00 
137600 6.4822833974e+00 -7.0453853240e-05 2.9133027573e+00 -5.0459883936e+00 2.9133027573e+00 5.0459883936e+00 
137700 6.4822833974e+00 -7.0613325457e-05 2.9133027573e+00 -5.0459883936e+00 2.9133027573e+00 5.0459883936e+00 
137800 6.4822833974e+00 -7.0772801320e-05 2.9133027573e+00 -5.0459883936e+00 2.9133027573e+00 5.0459883936e+00 
137900 6.4822833973e+00 -7.0138735119e-05 2.9133039720e+00 -5.0459904974e+00 2.9133039720e+00 5.0459904974e+00 
138000 6.4822833973e+00 -7.0290401813e-05 2.9133039720e+00 -5.0459904974e+00 2.9133039720e+00 5.0459904974e+00 
138100 6.4822833973e+00 -7.0442280626e-05 2.9133039720e+00 -5.0459904974e+00 2.9133039720e+00 5.0459904974e+00 
138200 6.4822833974e+00 -7.0594260840e-05 2.9133039720e+00 -5.0459904974e+00 2.9133039720e+00 5.0459904974e+00 
138300 6.4822833974e+00 -7.0746248974e-05 2.9133039720e+00 -5.0459904974e+00 2.9133039720e+00 5.0459904974e+00 
138400 6.4822833973e+00 -7.0105000430e-05 2.9133051862e+00 -5.0459926004e+00 2.9133051862e+00 5.0459926004e+00 
138500 6.4822833973e+00 -7.0249201563e-05 2.9133051862e+00 -5.0459926004e+00 2.9133051862e+00 5.0459926004e+00 
138600 6.4822833973e+00 -7.0393628682e-05 2.9133051862e+00 -5.0459926004e+00 2.9133051862e+00 5.0459926004e+00 
138700 6.4822833973e+00 -7.0538173548e-05 2.9133051862e+00 -5.0459926004e+00 2.9133051862e+00 5.0459926004e+00 
138800 6.4822833974e+00 -7.0682744852e-05 2.9133051862e+00 -5.0459926004e+00 2.9133051862e+00 5.0459926004e+00 
138900 6.4822833974e+00 -7.0827265351e-05 2.9133051862e+00 -5.0459926004e+00 2.9133051862e+00 5.0459926004e+00 
139000 6.4822833973e+00 -7.0177595216e-05 2.9133064018e+00 -5.0459947059e+00 2.9133064018e+00 5.0459947059e+00 
139100 6.4822833973e+00 -7.0314241393e-05 2.9133064018e+00 -5.0459947059e+00 2.9133064018e+00 5.0459947059e+00 
139200 6.4822833973e+00 -7.0451090026e-05 2.9133064018e+00 -5.0459947059e+00 2.9133064018e+00 5.0459947059e+00 
139300 6.4822833973e+00 -7.0588040961e-05 2.9133064018e+00 -5.0459947059e+00 2.9133064018e+00 5.0459947059e+00 
139400 6.4822833974e+00 -7.0725009729e-05 2.9133064018e+00 -5.0459947059e+00 2.9133064018e+00 5.0459947059e+00 
139500 6.4822833973e+00 -7.0068996847e-05 2.9133076156e+00 -5.0459968083e+00 2.9133076156e+00 5.0459968083e+00 
139600 6.4822833973e+00 -7.0198222925e-05 2.9133076156e+00 -5.0459968083e+00 2.9133076156e+00 5.0459968083e+00 
139700 6.4822833973e+00 -7.0327704712e-05 2.9133076156e+00 -5.0459968083e+00 2.9133076156e+00 5.0459968083e+00 
139800 6.4822833973e+00 -7.0457338869e-05 2.9133076156e+00 -5.0459968083e+00 2.9133076156e+00 5.0459968083e+00 
139900 6.4822833974e+00 -7.0587038315e-05 2.9133076156e+00 -5.0459968083e+00 2.9133076156e+00 5.0459968083e+00 
140000 6.4822833974e+00 -7.0716729480e-05 2.9133076156e+00 -5.0459968083e+00 2.9133076156e+00 5.0459968083e+00 
140100 6.4822833973e+00 -7.0053514425e-05 2.9133088293e+00 -5.0459989105e+00 2.9133088293e+00 5.0459989105e+00 
140200 6.4822833973e+00 -7.0175437525e-05 2.9133088293e+00 -5.0459989105e+00 2.9133088293e+00 5.0459989105e+00 
140300 6.4822833973e+00 -7.0297613359e-05 2.9133088293e+00 -5.0459989105e+00 2.9133088293e+00 5.0459989105e+00 
140400 6.4822833973e+00 -7.0419944040e-05 2.9133088293e+00 -5.0459989105e+00 2.9133088293e+00 5.0459989105e+00 
140500 6.4822833974e+00 -7.0542347110e-05 2.9133088293e+00 -5.0459989105e+00 2.9133088293e+00 5.0459989105e+00 
140600 6.4822833974e+00 -7.0664752911e-05 2.9133088293e+00 -5.0459989105e+00 2.9133088293e+00 5.0459989105e+00 
140700 6.4822833974e+00 -7.0787102434e-05 2.9133088293e+00 -5.0459989105e+00 2.9133088293e+00 5.0459989105e+00 
140800 6.4822833973e+00 -7.0115720389e-05 2.9133100442e+00 -5.0460010147e+00 2.9133100442e+00 5.0460010147e+00 
140900 6.4822833973e+00 -7.0230233093e-05 2.9133100442e+00 -5.0460010147e+00 2.9133100442e+00 5.0460010147e+00 
141000 6.4822833973e+00 -7.0344981992e-05 2.9133100442e+00 -5.0460010147e+00 2.9133100442e+00 5.0460010147e+00 
141100 6.4822833974e+00 -7.0459876365e-05 2.9133100442e+00 -5.0460010147e+00 2.9133100442e+00 5.0460010147e+00 
141200 6.4822833974e+00 -7.0574839794e-05 2.9133100442e+00 -5.0460010147e+00 2.9133100442e+00 5.0460010147e+00 
141300 6.4822833974e+00 -7.0689807690e-05 2.9133100442e+00 -5.0460010147e+00 2.9133100442e+00 5.0460010147e+00 
141400 6.4822833974e+00 -7.0804725299e-05 2.9133100442e+00 -5.0460010147e+00 2.9133100442e+00 5.0460010147e+00 
141500 6.4822833973e+00 -7.0125722879e-05 2.9133112594e+00 -5.0460031195e+00 2.9133112594e+00 5.0460031195e+00 
141600 6.4822833974e+00 -7.0232824068e-05 2.9133112594e+00 -5.0460031195e+00 2.9133112594e+00 5.0460031195e+00 
141700 6.4822833974e+00 -7.0340176660e-05 2.9133112594e+00 -5.0460031195e+00 2.9133112594e+00 5.0460031195e+00 
141800 6.4822833974e+00 -7.0447692053e-05 2.9133112594e+00 -5.0460031195e+00 2.9133112594e+00 5.0460031195e+00 
141900 6.4822833974e+00 -7.0555295596e-05 2.9133112594e+00 -5.0460031195e+00 2.9133112594e+00 5.0460031195e+00 
142000 6.4822833974e+00 -7.0662924203e-05 2.9133112594e+00 -5.0460031195e+00 2.9133112594e+00 5.0460031195e+00 
142100 6.4822833974e+00 -7.0770524385e-05 2.9133112594e+00 -5.0460031195e+00 2.9133112594e+00 5.0460031195e+00 
142200 6.4822833974e+00 -7.0084610535e-05 2.9133124740e+00 -5.0460052233e+00 2.9133124740e+00 5.0460052233e+00 
142300 6.4822833974e+00 -7.0184444835e-05 2.9133124740e+00 -5.0460052233e+00 2.9133124740e+00 5.0460052233e+00 
142400 6.4822833974e+00 -7.0284554933e-05 2.9133124740e+00 -5.0460052233e+00 2.9133124740e+00 5.0460052233e+00 
142500 6.4822833974e+00 -7.0384852929e-05 2.9133124740e+00 -5.0460052233e+00 2.9133124740e+00 5.0460052233e+00 
142600 6.4822833974e+00 -7.0485264780e-05 2.9133124740e+00 -5.0460052233e+00 2.9133124740e+00 5.0460052233e+00 
142700 6.4822833974e+00 -7.0585727928e-05 2.9133124740e+00 -5.0460052233e+00 2.9133124740e+00 5.0460052233e+00 
142800 6.4822833974e+00 -7.0686189358e-05 2.9133124740e+00 -5.0460052233e+00 2.9133124740e+00 5.0460052233e+00 
142900 6.4822833974e+00 -7.0786604001e-05 2.9133124740e+00 -5.0460052233e+00 2.9133124740e+00 5.0460052233e+00 
143000 6.4822833974e+00 -7.0093312532e-05 2.9133136889e+00 -5.0460073275e+00 2.9133136889e+00 5.0460073275e+00 
143100 6.4822833974e+00 -7.0185943006e-05 2.9133136889e+00 -5.0460073275e+00 2.9133136889e+00 5.0460073275e+00 
143200 6.4822833974e+00 -7.0278848960e-05 2.9133136889e+00 -5.0460073275e+00 2.9133136889e+00 5.0460073275e+00 
143300 6.4822833974e+00 -7.0293733683e-05 2.9133136889e+00 -5.0460073275e+00 2.9133136889e+00 5.0460073275e+00 
143300 6.4822833974e+00 -7.0293733683e-05 2.9133136889e+00 -5.0460073275e+00 2.9133136889e+00 5.0460073275e+00 
