# step Hamiltonian StressXX CellTensor1 CellTensor2 CellTensor3 CellTensor4 
0 6.0189855301e+00 2.0092929337e-01 2.5594246509e+00 -4.4330535334e+00 2.5594246509e+00 4.4330535334e+00 
100 6.0381019458e+00 2.1675241648e-01 2.5594246509e+00 -4.4330535334e+00 2.5594246509e+00 4.4330535334e+00 
200 6.0578025401e+00 2.3175441689e-01 2.5551914231e+00 -4.4257213678e+00 2.5551914231e+00 4.4257213678e+00 
300 6.0784736766e+00 2.4678413712e-01 2.5506577952e+00 -4.4178688940e+00 2.5506577952e+00 4.4178688940e+00 
400 6.0998510763e+00 2.6180581992e-01 2.5458216706e+00 -4.4094924804e+00 2.5458216706e+00 4.4094924804e+00 
500 6.1216223027e+00 2.7669006461e-01 2.5406815322e+00 -4.4005894997e+00 2.5406815322e+00 4.4005894997e+00 
600 6.1434063688e+00 2.9116550142e-01 2.5352382877e+00 -4.3911615235e+00 2.5352382877e+00 4.3911615235e+00 
700 6.1647265396e+00 3.0475205492e-01 2.5294980908e+00 -4.3812192110e+00 2.5294980908e+00 4.3812192110e+00 
800 6.1849832970e+00 3.1668990875e-01 2.5234765246e+00 -4.3707895523e+00 2.5234765246e+00 4.3707895523e+00 
900 6.2034479868e+00 3.2591397124e-01 2.5172042583e+00 -4.3599256684e+00 2.5172042583e+00 4.3599256684e+00 
1000 6.2193167473e+00 3.3117693549e-01 2.5107333112e+00 -4.3487176592e+00 2.5107333112e+00 4.3487176592e+00 
1100 6.2318680084e+00 3.3143466748e-01 2.5041409829e+00 -4.3372994117e+00 2.5041409829e+00 4.3372994117e+00 
1200 6.2407099561e+00 3.2644100450e-01 2.4975261736e+00 -4.3258422260e+00 2.4975261736e+00 4.3258422260e+00 
1300 6.2459811467e+00 3.1715015865e-01 2.4909937443e+00 -4.3145277265e+00 2.4909937443e+00 4.3145277265e+00 
1400 6.2483183701e+00 3.0544245343e-01 2.4846305262e+00 -4.3035063094e+00 2.4846305262e+00 4.3035063094e+00 
1500 6.2485817373e+00 2.9327818210e-01 2.4784864295e+00 -4.2928644218e+00 2.4784864295e+00 4.2928644218e+00 
1600 6.2475500187e+00 2.8197534879e-01 2.4725723116e+00 -4.2826208691e+00 2.4725723116e+00 4.2826208691e+00 
1700 6.2457726181e+00 2.7205445984e-01 2.4668724435e+00 -4.2727484080e+00 2.4668724435e+00 4.2727484080e+00 
1800 6.2435774292e+00 2.6348630826e-01 2.4613603450e+00 -4.2632011732e+00 2.4613603450e+00 4.2632011732e+00 
1900 6.2411409673e+00 2.5600059750e-01 2.4560098362e+00 -4.2539338201e+00 2.4560098362e+00 4.2539338201e+00 
2000 6.2385540644e+00 2.4928663869e-01 2.4507999656e+00 -4.2449100597e+00 2.4507999656e+00 4.2449100597e+00 
2100 6.2358640942e+00 2.4308107445e-01 2.4457159065e+00 -4.2361042109e+00 2.4457159065e+00 4.2361042109e+00 
2200 6.2330976304e+00 2.3718891052e-01 2.4407480648e+00 -4.2274996568e+00 2.4407480648e+00 4.2274996568e+00 
2300 6.2302714480e+00 2.3147640073e-01 2.4358907414e+00 -4.2190865258e+00 2.4358907414e+00 4.2190865258e+00 
2400 6.2273975781e+00 2.2585635987e-01 2.4311409183e+00 -4.2108595909e+00 2.4311409183e+00 4.2108595909e+00 
2500 6.2244855711e+00 2.2027424391e-01 2.4264973310e+00 -4.2028166618e+00 2.4264973310e+00 4.2028166618e+00 
2600 6.2215435078e+00 2.1469735464e-01 2.4219598144e+00 -4.1949574524e+00 2.4219598144e+00 4.1949574524e+00 
2700 6.2185784606e+00 2.0910718584e-01 2.4175288624e+00 -4.1872828185e+00 2.4175288624e+00 4.1872828185e+00 
2800 6.2155967177e+00 2.0349425041e-01 2.4132053416e+00 -4.1797942608e+00 2.4132053416e+00 4.1797942608e+00 
2900 6.2126039018e+00 1.9785468119e-01 2.4089903068e+00 -4.1724936063e+00 2.4089903068e+00 4.1724936063e+00 
3000 6.2096050449e+00 1.9218803730e-01 2.4048848861e+00 -4.1653828091e+00 2.4048848861e+00 4.1653828091e+00 
3100 6.2066046411e+00 1.8649590700e-01 2.4008902099e+00 -4.1584638270e+00 2.4008902099e+00 4.1584638270e+00 
3200 6.2036066903e+00 1.8078102802e-01 2.3970073680e+00 -4.1517385475e+00 2.3970073680e+00 4.1517385475e+00 
3300 6.2006147363e+00 1.7504674066e-01 2.3932373848e+00 -4.1452087450e+00 2.3932373848e+00 4.1452087450e+00 
3400 6.1976319021e+00 1.6929665323e-01 2.3895812057e+00 -4.1388760570e+00 2.3895812057e+00 4.1388760570e+00 
3500 6.1946609229e+00 1.6353444222e-01 2.3860396905e+00 -4.1327419728e+00 2.3860396905e+00 4.1327419728e+00 
3600 6.1917041768e+00 1.5776373736e-01 2.3826136108e+00 -4.1268078287e+00 2.3826136108e+00 4.1268078287e+00 
3700 6.1887637142e+00 1.5198805981e-01 2.3793036501e+00 -4.1210748086e+00 2.3793036501e+00 4.1210748086e+00 
3800 6.1858412852e+00 1.4621079320e-01 2.3761104047e+00 -4.1155439453e+00 2.3761104047e+00 4.1155439453e+00 
3900 6.1829383656e+00 1.4043517453e-01 2.3730343860e+00 -4.1102161247e+00 2.3730343860e+00 4.1102161247e+00 
4000 6.1800561804e+00 1.3466429692e-01 2.3700760228e+00 -4.1050920893e+00 2.3700760228e+00 4.1050920893e+00 
4100 6.1771957271e+00 1.2890111888e-01 2.3672356632e+00 -4.1001724422e+00 2.3672356632e+00 4.1001724422e+00 
4200 6.1743577966e+00 1.2314847705e-01 2.3645135772e+00 -4.0954576509e+00 2.3645135772e+00 4.0954576509e+00 
4300 6.1715429923e+00 1.1740910022e-01 2.3619099582e+00 -4.0909480506e+00 2.3619099582e+00 4.0909480506e+00 
4400 6.1687517490e+00 1.1168562355e-01 2.3594249252e+00 -4.0866438471e+00 2.3594249252e+00 4.0866438471e+00 
4500 6.1659843494e+00 1.0598060220e-01 2.3570585237e+00 -4.0825451195e+00 2.3570585237e+00 4.0825451195e+00 
4600 6.1632409401e+00 1.0029652396e-01 2.3548107276e+00 -4.0786518224e+00 2.3548107276e+00 4.0786518224e+00 
4700 6.1605215461e+00 9.4635820669e-02 2.3526814399e+00 -4.0749637879e+00 2.3526814399e+00 4.0749637879e+00 
4800 6.1578260849e+00 8.9000878396e-02 2.3506704935e+00 -4.0714807265e+00 2.3506704935e+00 4.0714807265e+00 
4900 6.1551543785e+00 8.3394046231e-02 2.3487776522e+00 -4.0682022293e+00 2.3487776522e+00 4.0682022293e+00 
5000 6.1525061661e+00 7.7817643854e-02 2.3470026112e+00 -4.0651277681e+00 2.3470026112e+00 4.0651277681e+00 
5100 6.1498811146e+00 7.2273967867e-02 2.3453449974e+00 -4.0622566968e+00 2.3453449974e+00 4.0622566968e+00 
5200 6.1472788292e+00 6.6765296972e-02 2.3438043702e+00 -4.0595882521e+00 2.3438043702e+00 4.0595882521e+00 
5300 6.1446988632e+00 6.1293896063e-02 2.3423802212e+00 -4.0571215538e+00 2.3423802212e+00 4.0571215538e+00 
5400 6.1421407271e+00 5.5862019323e-02 2.3410719753e+00 -4.0548556054e+00 2.3410719753e+00 4.0548556054e+00 
5500 6.1396038971e+00 5.0471912380e-02 2.3398789904e+00 -4.0527892949e+00 2.3398789904e+00 4.0527892949e+00 
5600 6.1370878230e+00 4.5125813609e-02 2.3388005578e+00 -4.0509213949e+00 2.3388005578e+00 4.0509213949e+00 
5700 6.1345919363e+00 3.9825954625e-02 2.3378359029e+00 -4.0492505635e+00 2.3378359029e+00 4.0492505635e+00 
5800 6.1321156565e+00 3.4574560057e-02 2.3369841849e+00 -4.0477753448e+00 2.3369841849e+00 4.0477753448e+00 
5900 6.1296583985e+00 2.9373846630e-02 2.3362444980e+00 -4.0464941694e+00 2.3362444980e+00 4.0464941694e+00 
6000 6.1272195783e+00 2.4226021641e-02 2.3356158709e+00 -4.0454053554e+00 2.3356158709e+00 4.0454053554e+00 
6100 6.1247986192e+00 1.9133280852e-02 2.3350972684e+00 -4.0445071095e+00 2.3350972684e+00 4.0445071095e+00 
6200 6.1223949568e+00 1.4097805869e-02 2.3346875912e+00 -4.0437975278e+00 2.3346875912e+00 4.0437975278e+00 
6300 6.1200080444e+00 9.1217610476e-03 2.3343856771e+00 -4.0432745973e+00 2.3343856771e+00 4.0432745973e+00 
6400 6.1176373573e+00 4.2072899672e-03 2.3341903017e+00 -4.0429361970e+00 2.3341903017e+00 4.0429361970e+00 
6500 6.1152823972e+00 -6.4348847322e-04 2.3341001791e+00 -4.0427801002e+00 2.3341001791e+00 4.0427801002e+00 
6600 6.1129426960e+00 -5.4284843015e-03 2.3341139637e+00 -4.0428039757e+00 2.3341139637e+00 4.0428039757e+00 
6700 6.1106178191e+00 -1.0145641013e-02 2.3342302504e+00 -4.0430053902e+00 2.3342302504e+00 4.0430053902e+00 
6800 6.1083073684e+00 -1.4792940364e-02 2.3344475768e+00 -4.0433818106e+00 2.3344475768e+00 4.0433818106e+00 
6900 6.1060109850e+00 -1.9368407369e-02 2.3347644243e+00 -4.0439306065e+00 2.3347644243e+00 4.0439306065e+00 
7000 6.1037283513e+00 -2.3870115472e-02 2.3351792194e+00 -4.0446490529e+00 2.3351792194e+00 4.0446490529e+00 
7100 6.1014591930e+00 -2.8296191823e-02 2.3356903362e+00 -4.0455343331e+00 2.3356903362e+00 4.0455343331e+00 
7200 6.0992032797e+00 -3.2644822640e-02 2.3362960975e+00 -4.0465835424e+00 2.3362960975e+00 4.0465835424e+00 
7300 6.0969604270e+00 -3.6914258597e-02 2.3369947771e+00 -4.0477936910e+00 2.3369947771e+00 4.0477936910e+00 
7400 6.0947304959e+00 -4.1102820200e-02 2.3377846021e+00 -4.0491617080e+00 2.3377846021e+00 4.0491617080e+00 
7500 6.0925133937e+00 -4.5208903090e-02 2.3386637548e+00 -4.0506844452e+00 2.3386637548e+00 4.0506844452e+00 
7600 6.0903090734e+00 -4.9230983258e-02 2.3396303755e+00 -4.0523586814e+00 2.3396303755e+00 4.0523586814e+00 
7700 6.0881175329e+00 -5.3167622093e-02 2.3406825646e+00 -4.0541811263e+00 2.3406825646e+00 4.0541811263e+00 
7800 6.0859388144e+00 -5.7017471250e-02 2.3418183854e+00 -4.0561484257e+00 2.3418183854e+00 4.0561484257e+00 
7900 6.0837730026e+00 -6.0779277268e-02 2.3430358669e+00 -4.0582571654e+00 2.3430358669e+00 4.0582571654e+00 
8000 6.0816202230e+00 -6.4451885926e-02 2.3443330063e+00 -4.0605038767e+00 2.3443330063e+00 4.0605038767e+00 
8100 6.0794806403e+00 -6.8034246268e-02 2.3457077722e+00 -4.0628850411e+00 2.3457077722e+00 4.0628850411e+00 
8200 6.0773544553e+00 -7.1525414289e-02 2.3471581074e+00 -4.0653970954e+00 2.3471581074e+00 4.0653970954e+00 
8300 6.0752419030e+00 -7.4924556231e-02 2.3486819320e+00 -4.0680364371e+00 2.3486819320e+00 4.0680364371e+00 
8400 6.0731432493e+00 -7.8230951457e-02 2.3502771466e+00 -4.0707994297e+00 2.3502771466e+00 4.0707994297e+00 
8500 6.0710587881e+00 -8.1443994895e-02 2.3519416349e+00 -4.0736824081e+00 2.3519416349e+00 4.0736824081e+00 
8600 6.0689888381e+00 -8.4563199008e-02 2.3536732676e+00 -4.0766816839e+00 2.3536732676e+00 4.0766816839e+00 
8700 6.0669337391e+00 -8.7588195280e-02 2.3554699050e+00 -4.0797935511e+00 2.3554699050e+00 4.0797935511e+00 
8800 6.0648938489e+00 -9.0518735210e-02 2.3573294004e+00 -4.0830142916e+00 2.3573294004e+00 4.0830142916e+00 
8900 6.0628695395e+00 -9.3354690793e-02 2.3592496032e+00 -4.0863401805e+00 2.3592496032e+00 4.0863401805e+00 
9000 6.0608611935e+00 -9.6096054485e-02 2.3612283622e+00 -4.0897674916e+00 2.3612283622e+00 4.0897674916e+00 
9100 6.0588692005e+00 -9.8742938663e-02 2.3632635285e+00 -4.0932925030e+00 2.3632635285e+00 4.0932925030e+00 
9200 6.0568939533e+00 -1.0129557457e-01 2.3653529585e+00 -4.0969115019e+00 2.3653529585e+00 4.0969115019e+00 
9300 6.0549358445e+00 -1.0375431074e-01 2.3674945171e+00 -4.1006207903e+00 2.3674945171e+00 4.1006207903e+00 
9400 6.0529952630e+00 -1.0611961098e-01 2.3696860808e+00 -4.1044166900e+00 2.3696860808e+00 4.1044166900e+00 
9500 6.0510725907e+00 -1.0839205184e-01 2.3719255401e+00 -4.1082955472e+00 2.3719255401e+00 4.1082955472e+00 
9600 6.0491681990e+00 -1.1057231966e-01 2.3742108023e+00 -4.1122537375e+00 2.3742108023e+00 4.1122537375e+00 
9700 6.0472824460e+00 -1.1266120716e-01 2.3765397947e+00 -4.1162876706e+00 2.3765397947e+00 4.1162876706e+00 
9800 6.0454156734e+00 -1.1465960966e-01 2.3789104664e+00 -4.1203937945e+00 2.3789104664e+00 4.1203937945e+00 
9900 6.0435682043e+00 -1.1656852095e-01 2.3813207915e+00 -4.1245686000e+00 2.3813207915e+00 4.1245686000e+00 
10000 6.0417403400e+00 -1.1838902878e-01 2.3837687705e+00 -4.1288086241e+00 2.3837687705e+00 4.1288086241e+00 
10100 6.0399323583e+00 -1.2012231011e-01 2.3862524335e+00 -4.1331104545e+00 2.3862524335e+00 4.1331104545e+00 
10200 6.0381445115e+00 -1.2176962604e-01 2.3887698412e+00 -4.1374707325e+00 2.3887698412e+00 4.1374707325e+00 
10300 6.0363770247e+00 -1.2333231660e-01 2.3913190875e+00 -4.1418861567e+00 2.3913190875e+00 4.1418861567e+00 
10400 6.0346300940e+00 -1.2481179527e-01 2.3938983013e+00 -4.1463534859e+00 2.3938983013e+00 4.1463534859e+00 
10500 6.0329038858e+00 -1.2620954340e-01 2.3965056473e+00 -4.1508695417e+00 2.3965056473e+00 4.1508695417e+00 
10600 6.0311985355e+00 -1.2752710456e-01 2.3991393283e+00 -4.1554312111e+00 2.3991393283e+00 4.1554312111e+00 
10700 6.0295141471e+00 -1.2876607878e-01 2.4017975863e+00 -4.1600354489e+00 2.4017975863e+00 4.1600354489e+00 
10800 6.0278507927e+00 -1.2992811674e-01 2.4044787032e+00 -4.1646792797e+00 2.4044787032e+00 4.1646792797e+00 
10900 6.0262085122e+00 -1.3101491404e-01 2.4071810025e+00 -4.1693597994e+00 2.4071810025e+00 4.1693597994e+00 
11000 6.0245873135e+00 -1.3202820542e-01 2.4099028496e+00 -4.1740741768e+00 2.4099028496e+00 4.1740741768e+00 
11100 6.0229871731e+00 -1.3296975917e-01 2.4126426528e+00 -4.1788196551e+00 2.4126426528e+00 4.1788196551e+00 
11200 6.0214080359e+00 -1.3384137152e-01 2.4153988637e+00 -4.1835935525e+00 2.4153988637e+00 4.1835935525e+00 
11300 6.0198498166e+00 -1.3464486122e-01 2.4181699781e+00 -4.1883932634e+00 2.4181699781e+00 4.1883932634e+00 
11400 6.0183124002e+00 -1.3538206428e-01 2.4209545356e+00 -4.1932162585e+00 2.4209545356e+00 4.1932162585e+00 
11500 6.0167956433e+00 -1.3605482887e-01 2.4237511204e+00 -4.1980600855e+00 2.4237511204e+00 4.1980600855e+00 
11600 6.0152993750e+00 -1.3666501042e-01 2.4265583611e+00 -4.2029223690e+00 2.4265583611e+00 4.2029223690e+00 
11700 6.0138233986e+00 -1.3721446692e-01 2.4293749308e+00 -4.2078008108e+00 2.4293749308e+00 4.2078008108e+00 
11800 6.0123674930e+00 -1.3770505448e-01 2.4321995467e+00 -4.2126931890e+00 2.4321995467e+00 4.2126931890e+00 
11900 6.0109314139e+00 -1.3813862306e-01 2.4350309701e+00 -4.2175973583e+00 2.4350309701e+00 4.2175973583e+00 
12000 6.0095148961e+00 -1.3851701254e-01 2.4378680061e+00 -4.2225112488e+00 2.4378680061e+00 4.2225112488e+00 
12100 6.0081176546e+00 -1.3884204898e-01 2.4407095030e+00 -4.2274328657e+00 2.4407095030e+00 4.2274328657e+00 
12200 6.0067393865e+00 -1.3911554114e-01 2.4435543516e+00 -4.2323602881e+00 2.4435543516e+00 4.2323602881e+00 
12300 6.0053797731e+00 -1.3933927725e-01 2.4464014854e+00 -4.2372916684e+00 2.4464014854e+00 4.2372916684e+00 
12400 6.0040384816e+00 -1.3951502211e-01 2.4492498788e+00 -4.2422252306e+00 2.4492498788e+00 4.2422252306e+00 
12500 6.0027151665e+00 -1.3964451437e-01 2.4520985475e+00 -4.2471592695e+00 2.4520985475e+00 4.2471592695e+00 
12600 6.0014094720e+00 -1.3972946409e-01 2.4549465471e+00 -4.2520921494e+00 2.4549465471e+00 4.2520921494e+00 
12700 6.0001210335e+00 -1.3977155053e-01 2.4577929722e+00 -4.2570223023e+00 2.4577929722e+00 4.2570223023e+00 
12800 5.9988494793e+00 -1.3977242025e-01 2.4606369560e+00 -4.2619482268e+00 2.4606369560e+00 4.2619482268e+00 
12900 5.9975944326e+00 -1.3973368534e-01 2.4634776692e+00 -4.2668684864e+00 2.4634776692e+00 4.2668684864e+00 
13000 5.9963555128e+00 -1.3965692199e-01 2.4663143189e+00 -4.2717817079e+00 2.4663143189e+00 4.2717817079e+00 
13100 5.9951323374e+00 -1.3954366917e-01 2.4691461480e+00 -4.2766865797e+00 2.4691461480e+00 4.2766865797e+00 
13200 5.9939245236e+00 -1.3939542758e-01 2.4719724338e+00 -4.2815818503e+00 2.4719724338e+00 4.2815818503e+00 
13300 5.9927316892e+00 -1.3921365883e-01 2.4747924875e+00 -4.2864663265e+00 2.4747924875e+00 4.2864663265e+00 
13400 5.9915534550e+00 -1.3899978468e-01 2.4776056526e+00 -4.2913388714e+00 2.4776056526e+00 4.2913388714e+00 
13500 5.9903894451e+00 -1.3875518661e-01 2.4804113046e+00 -4.2961984032e+00 2.4804113046e+00 4.2961984032e+00 
13600 5.9892392889e+00 -1.3848120543e-01 2.4832088494e+00 -4.3010438929e+00 2.4832088494e+00 4.3010438929e+00 
13700 5.9881026216e+00 -1.3817914113e-01 2.4859977226e+00 -4.3058743630e+00 2.4859977226e+00 4.3058743630e+00 
13800 5.9869790860e+00 -1.3785025279e-01 2.4887773884e+00 -4.3106888854e+00 2.4887773884e+00 4.3106888854e+00 
13900 5.9858683327e+00 -1.3749575872e-01 2.4915473386e+00 -4.3154865800e+00 2.4915473386e+00 4.3154865800e+00 
14000 5.9847700216e+00 -1.3711683659e-01 2.4943070917e+00 -4.3202666125e+00 2.4943070917e+00 4.3202666125e+00 
14100 5.9836838224e+00 -1.3671462382e-01 2.4970561917e+00 -4.3250281934e+00 2.4970561917e+00 4.3250281934e+00 
14200 5.9826094153e+00 -1.3629021794e-01 2.4997942073e+00 -4.3297705755e+00 2.4997942073e+00 4.3297705755e+00 
14300 5.9815464917e+00 -1.3584467712e-01 2.5025207310e+00 -4.3344930531e+00 2.5025207310e+00 4.3344930531e+00 
14400 5.9804947547e+00 -1.3537902071e-01 2.5052353779e+00 -4.3391949595e+00 2.5052353779e+00 4.3391949595e+00 
14500 5.9794539196e+00 -1.3489422993e-01 2.5079377853e+00 -4.3438756663e+00 2.5079377853e+00 4.3438756663e+00 
14600 5.9784237142e+00 -1.3439124858e-01 2.5106276110e+00 -4.3485345812e+00 2.5106276110e+00 4.3485345812e+00 
14700 5.9774038791e+00 -1.3387098377e-01 2.5133045333e+00 -4.3531711466e+00 2.5133045333e+00 4.3531711466e+00 
14800 5.9763941680e+00 -1.3333430677e-01 2.5159682496e+00 -4.3577848385e+00 2.5159682496e+00 4.3577848385e+00 
14900 5.9753943479e+00 -1.3278205384e-01 2.5186184755e+00 -4.3623751644e+00 2.5186184755e+00 4.3623751644e+00 
15000 5.9744041987e+00 -1.3221502713e-01 2.5212549445e+00 -4.3669416627e+00 2.5212549445e+00 4.3669416627e+00 
15100 5.9734235142e+00 -1.3163399555e-01 2.5238774068e+00 -4.3714839006e+00 2.5238774068e+00 4.3714839006e+00 
15200 5.9724521009e+00 -1.3103969575e-01 2.5264856286e+00 -4.3760014733e+00 2.5264856286e+00 4.3760014733e+00 
15300 5.9714897788e+00 -1.3043283303e-01 2.5290793914e+00 -4.3804940023e+00 2.5290793914e+00 4.3804940023e+00 
15400 5.9705363809e+00 -1.2981408231e-01 2.5316584915e+00 -4.3849611346e+00 2.5316584915e+00 4.3849611346e+00 
15500 5.9695917528e+00 -1.2918408909e-01 2.5342227388e+00 -4.3894025413e+00 2.5342227388e+00 4.3894025413e+00 
15600 5.9686557530e+00 -1.2854347039e-01 2.5367719567e+00 -4.3938179163e+00 2.5367719567e+00 4.3938179163e+00 
15700 5.9677282521e+00 -1.2789281573e-01 2.5393059812e+00 -4.3982069755e+00 2.5393059812e+00 4.3982069755e+00 
15800 5.9668091328e+00 -1.2723268808e-01 2.5418246603e+00 -4.4025694555e+00 2.5418246603e+00 4.4025694555e+00 
15900 5.9658982892e+00 -1.2656362482e-01 2.5443278531e+00 -4.4069051127e+00 2.5443278531e+00 4.4069051127e+00 
16000 5.9649956271e+00 -1.2588613864e-01 2.5468154300e+00 -4.4112137223e+00 2.5468154300e+00 4.4112137223e+00 
16100 5.9641010627e+00 -1.2520071849e-01 2.5492872715e+00 -4.4154950773e+00 2.5492872715e+00 4.4154950773e+00 
16200 5.9632145230e+00 -1.2450783049e-01 2.5517432677e+00 -4.4197489876e+00 2.5517432677e+00 4.4197489876e+00 
16300 5.9623359447e+00 -1.2380791878e-01 2.5541833183e+00 -4.4239752791e+00 2.5541833183e+00 4.4239752791e+00 
16400 5.9614652741e+00 -1.2310140646e-01 2.5566073315e+00 -4.4281737931e+00 2.5566073315e+00 4.4281737931e+00 
16500 5.9606024666e+00 -1.2238869638e-01 2.5590152239e+00 -4.4323443851e+00 2.5590152239e+00 4.4323443851e+00 
16600 5.9597474861e+00 -1.2167017201e-01 2.5614069201e+00 -4.4364869245e+00 2.5614069201e+00 4.4364869245e+00 
16700 5.9589003046e+00 -1.2094619823e-01 2.5637823521e+00 -4.4406012933e+00 2.5637823521e+00 4.4406012933e+00 
16800 5.9580609015e+00 -1.2021712212e-01 2.5661414588e+00 -4.4446873861e+00 2.5661414588e+00 4.4446873861e+00 
16900 5.9572292633e+00 -1.1948327376e-01 2.5684841862e+00 -4.4487451089e+00 2.5684841862e+00 4.4487451089e+00 
17000 5.9564053832e+00 -1.1874496691e-01 2.5708104861e+00 -4.4527743785e+00 2.5708104861e+00 4.4527743785e+00 
17100 5.9555892601e+00 -1.1800249980e-01 2.5731203166e+00 -4.4567751223e+00 2.5731203166e+00 4.4567751223e+00 
17200 5.9547808987e+00 -1.1725615579e-01 2.5754136413e+00 -4.4607472773e+00 2.5754136413e+00 4.4607472773e+00 
17300 5.9539803086e+00 -1.1650620405e-01 2.5776904293e+00 -4.4646907897e+00 2.5776904293e+00 4.4646907897e+00 
17400 5.9531875038e+00 -1.1575290020e-01 2.5799506544e+00 -4.4686056145e+00 2.5799506544e+00 4.4686056145e+00 
17500 5.9524025025e+00 -1.1499648697e-01 2.5821942954e+00 -4.4724917146e+00 2.5821942954e+00 4.4724917146e+00 
17600 5.9516253265e+00 -1.1423719480e-01 2.5844213354e+00 -4.4763490611e+00 2.5844213354e+00 4.4763490611e+00 
17700 5.9508560004e+00 -1.1347524240e-01 2.5866317618e+00 -4.4801776319e+00 2.5866317618e+00 4.4801776319e+00 
17800 5.9500945518e+00 -1.1271083734e-01 2.5888255659e+00 -4.4839774121e+00 2.5888255659e+00 4.4839774121e+00 
17900 5.9493410102e+00 -1.1194417658e-01 2.5910027427e+00 -4.4877483929e+00 2.5910027427e+00 4.4877483929e+00 
18000 5.9485954070e+00 -1.1117544701e-01 2.5931632908e+00 -4.4914905719e+00 2.5931632908e+00 4.4914905719e+00 
18100 5.9478577748e+00 -1.1040482592e-01 2.5953072119e+00 -4.4952039523e+00 2.5953072119e+00 4.4952039523e+00 
18200 5.9471281474e+00 -1.0963248153e-01 2.5974345110e+00 -4.4988885424e+00 2.5974345110e+00 4.4988885424e+00 
18300 5.9464065588e+00 -1.0885857340e-01 2.5995451959e+00 -4.5025443559e+00 2.5995451959e+00 4.5025443559e+00 
18400 5.9456930434e+00 -1.0808325291e-01 2.6016392771e+00 -4.5061714109e+00 2.6016392771e+00 4.5061714109e+00 
18500 5.9449876354e+00 -1.0730666370e-01 2.6037167677e+00 -4.5097697302e+00 2.6037167677e+00 4.5097697302e+00 
18600 5.9442903685e+00 -1.0652894203e-01 2.6057776833e+00 -4.5133393406e+00 2.6057776833e+00 4.5133393406e+00 
18700 5.9436012754e+00 -1.0575021721e-01 2.6078220415e+00 -4.5168802729e+00 2.6078220415e+00 4.5168802729e+00 
18800 5.9429203878e+00 -1.0497061200e-01 2.6098498621e+00 -4.5203925614e+00 2.6098498621e+00 4.5203925614e+00 
18900 5.9422477360e+00 -1.0419024290e-01 2.6118611672e+00 -4.5238762438e+00 2.6118611672e+00 4.5238762438e+00 
19000 5.9415833485e+00 -1.0340922056e-01 2.6138559802e+00 -4.5273313614e+00 2.6138559802e+00 4.5273313614e+00 
19100 5.9409272518e+00 -1.0262765011e-01 2.6158343266e+00 -4.5307579579e+00 2.6158343266e+00 4.5307579579e+00 
19200 5.9402794703e+00 -1.0184563142e-01 2.6177962335e+00 -4.5341560803e+00 2.6177962335e+00 4.5341560803e+00 
19300 5.9396400260e+00 -1.0106325947e-01 2.6197417294e+00 -4.5375257780e+00 2.6197417294e+00 4.5375257780e+00 
19400 5.9390089383e+00 -1.0028062463e-01 2.6216708442e+00 -4.5408671029e+00 2.6216708442e+00 4.5408671029e+00 
19500 5.9383862237e+00 -9.9497812892e-02 2.6235836093e+00 -4.5441801092e+00 2.6235836093e+00 4.5441801092e+00 
19600 5.9377718958e+00 -9.8714906197e-02 2.6254800571e+00 -4.5474648532e+00 2.6254800571e+00 4.5474648532e+00 
19700 5.9371659651e+00 -9.7931982656e-02 2.6273602215e+00 -4.5507213933e+00 2.6273602215e+00 4.5507213933e+00 
19800 5.9365684387e+00 -9.7149116810e-02 2.6292241370e+00 -4.5539497898e+00 2.6292241370e+00 4.5539497898e+00 
19900 5.9359793204e+00 -9.6366379854e-02 2.6310718396e+00 -4.5571501046e+00 2.6310718396e+00 4.5571501046e+00 
20000 5.9353986107e+00 -9.5583839868e-02 2.6329033660e+00 -4.5603224014e+00 2.6329033660e+00 4.5603224014e+00 
20100 5.9348263063e+00 -9.4801562028e-02 2.6347187539e+00 -4.5634667454e+00 2.6347187539e+00 4.5634667454e+00 
20200 5.9342624002e+00 -9.4019608812e-02 2.6365180416e+00 -4.5665832032e+00 2.6365180416e+00 4.5665832032e+00 
20300 5.9337068819e+00 -9.3238040194e-02 2.6383012686e+00 -4.5696718428e+00 2.6383012686e+00 4.5696718428e+00 
20400 5.9331597369e+00 -9.2456913828e-02 2.6400684746e+00 -4.5727327335e+00 2.6400684746e+00 4.5727327335e+00 
20500 5.9326209472e+00 -9.1676285231e-02 2.6418197006e+00 -4.5757659458e+00 2.6418197006e+00 4.5757659458e+00 
20600 5.9320904907e+00 -9.0896207946e-02 2.6435549877e+00 -4.5787715513e+00 2.6435549877e+00 4.5787715513e+00 
20700 5.9315683415e+00 -9.0116733711e-02 2.6452743779e+00 -4.5817496226e+00 2.6452743779e+00 4.5817496226e+00 
20800 5.9310544700e+00 -8.9337912604e-02 2.6469779139e+00 -4.5847002333e+00 2.6469779139e+00 4.5847002333e+00 
20900 5.9305488426e+00 -8.8559793196e-02 2.6486656386e+00 -4.5876234582e+00 2.6486656386e+00 4.5876234582e+00 
21000 5.9300514222e+00 -8.7782422686e-02 2.6503375956e+00 -4.5905193728e+00 2.6503375956e+00 4.5905193728e+00 
21100 5.9295621675e+00 -8.7005847036e-02 2.6519938291e+00 -4.5933880534e+00 2.6519938291e+00 4.5933880534e+00 
21200 5.9290810339e+00 -8.6230111092e-02 2.6536343837e+00 -4.5962295772e+00 2.6536343837e+00 4.5962295772e+00 
21300 5.9286079729e+00 -8.5455258706e-02 2.6552593043e+00 -4.5990440223e+00 2.6552593043e+00 4.5990440223e+00 
21400 5.9281429324e+00 -8.4681332847e-02 2.6568686365e+00 -4.6018314674e+00 2.6568686365e+00 4.6018314674e+00 
21500 5.9276858568e+00 -8.3908375706e-02 2.6584624261e+00 -4.6045919920e+00 2.6584624261e+00 4.6045919920e+00 
21600 5.9272366870e+00 -8.3136428796e-02 2.6600407195e+00 -4.6073256763e+00 2.6600407195e+00 4.6073256763e+00 
21700 5.9267953606e+00 -8.2365533047e-02 2.6616035633e+00 -4.6100326012e+00 2.6616035633e+00 4.6100326012e+00 
21800 5.9263618118e+00 -8.1595728894e-02 2.6631510047e+00 -4.6127128483e+00 2.6631510047e+00 4.6127128483e+00 
21900 5.9259359718e+00 -8.0827056359e-02 2.6646830910e+00 -4.6153664997e+00 2.6646830910e+00 4.6153664997e+00 
22000 5.9255177685e+00 -8.0059555126e-02 2.6661998703e+00 -4.6179936384e+00 2.6661998703e+00 4.6179936384e+00 
22100 5.9251071268e+00 -7.9293264619e-02 2.6677013906e+00 -4.6205943479e+00 2.6677013906e+00 4.6205943479e+00 
22200 5.9247039691e+00 -7.8528224063e-02 2.6691877005e+00 -4.6231687122e+00 2.6691877005e+00 4.6231687122e+00 
22300 5.9243082145e+00 -7.7764472548e-02 2.6706588491e+00 -4.6257168163e+00 2.6706588491e+00 4.6257168163e+00 
22400 5.9239197799e+00 -7.7002049088e-02 2.6721148856e+00 -4.6282387454e+00 2.6721148856e+00 4.6282387454e+00 
22500 5.9235385796e+00 -7.6240992668e-02 2.6735558596e+00 -4.6307345858e+00 2.6735558596e+00 4.6307345858e+00 
22600 5.9231645253e+00 -7.5481342297e-02 2.6749818213e+00 -4.6332044239e+00 2.6749818213e+00 4.6332044239e+00 
22700 5.9227975267e+00 -7.4723137047e-02 2.6763928211e+00 -4.6356483472e+00 2.6763928211e+00 4.6356483472e+00 
22800 5.9224374914e+00 -7.3966416096e-02 2.6777889097e+00 -4.6380664435e+00 2.6777889097e+00 4.6380664435e+00 
22900 5.9220843248e+00 -7.3211218758e-02 2.6791701383e+00 -4.6404588016e+00 2.6791701383e+00 4.6404588016e+00 
23000 5.9217379306e+00 -7.2457584514e-02 2.6805365584e+00 -4.6428255106e+00 2.6805365584e+00 4.6428255106e+00 
23100 5.9213982107e+00 -7.1705553042e-02 2.6818882219e+00 -4.6451666605e+00 2.6818882219e+00 4.6451666605e+00 
23200 5.9210650656e+00 -7.0955164234e-02 2.6832251812e+00 -4.6474823419e+00 2.6832251812e+00 4.6474823419e+00 
23300 5.9207383941e+00 -7.0206458219e-02 2.6845474889e+00 -4.6497726461e+00 2.6845474889e+00 4.6497726461e+00 
23400 5.9204180939e+00 -6.9459475372e-02 2.6858551982e+00 -4.6520376651e+00 2.6858551982e+00 4.6520376651e+00 
23500 5.9201040613e+00 -6.8714256333e-02 2.6871483626e+00 -4.6542774915e+00 2.6871483626e+00 4.6542774915e+00 
23600 5.9197961918e+00 -6.7970842006e-02 2.6884270360e+00 -4.6564922188e+00 2.6884270360e+00 4.6564922188e+00 
23700 5.9194943800e+00 -6.7229273571e-02 2.6896912728e+00 -4.6586819412e+00 2.6896912728e+00 4.6586819412e+00 
23800 5.9191985194e+00 -6.6489592477e-02 2.6909411277e+00 -4.6608467534e+00 2.6909411277e+00 4.6608467534e+00 
23900 5.9189085032e+00 -6.5751840448e-02 2.6921766560e+00 -4.6629867512e+00 2.6921766560e+00 4.6629867512e+00 
24000 5.9186242239e+00 -6.5016059470e-02 2.6933979133e+00 -4.6651020309e+00 2.6933979133e+00 4.6651020309e+00 
24100 5.9183455736e+00 -6.4282291789e-02 2.6946049558e+00 -4.6671926898e+00 2.6946049558e+00 4.6671926898e+00 
24200 5.9180724442e+00 -6.3550579895e-02 2.6957978400e+00 -4.6692588258e+00 2.6957978400e+00 4.6692588258e+00 
24300 5.9178047275e+00 -6.2820966512e-02 2.6969766229e+00 -4.6713005377e+00 2.6969766229e+00 4.6713005377e+00 
24400 5.9175423151e+00 -6.2093494578e-02 2.6981413620e+00 -4.6733179251e+00 2.6981413620e+00 4.6733179251e+00 
24500 5.9172850988e+00 -6.1368207229e-02 2.6992921154e+00 -4.6753110884e+00 2.6992921154e+00 4.6753110884e+00 
24600 5.9170329704e+00 -6.0645147777e-02 2.7004289415e+00 -4.6772801289e+00 2.7004289415e+00 4.6772801289e+00 
24700 5.9167858223e+00 -5.9924359685e-02 2.7015518992e+00 -4.6792251487e+00 2.7015518992e+00 4.6792251487e+00 
24800 5.9165435469e+00 -5.9205886544e-02 2.7026610479e+00 -4.6811462507e+00 2.7026610479e+00 4.6811462507e+00 
24900 5.9163060375e+00 -5.8489772042e-02 2.7037564477e+00 -4.6830435387e+00 2.7037564477e+00 4.6830435387e+00 
25000 5.9160731877e+00 -5.7776059937e-02 2.7048381588e+00 -4.6849171174e+00 2.7048381588e+00 4.6849171174e+00 
25100 5.9158448919e+00 -5.7064794026e-02 2.7059062423e+00 -4.6867670923e+00 2.7059062423e+00 4.6867670923e+00 
25200 5.9156210452e+00 -5.6356018109e-02 2.7069607596e+00 -4.6885935698e+00 2.7069607596e+00 4.6885935698e+00 
25300 5.9154015436e+00 -5.5649775957e-02 2.7080017727e+00 -4.6903966573e+00 2.7080017727e+00 4.6903966573e+00 
25400 5.9151862840e+00 -5.4946111278e-02 2.7090293439e+00 -4.6921764628e+00 2.7090293439e+00 4.6921764628e+00 
25500 5.9149751642e+00 -5.4245067675e-02 2.7100435363e+00 -4.6939330955e+00 2.7100435363e+00 4.6939330955e+00 
25600 5.9147680833e+00 -5.3546688610e-02 2.7110444133e+00 -4.6956666654e+00 2.7110444133e+00 4.6956666654e+00 
25700 5.9145649412e+00 -5.2851017367e-02 2.7120320389e+00 -4.6973772831e+00 2.7120320389e+00 4.6973772831e+00 
25800 5.9143656394e+00 -5.2158097008e-02 2.7130064776e+00 -4.6990650605e+00 2.7130064776e+00 4.6990650605e+00 
25900 5.9141700803e+00 -5.1467970335e-02 2.7139677945e+00 -4.7007301101e+00 2.7139677945e+00 4.7007301101e+00 
26000 5.9139781678e+00 -5.0780679847e-02 2.7149160549e+00 -4.7023725454e+00 2.7149160549e+00 4.7023725454e+00 
26100 5.9137898070e+00 -5.0096267696e-02 2.7158513250e+00 -4.7039924807e+00 2.7158513250e+00 4.7039924807e+00 
26200 5.9136049046e+00 -4.9414775650e-02 2.7167736712e+00 -4.7055900311e+00 2.7167736712e+00 4.7055900311e+00 
26300 5.9134233684e+00 -4.8736245043e-02 2.7176831605e+00 -4.7071653128e+00 2.7176831605e+00 4.7071653128e+00 
26400 5.9132451081e+00 -4.8060716738e-02 2.7185798604e+00 -4.7087184426e+00 2.7185798604e+00 4.7087184426e+00 
26500 5.9130700346e+00 -4.7388231079e-02 2.7194638388e+00 -4.7102495382e+00 2.7194638388e+00 4.7102495382e+00 
26600 5.9128980603e+00 -4.6718827853e-02 2.7203351642e+00 -4.7117587181e+00 2.7203351642e+00 4.7117587181e+00 
26700 5.9127290993e+00 -4.6052546242e-02 2.7211939056e+00 -4.7132461017e+00 2.7211939056e+00 4.7132461017e+00 
26800 5.9125630673e+00 -4.5389424785e-02 2.7220401322e+00 -4.7147118091e+00 2.7220401322e+00 4.7147118091e+00 
26900 5.9123998814e+00 -4.4729501330e-02 2.7228739138e+00 -4.7161559613e+00 2.7228739138e+00 4.7161559613e+00 
27000 5.9122394603e+00 -4.4072813000e-02 2.7236953207e+00 -4.7175786798e+00 2.7236953207e+00 4.7175786798e+00 
27100 5.9120817246e+00 -4.3419396144e-02 2.7245044236e+00 -4.7189800871e+00 2.7245044236e+00 4.7189800871e+00 
27200 5.9119265961e+00 -4.2769286302e-02 2.7253012935e+00 -4.7203603063e+00 2.7253012935e+00 4.7203603063e+00 
27300 5.9117739986e+00 -4.2122518162e-02 2.7260860019e+00 -4.7217194611e+00 2.7260860019e+00 4.7217194611e+00 
27400 5.9116238571e+00 -4.1479125525e-02 2.7268586208e+00 -4.7230576762e+00 2.7268586208e+00 4.7230576762e+00 
27500 5.9114760985e+00 -4.0839141261e-02 2.7276192222e+00 -4.7243750766e+00 2.7276192222e+00 4.7243750766e+00 
27600 5.9113306513e+00 -4.0202597277e-02 2.7283678789e+00 -4.7256717880e+00 2.7283678789e+00 4.7256717880e+00 
27700 5.9111874453e+00 -3.9569524481e-02 2.7291046638e+00 -4.7269479370e+00 2.7291046638e+00 4.7269479370e+00 
27800 5.9110464122e+00 -3.8939952746e-02 2.7298296503e+00 -4.7282036503e+00 2.7298296503e+00 4.7282036503e+00 
27900 5.9109074851e+00 -3.8313910876e-02 2.7305429118e+00 -4.7294390554e+00 2.7305429118e+00 4.7294390554e+00 
28000 5.9107705986e+00 -3.7691426576e-02 2.7312445223e+00 -4.7306542804e+00 2.7312445223e+00 4.7306542804e+00 
28100 5.9106356890e+00 -3.7072526421e-02 2.7319345559e+00 -4.7318494538e+00 2.7319345559e+00 4.7318494538e+00 
28200 5.9105026937e+00 -3.6457235824e-02 2.7326130872e+00 -4.7330247044e+00 2.7326130872e+00 4.7330247044e+00 
28300 5.9103715521e+00 -3.5845579014e-02 2.7332801908e+00 -4.7341801617e+00 2.7332801908e+00 4.7341801617e+00 
28400 5.9102422046e+00 -3.5237579005e-02 2.7339359415e+00 -4.7353159554e+00 2.7339359415e+00 4.7353159554e+00 
28500 5.9101145933e+00 -3.4633257575e-02 2.7345804146e+00 -4.7364322155e+00 2.7345804146e+00 4.7364322155e+00 
28600 5.9099886615e+00 -3.4032635241e-02 2.7352136853e+00 -4.7375290726e+00 2.7352136853e+00 4.7375290726e+00 
28700 5.9098643540e+00 -3.3435731237e-02 2.7358358291e+00 -4.7386066572e+00 2.7358358291e+00 4.7386066572e+00 
28800 5.9097416168e+00 -3.2842563499e-02 2.7364469217e+00 -4.7396651005e+00 2.7364469217e+00 4.7396651005e+00 
28900 5.9096203973e+00 -3.2253148643e-02 2.7370470386e+00 -4.7407045336e+00 2.7370470386e+00 4.7407045336e+00 
29000 5.9095006440e+00 -3.1667501951e-02 2.7376362558e+00 -4.7417250877e+00 2.7376362558e+00 4.7417250877e+00 
29100 5.9093823069e+00 -3.1085637357e-02 2.7382146493e+00 -4.7427268946e+00 2.7382146493e+00 4.7427268946e+00 
29200 5.9092653368e+00 -3.0507567434e-02 2.7387822949e+00 -4.7437100856e+00 2.7387822949e+00 4.7437100856e+00 
29300 5.9091496861e+00 -2.9933303386e-02 2.7393392687e+00 -4.7446747926e+00 2.7393392687e+00 4.7446747926e+00 
29400 5.9090353079e+00 -2.9362855034e-02 2.7398856468e+00 -4.7456211472e+00 2.7398856468e+00 4.7456211472e+00 
29500 5.9089221567e+00 -2.8796230816e-02 2.7404215051e+00 -4.7465492811e+00 2.7404215051e+00 4.7465492811e+00 
29600 5.9088101877e+00 -2.8233437775e-02 2.7409469198e+00 -4.7474593259e+00 2.7409469198e+00 4.7474593259e+00 
29700 5.9086993575e+00 -2.7674481561e-02 2.7414619666e+00 -4.7483514132e+00 2.7414619666e+00 4.7483514132e+00 
29800 5.9085896234e+00 -2.7119366430e-02 2.7419667216e+00 -4.7492256744e+00 2.7419667216e+00 4.7492256744e+00 
29900 5.9084809437e+00 -2.6568095238e-02 2.7424612604e+00 -4.7500822409e+00 2.7424612604e+00 4.7500822409e+00 
30000 5.9083732776e+00 -2.6020669449e-02 2.7429456588e+00 -4.7509212435e+00 2.7429456588e+00 4.7509212435e+00 
30100 5.9082665850e+00 -2.5477089138e-02 2.7434199923e+00 -4.7517428132e+00 2.7434199923e+00 4.7517428132e+00 
30200 5.9081608270e+00 -2.4937352995e-02 2.7438843362e+00 -4.7525470805e+00 2.7438843362e+00 4.7525470805e+00 
30300 5.9080559650e+00 -2.4401458332e-02 2.7443387658e+00 -4.7533341755e+00 2.7443387658e+00 4.7533341755e+00 
30400 5.9079519616e+00 -2.3869401093e-02 2.7447833559e+00 -4.7541042281e+00 2.7447833559e+00 4.7541042281e+00 
30500 5.9078487797e+00 -2.3341175864e-02 2.7452181813e+00 -4.7548573678e+00 2.7452181813e+00 4.7548573678e+00 
30600 5.9077463831e+00 -2.2816775887e-02 2.7456433165e+00 -4.7555937236e+00 2.7456433165e+00 4.7555937236e+00 
30700 5.9076447363e+00 -2.2296193069e-02 2.7460588357e+00 -4.7563134240e+00 2.7460588357e+00 4.7563134240e+00 
30800 5.9075438042e+00 -2.1779418002e-02 2.7464648129e+00 -4.7570165971e+00 2.7464648129e+00 4.7570165971e+00 
30900 5.9074435524e+00 -2.1266439977e-02 2.7468613215e+00 -4.7577033702e+00 2.7468613215e+00 4.7577033702e+00 
31000 5.9073439471e+00 -2.0757247001e-02 2.7472484350e+00 -4.7583738704e+00 2.7472484350e+00 4.7583738704e+00 
31100 5.9072449548e+00 -2.0251825820e-02 2.7476262261e+00 -4.7590282238e+00 2.7476262261e+00 4.7590282238e+00 
31200 5.9071465428e+00 -1.9750161937e-02 2.7479947675e+00 -4.7596665562e+00 2.7479947675e+00 4.7596665562e+00 
31300 5.9070486784e+00 -1.9252239632e-02 2.7483541312e+00 -4.7602889924e+00 2.7483541312e+00 4.7602889924e+00 
31400 5.9069513297e+00 -1.8758041989e-02 2.7487043890e+00 -4.7608956567e+00 2.7487043890e+00 4.7608956567e+00 
31500 5.9068544651e+00 -1.8267550921e-02 2.7490456121e+00 -4.7614866725e+00 2.7490456121e+00 4.7614866725e+00 
31600 5.9067580533e+00 -1.7780747191e-02 2.7493778714e+00 -4.7620621625e+00 2.7493778714e+00 4.7620621625e+00 
31700 5.9066620633e+00 -1.7297610439e-02 2.7497012372e+00 -4.7626222485e+00 2.7497012372e+00 4.7626222485e+00 
31800 5.9065664645e+00 -1.6818119214e-02 2.7500157794e+00 -4.7631670515e+00 2.7500157794e+00 4.7631670515e+00 
31900 5.9064712265e+00 -1.6342250998e-02 2.7503215673e+00 -4.7636966917e+00 2.7503215673e+00 4.7636966917e+00 
32000 5.9063763193e+00 -1.5869982237e-02 2.7506186697e+00 -4.7642112882e+00 2.7506186697e+00 4.7642112882e+00 
32100 5.9062817130e+00 -1.5401288372e-02 2.7509071550e+00 -4.7647109593e+00 2.7509071550e+00 4.7647109593e+00 
32200 5.9061873780e+00 -1.4936143867e-02 2.7511870908e+00 -4.7651958224e+00 2.7511870908e+00 4.7651958224e+00 
32300 5.9060932849e+00 -1.4474522244e-02 2.7514585444e+00 -4.7656659938e+00 2.7514585444e+00 4.7656659938e+00 
32400 5.9059994043e+00 -1.4016396114e-02 2.7517215822e+00 -4.7661215886e+00 2.7517215822e+00 4.7661215886e+00 
32500 5.9059057072e+00 -1.3561737208e-02 2.7519762702e+00 -4.7665627213e+00 2.7519762702e+00 4.7665627213e+00 
32600 5.9058121646e+00 -1.3110516414e-02 2.7522226739e+00 -4.7669895049e+00 2.7522226739e+00 4.7669895049e+00 
32700 5.9057187476e+00 -1.2662703809e-02 2.7524608578e+00 -4.7674020516e+00 2.7524608578e+00 4.7674020516e+00 
32800 5.9056254274e+00 -1.2218268693e-02 2.7526908862e+00 -4.7678004724e+00 2.7526908862e+00 4.7678004724e+00 
32900 5.9055321755e+00 -1.1777179627e-02 2.7529128223e+00 -4.7681848771e+00 2.7529128223e+00 4.7681848771e+00 
33000 5.9054389631e+00 -1.1339404464e-02 2.7531267291e+00 -4.7685553744e+00 2.7531267291e+00 4.7685553744e+00 
33100 5.9053457617e+00 -1.0904910386e-02 2.7533326685e+00 -4.7689120719e+00 2.7533326685e+00 4.7689120719e+00 
33200 5.9052525428e+00 -1.0473663943e-02 2.7535307020e+00 -4.7692550760e+00 2.7535307020e+00 4.7692550760e+00 
33300 5.9051592778e+00 -1.0045631086e-02 2.7537208902e+00 -4.7695844917e+00 2.7537208902e+00 4.7695844917e+00 
33400 5.9050659384e+00 -9.6207772020e-03 2.7539032933e+00 -4.7699004231e+00 2.7539032933e+00 4.7699004231e+00 
33500 5.9049724958e+00 -9.1990671540e-03 2.7540779704e+00 -4.7702029728e+00 2.7540779704e+00 4.7702029728e+00 
33600 5.9048789218e+00 -8.7804653154e-03 2.7542449802e+00 -4.7704922422e+00 2.7542449802e+00 4.7704922422e+00 
33700 5.9047851876e+00 -8.3649356068e-03 2.7544043805e+00 -4.7707683316e+00 2.7544043805e+00 4.7707683316e+00 
33800 5.9046912647e+00 -7.9524415330e-03 2.7545562285e+00 -4.7710313400e+00 2.7545562285e+00 4.7710313400e+00 
33900 5.9045971246e+00 -7.5429462188e-03 2.7547005804e+00 -4.7712813649e+00 2.7547005804e+00 4.7712813649e+00 
34000 5.9045027384e+00 -7.1364124462e-03 2.7548374920e+00 -4.7715185027e+00 2.7548374920e+00 4.7715185027e+00 
34100 5.9044080773e+00 -6.7328026904e-03 2.7549670181e+00 -4.7717428485e+00 2.7549670181e+00 4.7717428485e+00 
34200 5.9043131127e+00 -6.3320791563e-03 2.7550892129e+00 -4.7719544961e+00 2.7550892129e+00 4.7719544961e+00 
34300 5.9042178155e+00 -5.9342038142e-03 2.7552041298e+00 -4.7721535380e+00 2.7552041298e+00 4.7721535380e+00 
34400 5.9041221566e+00 -5.5391384363e-03 2.7553118213e+00 -4.7723400651e+00 2.7553118213e+00 4.7723400651e+00 
34500 5.9040261070e+00 -5.1468446319e-03 2.7554123393e+00 -4.7725141675e+00 2.7554123393e+00 4.7725141675e+00 
34600 5.9039296373e+00 -4.7572838830e-03 2.7555057350e+00 -4.7726759336e+00 2.7555057350e+00 4.7726759336e+00 
34700 5.9038327183e+00 -4.3704175796e-03 2.7555920587e+00 -4.7728254507e+00 2.7555920587e+00 4.7728254507e+00 
34800 5.9037353203e+00 -3.9862070547e-03 2.7556713600e+00 -4.7729628045e+00 2.7556713600e+00 4.7729628045e+00 
34900 5.9036374138e+00 -3.6046136187e-03 2.7557436876e+00 -4.7730880796e+00 2.7557436876e+00 4.7730880796e+00 
35000 5.9035389688e+00 -3.2255985937e-03 2.7558090897e+00 -4.7732013594e+00 2.7558090897e+00 4.7732013594e+00 
35100 5.9034399556e+00 -2.8491233475e-03 2.7558676136e+00 -4.7733027256e+00 2.7558676136e+00 4.7733027256e+00 
35200 5.9033403440e+00 -2.4751493273e-03 2.7559193057e+00 -4.7733922590e+00 2.7559193057e+00 4.7733922590e+00 
35300 5.9032401037e+00 -2.1036380928e-03 2.7559642119e+00 -4.7734700388e+00 2.7559642119e+00 4.7734700388e+00 
35400 5.9031392042e+00 -1.7345513489e-03 2.7560023771e+00 -4.7735361430e+00 2.7560023771e+00 4.7735361430e+00 
35500 5.9030376150e+00 -1.3678509785e-03 2.7560338458e+00 -4.7735906483e+00 2.7560338458e+00 4.7735906483e+00 
35600 5.9029353052e+00 -1.0034990739e-03 2.7560586614e+00 -4.7736336302e+00 2.7560586614e+00 4.7736336302e+00 
35700 5.9028322439e+00 -6.4145796903e-04 2.7560768668e+00 -4.7736651628e+00 2.7560768668e+00 4.7736651628e+00 
35800 5.9027283998e+00 -2.8169027046e-04 2.7560885039e+00 -4.7736853190e+00 2.7560885039e+00 4.7736853190e+00 
35900 5.9026237417e+00 7.5841112075e-05 2.7560936143e+00 -4.7736941703e+00 2.7560936143e+00 4.7736941703e+00 
36000 5.9025182377e+00 4.3117293514e-04 2.7560922384e+00 -4.7736917872e+00 2.7560922384e+00 4.7736917872e+00 
36100 5.9024118563e+00 7.8434159174e-04 2.7560844162e+00 -4.7736782388e+00 2.7560844162e+00 4.7736782388e+00 
36200 5.9023045652e+00 1.1353830819e-03 2.7560701869e+00 -4.7736535930e+00 2.7560701869e+00 4.7736535930e+00 
36300 5.9021963323e+00 1.4843329836e-03 2.7560495891e+00 -4.7736179165e+00 2.7560495891e+00 4.7736179165e+00 
36400 5.9020871251e+00 1.8312264243e-03 2.7560226605e+00 -4.7735712748e+00 2.7560226605e+00 4.7735712748e+00 
36500 5.9019769109e+00 2.1760980526e-03 2.7559894383e+00 -4.7735137323e+00 2.7559894383e+00 4.7735137323e+00 
36600 5.9018656567e+00 2.5189820106e-03 2.7559499590e+00 -4.7734453520e+00 2.7559499590e+00 4.7734453520e+00 
36700 5.9017533293e+00 2.8599119068e-03 2.7559042583e+00 -4.7733661962e+00 2.7559042583e+00 4.7733661962e+00 
36800 5.9016398952e+00 3.1989207890e-03 2.7558523715e+00 -4.7732763255e+00 2.7558523715e+00 4.7732763255e+00 
36900 5.9015253208e+00 3.5360411178e-03 2.7557943330e+00 -4.7731757999e+00 2.7557943330e+00 4.7731757999e+00 
37000 5.9014095720e+00 3.8713047408e-03 2.7557301768e+00 -4.7730646781e+00 2.7557301768e+00 4.7730646781e+00 
37100 5.9012926147e+00 4.2047428668e-03 2.7556599361e+00 -4.7729430176e+00 2.7556599361e+00 4.7729430176e+00 
37200 5.9011744144e+00 4.5363860407e-03 2.7555836436e+00 -4.7728108752e+00 2.7555836436e+00 4.7728108752e+00 
37300 5.9010549362e+00 4.8662641183e-03 2.7555013314e+00 -4.7726683062e+00 2.7555013314e+00 4.7726683062e+00 
37400 5.9009341452e+00 5.1944062424e-03 2.7554130309e+00 -4.7725153654e+00 2.7554130309e+00 4.7725153654e+00 
37500 5.9008120060e+00 5.5208408182e-03 2.7553187733e+00 -4.7723521063e+00 2.7553187733e+00 4.7723521063e+00 
37600 5.9006884830e+00 5.8455954897e-03 2.7552185887e+00 -4.7721785816e+00 2.7552185887e+00 4.7721785816e+00 
37700 5.9005635403e+00 6.1686971163e-03 2.7551125072e+00 -4.7719948430e+00 2.7551125072e+00 4.7719948430e+00 
37800 5.9004371417e+00 6.4901717501e-03 2.7550005579e+00 -4.7718009412e+00 2.7550005579e+00 4.7718009412e+00 
37900 5.9003092508e+00 6.8100446127e-03 2.7548827698e+00 -4.7715969262e+00 2.7548827698e+00 4.7715969262e+00 
38000 5.9001798307e+00 7.1283400728e-03 2.7547591712e+00 -4.7713828471e+00 2.7547591712e+00 4.7713828471e+00 
38100 5.9000488443e+00 7.4450816245e-03 2.7546297899e+00 -4.7711587522e+00 2.7546297899e+00 4.7711587522e+00 
38200 5.8999162544e+00 7.7602918654e-03 2.7544946534e+00 -4.7709246889e+00 2.7544946534e+00 4.7709246889e+00 
38300 5.8997820232e+00 8.0739924749e-03 2.7543537887e+00 -4.7706807040e+00 2.7543537887e+00 4.7706807040e+00 
38400 5.8996461126e+00 8.3862041930e-03 2.7542072221e+00 -4.7704268433e+00 2.7542072221e+00 4.7704268433e+00 
38500 5.8995084845e+00 8.6969467995e-03 2.7540549800e+00 -4.7701631522e+00 2.7540549800e+00 4.7701631522e+00 
38600 5.8993691001e+00 9.0062390933e-03 2.7538970880e+00 -4.7698896753e+00 2.7538970880e+00 4.7698896753e+00 
38700 5.8992279206e+00 9.3140988719e-03 2.7537335716e+00 -4.7696064565e+00 2.7537335716e+00 4.7696064565e+00 
38800 5.8990849067e+00 9.6205429112e-03 2.7535644557e+00 -4.7693135391e+00 2.7535644557e+00 4.7693135391e+00 
38900 5.8989400189e+00 9.9255869454e-03 2.7533897650e+00 -4.7690109660e+00 2.7533897650e+00 4.7690109660e+00 
39000 5.8987932173e+00 1.0229245648e-02 2.7532095239e+00 -4.7686987793e+00 2.7532095239e+00 4.7686987793e+00 
39100 5.8986444617e+00 1.0531532610e-02 2.7530237565e+00 -4.7683770207e+00 2.7530237565e+00 4.7683770207e+00 
39200 5.8984937116e+00 1.0832460325e-02 2.7528324866e+00 -4.7680457316e+00 2.7528324866e+00 4.7680457316e+00 
39300 5.8983409264e+00 1.1132040164e-02 2.7526357378e+00 -4.7677049526e+00 2.7526357378e+00 4.7677049526e+00 
39400 5.8981860648e+00 1.1430282364e-02 2.7524335334e+00 -4.7673547242e+00 2.7524335334e+00 4.7673547242e+00 
39500 5.8980290855e+00 1.1727196001e-02 2.7522258964e+00 -4.7669950865e+00 2.7522258964e+00 4.7669950865e+00 
39600 5.8978699468e+00 1.2022788978e-02 2.7520128499e+00 -4.7666260790e+00 2.7520128499e+00 4.7666260790e+00 
39700 5.8977086067e+00 1.2317068005e-02 2.7517944165e+00 -4.7662477413e+00 2.7517944165e+00 4.7662477413e+00 
39800 5.8975450229e+00 1.2610038578e-02 2.7515706188e+00 -4.7658601124e+00 2.7515706188e+00 4.7658601124e+00 
39900 5.8973791529e+00 1.2901704966e-02 2.7513414795e+00 -4.7654632314e+00 2.7513414795e+00 4.7654632314e+00 
40000 5.8972109538e+00 1.3192070189e-02 2.7511070207e+00 -4.7650571369e+00 2.7511070207e+00 4.7650571369e+00 
40100 5.8970403825e+00 1.3481136002e-02 2.7508672649e+00 -4.7646418677e+00 2.7508672649e+00 4.7646418677e+00 
40200 5.8968673957e+00 1.3768902880e-02 2.7506222342e+00 -4.7642174621e+00 2.7506222342e+00 4.7642174621e+00 
40300 5.8966919497e+00 1.4055369998e-02 2.7503719510e+00 -4.7637839588e+00 2.7503719510e+00 4.7637839588e+00 
40400 5.8965140007e+00 1.4340535215e-02 2.7501164373e+00 -4.7633413962e+00 2.7501164373e+00 4.7633413962e+00 
40500 5.8963335045e+00 1.4624395057e-02 2.7498557155e+00 -4.7628898127e+00 2.7498557155e+00 4.7628898127e+00 
40600 5.8961504168e+00 1.4906944702e-02 2.7495898077e+00 -4.7624292469e+00 2.7495898077e+00 4.7624292469e+00 
40700 5.8959646932e+00 1.5188177965e-02 2.7493187364e+00 -4.7619597376e+00 2.7493187364e+00 4.7619597376e+00 
40800 5.8957762888e+00 1.5468087279e-02 2.7490425239e+00 -4.7614813235e+00 2.7490425239e+00 4.7614813235e+00 
40900 5.8955851587e+00 1.5746663682e-02 2.7487611928e+00 -4.7609940438e+00 2.7487611928e+00 4.7609940438e+00 
41000 5.8953912580e+00 1.6023896800e-02 2.7484747657e+00 -4.7604979376e+00 2.7484747657e+00 4.7604979376e+00 
41100 5.8951945412e+00 1.6299774835e-02 2.7481832656e+00 -4.7599930446e+00 2.7481832656e+00 4.7599930446e+00 
41200 5.8949949632e+00 1.6574284551e-02 2.7478867155e+00 -4.7594794047e+00 2.7478867155e+00 4.7594794047e+00 
41300 5.8947924784e+00 1.6847411254e-02 2.7475851387e+00 -4.7589570583e+00 2.7475851387e+00 4.7589570583e+00 
41400 5.8945870412e+00 1.7119138788e-02 2.7472785586e+00 -4.7584260460e+00 2.7472785586e+00 4.7584260460e+00 
41500 5.8943786060e+00 1.7389449514e-02 2.7469669991e+00 -4.7578864091e+00 2.7469669991e+00 4.7578864091e+00 
41600 5.8941671272e+00 1.7658324302e-02 2.7466504842e+00 -4.7573381893e+00 2.7466504842e+00 4.7573381893e+00 
41700 5.8939525591e+00 1.7925742519e-02 2.7463290385e+00 -4.7567814290e+00 2.7463290385e+00 4.7567814290e+00 
41800 5.8937348559e+00 1.8191682016e-02 2.7460026867e+00 -4.7562161712e+00 2.7460026867e+00 4.7562161712e+00 
41900 5.8935139720e+00 1.8456119118e-02 2.7456714541e+00 -4.7556424593e+00 2.7456714541e+00 4.7556424593e+00 
42000 5.8932898619e+00 1.8719028616e-02 2.7453353661e+00 -4.7550603379e+00 2.7453353661e+00 4.7550603379e+00 
42100 5.8930624800e+00 1.8980383756e-02 2.7449944489e+00 -4.7544698520e+00 2.7449944489e+00 4.7544698520e+00 
42200 5.8928317809e+00 1.9240156230e-02 2.7446487290e+00 -4.7538710475e+00 2.7446487290e+00 4.7538710475e+00 
42300 5.8925977195e+00 1.9498316172e-02 2.7442982334e+00 -4.7532639713e+00 2.7442982334e+00 4.7532639713e+00 
42400 5.8923602507e+00 1.9754832149e-02 2.7439429896e+00 -4.7526486711e+00 2.7439429896e+00 4.7526486711e+00 
42500 5.8921193298e+00 2.0009671156e-02 2.7435830259e+00 -4.7520251956e+00 2.7435830259e+00 4.7520251956e+00 
42600 5.8918749122e+00 2.0262798613e-02 2.7432183708e+00 -4.7513935945e+00 2.7432183708e+00 4.7513935945e+00 
42700 5.8916269537e+00 2.0514178359e-02 2.7428490538e+00 -4.7507539187e+00 2.7428490538e+00 4.7507539187e+00 
42800 5.8913754107e+00 2.0763772654e-02 2.7424751049e+00 -4.7501062201e+00 2.7424751049e+00 4.7501062201e+00 
42900 5.8911202395e+00 2.1011542173e-02 2.7420965546e+00 -4.7494505518e+00 2.7420965546e+00 4.7494505518e+00 
43000 5.8908613973e+00 2.1257446013e-02 2.7417134343e+00 -4.7487869681e+00 2.7417134343e+00 4.7487869681e+00 
43100 5.8905988416e+00 2.1501441691e-02 2.7413257763e+00 -4.7481155247e+00 2.7413257763e+00 4.7481155247e+00 
43200 5.8903325304e+00 2.1743485146e-02 2.7409336133e+00 -4.7474362785e+00 2.7409336133e+00 4.7474362785e+00 
43300 5.8900624226e+00 2.1983530750e-02 2.7405369791e+00 -4.7467492879e+00 2.7405369791e+00 4.7467492879e+00 
43400 5.8897884773e+00 2.2221531311e-02 2.7401359082e+00 -4.7460546126e+00 2.7401359082e+00 4.7460546126e+00 
43500 5.8895106548e+00 2.2457438082e-02 2.7397304359e+00 -4.7453523140e+00 2.7397304359e+00 4.7453523140e+00 
43600 5.8892289158e+00 2.2691200772e-02 2.7393205986e+00 -4.7446424549e+00 2.7393205986e+00 4.7446424549e+00 
43700 5.8889432222e+00 2.2922767559e-02 2.7389064333e+00 -4.7439250996e+00 2.7389064333e+00 4.7439250996e+00 
43800 5.8886535363e+00 2.3152085106e-02 2.7384879782e+00 -4.7432003142e+00 2.7384879782e+00 4.7432003142e+00 
43900 5.8883598220e+00 2.3379098575e-02 2.7380652726e+00 -4.7424681665e+00 2.7380652726e+00 4.7424681665e+00 
44000 5.8880620437e+00 2.3603751646e-02 2.7376383563e+00 -4.7417287259e+00 2.7376383563e+00 4.7417287259e+00 
44100 5.8877601672e+00 2.3825986544e-02 2.7372072707e+00 -4.7409820636e+00 2.7372072707e+00 4.7409820636e+00 
44200 5.8874541594e+00 2.4045744056e-02 2.7367720578e+00 -4.7402282529e+00 2.7367720578e+00 4.7402282529e+00 
44300 5.8871439885e+00 2.4262963562e-02 2.7363327611e+00 -4.7394673686e+00 2.7363327611e+00 4.7394673686e+00 
44400 5.8868296239e+00 2.4477583061e-02 2.7358894249e+00 -4.7386994878e+00 2.7358894249e+00 4.7386994878e+00 
44500 5.8865110366e+00 2.4689539207e-02 2.7354420947e+00 -4.7379246892e+00 2.7354420947e+00 4.7379246892e+00 
44600 5.8861881989e+00 2.4898767340e-02 2.7349908174e+00 -4.7371430540e+00 2.7349908174e+00 4.7371430540e+00 
44700 5.8858610849e+00 2.5105201526e-02 2.7345356408e+00 -4.7363546650e+00 2.7345356408e+00 4.7363546650e+00 
44800 5.8855296702e+00 2.5308774597e-02 2.7340766141e+00 -4.7355596073e+00 2.7340766141e+00 4.7355596073e+00 
44900 5.8851939321e+00 2.5509418195e-02 2.7336137876e+00 -4.7347579684e+00 2.7336137876e+00 4.7347579684e+00 
45000 5.8848538499e+00 2.5707062818e-02 2.7331472130e+00 -4.7339498376e+00 2.7331472130e+00 4.7339498376e+00 
45100 5.8845094046e+00 2.5901637875e-02 2.7326769434e+00 -4.7331353066e+00 2.7326769434e+00 4.7331353066e+00 
45200 5.8841605794e+00 2.6093071733e-02 2.7322030328e+00 -4.7323144694e+00 2.7322030328e+00 4.7323144694e+00 
45300 5.8838073596e+00 2.6281291780e-02 2.7317255370e+00 -4.7314874224e+00 2.7317255370e+00 4.7314874224e+00 
45400 5.8834497325e+00 2.6466224482e-02 2.7312445128e+00 -4.7306542641e+00 2.7312445128e+00 4.7306542641e+00 
45500 5.8830876879e+00 2.6647795450e-02 2.7307600186e+00 -4.7298150955e+00 2.7307600186e+00 4.7298150955e+00 
45600 5.8827212179e+00 2.6825929507e-02 2.7302721141e+00 -4.7289700201e+00 2.7302721141e+00 4.7289700201e+00 
45700 5.8823503171e+00 2.7000550759e-02 2.7297808604e+00 -4.7281191438e+00 2.7297808604e+00 4.7281191438e+00 
45800 5.8819749825e+00 2.7171582672e-02 2.7292863201e+00 -4.7272625748e+00 2.7292863201e+00 4.7272625748e+00 
45900 5.8815952141e+00 2.7338948150e-02 2.7287885571e+00 -4.7264004239e+00 2.7287885571e+00 4.7264004239e+00 
46000 5.8812110145e+00 2.7502569618e-02 2.7282876368e+00 -4.7255328045e+00 2.7282876368e+00 4.7255328045e+00 
46100 5.8808223890e+00 2.7662369110e-02 2.7277836261e+00 -4.7246598324e+00 2.7277836261e+00 4.7246598324e+00 
46200 5.8804293462e+00 2.7818268357e-02 2.7272765933e+00 -4.7237816259e+00 2.7272765933e+00 4.7237816259e+00 
46300 5.8800318975e+00 2.7970188884e-02 2.7267666084e+00 -4.7228983061e+00 2.7267666084e+00 4.7228983061e+00 
46400 5.8796300575e+00 2.8118052107e-02 2.7262537425e+00 -4.7220099963e+00 2.7262537425e+00 4.7220099963e+00 
46500 5.8792238441e+00 2.8261779431e-02 2.7257380684e+00 -4.7211168226e+00 2.7257380684e+00 4.7211168226e+00 
46600 5.8788132786e+00 2.8401292364e-02 2.7252196605e+00 -4.7202189138e+00 2.7252196605e+00 4.7202189138e+00 
46700 5.8783983856e+00 2.8536512617e-02 2.7246985945e+00 -4.7193164010e+00 2.7246985945e+00 4.7193164010e+00 
46800 5.8779791933e+00 2.8667362219e-02 2.7241749476e+00 -4.7184094180e+00 2.7241749476e+00 4.7184094180e+00 
46900 5.8775557334e+00 2.8793763638e-02 2.7236487986e+00 -4.7174981012e+00 2.7236487986e+00 4.7174981012e+00 
47000 5.8771280416e+00 2.8915639891e-02 2.7231202277e+00 -4.7165825894e+00 2.7231202277e+00 4.7165825894e+00 
47100 5.8766961569e+00 2.9032914672e-02 2.7225893165e+00 -4.7156630243e+00 2.7225893165e+00 4.7156630243e+00 
47200 5.8762601226e+00 2.9145512476e-02 2.7220561482e+00 -4.7147395497e+00 2.7220561482e+00 4.7147395497e+00 
47300 5.8758199857e+00 2.9253358725e-02 2.7215208073e+00 -4.7138123121e+00 2.7215208073e+00 4.7138123121e+00 
47400 5.8753757972e+00 2.9356379902e-02 2.7209833799e+00 -4.7128814606e+00 2.7209833799e+00 4.7128814606e+00 
47500 5.8749276122e+00 2.9454503679e-02 2.7204439535e+00 -4.7119471465e+00 2.7204439535e+00 4.7119471465e+00 
47600 5.8744754901e+00 2.9547659055e-02 2.7199026167e+00 -4.7110095238e+00 2.7199026167e+00 4.7110095238e+00 
47700 5.8740194941e+00 2.9635776492e-02 2.7193594598e+00 -4.7100687485e+00 2.7193594598e+00 4.7100687485e+00 
47800 5.8735596921e+00 2.9718788054e-02 2.7188145744e+00 -4.7091249793e+00 2.7188145744e+00 4.7091249793e+00 
47900 5.8730961559e+00 2.9796627544e-02 2.7182680533e+00 -4.7081783769e+00 2.7182680533e+00 4.7081783769e+00 
48000 5.8726289618e+00 2.9869230649e-02 2.7177199906e+00 -4.7072291045e+00 2.7177199906e+00 4.7072291045e+00 
48100 5.8721581905e+00 2.9936535080e-02 2.7171704817e+00 -4.7062773272e+00 2.7171704817e+00 4.7062773272e+00 
48200 5.8716839270e+00 2.9998480711e-02 2.7166196234e+00 -4.7053232125e+00 2.7166196234e+00 4.7053232125e+00 
48300 5.8712062607e+00 3.0055009725e-02 2.7160675132e+00 -4.7043669297e+00 2.7160675132e+00 4.7043669297e+00 
48400 5.8707252854e+00 3.0106066752e-02 2.7155142503e+00 -4.7034086502e+00 2.7155142503e+00 4.7034086502e+00 
48500 5.8702410993e+00 3.0151599013e-02 2.7149599346e+00 -4.7024485473e+00 2.7149599346e+00 4.7024485473e+00 
48600 5.8697538052e+00 3.0191556458e-02 2.7144046673e+00 -4.7014867961e+00 2.7144046673e+00 4.7014867961e+00 
48700 5.8692635100e+00 3.0225891903e-02 2.7138485504e+00 -4.7005235734e+00 2.7138485504e+00 4.7005235734e+00 
48800 5.8687703251e+00 3.0254561170e-02 2.7132916870e+00 -4.6995590577e+00 2.7132916870e+00 4.6995590577e+00 
48900 5.8682743663e+00 3.0277523216e-02 2.7127341811e+00 -4.6985934291e+00 2.7127341811e+00 4.6985934291e+00 
49000 5.8677757536e+00 3.0294740266e-02 2.7121761374e+00 -4.6976268690e+00 2.7121761374e+00 4.6976268690e+00 
49100 5.8672746112e+00 3.0306177942e-02 2.7116176615e+00 -4.6966595604e+00 2.7116176615e+00 4.6966595604e+00 
49200 5.8667710676e+00 3.0311805384e-02 2.7110588597e+00 -4.6956916873e+00 2.7110588597e+00 4.6956916873e+00 
49300 5.8662652553e+00 3.0311595373e-02 2.7104998389e+00 -4.6947234349e+00 2.7104998389e+00 4.6947234349e+00 
49400 5.8657573107e+00 3.0305524443e-02 2.7099407067e+00 -4.6937549896e+00 2.7099407067e+00 4.6937549896e+00 
49500 5.8652473745e+00 3.0293572991e-02 2.7093815712e+00 -4.6927865385e+00 2.7093815712e+00 4.6927865385e+00 
49600 5.8647355908e+00 3.0275725384e-02 2.7088225409e+00 -4.6918182695e+00 2.7088225409e+00 4.6918182695e+00 
49700 5.8642221075e+00 3.0251970054e-02 2.7082637246e+00 -4.6908503712e+00 2.7082637246e+00 4.6908503712e+00 
49800 5.8637070763e+00 3.0222299593e-02 2.7077052315e+00 -4.6898830329e+00 2.7077052315e+00 4.6898830329e+00 
49900 5.8631906519e+00 3.0186710836e-02 2.7071471711e+00 -4.6889164439e+00 2.7071471711e+00 4.6889164439e+00 
50000 5.8626729927e+00 3.0145204939e-02 2.7065896529e+00 -4.6879507941e+00 2.7065896529e+00 4.6879507941e+00 
50100 5.8621542599e+00 3.0097787451e-02 2.7060327866e+00 -4.6869862734e+00 2.7060327866e+00 4.6869862734e+00 
50200 5.8616346177e+00 3.0044468373e-02 2.7054766818e+00 -4.6860230716e+00 2.7054766818e+00 4.6860230716e+00 
50300 5.8611142333e+00 2.9985262215e-02 2.7049214481e+00 -4.6850613785e+00 2.7049214481e+00 4.6850613785e+00 
50400 5.8605932762e+00 2.9920188039e-02 2.7043671947e+00 -4.6841013835e+00 2.7043671947e+00 4.6841013835e+00 
50500 5.8600719183e+00 2.9849269497e-02 2.7038140307e+00 -4.6831432755e+00 2.7038140307e+00 4.6831432755e+00 
50600 5.8595503336e+00 2.9772534858e-02 2.7032620650e+00 -4.6821872428e+00 2.7032620650e+00 4.6821872428e+00 
50700 5.8590286983e+00 2.9690017021e-02 2.7027114058e+00 -4.6812334730e+00 2.7027114058e+00 4.6812334730e+00 
50800 5.8585071901e+00 2.9601753532e-02 2.7021621608e+00 -4.6802821529e+00 2.7021621608e+00 4.6802821529e+00 
50900 5.8579859881e+00 2.9507786574e-02 2.7016144374e+00 -4.6793334680e+00 2.7016144374e+00 4.6793334680e+00 
51000 5.8574652727e+00 2.9408162957e-02 2.7010683418e+00 -4.6783876028e+00 2.7010683418e+00 4.6783876028e+00 
51100 5.8569452253e+00 2.9302934099e-02 2.7005239799e+00 -4.6774447403e+00 2.7005239799e+00 4.6774447403e+00 
51200 5.8564260280e+00 2.9192155991e-02 2.6999814564e+00 -4.6765050620e+00 2.6999814564e+00 4.6765050620e+00 
51300 5.8559078632e+00 2.9075889158e-02 2.6994408753e+00 -4.6755687480e+00 2.6994408753e+00 4.6755687480e+00 
51400 5.8553909137e+00 2.8954198603e-02 2.6989023393e+00 -4.6746359763e+00 2.6989023393e+00 4.6746359763e+00 
51500 5.8548753620e+00 2.8827153749e-02 2.6983659501e+00 -4.6737069230e+00 2.6983659501e+00 4.6737069230e+00 
51600 5.8543613903e+00 2.8694828361e-02 2.6978318083e+00 -4.6727817622e+00 2.6978318083e+00 4.6727817622e+00 
51700 5.8538491802e+00 2.8557300473e-02 2.6973000130e+00 -4.6718606658e+00 2.6973000130e+00 4.6718606658e+00 
51800 5.8533389123e+00 2.8414652288e-02 2.6967706620e+00 -4.6709438030e+00 2.6967706620e+00 4.6709438030e+00 
51900 5.8528307658e+00 2.8266970082e-02 2.6962438518e+00 -4.6700313410e+00 2.6962438518e+00 4.6700313410e+00 
52000 5.8523249187e+00 2.8114344096e-02 2.6957196772e+00 -4.6691234438e+00 2.6957196772e+00 4.6691234438e+00 
52100 5.8518215471e+00 2.7956868411e-02 2.6951982313e+00 -4.6682202731e+00 2.6951982313e+00 4.6682202731e+00 
52200 5.8513208248e+00 2.7794640829e-02 2.6946796058e+00 -4.6673219873e+00 2.6946796058e+00 4.6673219873e+00 
52300 5.8508229236e+00 2.7627762731e-02 2.6941638904e+00 -4.6664287421e+00 2.6941638904e+00 4.6664287421e+00 
52400 5.8503280125e+00 2.7456338941e-02 2.6936511732e+00 -4.6655406898e+00 2.6936511732e+00 4.6655406898e+00 
52500 5.8498362575e+00 2.7280477573e-02 2.6931415401e+00 -4.6646579794e+00 2.6931415401e+00 4.6646579794e+00 
52600 5.8493478217e+00 2.7100289875e-02 2.6926350754e+00 -4.6637807569e+00 2.6926350754e+00 4.6637807569e+00 
52700 5.8488628646e+00 2.6915890067e-02 2.6921318612e+00 -4.6629091642e+00 2.6921318612e+00 4.6629091642e+00 
52800 5.8483815419e+00 2.6727395174e-02 2.6916319775e+00 -4.6620433403e+00 2.6916319775e+00 4.6620433403e+00 
52900 5.8479040058e+00 2.6534924852e-02 2.6911355022e+00 -4.6611834199e+00 2.6911355022e+00 4.6611834199e+00 
53000 5.8474304039e+00 2.6338601210e-02 2.6906425112e+00 -4.6603295344e+00 2.6906425112e+00 4.6603295344e+00 
53100 5.8469608798e+00 2.6138548630e-02 2.6901530778e+00 -4.6594818110e+00 2.6901530778e+00 4.6594818110e+00 
53200 5.8464955723e+00 2.5934893580e-02 2.6896672735e+00 -4.6586403731e+00 2.6896672735e+00 4.6586403731e+00 
53300 5.8460346153e+00 2.5727764430e-02 2.6891851670e+00 -4.6578053403e+00 2.6891851670e+00 4.6578053403e+00 
53400 5.8455781381e+00 2.5517291259e-02 2.6887068251e+00 -4.6569768277e+00 2.6887068251e+00 4.6569768277e+00 
53500 5.8451262645e+00 2.5303605661e-02 2.6882323118e+00 -4.6561549466e+00 2.6882323118e+00 4.6561549466e+00 
53600 5.8446791132e+00 2.5086840562e-02 2.6877616891e+00 -4.6553398041e+00 2.6877616891e+00 4.6553398041e+00 
53700 5.8442367972e+00 2.4867130016e-02 2.6872950161e+00 -4.6545315028e+00 2.6872950161e+00 4.6545315028e+00 
53800 5.8437994241e+00 2.4644609021e-02 2.6868323498e+00 -4.6537301413e+00 2.6868323498e+00 4.6537301413e+00 
53900 5.8433670956e+00 2.4419413323e-02 2.6863737446e+00 -4.6529358137e+00 2.6863737446e+00 4.6529358137e+00 
54000 5.8429399077e+00 2.4191679226e-02 2.6859192522e+00 -4.6521486099e+00 2.6859192522e+00 4.6521486099e+00 
54100 5.8425179503e+00 2.3961543404e-02 2.6854689222e+00 -4.6513686154e+00 2.6854689222e+00 4.6513686154e+00 
54200 5.8421013075e+00 2.3729142716e-02 2.6850228012e+00 -4.6505959112e+00 2.6850228012e+00 4.6505959112e+00 
54300 5.8416900571e+00 2.3494614019e-02 2.6845809336e+00 -4.6498305741e+00 2.6845809336e+00 4.6498305741e+00 
54400 5.8412842708e+00 2.3258093993e-02 2.6841433611e+00 -4.6490726763e+00 2.6841433611e+00 4.6490726763e+00 
54500 5.8408840143e+00 2.3019718960e-02 2.6837101229e+00 -4.6483222857e+00 2.6837101229e+00 4.6483222857e+00 
54600 5.8404893470e+00 2.2779624715e-02 2.6832812557e+00 -4.6475794659e+00 2.6832812557e+00 4.6475794659e+00 
54700 5.8401003222e+00 2.2537946359e-02 2.6828567936e+00 -4.6468442760e+00 2.6828567936e+00 4.6468442760e+00 
54800 5.8397169868e+00 2.2294818134e-02 2.6824367683e+00 -4.6461167707e+00 2.6824367683e+00 4.6461167707e+00 
54900 5.8393393819e+00 2.2050373268e-02 2.6820212087e+00 -4.6453970005e+00 2.6820212087e+00 4.6453970005e+00 
55000 5.8389675424e+00 2.1804743824e-02 2.6816101417e+00 -4.6446850115e+00 2.6816101417e+00 4.6446850115e+00 
55100 5.8386014969e+00 2.1558060552e-02 2.6812035913e+00 -4.6439808456e+00 2.6812035913e+00 4.6439808456e+00 
55200 5.8382412683e+00 2.1310452752e-02 2.6808015793e+00 -4.6432845403e+00 2.6808015793e+00 4.6432845403e+00 
55300 5.8378868737e+00 2.1062048139e-02 2.6804041249e+00 -4.6425961292e+00 2.6804041249e+00 4.6425961292e+00 
55400 5.8375383242e+00 2.0812972719e-02 2.6800112451e+00 -4.6419156414e+00 2.6800112451e+00 4.6419156414e+00 
55500 5.8371956252e+00 2.0563350666e-02 2.6796229544e+00 -4.6412431021e+00 2.6796229544e+00 4.6412431021e+00 
55600 5.8368587768e+00 2.0313304208e-02 2.6792392650e+00 -4.6405785325e+00 2.6792392650e+00 4.6405785325e+00 
55700 5.8365277734e+00 2.0062953526e-02 2.6788601867e+00 -4.6399219498e+00 2.6788601867e+00 4.6399219498e+00 
55800 5.8362026042e+00 1.9812416648e-02 2.6784857274e+00 -4.6392733671e+00 2.6784857274e+00 4.6392733671e+00 
55900 5.8358832535e+00 1.9561809359e-02 2.6781158923e+00 -4.6386327940e+00 2.6781158923e+00 4.6386327940e+00 
56000 5.8355697001e+00 1.9311245115e-02 2.6777506847e+00 -4.6380002359e+00 2.6777506847e+00 4.6380002359e+00 
56100 5.8352619186e+00 1.9060834963e-02 2.6773901057e+00 -4.6373756948e+00 2.6773901057e+00 4.6373756948e+00 
56200 5.8349598786e+00 1.8810687471e-02 2.6770341544e+00 -4.6367591690e+00 2.6770341544e+00 4.6367591690e+00 
56300 5.8346635453e+00 1.8560908657e-02 2.6766828276e+00 -4.6361506531e+00 2.6766828276e+00 4.6361506531e+00 
56400 5.8343728797e+00 1.8311601937e-02 2.6763361203e+00 -4.6355501385e+00 2.6763361203e+00 4.6355501385e+00 
56500 5.8340878386e+00 1.8062868066e-02 2.6759940255e+00 -4.6349576130e+00 2.6759940255e+00 4.6349576130e+00 
56600 5.8338083752e+00 1.7814805095e-02 2.6756565343e+00 -4.6343730611e+00 2.6756565343e+00 4.6343730611e+00 
56700 5.8335344388e+00 1.7567508331e-02 2.6753236359e+00 -4.6337964642e+00 2.6753236359e+00 4.6337964642e+00 
56800 5.8332659752e+00 1.7321070299e-02 2.6749953177e+00 -4.6332278003e+00 2.6749953177e+00 4.6332278003e+00 
56900 5.8330029271e+00 1.7075580719e-02 2.6746715654e+00 -4.6326670448e+00 2.6746715654e+00 4.6326670448e+00 
57000 5.8327452341e+00 1.6831126480e-02 2.6743523628e+00 -4.6321141697e+00 2.6743523628e+00 4.6321141697e+00 
57100 5.8324928327e+00 1.6587791624e-02 2.6740376923e+00 -4.6315691444e+00 2.6740376923e+00 4.6315691444e+00 
57200 5.8322456572e+00 1.6345657332e-02 2.6737275345e+00 -4.6310319354e+00 2.6737275345e+00 4.6310319354e+00 
57300 5.8320036390e+00 1.6104801918e-02 2.6734218687e+00 -4.6305025066e+00 2.6734218687e+00 4.6305025066e+00 
57400 5.8317667076e+00 1.5865300830e-02 2.6731206723e+00 -4.6299808192e+00 2.6731206723e+00 4.6299808192e+00 
57500 5.8315347902e+00 1.5627226647e-02 2.6728239216e+00 -4.6294668319e+00 2.6728239216e+00 4.6294668319e+00 
57600 5.8313078123e+00 1.5390649087e-02 2.6725315914e+00 -4.6289605012e+00 2.6725315914e+00 4.6289605012e+00 
57700 5.8310856978e+00 1.5155635022e-02 2.6722436552e+00 -4.6284617810e+00 2.6722436552e+00 4.6284617810e+00 
57800 5.8308683691e+00 1.4922248487e-02 2.6719600851e+00 -4.6279706233e+00 2.6719600851e+00 4.6279706233e+00 
57900 5.8306557471e+00 1.4690550701e-02 2.6716808521e+00 -4.6274869775e+00 2.6716808521e+00 4.6274869775e+00 
58000 5.8304477519e+00 1.4460600091e-02 2.6714059260e+00 -4.6270107914e+00 2.6714059260e+00 4.6270107914e+00 
58100 5.8302443027e+00 1.4232452314e-02 2.6711352753e+00 -4.6265420107e+00 2.6711352753e+00 4.6265420107e+00 
58200 5.8300453178e+00 1.4006160285e-02 2.6708688677e+00 -4.6260805792e+00 2.6708688677e+00 4.6260805792e+00 
58300 5.8298507150e+00 1.3781774211e-02 2.6706066697e+00 -4.6256264389e+00 2.6706066697e+00 4.6256264389e+00 
58400 5.8296604116e+00 1.3559341622e-02 2.6703486468e+00 -4.6251795302e+00 2.6703486468e+00 4.6251795302e+00 
58500 5.8294743248e+00 1.3338907410e-02 2.6700947637e+00 -4.6247397918e+00 2.6700947637e+00 4.6247397918e+00 
58600 5.8292923715e+00 1.3120513863e-02 2.6698449842e+00 -4.6243071610e+00 2.6698449842e+00 4.6243071610e+00 
58700 5.8291144690e+00 1.2904200709e-02 2.6695992712e+00 -4.6238815736e+00 2.6695992712e+00 4.6238815736e+00 
58800 5.8289405342e+00 1.2690005160e-02 2.6693575869e+00 -4.6234629640e+00 2.6693575869e+00 4.6234629640e+00 
58900 5.8287704849e+00 1.2477961950e-02 2.6691198927e+00 -4.6230512656e+00 2.6691198927e+00 4.6230512656e+00 
59000 5.8286042387e+00 1.2268103388e-02 2.6688861493e+00 -4.6226464103e+00 2.6688861493e+00 4.6226464103e+00 
59100 5.8284417144e+00 1.2060459398e-02 2.6686563170e+00 -4.6222483290e+00 2.6686563170e+00 4.6222483290e+00 
59200 5.8282828308e+00 1.1855057574e-02 2.6684303552e+00 -4.6218569516e+00 2.6684303552e+00 4.6218569516e+00 
59300 5.8281275078e+00 1.1651923226e-02 2.6682082228e+00 -4.6214722071e+00 2.6682082228e+00 4.6214722071e+00 
59400 5.8279756660e+00 1.1451079430e-02 2.6679898785e+00 -4.6210940236e+00 2.6679898785e+00 4.6210940236e+00 
59500 5.8278272271e+00 1.1252547082e-02 2.6677752801e+00 -4.6207223283e+00 2.6677752801e+00 4.6207223283e+00 
59600 5.8276821135e+00 1.1056344949e-02 2.6675643853e+00 -4.6203570478e+00 2.6675643853e+00 4.6203570478e+00 
59700 5.8275402489e+00 1.0862489721e-02 2.6673571513e+00 -4.6199981079e+00 2.6673571513e+00 4.6199981079e+00 
59800 5.8274015580e+00 1.0670996066e-02 2.6671535349e+00 -4.6196454340e+00 2.6671535349e+00 4.6196454340e+00 
59900 5.8272659667e+00 1.0481876682e-02 2.6669534927e+00 -4.6192989509e+00 2.6669534927e+00 4.6192989509e+00 
60000 5.8271334022e+00 1.0295142355e-02 2.6667569811e+00 -4.6189585827e+00 2.6667569811e+00 4.6189585827e+00 
60100 5.8270037930e+00 1.0110802008e-02 2.6665639561e+00 -4.6186242535e+00 2.6665639561e+00 4.6186242535e+00 
60200 5.8268770689e+00 9.9288627586e-03 2.6663743735e+00 -4.6182958868e+00 2.6663743735e+00 4.6182958868e+00 
60300 5.8267531610e+00 9.7493299755e-03 2.6661881890e+00 -4.6179734060e+00 2.6661881890e+00 4.6179734060e+00 
60400 5.8266320019e+00 9.5722073295e-03 2.6660053584e+00 -4.6176567340e+00 2.6660053584e+00 4.6176567340e+00 
60500 5.8265135257e+00 9.3974968506e-03 2.6658258370e+00 -4.6173457938e+00 2.6658258370e+00 4.6173457938e+00 
60600 5.8263976677e+00 9.2251989815e-03 2.6656495803e+00 -4.6170405083e+00 2.6656495803e+00 4.6170405083e+00 
60700 5.8262843648e+00 9.0553126324e-03 2.6654765437e+00 -4.6167408001e+00 2.6654765437e+00 4.6167408001e+00 
60800 5.8261735554e+00 8.8878352351e-03 2.6653066826e+00 -4.6164465920e+00 2.6653066826e+00 4.6164465920e+00 
60900 5.8260651795e+00 8.7227627963e-03 2.6651399524e+00 -4.6161578068e+00 2.6651399524e+00 4.6161578068e+00 
61000 5.8259591782e+00 8.5600899517e-03 2.6649763086e+00 -4.6158743674e+00 2.6649763086e+00 4.6158743674e+00 
61100 5.8258554945e+00 8.3998100183e-03 2.6648157067e+00 -4.6155961968e+00 2.6648157067e+00 4.6155961968e+00 
61200 5.8257540725e+00 8.2419150477e-03 2.6646581024e+00 -4.6153232182e+00 2.6646581024e+00 4.6153232182e+00 
61300 5.8256548582e+00 8.0863958774e-03 2.6645034515e+00 -4.6150553549e+00 2.6645034515e+00 4.6150553549e+00 
61400 5.8255577987e+00 7.9332421830e-03 2.6643517099e+00 -4.6147925308e+00 2.6643517099e+00 4.6147925308e+00 
61500 5.8254628426e+00 7.7824425287e-03 2.6642028338e+00 -4.6145346698e+00 2.6642028338e+00 4.6145346698e+00 
61600 5.8253699401e+00 7.6339844174e-03 2.6640567794e+00 -4.6142816961e+00 2.6640567794e+00 4.6142816961e+00 
61700 5.8252790427e+00 7.4878543411e-03 2.6639135032e+00 -4.6140335345e+00 2.6639135032e+00 4.6140335345e+00 
61800 5.8251901033e+00 7.3440378289e-03 2.6637729621e+00 -4.6137901102e+00 2.6637729621e+00 4.6137901102e+00 
61900 5.8251030761e+00 7.2025194960e-03 2.6636351130e+00 -4.6135513485e+00 2.6636351130e+00 4.6135513485e+00 
62000 5.8250179168e+00 7.0632830906e-03 2.6634999132e+00 -4.6133171756e+00 2.6634999132e+00 4.6133171756e+00 
62100 5.8249345823e+00 6.9263115410e-03 2.6633673203e+00 -4.6130875179e+00 2.6633673203e+00 4.6130875179e+00 
62200 5.8248530308e+00 6.7915870011e-03 2.6632372921e+00 -4.6128623025e+00 2.6632372921e+00 4.6128623025e+00 
62300 5.8247732217e+00 6.6590908955e-03 2.6631097869e+00 -4.6126414570e+00 2.6631097869e+00 4.6126414570e+00 
62400 5.8246951158e+00 6.5288039637e-03 2.6629847631e+00 -4.6124249096e+00 2.6629847631e+00 4.6124249096e+00 
62500 5.8246186750e+00 6.4007063037e-03 2.6628621798e+00 -4.6122125889e+00 2.6628621798e+00 4.6122125889e+00 
62600 5.8245438624e+00 6.2747774135e-03 2.6627419960e+00 -4.6120044244e+00 2.6627419960e+00 4.6120044244e+00 
62700 5.8244706421e+00 6.1509962335e-03 2.6626241713e+00 -4.6118003462e+00 2.6626241713e+00 4.6118003462e+00 
62800 5.8243989795e+00 6.0293411863e-03 2.6625086659e+00 -4.6116002849e+00 2.6625086659e+00 4.6116002849e+00 
62900 5.8243288409e+00 5.9097902165e-03 2.6623954400e+00 -4.6114041719e+00 2.6623954400e+00 4.6114041719e+00 
63000 5.8242601938e+00 5.7923208292e-03 2.6622844544e+00 -4.6112119393e+00 2.6622844544e+00 4.6112119393e+00 
63100 5.8241930066e+00 5.6769101275e-03 2.6621756704e+00 -4.6110235198e+00 2.6621756704e+00 4.6110235198e+00 
63200 5.8241272488e+00 5.5635348493e-03 2.6620690495e+00 -4.6108388469e+00 2.6620690495e+00 4.6108388469e+00 
63300 5.8240628905e+00 5.4521714023e-03 2.6619645537e+00 -4.6106578550e+00 2.6619645537e+00 4.6106578550e+00 
63400 5.8239999031e+00 5.3427958991e-03 2.6618621456e+00 -4.6104804789e+00 2.6618621456e+00 4.6104804789e+00 
63500 5.8239382587e+00 5.2353841904e-03 2.6617617880e+00 -4.6103066544e+00 2.6617617880e+00 4.6103066544e+00 
63600 5.8238779303e+00 5.1299118972e-03 2.6616634442e+00 -4.6101363181e+00 2.6616634442e+00 4.6101363181e+00 
63700 5.8238188916e+00 5.0263544426e-03 2.6615670782e+00 -4.6099694071e+00 2.6615670782e+00 4.6099694071e+00 
63800 5.8237611171e+00 4.9246870819e-03 2.6614726540e+00 -4.6098058597e+00 2.6614726540e+00 4.6098058597e+00 
63900 5.8237045821e+00 4.8248849322e-03 2.6613801365e+00 -4.6096456146e+00 2.6613801365e+00 4.6096456146e+00 
64000 5.8236492627e+00 4.7269230000e-03 2.6612894907e+00 -4.6094886115e+00 2.6612894907e+00 4.6094886115e+00 
64100 5.8235951355e+00 4.6307762091e-03 2.6612006823e+00 -4.6093347909e+00 2.6612006823e+00 4.6093347909e+00 
64200 5.8235421779e+00 4.5364194261e-03 2.6611136774e+00 -4.6091840939e+00 2.6611136774e+00 4.6091840939e+00 
64300 5.8234903679e+00 4.4438274860e-03 2.6610284425e+00 -4.6090364627e+00 2.6610284425e+00 4.6090364627e+00 
64400 5.8234396840e+00 4.3529752160e-03 2.6609449446e+00 -4.6088918402e+00 2.6609449446e+00 4.6088918402e+00 
64500 5.8233901055e+00 4.2638374584e-03 2.6608631512e+00 -4.6087501699e+00 2.6608631512e+00 4.6087501699e+00 
64600 5.8233416119e+00 4.1763890928e-03 2.6607830303e+00 -4.6086113964e+00 2.6607830303e+00 4.6086113964e+00 
64700 5.8232941837e+00 4.0906050571e-03 2.6607045502e+00 -4.6084754650e+00 2.6607045502e+00 4.6084754650e+00 
64800 5.8232478015e+00 4.0064603669e-03 2.6606276799e+00 -4.6083423216e+00 2.6606276799e+00 4.6083423216e+00 
64900 5.8232024465e+00 3.9239301351e-03 2.6605523886e+00 -4.6082119133e+00 2.6605523886e+00 4.6082119133e+00 
65000 5.8231581004e+00 3.8429895897e-03 2.6604786462e+00 -4.6080841877e+00 2.6604786462e+00 4.6080841877e+00 
65100 5.8231147454e+00 3.7636140902e-03 2.6604064229e+00 -4.6079590932e+00 2.6604064229e+00 4.6079590932e+00 
65200 5.8230723640e+00 3.6857791445e-03 2.6603356894e+00 -4.6078365792e+00 2.6603356894e+00 4.6078365792e+00 
65300 5.8230309391e+00 3.6094604232e-03 2.6602664168e+00 -4.6077165956e+00 2.6602664168e+00 4.6077165956e+00 
65400 5.8229904540e+00 3.5346337743e-03 2.6601985769e+00 -4.6075990935e+00 2.6601985769e+00 4.6075990935e+00 
65500 5.8229508924e+00 3.4612752359e-03 2.6601321417e+00 -4.6074840242e+00 2.6601321417e+00 4.6074840242e+00 
65600 5.8229122382e+00 3.3893610491e-03 2.6600670836e+00 -4.6073713404e+00 2.6600670836e+00 4.6073713404e+00 
65700 5.8228744759e+00 3.3188676689e-03 2.6600033757e+00 -4.6072609950e+00 2.6600033757e+00 4.6072609950e+00 
65800 5.8228375900e+00 3.2497717751e-03 2.6599409913e+00 -4.6071529420e+00 2.6599409913e+00 4.6071529420e+00 
65900 5.8228015654e+00 3.1820502820e-03 2.6598799042e+00 -4.6070471361e+00 2.6598799042e+00 4.6070471361e+00 
66000 5.8227663875e+00 3.1156803473e-03 2.6598200888e+00 -4.6069435327e+00 2.6598200888e+00 4.6069435327e+00 
66100 5.8227320417e+00 3.0506393804e-03 2.6597615196e+00 -4.6068420880e+00 2.6597615196e+00 4.6068420880e+00 
66200 5.8226985136e+00 2.9869050495e-03 2.6597041718e+00 -4.6067427587e+00 2.6597041718e+00 4.6067427587e+00 
66300 5.8226657893e+00 2.9244552885e-03 2.6596480209e+00 -4.6066455025e+00 2.6596480209e+00 4.6066455025e+00 
66400 5.8226338550e+00 2.8632683027e-03 2.6595930429e+00 -4.6065502777e+00 2.6595930429e+00 4.6065502777e+00 
66500 5.8226026970e+00 2.8033225744e-03 2.6595392140e+00 -4.6064570434e+00 2.6595392140e+00 4.6064570434e+00 
66600 5.8225723021e+00 2.7445968667e-03 2.6594865110e+00 -4.6063657591e+00 2.6594865110e+00 4.6063657591e+00 
66700 5.8225426571e+00 2.6870702283e-03 2.6594349110e+00 -4.6062763854e+00 2.6594349110e+00 4.6062763854e+00 
66800 5.8225137490e+00 2.6307219958e-03 2.6593843916e+00 -4.6061888832e+00 2.6593843916e+00 4.6061888832e+00 
66900 5.8224855650e+00 2.5755317973e-03 2.6593349307e+00 -4.6061032143e+00 2.6593349307e+00 4.6061032143e+00 
67000 5.8224580924e+00 2.5214795537e-03 2.6592865065e+00 -4.6060193411e+00 2.6592865065e+00 4.6060193411e+00 
67100 5.8224313190e+00 2.4685454806e-03 2.6592390977e+00 -4.6059372266e+00 2.6592390977e+00 4.6059372266e+00 
67200 5.8224052322e+00 2.4167100892e-03 2.6591926833e+00 -4.6058568346e+00 2.6591926833e+00 4.6058568346e+00 
67300 5.8223798202e+00 2.3659541871e-03 2.6591472427e+00 -4.6057781292e+00 2.6591472427e+00 4.6057781292e+00 
67400 5.8223550708e+00 2.3162588775e-03 2.6591027558e+00 -4.6057010756e+00 2.6591027558e+00 4.6057010756e+00 
67500 5.8223309723e+00 2.2676055598e-03 2.6590592025e+00 -4.6056256391e+00 2.6590592025e+00 4.6056256391e+00 
67600 5.8223075129e+00 2.2199759278e-03 2.6590165634e+00 -4.6055517859e+00 2.6590165634e+00 4.6055517859e+00 
67700 5.8222846812e+00 2.1733519691e-03 2.6589748192e+00 -4.6054794829e+00 2.6589748192e+00 4.6054794829e+00 
67800 5.8222624656e+00 2.1277159632e-03 2.6589339511e+00 -4.6054086972e+00 2.6589339511e+00 4.6054086972e+00 
67900 5.8222408550e+00 2.0830504792e-03 2.6588939405e+00 -4.6053393968e+00 2.6588939405e+00 4.6053393968e+00 
68000 5.8222198382e+00 2.0393383739e-03 2.6588547692e+00 -4.6052715502e+00 2.6588547692e+00 4.6052715502e+00 
68100 5.8221994041e+00 1.9965627889e-03 2.6588164193e+00 -4.6052051263e+00 2.6588164193e+00 4.6052051263e+00 
68200 5.8221795418e+00 1.9547071478e-03 2.6587788733e+00 -4.6051400947e+00 2.6587788733e+00 4.6051400947e+00 
68300 5.8221602406e+00 1.9137551526e-03 2.6587421139e+00 -4.6050764256e+00 2.6587421139e+00 4.6050764256e+00 
68400 5.8221414898e+00 1.8736907808e-03 2.6587061242e+00 -4.6050140894e+00 2.6587061242e+00 4.6050140894e+00 
68500 5.8221232788e+00 1.8344982813e-03 2.6586708873e+00 -4.6049530575e+00 2.6586708873e+00 4.6049530575e+00 
68600 5.8221055971e+00 1.7961621705e-03 2.6586363871e+00 -4.6048933014e+00 2.6586363871e+00 4.6048933014e+00 
68700 5.8220884346e+00 1.7586672284e-03 2.6586026074e+00 -4.6048347932e+00 2.6586026074e+00 4.6048347932e+00 
68800 5.8220717808e+00 1.7219984945e-03 2.6585695325e+00 -4.6047775057e+00 2.6585695325e+00 4.6047775057e+00 
68900 5.8220556258e+00 1.6861412628e-03 2.6585371467e+00 -4.6047214120e+00 2.6585371467e+00 4.6047214120e+00 
69000 5.8220399595e+00 1.6510810779e-03 2.6585054350e+00 -4.6046664856e+00 2.6585054350e+00 4.6046664856e+00 
69100 5.8220247720e+00 1.6168037302e-03 2.6584743822e+00 -4.6046127006e+00 2.6584743822e+00 4.6046127006e+00 
69200 5.8220100537e+00 1.5832952508e-03 2.6584439738e+00 -4.6045600317e+00 2.6584439738e+00 4.6045600317e+00 
69300 5.8219957947e+00 1.5505419073e-03 2.6584141952e+00 -4.6045084537e+00 2.6584141952e+00 4.6045084537e+00 
69400 5.8219819856e+00 1.5185301984e-03 2.6583850324e+00 -4.6044579422e+00 2.6583850324e+00 4.6044579422e+00 
69500 5.8219686169e+00 1.4872468493e-03 2.6583564713e+00 -4.6044084729e+00 2.6583564713e+00 4.6044084729e+00 
69600 5.8219556793e+00 1.4566788066e-03 2.6583284983e+00 -4.6043600223e+00 2.6583284983e+00 4.6043600223e+00 
69700 5.8219431636e+00 1.4268132335e-03 2.6583010999e+00 -4.6043125669e+00 2.6583010999e+00 4.6043125669e+00 
69800 5.8219310605e+00 1.3976375044e-03 2.6582742631e+00 -4.6042660841e+00 2.6582742631e+00 4.6042660841e+00 
69900 5.8219193612e+00 1.3691392005e-03 2.6582479747e+00 -4.6042205512e+00 2.6582479747e+00 4.6042205512e+00 
70000 5.8219080567e+00 1.3413061044e-03 2.6582222220e+00 -4.6041759464e+00 2.6582222220e+00 4.6041759464e+00 
70100 5.8218971382e+00 1.3141261956e-03 2.6581969927e+00 -4.6041322479e+00 2.6581969927e+00 4.6041322479e+00 
70200 5.8218865971e+00 1.2875876449e-03 2.6581722744e+00 -4.6040894345e+00 2.6581722744e+00 4.6040894345e+00 
70300 5.8218764247e+00 1.2616788104e-03 2.6581480550e+00 -4.6040474853e+00 2.6581480550e+00 4.6040474853e+00 
70400 5.8218666127e+00 1.2363882322e-03 2.6581243227e+00 -4.6040063798e+00 2.6581243227e+00 4.6040063798e+00 
70500 5.8218571527e+00 1.2117046278e-03 2.6581010660e+00 -4.6039660979e+00 2.6581010660e+00 4.6039660979e+00 
70600 5.8218480364e+00 1.1876168874e-03 2.6580782733e+00 -4.6039266199e+00 2.6580782733e+00 4.6039266199e+00 
70700 5.8218392557e+00 1.1641140696e-03 2.6580559336e+00 -4.6038879264e+00 2.6580559336e+00 4.6038879264e+00 
70800 5.8218308027e+00 1.1411853967e-03 2.6580340358e+00 -4.6038499982e+00 2.6580340358e+00 4.6038499982e+00 
70900 5.8218226694e+00 1.1188202502e-03 2.6580125691e+00 -4.6038128168e+00 2.6580125691e+00 4.6038128168e+00 
71000 5.8218148480e+00 1.0970081670e-03 2.6579915229e+00 -4.6037763638e+00 2.6579915229e+00 4.6037763638e+00 
71100 5.8218073310e+00 1.0757388346e-03 2.6579708869e+00 -4.6037406212e+00 2.6579708869e+00 4.6037406212e+00 
71200 5.8218001106e+00 1.0550020877e-03 2.6579506509e+00 -4.6037055713e+00 2.6579506509e+00 4.6037055713e+00 
71300 5.8217931796e+00 1.0347879037e-03 2.6579308047e+00 -4.6036711968e+00 2.6579308047e+00 4.6036711968e+00 
71400 5.8217865305e+00 1.0150863993e-03 2.6579113387e+00 -4.6036374807e+00 2.6579113387e+00 4.6036374807e+00 
71500 5.8217801562e+00 9.9588782649e-04 2.6578922432e+00 -4.6036044062e+00 2.6578922432e+00 4.6036044062e+00 
71600 5.8217740495e+00 9.7718256916e-04 2.6578735087e+00 -4.6035719571e+00 2.6578735087e+00 4.6035719571e+00 
71700 5.8217682036e+00 9.5896113958e-04 2.6578551259e+00 -4.6035401172e+00 2.6578551259e+00 4.6035401172e+00 
71800 5.8217626114e+00 9.4121417509e-04 2.6578370858e+00 -4.6035088708e+00 2.6578370858e+00 4.6035088708e+00 
71900 5.8217572663e+00 9.2393243488e-04 2.6578193794e+00 -4.6034782025e+00 2.6578193794e+00 4.6034782025e+00 
72000 5.8217521617e+00 9.0710679700e-04 2.6578019980e+00 -4.6034480970e+00 2.6578019980e+00 4.6034480970e+00 
72100 5.8217472910e+00 8.9072825533e-04 2.6577849331e+00 -4.6034185397e+00 2.6577849331e+00 4.6034185397e+00 
72200 5.8217426478e+00 8.7478791688e-04 2.6577681761e+00 -4.6033895158e+00 2.6577681761e+00 4.6033895158e+00 
72300 5.8217382257e+00 8.5927699902e-04 2.6577517189e+00 -4.6033610111e+00 2.6577517189e+00 4.6033610111e+00 
72400 5.8217340188e+00 8.4418682705e-04 2.6577355535e+00 -4.6033330117e+00 2.6577355535e+00 4.6033330117e+00 
72500 5.8217300208e+00 8.2950883171e-04 2.6577196718e+00 -4.6033055038e+00 2.6577196718e+00 4.6033055038e+00 
72600 5.8217262258e+00 8.1523454692e-04 2.6577040662e+00 -4.6032784741e+00 2.6577040662e+00 4.6032784741e+00 
72700 5.8217226279e+00 8.0135560767e-04 2.6576887290e+00 -4.6032519093e+00 2.6576887290e+00 4.6032519093e+00 
72800 5.8217192216e+00 7.8786374793e-04 2.6576736528e+00 -4.6032257966e+00 2.6576736528e+00 4.6032257966e+00 
72900 5.8217160010e+00 7.7475079881e-04 2.6576588304e+00 -4.6032001234e+00 2.6576588304e+00 4.6032001234e+00 
73000 5.8217129608e+00 7.6200868674e-04 2.6576442546e+00 -4.6031748774e+00 2.6576442546e+00 4.6031748774e+00 
73100 5.8217100955e+00 7.4962943181e-04 2.6576299184e+00 -4.6031500465e+00 2.6576299184e+00 4.6031500465e+00 
73200 5.8217073999e+00 7.3760514628e-04 2.6576158151e+00 -4.6031256188e+00 2.6576158151e+00 4.6031256188e+00 
73300 5.8217048687e+00 7.2592803308e-04 2.6576019379e+00 -4.6031015828e+00 2.6576019379e+00 4.6031015828e+00 
73400 5.8217024969e+00 7.1459038455e-04 2.6575882804e+00 -4.6030779272e+00 2.6575882804e+00 4.6030779272e+00 
73500 5.8217002796e+00 7.0358458120e-04 2.6575748360e+00 -4.6030546409e+00 2.6575748360e+00 4.6030546409e+00 
73600 5.8216982118e+00 6.9290309062e-04 2.6575615987e+00 -4.6030317132e+00 2.6575615987e+00 4.6030317132e+00 
73700 5.8216962888e+00 6.8253846649e-04 2.6575485623e+00 -4.6030091334e+00 2.6575485623e+00 4.6030091334e+00 
73800 5.8216945060e+00 6.7248334766e-04 2.6575357208e+00 -4.6029868913e+00 2.6575357208e+00 4.6029868913e+00 
73900 5.8216928589e+00 6.6273045735e-04 2.6575230684e+00 -4.6029649767e+00 2.6575230684e+00 4.6029649767e+00 
74000 5.8216913429e+00 6.5327260244e-04 2.6575105995e+00 -4.6029433799e+00 2.6575105995e+00 4.6029433799e+00 
74100 5.8216899538e+00 6.4410267283e-04 2.6574983084e+00 -4.6029220912e+00 2.6574983084e+00 4.6029220912e+00 
74200 5.8216886873e+00 6.3521364093e-04 2.6574861898e+00 -4.6029011012e+00 2.6574861898e+00 4.6029011012e+00 
74300 5.8216875392e+00 6.2659856116e-04 2.6574742384e+00 -4.6028804008e+00 2.6574742384e+00 4.6028804008e+00 
74400 5.8216865056e+00 6.1825056956e-04 2.6574624491e+00 -4.6028599810e+00 2.6574624491e+00 4.6028599810e+00 
74500 5.8216855824e+00 6.1016288353e-04 2.6574508167e+00 -4.6028398332e+00 2.6574508167e+00 4.6028398332e+00 
74600 5.8216847659e+00 6.0232880152e-04 2.6574393365e+00 -4.6028199489e+00 2.6574393365e+00 4.6028199489e+00 
74700 5.8216840521e+00 5.9474170288e-04 2.6574280036e+00 -4.6028003198e+00 2.6574280036e+00 4.6028003198e+00 
74800 5.8216834376e+00 5.8739504773e-04 2.6574168135e+00 -4.6027809378e+00 2.6574168135e+00 4.6027809378e+00 
74900 5.8216829187e+00 5.8028237692e-04 2.6574057615e+00 -4.6027617952e+00 2.6574057615e+00 4.6027617952e+00 
75000 5.8216824919e+00 5.7339731197e-04 2.6573948433e+00 -4.6027428843e+00 2.6573948433e+00 4.6027428843e+00 
75100 5.8216821537e+00 5.6673355515e-04 2.6573840546e+00 -4.6027241978e+00 2.6573840546e+00 4.6027241978e+00 
75200 5.8216819010e+00 5.6028488956e-04 2.6573733912e+00 -4.6027057283e+00 2.6573733912e+00 4.6027057283e+00 
75300 5.8216817305e+00 5.5404517922e-04 2.6573628491e+00 -4.6026874689e+00 2.6573628491e+00 4.6026874689e+00 
75400 5.8216816390e+00 5.4800836924e-04 2.6573524244e+00 -4.6026694127e+00 2.6573524244e+00 4.6026694127e+00 
75500 5.8216816235e+00 5.4216848607e-04 2.6573421133e+00 -4.6026515533e+00 2.6573421133e+00 4.6026515533e+00 
75600 5.8216816810e+00 5.3651963762e-04 2.6573319119e+00 -4.6026338841e+00 2.6573319119e+00 4.6026338841e+00 
75700 5.8216818085e+00 5.3105601360e-04 2.6573218169e+00 -4.6026163989e+00 2.6573218169e+00 4.6026163989e+00 
75800 5.8216820034e+00 5.2577188576e-04 2.6573118246e+00 -4.6025990917e+00 2.6573118246e+00 4.6025990917e+00 
75900 5.8216822628e+00 5.2066160815e-04 2.6573019316e+00 -4.6025819566e+00 2.6573019316e+00 4.6025819566e+00 
76000 5.8216825840e+00 5.1571961749e-04 2.6572921348e+00 -4.6025649881e+00 2.6572921348e+00 4.6025649881e+00 
76100 5.8216829645e+00 5.1094043342e-04 2.6572824310e+00 -4.6025481805e+00 2.6572824310e+00 4.6025481805e+00 
76200 5.8216834017e+00 5.0631865889e-04 2.6572728170e+00 -4.6025315286e+00 2.6572728170e+00 4.6025315286e+00 
76300 5.8216838933e+00 5.0184898045e-04 2.6572632900e+00 -4.6025150273e+00 2.6572632900e+00 4.6025150273e+00 
76400 5.8216844368e+00 4.9752616860e-04 2.6572538470e+00 -4.6024986717e+00 2.6572538470e+00 4.6024986717e+00 
76500 5.8216850299e+00 4.9334507814e-04 2.6572444854e+00 -4.6024824568e+00 2.6572444854e+00 4.6024824568e+00 
76600 5.8216856703e+00 4.8930064848e-04 2.6572352024e+00 -4.6024663781e+00 2.6572352024e+00 4.6024663781e+00 
76700 5.8216863559e+00 4.8538790398e-04 2.6572259954e+00 -4.6024504312e+00 2.6572259954e+00 4.6024504312e+00 
76800 5.8216870847e+00 4.8160195428e-04 2.6572168621e+00 -4.6024346118e+00 2.6572168621e+00 4.6024346118e+00 
76900 5.8216878544e+00 4.7793799458e-04 2.6572077999e+00 -4.6024189157e+00 2.6572077999e+00 4.6024189157e+00 
77000 5.8216886632e+00 4.7439130596e-04 2.6571988067e+00 -4.6024033390e+00 2.6571988067e+00 4.6024033390e+00 
77100 5.8216895090e+00 4.7095725565e-04 2.6571898802e+00 -4.6023878778e+00 2.6571898802e+00 4.6023878778e+00 
77200 5.8216903902e+00 4.6763129728e-04 2.6571810182e+00 -4.6023725285e+00 2.6571810182e+00 4.6023725285e+00 
77300 5.8216913047e+00 4.6440897115e-04 2.6571722188e+00 -4.6023572875e+00 2.6571722188e+00 4.6023572875e+00 
77400 5.8216922509e+00 4.6128590440e-04 2.6571634801e+00 -4.6023421515e+00 2.6571634801e+00 4.6023421515e+00 
77500 5.8216932271e+00 4.5825781128e-04 2.6571548000e+00 -4.6023271172e+00 2.6571548000e+00 4.6023271172e+00 
77600 5.8216942316e+00 4.5532049322e-04 2.6571461769e+00 -4.6023121816e+00 2.6571461769e+00 4.6023121816e+00 
77700 5.8216952628e+00 4.5246983907e-04 2.6571376091e+00 -4.6022973416e+00 2.6571376091e+00 4.6022973416e+00 
77800 5.8216963192e+00 4.4970182514e-04 2.6571290949e+00 -4.6022825946e+00 2.6571290949e+00 4.6022825946e+00 
77900 5.8216973993e+00 4.4701251530e-04 2.6571206327e+00 -4.6022679377e+00 2.6571206327e+00 4.6022679377e+00 
78000 5.8216985016e+00 4.4439806107e-04 2.6571122211e+00 -4.6022533684e+00 2.6571122211e+00 4.6022533684e+00 
78100 5.8216996248e+00 4.4185470159e-04 2.6571038587e+00 -4.6022388842e+00 2.6571038587e+00 4.6022388842e+00 
78200 5.8217007674e+00 4.3937876359e-04 2.6570955441e+00 -4.6022244829e+00 2.6570955441e+00 4.6022244829e+00 
78300 5.8217019282e+00 4.3696666142e-04 2.6570872761e+00 -4.6022101623e+00 2.6570872761e+00 4.6022101623e+00 
78400 5.8217031060e+00 4.3461489685e-04 2.6570790534e+00 -4.6021959202e+00 2.6570790534e+00 4.6021959202e+00 
78500 5.8217042994e+00 4.3232005904e-04 2.6570708750e+00 -4.6021817548e+00 2.6570708750e+00 4.6021817548e+00 
78600 5.8217055074e+00 4.3007882432e-04 2.6570627397e+00 -4.6021676641e+00 2.6570627397e+00 4.6021676641e+00 
78700 5.8217067288e+00 4.2788795601e-04 2.6570546466e+00 -4.6021536464e+00 2.6570546466e+00 4.6021536464e+00 
78800 5.8217079624e+00 4.2574430417e-04 2.6570465947e+00 -4.6021397000e+00 2.6570465947e+00 4.6021397000e+00 
78900 5.8217092072e+00 4.2364480535e-04 2.6570385831e+00 -4.6021258235e+00 2.6570385831e+00 4.6021258235e+00 
79000 5.8217104623e+00 4.2158648221e-04 2.6570306109e+00 -4.6021120154e+00 2.6570306109e+00 4.6021120154e+00 
79100 5.8217117266e+00 4.1956644325e-04 2.6570226775e+00 -4.6020982744e+00 2.6570226775e+00 4.6020982744e+00 
79200 5.8217129991e+00 4.1758188231e-04 2.6570147821e+00 -4.6020845991e+00 2.6570147821e+00 4.6020845991e+00 
79300 5.8217142790e+00 4.1563007824e-04 2.6570069240e+00 -4.6020709885e+00 2.6570069240e+00 4.6020709885e+00 
79400 5.8217155653e+00 4.1370839432e-04 2.6569991026e+00 -4.6020574414e+00 2.6569991026e+00 4.6020574414e+00 
79500 5.8217168572e+00 4.1181427783e-04 2.6569913174e+00 -4.6020439570e+00 2.6569913174e+00 4.6020439570e+00 
79600 5.8217181540e+00 4.0994525942e-04 2.6569835677e+00 -4.6020305342e+00 2.6569835677e+00 4.6020305342e+00 
79700 5.8217194547e+00 4.0809895260e-04 2.6569758533e+00 -4.6020171723e+00 2.6569758533e+00 4.6020171723e+00 
79800 5.8217207587e+00 4.0627305301e-04 2.6569681735e+00 -4.6020038706e+00 2.6569681735e+00 4.6020038706e+00 
79900 5.8217220652e+00 4.0446533782e-04 2.6569605281e+00 -4.6019906283e+00 2.6569605281e+00 4.6019906283e+00 
80000 5.8217233736e+00 4.0267366499e-04 2.6569529167e+00 -4.6019774450e+00 2.6569529167e+00 4.6019774450e+00 
80100 5.8217246830e+00 4.0089597253e-04 2.6569453389e+00 -4.6019643199e+00 2.6569453389e+00 4.6019643199e+00 
80200 5.8217259930e+00 3.9913027772e-04 2.6569377946e+00 -4.6019512528e+00 2.6569377946e+00 4.6019512528e+00 
80300 5.8217273028e+00 3.9737467628e-04 2.6569302835e+00 -4.6019382432e+00 2.6569302835e+00 4.6019382432e+00 
80400 5.8217286120e+00 3.9562734153e-04 2.6569228055e+00 -4.6019252908e+00 2.6569228055e+00 4.6019252908e+00 
80500 5.8217299198e+00 3.9388652349e-04 2.6569153602e+00 -4.6019123953e+00 2.6569153602e+00 4.6019123953e+00 
80600 5.8217312258e+00 3.9215054796e-04 2.6569079478e+00 -4.6018995566e+00 2.6569079478e+00 4.6018995566e+00 
80700 5.8217325294e+00 3.9041781557e-04 2.6569005679e+00 -4.6018867743e+00 2.6569005679e+00 4.6018867743e+00 
80800 5.8217338302e+00 3.8868680080e-04 2.6568932207e+00 -4.6018740485e+00 2.6568932207e+00 4.6018740485e+00 
80900 5.8217351276e+00 3.8695605095e-04 2.6568859060e+00 -4.6018613791e+00 2.6568859060e+00 4.6018613791e+00 
81000 5.8217364212e+00 3.8522418508e-04 2.6568786239e+00 -4.6018487661e+00 2.6568786239e+00 4.6018487661e+00 
81100 5.8217377106e+00 3.8348989301e-04 2.6568713743e+00 -4.6018362095e+00 2.6568713743e+00 4.6018362095e+00 
81200 5.8217389953e+00 3.8175193410e-04 2.6568641574e+00 -4.6018237094e+00 2.6568641574e+00 4.6018237094e+00 
81300 5.8217402749e+00 3.8000913624e-04 2.6568569731e+00 -4.6018112659e+00 2.6568569731e+00 4.6018112659e+00 
81400 5.8217415491e+00 3.7826039462e-04 2.6568498217e+00 -4.6017988792e+00 2.6568498217e+00 4.6017988792e+00 
81500 5.8217428175e+00 3.7650467058e-04 2.6568427031e+00 -4.6017865494e+00 2.6568427031e+00 4.6017865494e+00 
81600 5.8217440796e+00 3.7474099040e-04 2.6568356175e+00 -4.6017742769e+00 2.6568356175e+00 4.6017742769e+00 
81700 5.8217453353e+00 3.7296844412e-04 2.6568285651e+00 -4.6017620618e+00 2.6568285651e+00 4.6017620618e+00 
81800 5.8217465842e+00 3.7118618423e-04 2.6568215461e+00 -4.6017499044e+00 2.6568215461e+00 4.6017499044e+00 
81900 5.8217478260e+00 3.6939342448e-04 2.6568145605e+00 -4.6017378051e+00 2.6568145605e+00 4.6017378051e+00 
82000 5.8217490604e+00 3.6758943856e-04 2.6568076087e+00 -4.6017257643e+00 2.6568076087e+00 4.6017257643e+00 
82100 5.8217502871e+00 3.6577355882e-04 2.6568006909e+00 -4.6017137821e+00 2.6568006909e+00 4.6017137821e+00 
82200 5.8217515059e+00 3.6394517496e-04 2.6567938071e+00 -4.6017018592e+00 2.6567938071e+00 4.6017018592e+00 
82300 5.8217527166e+00 3.6210373272e-04 2.6567869578e+00 -4.6016899958e+00 2.6567869578e+00 4.6016899958e+00 
82400 5.8217539189e+00 3.6024873252e-04 2.6567801431e+00 -4.6016781924e+00 2.6567801431e+00 4.6016781924e+00 
82500 5.8217551125e+00 3.5837972814e-04 2.6567733633e+00 -4.6016664495e+00 2.6567733633e+00 4.6016664495e+00 
82600 5.8217562974e+00 3.5649632537e-04 2.6567666187e+00 -4.6016547674e+00 2.6567666187e+00 4.6016547674e+00 
82700 5.8217574733e+00 3.5459818061e-04 2.6567599095e+00 -4.6016431467e+00 2.6567599095e+00 4.6016431467e+00 
82800 5.8217586400e+00 3.5268499953e-04 2.6567532360e+00 -4.6016315879e+00 2.6567532360e+00 4.6016315879e+00 
82900 5.8217597974e+00 3.5075653571e-04 2.6567465984e+00 -4.6016200914e+00 2.6567465984e+00 4.6016200914e+00 
83000 5.8217609452e+00 3.4881258919e-04 2.6567399972e+00 -4.6016086577e+00 2.6567399972e+00 4.6016086577e+00 
83100 5.8217620835e+00 3.4685300519e-04 2.6567334325e+00 -4.6015972873e+00 2.6567334325e+00 4.6015972873e+00 
83200 5.8217632120e+00 3.4487767261e-04 2.6567269047e+00 -4.6015859808e+00 2.6567269047e+00 4.6015859808e+00 
83300 5.8217643306e+00 3.4288652274e-04 2.6567204141e+00 -4.6015747387e+00 2.6567204141e+00 4.6015747387e+00 
83400 5.8217654391e+00 3.4087952781e-04 2.6567139609e+00 -4.6015635615e+00 2.6567139609e+00 4.6015635615e+00 
83500 5.8217665376e+00 3.3885669965e-04 2.6567075455e+00 -4.6015524496e+00 2.6567075455e+00 4.6015524496e+00 
83600 5.8217676258e+00 3.3681808826e-04 2.6567011681e+00 -4.6015414037e+00 2.6567011681e+00 4.6015414037e+00 
83700 5.8217687037e+00 3.3476378046e-04 2.6566948291e+00 -4.6015304241e+00 2.6566948291e+00 4.6015304241e+00 
83800 5.8217697713e+00 3.3269389854e-04 2.6566885287e+00 -4.6015195116e+00 2.6566885287e+00 4.6015195116e+00 
83900 5.8217708283e+00 3.3060859884e-04 2.6566822672e+00 -4.6015086664e+00 2.6566822672e+00 4.6015086664e+00 
84000 5.8217718749e+00 3.2850807043e-04 2.6566760450e+00 -4.6014978893e+00 2.6566760450e+00 4.6014978893e+00 
84100 5.8217729108e+00 3.2639253374e-04 2.6566698624e+00 -4.6014871805e+00 2.6566698624e+00 4.6014871805e+00 
84200 5.8217739362e+00 3.2426223922e-04 2.6566637195e+00 -4.6014765407e+00 2.6566637195e+00 4.6014765407e+00 
84300 5.8217749508e+00 3.2211746601e-04 2.6566576167e+00 -4.6014659704e+00 2.6566576167e+00 4.6014659704e+00 
84400 5.8217759547e+00 3.1995852064e-04 2.6566515542e+00 -4.6014554699e+00 2.6566515542e+00 4.6014554699e+00 
84500 5.8217769479e+00 3.1778573568e-04 2.6566455324e+00 -4.6014450398e+00 2.6566455324e+00 4.6014450398e+00 
84600 5.8217779303e+00 3.1559946848e-04 2.6566395514e+00 -4.6014346804e+00 2.6566395514e+00 4.6014346804e+00 
84700 5.8217789019e+00 3.1340009986e-04 2.6566336116e+00 -4.6014243924e+00 2.6566336116e+00 4.6014243924e+00 
84800 5.8217798627e+00 3.1118803287e-04 2.6566277131e+00 -4.6014141760e+00 2.6566277131e+00 4.6014141760e+00 
84900 5.8217808127e+00 3.0896369154e-04 2.6566218563e+00 -4.6014040317e+00 2.6566218563e+00 4.6014040317e+00 
85000 5.8217817519e+00 3.0672751962e-04 2.6566160414e+00 -4.6013939598e+00 2.6566160414e+00 4.6013939598e+00 
85100 5.8217826803e+00 3.0447997937e-04 2.6566102685e+00 -4.6013839609e+00 2.6566102685e+00 4.6013839609e+00 
85200 5.8217835978e+00 3.0222155041e-04 2.6566045378e+00 -4.6013740352e+00 2.6566045378e+00 4.6013740352e+00 
85300 5.8217845046e+00 2.9995272845e-04 2.6565988497e+00 -4.6013641831e+00 2.6565988497e+00 4.6013641831e+00 
85400 5.8217854005e+00 2.9767402421e-04 2.6565932043e+00 -4.6013544049e+00 2.6565932043e+00 4.6013544049e+00 
85500 5.8217862858e+00 2.9538596224e-04 2.6565876018e+00 -4.6013447010e+00 2.6565876018e+00 4.6013447010e+00 
85600 5.8217871602e+00 2.9308907981e-04 2.6565820423e+00 -4.6013350717e+00 2.6565820423e+00 4.6013350717e+00 
85700 5.8217880240e+00 2.9078392580e-04 2.6565765260e+00 -4.6013255172e+00 2.6565765260e+00 4.6013255172e+00 
85800 5.8217888771e+00 2.8847105965e-04 2.6565710531e+00 -4.6013160378e+00 2.6565710531e+00 4.6013160378e+00 
85900 5.8217897196e+00 2.8615105028e-04 2.6565656237e+00 -4.6013066339e+00 2.6565656237e+00 4.6013066339e+00 
86000 5.8217905514e+00 2.8382447504e-04 2.6565602380e+00 -4.6012973055e+00 2.6565602380e+00 4.6012973055e+00 
86100 5.8217913727e+00 2.8149191876e-04 2.6565548960e+00 -4.6012880530e+00 2.6565548960e+00 4.6012880530e+00 
86200 5.8217921835e+00 2.7915397270e-04 2.6565495979e+00 -4.6012788765e+00 2.6565495979e+00 4.6012788765e+00 
86300 5.8217929838e+00 2.7681123363e-04 2.6565443439e+00 -4.6012697762e+00 2.6565443439e+00 4.6012697762e+00 
86400 5.8217937737e+00 2.7446430287e-04 2.6565391339e+00 -4.6012607522e+00 2.6565391339e+00 4.6012607522e+00 
86500 5.8217945533e+00 2.7211378538e-04 2.6565339681e+00 -4.6012518047e+00 2.6565339681e+00 4.6012518047e+00 
86600 5.8217953225e+00 2.6976028887e-04 2.6565288465e+00 -4.6012429339e+00 2.6565288465e+00 4.6012429339e+00 
86700 5.8217960815e+00 2.6740442293e-04 2.6565237692e+00 -4.6012341397e+00 2.6565237692e+00 4.6012341397e+00 
86800 5.8217968303e+00 2.6504679821e-04 2.6565187362e+00 -4.6012254223e+00 2.6565187362e+00 4.6012254223e+00 
86900 5.8217975690e+00 2.6268802557e-04 2.6565137476e+00 -4.6012167818e+00 2.6565137476e+00 4.6012167818e+00 
87000 5.8217982976e+00 2.6032871532e-04 2.6565088034e+00 -4.6012082182e+00 2.6565088034e+00 4.6012082182e+00 
87100 5.8217990163e+00 2.5796947646e-04 2.6565039035e+00 -4.6011997314e+00 2.6565039035e+00 4.6011997314e+00 
87200 5.8217997250e+00 2.5561091589e-04 2.6564990481e+00 -4.6011913216e+00 2.6564990481e+00 4.6011913216e+00 
87300 5.8218004239e+00 2.5325363775e-04 2.6564942371e+00 -4.6011829886e+00 2.6564942371e+00 4.6011829886e+00 
87400 5.8218011130e+00 2.5089824273e-04 2.6564894704e+00 -4.6011747325e+00 2.6564894704e+00 4.6011747325e+00 
87500 5.8218017925e+00 2.4854532734e-04 2.6564847480e+00 -4.6011665531e+00 2.6564847480e+00 4.6011665531e+00 
87600 5.8218024623e+00 2.4619548339e-04 2.6564800699e+00 -4.6011584504e+00 2.6564800699e+00 4.6011584504e+00 
87700 5.8218031225e+00 2.4384929725e-04 2.6564754361e+00 -4.6011504243e+00 2.6564754361e+00 4.6011504243e+00 
87800 5.8218037733e+00 2.4150734934e-04 2.6564708463e+00 -4.6011424747e+00 2.6564708463e+00 4.6011424747e+00 
87900 5.8218044147e+00 2.3917021356e-04 2.6564663007e+00 -4.6011346014e+00 2.6564663007e+00 4.6011346014e+00 
88000 5.8218050468e+00 2.3683845674e-04 2.6564617990e+00 -4.6011268043e+00 2.6564617990e+00 4.6011268043e+00 
88100 5.8218056696e+00 2.3451263811e-04 2.6564573413e+00 -4.6011190832e+00 2.6564573413e+00 4.6011190832e+00 
88200 5.8218062833e+00 2.3219330886e-04 2.6564529273e+00 -4.6011114379e+00 2.6564529273e+00 4.6011114379e+00 
88300 5.8218068880e+00 2.2988101162e-04 2.6564485569e+00 -4.6011038682e+00 2.6564485569e+00 4.6011038682e+00 
88400 5.8218074837e+00 2.2757628007e-04 2.6564442300e+00 -4.6010963739e+00 2.6564442300e+00 4.6010963739e+00 
88500 5.8218080705e+00 2.2527963849e-04 2.6564399466e+00 -4.6010889547e+00 2.6564399466e+00 4.6010889547e+00 
88600 5.8218086484e+00 2.2299160139e-04 2.6564357063e+00 -4.6010816104e+00 2.6564357063e+00 4.6010816104e+00 
88700 5.8218092177e+00 2.2071267313e-04 2.6564315091e+00 -4.6010743406e+00 2.6564315091e+00 4.6010743406e+00 
88800 5.8218097784e+00 2.1844334756e-04 2.6564273548e+00 -4.6010671452e+00 2.6564273548e+00 4.6010671452e+00 
88900 5.8218103304e+00 2.1618410774e-04 2.6564232432e+00 -4.6010600237e+00 2.6564232432e+00 4.6010600237e+00 
89000 5.8218108741e+00 2.1393542560e-04 2.6564191741e+00 -4.6010529758e+00 2.6564191741e+00 4.6010529758e+00 
89100 5.8218114094e+00 2.1169776167e-04 2.6564151474e+00 -4.6010460012e+00 2.6564151474e+00 4.6010460012e+00 
89200 5.8218119364e+00 2.0947156484e-04 2.6564111627e+00 -4.6010390996e+00 2.6564111627e+00 4.6010390996e+00 
89300 5.8218124552e+00 2.0725727211e-04 2.6564072200e+00 -4.6010322706e+00 2.6564072200e+00 4.6010322706e+00 
89400 5.8218129659e+00 2.0505530838e-04 2.6564033189e+00 -4.6010255137e+00 2.6564033189e+00 4.6010255137e+00 
89500 5.8218134686e+00 2.0286608623e-04 2.6563994592e+00 -4.6010188286e+00 2.6563994592e+00 4.6010188286e+00 
89600 5.8218139634e+00 2.0069000580e-04 2.6563956408e+00 -4.6010122149e+00 2.6563956408e+00 4.6010122149e+00 
89700 5.8218144503e+00 1.9852745460e-04 2.6563918633e+00 -4.6010056721e+00 2.6563918633e+00 4.6010056721e+00 
89800 5.8218149295e+00 1.9637880736e-04 2.6563881265e+00 -4.6009991998e+00 2.6563881265e+00 4.6009991998e+00 
89900 5.8218154010e+00 1.9424442596e-04 2.6563844302e+00 -4.6009927975e+00 2.6563844302e+00 4.6009927975e+00 
90000 5.8218158650e+00 1.9212465928e-04 2.6563807740e+00 -4.6009864648e+00 2.6563807740e+00 4.6009864648e+00 
90100 5.8218163215e+00 1.9001984317e-04 2.6563771577e+00 -4.6009802012e+00 2.6563771577e+00 4.6009802012e+00 
90200 5.8218167707e+00 1.8793030034e-04 2.6563735810e+00 -4.6009740063e+00 2.6563735810e+00 4.6009740063e+00 
90300 5.8218172125e+00 1.8585634035e-04 2.6563700437e+00 -4.6009678794e+00 2.6563700437e+00 4.6009678794e+00 
90400 5.8218176471e+00 1.8379825956e-04 2.6563665454e+00 -4.6009618201e+00 2.6563665454e+00 4.6009618201e+00 
90500 5.8218180746e+00 1.8175634114e-04 2.6563630858e+00 -4.6009558280e+00 2.6563630858e+00 4.6009558280e+00 
90600 5.8218184951e+00 1.7973085503e-04 2.6563596647e+00 -4.6009499024e+00 2.6563596647e+00 4.6009499024e+00 
90700 5.8218189086e+00 1.7772205799e-04 2.6563562816e+00 -4.6009440428e+00 2.6563562816e+00 4.6009440428e+00 
90800 5.8218193153e+00 1.7573019364e-04 2.6563529364e+00 -4.6009382487e+00 2.6563529364e+00 4.6009382487e+00 
90900 5.8218197152e+00 1.7375549247e-04 2.6563496287e+00 -4.6009325195e+00 2.6563496287e+00 4.6009325195e+00 
91000 5.8218201084e+00 1.7179817193e-04 2.6563463581e+00 -4.6009268547e+00 2.6563463581e+00 4.6009268547e+00 
91100 5.8218204951e+00 1.6985843649e-04 2.6563431244e+00 -4.6009212538e+00 2.6563431244e+00 4.6009212538e+00 
91200 5.8218208752e+00 1.6793647771e-04 2.6563399272e+00 -4.6009157160e+00 2.6563399272e+00 4.6009157160e+00 
91300 5.8218212489e+00 1.6603247438e-04 2.6563367661e+00 -4.6009102409e+00 2.6563367661e+00 4.6009102409e+00 
91400 5.8218216163e+00 1.6414659258e-04 2.6563336409e+00 -4.6009048279e+00 2.6563336409e+00 4.6009048279e+00 
91500 5.8218219774e+00 1.6227898583e-04 2.6563305512e+00 -4.6008994763e+00 2.6563305512e+00 4.6008994763e+00 
91600 5.8218223323e+00 1.6042979521e-04 2.6563274966e+00 -4.6008941856e+00 2.6563274966e+00 4.6008941856e+00 
91700 5.8218226812e+00 1.5859914950e-04 2.6563244768e+00 -4.6008889553e+00 2.6563244768e+00 4.6008889553e+00 
91800 5.8218230241e+00 1.5678716532e-04 2.6563214915e+00 -4.6008837845e+00 2.6563214915e+00 4.6008837845e+00 
91900 5.8218233610e+00 1.5499394732e-04 2.6563185403e+00 -4.6008786729e+00 2.6563185403e+00 4.6008786729e+00 
92000 5.8218236921e+00 1.5321958832e-04 2.6563156229e+00 -4.6008736197e+00 2.6563156229e+00 4.6008736197e+00 
92100 5.8218240175e+00 1.5146416949e-04 2.6563127388e+00 -4.6008686244e+00 2.6563127388e+00 4.6008686244e+00 
92200 5.8218243372e+00 1.4972776054e-04 2.6563098878e+00 -4.6008636863e+00 2.6563098878e+00 4.6008636863e+00 
92300 5.8218246513e+00 1.4801041993e-04 2.6563070694e+00 -4.6008588048e+00 2.6563070694e+00 4.6008588048e+00 
92400 5.8218249599e+00 1.4631219501e-04 2.6563042834e+00 -4.6008539792e+00 2.6563042834e+00 4.6008539792e+00 
92500 5.8218252630e+00 1.4463312230e-04 2.6563015294e+00 -4.6008492091e+00 2.6563015294e+00 4.6008492091e+00 
92600 5.8218255608e+00 1.4297322764e-04 2.6562988069e+00 -4.6008444936e+00 2.6562988069e+00 4.6008444936e+00 
92700 5.8218258533e+00 1.4133252645e-04 2.6562961157e+00 -4.6008398323e+00 2.6562961157e+00 4.6008398323e+00 
92800 5.8218261406e+00 1.3971102391e-04 2.6562934554e+00 -4.6008352245e+00 2.6562934554e+00 4.6008352245e+00 
92900 5.8218264228e+00 1.3810871523e-04 2.6562908256e+00 -4.6008306695e+00 2.6562908256e+00 4.6008306695e+00 
93000 5.8218266999e+00 1.3652558584e-04 2.6562882259e+00 -4.6008261668e+00 2.6562882259e+00 4.6008261668e+00 
93100 5.8218269721e+00 1.3496161166e-04 2.6562856560e+00 -4.6008217157e+00 2.6562856560e+00 4.6008217157e+00 
93200 5.8218272393e+00 1.3341675932e-04 2.6562831156e+00 -4.6008173155e+00 2.6562831156e+00 4.6008173155e+00 
93300 5.8218275018e+00 1.3189098639e-04 2.6562806043e+00 -4.6008129658e+00 2.6562806043e+00 4.6008129658e+00 
93400 5.8218277594e+00 1.3038424165e-04 2.6562781217e+00 -4.6008086657e+00 2.6562781217e+00 4.6008086657e+00 
93500 5.8218280124e+00 1.2889646532e-04 2.6562756674e+00 -4.6008044148e+00 2.6562756674e+00 4.6008044148e+00 
93600 5.8218282608e+00 1.2742758932e-04 2.6562732411e+00 -4.6008002124e+00 2.6562732411e+00 4.6008002124e+00 
93700 5.8218285047e+00 1.2597753750e-04 2.6562708425e+00 -4.6007960579e+00 2.6562708425e+00 4.6007960579e+00 
93800 5.8218287441e+00 1.2454622592e-04 2.6562684712e+00 -4.6007919506e+00 2.6562684712e+00 4.6007919506e+00 
93900 5.8218289790e+00 1.2313356309e-04 2.6562661268e+00 -4.6007878901e+00 2.6562661268e+00 4.6007878901e+00 
94000 5.8218292097e+00 1.2173945021e-04 2.6562638090e+00 -4.6007838755e+00 2.6562638090e+00 4.6007838755e+00 
94100 5.8218294361e+00 1.2036378145e-04 2.6562615175e+00 -4.6007799064e+00 2.6562615175e+00 4.6007799064e+00 
94200 5.8218296582e+00 1.1900644417e-04 2.6562592518e+00 -4.6007759822e+00 2.6562592518e+00 4.6007759822e+00 
94300 5.8218298763e+00 1.1766731923e-04 2.6562570117e+00 -4.6007721022e+00 2.6562570117e+00 4.6007721022e+00 
94400 5.8218300903e+00 1.1634628118e-04 2.6562547968e+00 -4.6007682659e+00 2.6562547968e+00 4.6007682659e+00 
94500 5.8218303003e+00 1.1504319856e-04 2.6562526067e+00 -4.6007644726e+00 2.6562526067e+00 4.6007644726e+00 
94600 5.8218305063e+00 1.1375793412e-04 2.6562504412e+00 -4.6007607218e+00 2.6562504412e+00 4.6007607218e+00 
94700 5.8218307085e+00 1.1249034509e-04 2.6562482999e+00 -4.6007570129e+00 2.6562482999e+00 4.6007570129e+00 
94800 5.8218309069e+00 1.1124028345e-04 2.6562461824e+00 -4.6007533454e+00 2.6562461824e+00 4.6007533454e+00 
94900 5.8218311015e+00 1.1000759611e-04 2.6562440885e+00 -4.6007497186e+00 2.6562440885e+00 4.6007497186e+00 
95000 5.8218312924e+00 1.0879212524e-04 2.6562420178e+00 -4.6007461319e+00 2.6562420178e+00 4.6007461319e+00 
95100 5.8218314797e+00 1.0759370844e-04 2.6562399699e+00 -4.6007425850e+00 2.6562399699e+00 4.6007425850e+00 
95200 5.8218316634e+00 1.0641217903e-04 2.6562379446e+00 -4.6007390770e+00 2.6562379446e+00 4.6007390770e+00 
95300 5.8218318436e+00 1.0524736629e-04 2.6562359415e+00 -4.6007356076e+00 2.6562359415e+00 4.6007356076e+00 
95400 5.8218320204e+00 1.0409909564e-04 2.6562339604e+00 -4.6007321762e+00 2.6562339604e+00 4.6007321762e+00 
95500 5.8218321938e+00 1.0296718894e-04 2.6562320009e+00 -4.6007287822e+00 2.6562320009e+00 4.6007287822e+00 
95600 5.8218323638e+00 1.0185146469e-04 2.6562300627e+00 -4.6007254251e+00 2.6562300627e+00 4.6007254251e+00 
95700 5.8218325306e+00 1.0075173826e-04 2.6562281454e+00 -4.6007221044e+00 2.6562281454e+00 4.6007221044e+00 
95800 5.8218326941e+00 9.9667822099e-05 2.6562262489e+00 -4.6007188195e+00 2.6562262489e+00 4.6007188195e+00 
95900 5.8218328545e+00 9.8599525990e-05 2.6562243728e+00 -4.6007155700e+00 2.6562243728e+00 4.6007155700e+00 
96000 5.8218330117e+00 9.7546657231e-05 2.6562225168e+00 -4.6007123553e+00 2.6562225168e+00 4.6007123553e+00 
96100 5.8218331659e+00 9.6509020872e-05 2.6562206806e+00 -4.6007091749e+00 2.6562206806e+00 4.6007091749e+00 
96200 5.8218333171e+00 9.5486419904e-05 2.6562188639e+00 -4.6007060284e+00 2.6562188639e+00 4.6007060284e+00 
96300 5.8218334653e+00 9.4478655484e-05 2.6562170665e+00 -4.6007029152e+00 2.6562170665e+00 4.6007029152e+00 
96400 5.8218336106e+00 9.3485527124e-05 2.6562152881e+00 -4.6006998348e+00 2.6562152881e+00 4.6006998348e+00 
96500 5.8218337530e+00 9.2506832883e-05 2.6562135283e+00 -4.6006967868e+00 2.6562135283e+00 4.6006967868e+00 
96600 5.8218338926e+00 9.1542369568e-05 2.6562117870e+00 -4.6006937708e+00 2.6562117870e+00 4.6006937708e+00 
96700 5.8218340295e+00 9.0591932923e-05 2.6562100638e+00 -4.6006907861e+00 2.6562100638e+00 4.6006907861e+00 
96800 5.8218341636e+00 8.9655317804e-05 2.6562083585e+00 -4.6006878325e+00 2.6562083585e+00 4.6006878325e+00 
96900 5.8218342951e+00 8.8732318365e-05 2.6562066709e+00 -4.6006849094e+00 2.6562066709e+00 4.6006849094e+00 
97000 5.8218344240e+00 8.7822728227e-05 2.6562050006e+00 -4.6006820164e+00 2.6562050006e+00 4.6006820164e+00 
97100 5.8218345503e+00 8.6926340649e-05 2.6562033474e+00 -4.6006791530e+00 2.6562033474e+00 4.6006791530e+00 
97200 5.8218346740e+00 8.6042948702e-05 2.6562017112e+00 -4.6006763189e+00 2.6562017112e+00 4.6006763189e+00 
97300 5.8218347953e+00 8.5172345411e-05 2.6562000915e+00 -4.6006735135e+00 2.6562000915e+00 4.6006735135e+00 
97400 5.8218349142e+00 8.4314323931e-05 2.6561984882e+00 -4.6006707366e+00 2.6561984882e+00 4.6006707366e+00 
97500 5.8218350306e+00 8.3468677687e-05 2.6561969011e+00 -4.6006679876e+00 2.6561969011e+00 4.6006679876e+00 
97600 5.8218351447e+00 8.2635200515e-05 2.6561953299e+00 -4.6006652662e+00 2.6561953299e+00 4.6006652662e+00 
97700 5.8218352565e+00 8.1813686820e-05 2.6561937744e+00 -4.6006625720e+00 2.6561937744e+00 4.6006625720e+00 
97800 5.8218353660e+00 8.1003931700e-05 2.6561922343e+00 -4.6006599045e+00 2.6561922343e+00 4.6006599045e+00 
97900 5.8218354733e+00 8.0205731072e-05 2.6561907095e+00 -4.6006572634e+00 2.6561907095e+00 4.6006572634e+00 
98000 5.8218355784e+00 7.9418881829e-05 2.6561891997e+00 -4.6006546484e+00 2.6561891997e+00 4.6006546484e+00 
98100 5.8218356814e+00 7.8643181924e-05 2.6561877047e+00 -4.6006520590e+00 2.6561877047e+00 4.6006520590e+00 
98200 5.8218357822e+00 7.7878430513e-05 2.6561862244e+00 -4.6006494950e+00 2.6561862244e+00 4.6006494950e+00 
98300 5.8218358810e+00 7.7124428068e-05 2.6561847584e+00 -4.6006469558e+00 2.6561847584e+00 4.6006469558e+00 
98400 5.8218359778e+00 7.6380976465e-05 2.6561833066e+00 -4.6006444412e+00 2.6561833066e+00 4.6006444412e+00 
98500 5.8218360725e+00 7.5647879114e-05 2.6561818688e+00 -4.6006419509e+00 2.6561818688e+00 4.6006419509e+00 
98600 5.8218361653e+00 7.4924941048e-05 2.6561804448e+00 -4.6006394845e+00 2.6561804448e+00 4.6006394845e+00 
98700 5.8218362562e+00 7.4211969005e-05 2.6561790344e+00 -4.6006370416e+00 2.6561790344e+00 4.6006370416e+00 
98800 5.8218363452e+00 7.3508771539e-05 2.6561776374e+00 -4.6006346220e+00 2.6561776374e+00 4.6006346220e+00 
98900 5.8218364324e+00 7.2815159093e-05 2.6561762537e+00 -4.6006322253e+00 2.6561762537e+00 4.6006322253e+00 
99000 5.8218365177e+00 7.2130944087e-05 2.6561748830e+00 -4.6006298512e+00 2.6561748830e+00 4.6006298512e+00 
99100 5.8218366013e+00 7.1455940987e-05 2.6561735252e+00 -4.6006274994e+00 2.6561735252e+00 4.6006274994e+00 
99200 5.8218366831e+00 7.0789966392e-05 2.6561721801e+00 -4.6006251697e+00 2.6561721801e+00 4.6006251697e+00 
99300 5.8218367632e+00 7.0132839084e-05 2.6561708476e+00 -4.6006228616e+00 2.6561708476e+00 4.6006228616e+00 
99400 5.8218368417e+00 7.0532345994e-05 2.6561708476e+00 -4.6006228616e+00 2.6561708476e+00 4.6006228616e+00 
99500 5.8218369185e+00 7.0943718905e-05 2.6561708476e+00 -4.6006228616e+00 2.6561708476e+00 4.6006228616e+00 
99600 5.8218369936e+00 7.0306716152e-05 2.6561695121e+00 -4.6006205485e+00 2.6561695121e+00 4.6006205485e+00 
99700 5.8218370673e+00 7.0728103899e-05 2.6561695121e+00 -4.6006205485e+00 2.6561695121e+00 4.6006205485e+00 
99800 5.8218371393e+00 7.0103958202e-05 2.6561681807e+00 -4.6006182425e+00 2.6561681807e+00 4.6006182425e+00 
99900 5.8218372098e+00 7.0534629028e-05 2.6561681807e+00 -4.6006182425e+00 2.6561681807e+00 4.6006182425e+00 
100000 5.8218372788e+00 7.0976221312e-05 2.6561681807e+00 -4.6006182425e+00 2.6561681807e+00 4.6006182425e+00 
100100 5.8218373463e+00 7.0367970791e-05 2.6561668447e+00 -4.6006159284e+00 2.6561668447e+00 4.6006159284e+00 
100200 5.8218374125e+00 7.0817570142e-05 2.6561668447e+00 -4.6006159284e+00 2.6561668447e+00 4.6006159284e+00 
100300 5.8218374771e+00 7.0219250689e-05 2.6561655116e+00 -4.6006136194e+00 2.6561655116e+00 4.6006136194e+00 
100400 5.8218375405e+00 7.0675988001e-05 2.6561655116e+00 -4.6006136194e+00 2.6561655116e+00 4.6006136194e+00 
100500 5.8218376024e+00 7.1142543310e-05 2.6561655116e+00 -4.6006136194e+00 2.6561655116e+00 4.6006136194e+00 
100600 5.8218376630e+00 7.0555645837e-05 2.6561641724e+00 -4.6006112998e+00 2.6561641724e+00 4.6006112998e+00 
100700 5.8218377223e+00 7.1027906431e-05 2.6561641724e+00 -4.6006112998e+00 2.6561641724e+00 4.6006112998e+00 
100800 5.8218377803e+00 7.0447944594e-05 2.6561628354e+00 -4.6006089840e+00 2.6561628354e+00 4.6006089840e+00 
100900 5.8218378371e+00 7.0924967372e-05 2.6561628354e+00 -4.6006089840e+00 2.6561628354e+00 4.6006089840e+00 
101000 5.8218378926e+00 7.0350824374e-05 2.6561615003e+00 -4.6006066716e+00 2.6561615003e+00 4.6006066716e+00 
101100 5.8218379470e+00 7.0831667904e-05 2.6561615003e+00 -4.6006066716e+00 2.6561615003e+00 4.6006066716e+00 
101200 5.8218380001e+00 7.0262262233e-05 2.6561601669e+00 -4.6006043621e+00 2.6561601669e+00 4.6006043621e+00 
101300 5.8218380521e+00 7.0745992702e-05 2.6561601669e+00 -4.6006043621e+00 2.6561601669e+00 4.6006043621e+00 
101400 5.8218381029e+00 7.0180283144e-05 2.6561588352e+00 -4.6006020555e+00 2.6561588352e+00 4.6006020555e+00 
101500 5.8218381527e+00 7.0665979721e-05 2.6561588352e+00 -4.6006020555e+00 2.6561588352e+00 4.6006020555e+00 
101600 5.8218382014e+00 7.1158899144e-05 2.6561588352e+00 -4.6006020555e+00 2.6561588352e+00 4.6006020555e+00 
101700 5.8218382489e+00 7.0595528266e-05 2.6561574957e+00 -4.6005997354e+00 2.6561574957e+00 4.6005997354e+00 
101800 5.8218382955e+00 7.1088974304e-05 2.6561574957e+00 -4.6005997354e+00 2.6561574957e+00 4.6005997354e+00 
101900 5.8218383409e+00 7.0526711128e-05 2.6561561575e+00 -4.6005974176e+00 2.6561561575e+00 4.6005974176e+00 
102000 5.8218383855e+00 7.1019778451e-05 2.6561561575e+00 -4.6005974176e+00 2.6561561575e+00 4.6005974176e+00 
102100 5.8218384290e+00 7.0457722257e-05 2.6561548206e+00 -4.6005951020e+00 2.6561548206e+00 4.6005951020e+00 
102200 5.8218384715e+00 7.0949537227e-05 2.6561548206e+00 -4.6005951020e+00 2.6561548206e+00 4.6005951020e+00 
102300 5.8218385131e+00 7.0386846817e-05 2.6561534850e+00 -4.6005927888e+00 2.6561534850e+00 4.6005927888e+00 
102400 5.8218385538e+00 7.0876570337e-05 2.6561534850e+00 -4.6005927888e+00 2.6561534850e+00 4.6005927888e+00 
102500 5.8218385936e+00 7.0312465255e-05 2.6561521508e+00 -4.6005904779e+00 2.6561521508e+00 4.6005904779e+00 
102600 5.8218386325e+00 7.0799295161e-05 2.6561521508e+00 -4.6005904779e+00 2.6561521508e+00 4.6005904779e+00 
102700 5.8218386705e+00 7.0233056445e-05 2.6561508181e+00 -4.6005881695e+00 2.6561508181e+00 4.6005881695e+00 
102800 5.8218387077e+00 7.0716229493e-05 2.6561508181e+00 -4.6005881695e+00 2.6561508181e+00 4.6005881695e+00 
102900 5.8218387440e+00 7.0147199937e-05 2.6561494869e+00 -4.6005858638e+00 2.6561494869e+00 4.6005858638e+00 
103000 5.8218387795e+00 7.0625993382e-05 2.6561494869e+00 -4.6005858638e+00 2.6561494869e+00 4.6005858638e+00 
103100 5.8218388143e+00 7.1108915649e-05 2.6561494869e+00 -4.6005858638e+00 2.6561494869e+00 4.6005858638e+00 
103200 5.8218388482e+00 7.0533251368e-05 2.6561481483e+00 -4.6005835453e+00 2.6561481483e+00 4.6005835453e+00 
103300 5.8218388813e+00 7.1010695436e-05 2.6561481483e+00 -4.6005835453e+00 2.6561481483e+00 4.6005835453e+00 
103400 5.8218389137e+00 7.0430677678e-05 2.6561468116e+00 -4.6005812301e+00 2.6561468116e+00 4.6005812301e+00 
103500 5.8218389454e+00 7.0901989856e-05 2.6561468116e+00 -4.6005812301e+00 2.6561468116e+00 4.6005812301e+00 
103600 5.8218389764e+00 7.0317144360e-05 2.6561454769e+00 -4.6005789183e+00 2.6561454769e+00 4.6005789183e+00 
103700 5.8218390066e+00 7.0781718453e-05 2.6561454769e+00 -4.6005789183e+00 2.6561454769e+00 4.6005789183e+00 
103800 5.8218390362e+00 7.0191634505e-05 2.6561441445e+00 -4.6005766105e+00 2.6561441445e+00 4.6005766105e+00 
103900 5.8218390651e+00 7.0648911753e-05 2.6561441445e+00 -4.6005766105e+00 2.6561441445e+00 4.6005766105e+00 
104000 5.8218390934e+00 7.1108925740e-05 2.6561441445e+00 -4.6005766105e+00 2.6561441445e+00 4.6005766105e+00 
104100 5.8218391209e+00 7.0508996887e-05 2.6561428059e+00 -4.6005742921e+00 2.6561428059e+00 4.6005742921e+00 
104200 5.8218391479e+00 7.0960870985e-05 2.6561428059e+00 -4.6005742921e+00 2.6561428059e+00 4.6005742921e+00 
104300 5.8218391742e+00 7.0354753979e-05 2.6561414702e+00 -4.6005719784e+00 2.6561414702e+00 4.6005719784e+00 
104400 5.8218391999e+00 7.0798009296e-05 2.6561414702e+00 -4.6005719784e+00 2.6561414702e+00 4.6005719784e+00 
104500 5.8218392250e+00 7.0185470023e-05 2.6561401374e+00 -4.6005696701e+00 2.6561401374e+00 4.6005696701e+00 
104600 5.8218392496e+00 7.0619677180e-05 2.6561401374e+00 -4.6005696701e+00 2.6561401374e+00 4.6005696701e+00 
104700 5.8218392736e+00 7.1055792782e-05 2.6561401374e+00 -4.6005696701e+00 2.6561401374e+00 4.6005696701e+00 
104800 5.8218392970e+00 7.0431957696e-05 2.6561387999e+00 -4.6005673533e+00 2.6561387999e+00 4.6005673533e+00 
104900 5.8218393199e+00 7.0858378078e-05 2.6561387999e+00 -4.6005673533e+00 2.6561387999e+00 4.6005673533e+00 
105000 5.8218393422e+00 7.0227597876e-05 2.6561374660e+00 -4.6005650430e+00 2.6561374660e+00 4.6005650430e+00 
105100 5.8218393641e+00 7.0643974903e-05 2.6561374660e+00 -4.6005650430e+00 2.6561374660e+00 4.6005650430e+00 
105200 5.8218393854e+00 7.1061796564e-05 2.6561374660e+00 -4.6005650430e+00 2.6561374660e+00 4.6005650430e+00 
105300 5.8218394062e+00 7.0419129997e-05 2.6561361283e+00 -4.6005627261e+00 2.6561361283e+00 4.6005627261e+00 
105400 5.8218394266e+00 7.0826383706e-05 2.6561361283e+00 -4.6005627261e+00 2.6561361283e+00 4.6005627261e+00 
105500 5.8218394464e+00 7.0176504276e-05 2.6561347951e+00 -4.6005604168e+00 2.6561347951e+00 4.6005604168e+00 
105600 5.8218394659e+00 7.0572923280e-05 2.6561347951e+00 -4.6005604168e+00 2.6561347951e+00 4.6005604168e+00 
105700 5.8218394848e+00 7.0970415895e-05 2.6561347951e+00 -4.6005604168e+00 2.6561347951e+00 4.6005604168e+00 
105800 5.8218395033e+00 7.0308430042e-05 2.6561334591e+00 -4.6005581028e+00 2.6561334591e+00 4.6005581028e+00 
105900 5.8218395214e+00 7.0694683986e-05 2.6561334591e+00 -4.6005581028e+00 2.6561334591e+00 4.6005581028e+00 
106000 5.8218395390e+00 7.1081832972e-05 2.6561334591e+00 -4.6005581028e+00 2.6561334591e+00 4.6005581028e+00 
106100 5.8218395562e+00 7.0407665499e-05 2.6561321210e+00 -4.6005557852e+00 2.6561321210e+00 4.6005557852e+00 
106200 5.8218395731e+00 7.0783218233e-05 2.6561321210e+00 -4.6005557852e+00 2.6561321210e+00 4.6005557852e+00 
106300 5.8218395894e+00 7.0101803485e-05 2.6561307886e+00 -4.6005534773e+00 2.6561307886e+00 4.6005534773e+00 
106400 5.8218396055e+00 7.0465603730e-05 2.6561307886e+00 -4.6005534773e+00 2.6561307886e+00 4.6005534773e+00 
106500 5.8218396212e+00 7.0830051300e-05 2.6561307886e+00 -4.6005534773e+00 2.6561307886e+00 4.6005534773e+00 
106600 5.8218396364e+00 7.0136711239e-05 2.6561294552e+00 -4.6005511679e+00 2.6561294552e+00 4.6005511679e+00 
106700 5.8218396513e+00 7.0489165494e-05 2.6561294552e+00 -4.6005511679e+00 2.6561294552e+00 4.6005511679e+00 
106800 5.8218396659e+00 7.0842159888e-05 2.6561294552e+00 -4.6005511679e+00 2.6561294552e+00 4.6005511679e+00 
106900 5.8218396801e+00 7.0137083036e-05 2.6561281217e+00 -4.6005488581e+00 2.6561281217e+00 4.6005488581e+00 
107000 5.8218396940e+00 7.0477885135e-05 2.6561281217e+00 -4.6005488581e+00 2.6561281217e+00 4.6005488581e+00 
107100 5.8218397075e+00 7.0819137835e-05 2.6561281217e+00 -4.6005488581e+00 2.6561281217e+00 4.6005488581e+00 
107200 5.8218397207e+00 7.0102578172e-05 2.6561267885e+00 -4.6005465491e+00 2.6561267885e+00 4.6005465491e+00 
107300 5.8218397336e+00 7.0431481208e-05 2.6561267885e+00 -4.6005465491e+00 2.6561267885e+00 4.6005465491e+00 
107400 5.8218397463e+00 7.0760762679e-05 2.6561267885e+00 -4.6005465491e+00 2.6561267885e+00 4.6005465491e+00 
107500 5.8218397585e+00 7.0033036151e-05 2.6561254565e+00 -4.6005442420e+00 2.6561254565e+00 4.6005442420e+00 
107600 5.8218397705e+00 7.0349851472e-05 2.6561254565e+00 -4.6005442420e+00 2.6561254565e+00 4.6005442420e+00 
107700 5.8218397822e+00 7.0666989956e-05 2.6561254565e+00 -4.6005442420e+00 2.6561254565e+00 4.6005442420e+00 
107800 5.8218397937e+00 7.0984445105e-05 2.6561254565e+00 -4.6005442420e+00 2.6561254565e+00 4.6005442420e+00 
107900 5.8218398048e+00 7.0241487630e-05 2.6561241203e+00 -4.6005419275e+00 2.6561241203e+00 4.6005419275e+00 
108000 5.8218398157e+00 7.0546313987e-05 2.6561241203e+00 -4.6005419275e+00 2.6561241203e+00 4.6005419275e+00 
108100 5.8218398263e+00 7.0851404766e-05 2.6561241203e+00 -4.6005419275e+00 2.6561241203e+00 4.6005419275e+00 
108200 5.8218398366e+00 7.0098023289e-05 2.6561227865e+00 -4.6005396174e+00 2.6561227865e+00 4.6005396174e+00 
108300 5.8218398468e+00 7.0390423842e-05 2.6561227865e+00 -4.6005396174e+00 2.6561227865e+00 4.6005396174e+00 
108400 5.8218398567e+00 7.0683054652e-05 2.6561227865e+00 -4.6005396174e+00 2.6561227865e+00 4.6005396174e+00 
108500 5.8218398663e+00 7.0975916436e-05 2.6561227865e+00 -4.6005396174e+00 2.6561227865e+00 4.6005396174e+00 
108600 5.8218398756e+00 7.0208411788e-05 2.6561214505e+00 -4.6005373033e+00 2.6561214505e+00 4.6005373033e+00 
108700 5.8218398848e+00 7.0488496739e-05 2.6561214505e+00 -4.6005373033e+00 2.6561214505e+00 4.6005373033e+00 
108800 5.8218398938e+00 7.0768782324e-05 2.6561214505e+00 -4.6005373033e+00 2.6561214505e+00 4.6005373033e+00 
108900 5.8218399025e+00 6.9991770946e-05 2.6561201183e+00 -4.6005349959e+00 2.6561201183e+00 4.6005349959e+00 
109000 5.8218399110e+00 7.0259276048e-05 2.6561201183e+00 -4.6005349959e+00 2.6561201183e+00 4.6005349959e+00 
109100 5.8218399193e+00 7.0526969618e-05 2.6561201183e+00 -4.6005349959e+00 2.6561201183e+00 4.6005349959e+00 
109200 5.8218399274e+00 7.0794859640e-05 2.6561201183e+00 -4.6005349959e+00 2.6561201183e+00 4.6005349959e+00 
109300 5.8218399353e+00 7.0005058533e-05 2.6561187856e+00 -4.6005326876e+00 2.6561187856e+00 4.6005326876e+00 
109400 5.8218399430e+00 7.0260158020e-05 2.6561187856e+00 -4.6005326876e+00 2.6561187856e+00 4.6005326876e+00 
109500 5.8218399506e+00 7.0515445215e-05 2.6561187856e+00 -4.6005326876e+00 2.6561187856e+00 4.6005326876e+00 
109600 5.8218399579e+00 7.0770929439e-05 2.6561187856e+00 -4.6005326876e+00 2.6561187856e+00 4.6005326876e+00 
109700 5.8218399650e+00 6.9969080742e-05 2.6561174534e+00 -4.6005303801e+00 2.6561174534e+00 4.6005303801e+00 
109800 5.8218399720e+00 7.0211784359e-05 2.6561174534e+00 -4.6005303801e+00 2.6561174534e+00 4.6005303801e+00 
109900 5.8218399789e+00 7.0454680769e-05 2.6561174534e+00 -4.6005303801e+00 2.6561174534e+00 4.6005303801e+00 
110000 5.8218399855e+00 7.0697780925e-05 2.6561174534e+00 -4.6005303801e+00 2.6561174534e+00 4.6005303801e+00 
110100 5.8218399920e+00 7.0941091263e-05 2.6561174534e+00 -4.6005303801e+00 2.6561174534e+00 4.6005303801e+00 
110200 5.8218399983e+00 7.0124535325e-05 2.6561161179e+00 -4.6005280671e+00 2.6561161179e+00 4.6005280671e+00 
110300 5.8218400045e+00 7.0355052170e-05 2.6561161179e+00 -4.6005280671e+00 2.6561161179e+00 4.6005280671e+00 
110400 5.8218400105e+00 7.0585768093e-05 2.6561161179e+00 -4.6005280671e+00 2.6561161179e+00 4.6005280671e+00 
110500 5.8218400164e+00 7.0816692352e-05 2.6561161179e+00 -4.6005280671e+00 2.6561161179e+00 4.6005280671e+00 
110600 5.8218400221e+00 6.9989608721e-05 2.6561147849e+00 -4.6005257581e+00 2.6561147849e+00 4.6005257581e+00 
110700 5.8218400277e+00 7.0207767432e-05 2.6561147849e+00 -4.6005257581e+00 2.6561147849e+00 4.6005257581e+00 
110800 5.8218400332e+00 7.0426131876e-05 2.6561147849e+00 -4.6005257581e+00 2.6561147849e+00 4.6005257581e+00 
110900 5.8218400385e+00 7.0644714101e-05 2.6561147849e+00 -4.6005257581e+00 2.6561147849e+00 4.6005257581e+00 
111000 5.8218400437e+00 7.0863521884e-05 2.6561147849e+00 -4.6005257581e+00 2.6561147849e+00 4.6005257581e+00 
111100 5.8218400487e+00 7.0023636651e-05 2.6561134509e+00 -4.6005234476e+00 2.6561134509e+00 4.6005234476e+00 
111200 5.8218400536e+00 7.0229700991e-05 2.6561134509e+00 -4.6005234476e+00 2.6561134509e+00 4.6005234476e+00 
111300 5.8218400585e+00 7.0435985128e-05 2.6561134509e+00 -4.6005234476e+00 2.6561134509e+00 4.6005234476e+00 
111400 5.8218400632e+00 7.0642500461e-05 2.6561134509e+00 -4.6005234476e+00 2.6561134509e+00 4.6005234476e+00 
111500 5.8218400678e+00 7.0849254302e-05 2.6561134509e+00 -4.6005234476e+00 2.6561134509e+00 4.6005234476e+00 
111600 5.8218400722e+00 6.9997539610e-05 2.6561121172e+00 -4.6005211376e+00 2.6561121172e+00 4.6005211376e+00 
111700 5.8218400766e+00 7.0191577799e-05 2.6561121172e+00 -4.6005211376e+00 2.6561121172e+00 4.6005211376e+00 
111800 5.8218400808e+00 7.0385848333e-05 2.6561121172e+00 -4.6005211376e+00 2.6561121172e+00 4.6005211376e+00 
111900 5.8218400850e+00 7.0580362767e-05 2.6561121172e+00 -4.6005211376e+00 2.6561121172e+00 4.6005211376e+00 
112000 5.8218400891e+00 7.0775128709e-05 2.6561121172e+00 -4.6005211376e+00 2.6561121172e+00 4.6005211376e+00 
112100 5.8218400930e+00 6.9912545783e-05 2.6561107849e+00 -4.6005188299e+00 2.6561107849e+00 4.6005188299e+00 
112200 5.8218400968e+00 7.0094637238e-05 2.6561107849e+00 -4.6005188299e+00 2.6561107849e+00 4.6005188299e+00 
112300 5.8218401006e+00 7.0276975670e-05 2.6561107849e+00 -4.6005188299e+00 2.6561107849e+00 4.6005188299e+00 
112400 5.8218401043e+00 7.0459573374e-05 2.6561107849e+00 -4.6005188299e+00 2.6561107849e+00 4.6005188299e+00 
112500 5.8218401079e+00 7.0642438793e-05 2.6561107849e+00 -4.6005188299e+00 2.6561107849e+00 4.6005188299e+00 
112600 5.8218401114e+00 7.0825576719e-05 2.6561107849e+00 -4.6005188299e+00 2.6561107849e+00 4.6005188299e+00 
112700 5.8218401147e+00 6.9950629114e-05 2.6561094516e+00 -4.6005165207e+00 2.6561094516e+00 4.6005165207e+00 
112800 5.8218401180e+00 7.0121117838e-05 2.6561094516e+00 -4.6005165207e+00 2.6561094516e+00 4.6005165207e+00 
112900 5.8218401213e+00 7.0291867813e-05 2.6561094516e+00 -4.6005165207e+00 2.6561094516e+00 4.6005165207e+00 
113000 5.8218401245e+00 7.0462889636e-05 2.6561094516e+00 -4.6005165207e+00 2.6561094516e+00 4.6005165207e+00 
113100 5.8218401276e+00 7.0634190286e-05 2.6561094516e+00 -4.6005165207e+00 2.6561094516e+00 4.6005165207e+00 
113200 5.8218401306e+00 7.0805773336e-05 2.6561094516e+00 -4.6005165207e+00 2.6561094516e+00 4.6005165207e+00 
113300 5.8218401335e+00 6.9919574281e-05 2.6561081187e+00 -4.6005142121e+00 2.6561081187e+00 4.6005142121e+00 
113400 5.8218401364e+00 7.0078528752e-05 2.6561081187e+00 -4.6005142121e+00 2.6561081187e+00 4.6005142121e+00 
113500 5.8218401392e+00 7.0237751979e-05 2.6561081187e+00 -4.6005142121e+00 2.6561081187e+00 4.6005142121e+00 
113600 5.8218401419e+00 7.0397254148e-05 2.6561081187e+00 -4.6005142121e+00 2.6561081187e+00 4.6005142121e+00 
113700 5.8218401446e+00 7.0557042010e-05 2.6561081187e+00 -4.6005142121e+00 2.6561081187e+00 4.6005142121e+00 
113800 5.8218401472e+00 7.0717119071e-05 2.6561081187e+00 -4.6005142121e+00 2.6561081187e+00 4.6005142121e+00 
113900 5.8218401497e+00 6.9820744261e-05 2.6561067875e+00 -4.6005119063e+00 2.6561067875e+00 4.6005119063e+00 
114000 5.8218401522e+00 6.9968223281e-05 2.6561067875e+00 -4.6005119063e+00 2.6561067875e+00 4.6005119063e+00 
114100 5.8218401546e+00 7.0115978616e-05 2.6561067875e+00 -4.6005119063e+00 2.6561067875e+00 4.6005119063e+00 
114200 5.8218401570e+00 7.0264020949e-05 2.6561067875e+00 -4.6005119063e+00 2.6561067875e+00 4.6005119063e+00 
114300 5.8218401593e+00 7.0412357659e-05 2.6561067875e+00 -4.6005119063e+00 2.6561067875e+00 4.6005119063e+00 
114400 5.8218401615e+00 7.0560992993e-05 2.6561067875e+00 -4.6005119063e+00 2.6561067875e+00 4.6005119063e+00 
114500 5.8218401638e+00 7.0709928244e-05 2.6561067875e+00 -4.6005119063e+00 2.6561067875e+00 4.6005119063e+00 
114600 5.8218401659e+00 7.0859161917e-05 2.6561067875e+00 -4.6005119063e+00 2.6561067875e+00 4.6005119063e+00 
114700 5.8218401679e+00 6.9949824572e-05 2.6561054536e+00 -4.6005095960e+00 2.6561054536e+00 4.6005095960e+00 
114800 5.8218401700e+00 7.0086438869e-05 2.6561054536e+00 -4.6005095960e+00 2.6561054536e+00 4.6005095960e+00 
114900 5.8218401720e+00 7.0223326265e-05 2.6561054536e+00 -4.6005095960e+00 2.6561054536e+00 4.6005095960e+00 
115000 5.8218401740e+00 7.0360494137e-05 2.6561054536e+00 -4.6005095960e+00 2.6561054536e+00 4.6005095960e+00 
115100 5.8218401759e+00 7.0497946926e-05 2.6561054536e+00 -4.6005095960e+00 2.6561054536e+00 4.6005095960e+00 
115200 5.8218401778e+00 7.0635686301e-05 2.6561054536e+00 -4.6005095960e+00 2.6561054536e+00 4.6005095960e+00 
115300 5.8218401796e+00 7.0773711313e-05 2.6561054536e+00 -4.6005095960e+00 2.6561054536e+00 4.6005095960e+00 
115400 5.8218401813e+00 6.9854428650e-05 2.6561041213e+00 -4.6005072884e+00 2.6561041213e+00 4.6005072884e+00 
115500 5.8218401830e+00 6.9979826883e-05 2.6561041213e+00 -4.6005072884e+00 2.6561041213e+00 4.6005072884e+00 
115600 5.8218401847e+00 7.0105488015e-05 2.6561041213e+00 -4.6005072884e+00 2.6561041213e+00 4.6005072884e+00 
115700 5.8218401864e+00 7.0231420529e-05 2.6561041213e+00 -4.6005072884e+00 2.6561041213e+00 4.6005072884e+00 
115800 5.8218401880e+00 7.0357630099e-05 2.6561041213e+00 -4.6005072884e+00 2.6561041213e+00 4.6005072884e+00 
115900 5.8218401896e+00 7.0484119737e-05 2.6561041213e+00 -4.6005072884e+00 2.6561041213e+00 4.6005072884e+00 
116000 5.8218401912e+00 7.0610889942e-05 2.6561041213e+00 -4.6005072884e+00 2.6561041213e+00 4.6005072884e+00 
116100 5.8218401927e+00 7.0737938843e-05 2.6561041213e+00 -4.6005072884e+00 2.6561041213e+00 4.6005072884e+00 
116200 5.8218401941e+00 6.9808205556e-05 2.6561027897e+00 -4.6005049820e+00 2.6561027897e+00 4.6005049820e+00 
116300 5.8218401956e+00 6.9922618591e-05 2.6561027897e+00 -4.6005049820e+00 2.6561027897e+00 4.6005049820e+00 
116400 5.8218401970e+00 7.0037286196e-05 2.6561027897e+00 -4.6005049820e+00 2.6561027897e+00 4.6005049820e+00 
116500 5.8218401984e+00 7.0152216790e-05 2.6561027897e+00 -4.6005049820e+00 2.6561027897e+00 4.6005049820e+00 
116600 5.8218401998e+00 7.0267416173e-05 2.6561027897e+00 -4.6005049820e+00 2.6561027897e+00 4.6005049820e+00 
116700 5.8218402011e+00 7.0382887658e-05 2.6561027897e+00 -4.6005049820e+00 2.6561027897e+00 4.6005049820e+00 
116800 5.8218402024e+00 7.0498632216e-05 2.6561027897e+00 -4.6005049820e+00 2.6561027897e+00 4.6005049820e+00 
116900 5.8218402037e+00 7.0614648601e-05 2.6561027897e+00 -4.6005049820e+00 2.6561027897e+00 4.6005049820e+00 
117000 5.8218402049e+00 7.0730933484e-05 2.6561027897e+00 -4.6005049820e+00 2.6561027897e+00 4.6005049820e+00 
117100 5.8218402060e+00 6.9790528042e-05 2.6561014583e+00 -4.6005026758e+00 2.6561014583e+00 4.6005026758e+00 
117200 5.8218402072e+00 6.9894154626e-05 2.6561014583e+00 -4.6005026758e+00 2.6561014583e+00 4.6005026758e+00 
117300 5.8218402084e+00 6.9998022790e-05 2.6561014583e+00 -4.6005026758e+00 2.6561014583e+00 4.6005026758e+00 
117400 5.8218402095e+00 7.0102140501e-05 2.6561014583e+00 -4.6005026758e+00 2.6561014583e+00 4.6005026758e+00 
117500 5.8218402107e+00 7.0206513323e-05 2.6561014583e+00 -4.6005026758e+00 2.6561014583e+00 4.6005026758e+00 
117600 5.8218402118e+00 7.0311144542e-05 2.6561014583e+00 -4.6005026758e+00 2.6561014583e+00 4.6005026758e+00 
117700 5.8218402128e+00 7.0416035293e-05 2.6561014583e+00 -4.6005026758e+00 2.6561014583e+00 4.6005026758e+00 
117800 5.8218402139e+00 7.0521184684e-05 2.6561014583e+00 -4.6005026758e+00 2.6561014583e+00 4.6005026758e+00 
117900 5.8218402149e+00 7.0626589911e-05 2.6561014583e+00 -4.6005026758e+00 2.6561014583e+00 4.6005026758e+00 
118000 5.8218402159e+00 7.0732246373e-05 2.6561014583e+00 -4.6005026758e+00 2.6561014583e+00 4.6005026758e+00 
118100 5.8218402168e+00 6.9781173171e-05 2.6561001268e+00 -4.6005003695e+00 2.6561001268e+00 4.6005003695e+00 
118200 5.8218402178e+00 6.9874133783e-05 2.6561001268e+00 -4.6005003695e+00 2.6561001268e+00 4.6005003695e+00 
118300 5.8218402187e+00 6.9967316486e-05 2.6561001268e+00 -4.6005003695e+00 2.6561001268e+00 4.6005003695e+00 
118400 5.8218402197e+00 7.0060728984e-05 2.6561001268e+00 -4.6005003695e+00 2.6561001268e+00 4.6005003695e+00 
118500 5.8218402206e+00 7.0154376796e-05 2.6561001268e+00 -4.6005003695e+00 2.6561001268e+00 4.6005003695e+00 
118600 5.8218402215e+00 7.0248263373e-05 2.6561001268e+00 -4.6005003695e+00 2.6561001268e+00 4.6005003695e+00 
118700 5.8218402223e+00 7.0342390208e-05 2.6561001268e+00 -4.6005003695e+00 2.6561001268e+00 4.6005003695e+00 
118800 5.8218402232e+00 7.0436756945e-05 2.6561001268e+00 -4.6005003695e+00 2.6561001268e+00 4.6005003695e+00 
118900 5.8218402240e+00 7.0531361493e-05 2.6561001268e+00 -4.6005003695e+00 2.6561001268e+00 4.6005003695e+00 
119000 5.8218402249e+00 7.0626200122e-05 2.6561001268e+00 -4.6005003695e+00 2.6561001268e+00 4.6005003695e+00 
119100 5.8218402257e+00 7.0721267567e-05 2.6561001268e+00 -4.6005003695e+00 2.6561001268e+00 4.6005003695e+00 
119200 5.8218402264e+00 6.9759745064e-05 2.6560987955e+00 -4.6004980636e+00 2.6560987955e+00 4.6004980636e+00 
119300 5.8218402272e+00 6.9842072802e-05 2.6560987955e+00 -4.6004980636e+00 2.6560987955e+00 4.6004980636e+00 
119400 5.8218402279e+00 6.9924599652e-05 2.6560987955e+00 -4.6004980636e+00 2.6560987955e+00 4.6004980636e+00 
119500 5.8218402287e+00 7.0007333555e-05 2.6560987955e+00 -4.6004980636e+00 2.6560987955e+00 4.6004980636e+00 
119600 5.8218402294e+00 7.0090280463e-05 2.6560987955e+00 -4.6004980636e+00 2.6560987955e+00 4.6004980636e+00 
119700 5.8218402301e+00 7.0173444441e-05 2.6560987955e+00 -4.6004980636e+00 2.6560987955e+00 4.6004980636e+00 
119800 5.8218402309e+00 7.0256827770e-05 2.6560987955e+00 -4.6004980636e+00 2.6560987955e+00 4.6004980636e+00 
119900 5.8218402316e+00 7.0340431042e-05 2.6560987955e+00 -4.6004980636e+00 2.6560987955e+00 4.6004980636e+00 
120000 5.8218402322e+00 7.0424253256e-05 2.6560987955e+00 -4.6004980636e+00 2.6560987955e+00 4.6004980636e+00 
120100 5.8218402329e+00 7.0508291918e-05 2.6560987955e+00 -4.6004980636e+00 2.6560987955e+00 4.6004980636e+00 
120200 5.8218402336e+00 7.0592543120e-05 2.6560987955e+00 -4.6004980636e+00 2.6560987955e+00 4.6004980636e+00 
120300 5.8218402342e+00 7.0677001637e-05 2.6560987955e+00 -4.6004980636e+00 2.6560987955e+00 4.6004980636e+00 
120400 5.8218402349e+00 7.0761661011e-05 2.6560987955e+00 -4.6004980636e+00 2.6560987955e+00 4.6004980636e+00 
120500 5.8218402354e+00 6.9789096452e-05 2.6560974634e+00 -4.6004957565e+00 2.6560974634e+00 4.6004957565e+00 
120600 5.8218402360e+00 6.9860950177e-05 2.6560974634e+00 -4.6004957565e+00 2.6560974634e+00 4.6004957565e+00 
120700 5.8218402366e+00 6.9932973124e-05 2.6560974634e+00 -4.6004957565e+00 2.6560974634e+00 4.6004957565e+00 
120800 5.8218402372e+00 7.0005173109e-05 2.6560974634e+00 -4.6004957565e+00 2.6560974634e+00 4.6004957565e+00 
120900 5.8218402378e+00 7.0077556180e-05 2.6560974634e+00 -4.6004957565e+00 2.6560974634e+00 4.6004957565e+00 
121000 5.8218402384e+00 7.0150126711e-05 2.6560974634e+00 -4.6004957565e+00 2.6560974634e+00 4.6004957565e+00 
121100 5.8218402390e+00 7.0222887497e-05 2.6560974634e+00 -4.6004957565e+00 2.6560974634e+00 4.6004957565e+00 
121200 5.8218402395e+00 7.0295839829e-05 2.6560974634e+00 -4.6004957565e+00 2.6560974634e+00 4.6004957565e+00 
121300 5.8218402401e+00 7.0368983587e-05 2.6560974634e+00 -4.6004957565e+00 2.6560974634e+00 4.6004957565e+00 
121400 5.8218402406e+00 7.0442317314e-05 2.6560974634e+00 -4.6004957565e+00 2.6560974634e+00 4.6004957565e+00 
121500 5.8218402411e+00 7.0515838300e-05 2.6560974634e+00 -4.6004957565e+00 2.6560974634e+00 4.6004957565e+00 
121600 5.8218402417e+00 7.0589542657e-05 2.6560974634e+00 -4.6004957565e+00 2.6560974634e+00 4.6004957565e+00 
121700 5.8218402422e+00 7.0663425394e-05 2.6560974634e+00 -4.6004957565e+00 2.6560974634e+00 4.6004957565e+00 
121800 5.8218402427e+00 7.0737480488e-05 2.6560974634e+00 -4.6004957565e+00 2.6560974634e+00 4.6004957565e+00 
121900 5.8218402431e+00 6.9754643510e-05 2.6560961318e+00 -4.6004934500e+00 2.6560961318e+00 4.6004934500e+00 
122000 5.8218402436e+00 6.9815842483e-05 2.6560961318e+00 -4.6004934500e+00 2.6560961318e+00 4.6004934500e+00 
122100 5.8218402441e+00 6.9877184599e-05 2.6560961318e+00 -4.6004934500e+00 2.6560961318e+00 4.6004934500e+00 
122200 5.8218402446e+00 6.9938678790e-05 2.6560961318e+00 -4.6004934500e+00 2.6560961318e+00 4.6004934500e+00 
122300 5.8218402451e+00 7.0000332371e-05 2.6560961318e+00 -4.6004934500e+00 2.6560961318e+00 4.6004934500e+00 
122400 5.8218402455e+00 7.0062151117e-05 2.6560961318e+00 -4.6004934500e+00 2.6560961318e+00 4.6004934500e+00 
122500 5.8218402460e+00 7.0124139343e-05 2.6560961318e+00 -4.6004934500e+00 2.6560961318e+00 4.6004934500e+00 
122600 5.8218402464e+00 7.0186299975e-05 2.6560961318e+00 -4.6004934500e+00 2.6560961318e+00 4.6004934500e+00 
122700 5.8218402469e+00 7.0248634634e-05 2.6560961318e+00 -4.6004934500e+00 2.6560961318e+00 4.6004934500e+00 
122800 5.8218402473e+00 7.0311143693e-05 2.6560961318e+00 -4.6004934500e+00 2.6560961318e+00 4.6004934500e+00 
122900 5.8218402478e+00 7.0373826361e-05 2.6560961318e+00 -4.6004934500e+00 2.6560961318e+00 4.6004934500e+00 
123000 5.8218402482e+00 7.0436680743e-05 2.6560961318e+00 -4.6004934500e+00 2.6560961318e+00 4.6004934500e+00 
123100 5.8218402486e+00 7.0499703909e-05 2.6560961318e+00 -4.6004934500e+00 2.6560961318e+00 4.6004934500e+00 
123200 5.8218402490e+00 7.0562891959e-05 2.6560961318e+00 -4.6004934500e+00 2.6560961318e+00 4.6004934500e+00 
123300 5.8218402494e+00 7.0626240082e-05 2.6560961318e+00 -4.6004934500e+00 2.6560961318e+00 4.6004934500e+00 
123400 5.8218402498e+00 7.0689742621e-05 2.6560961318e+00 -4.6004934500e+00 2.6560961318e+00 4.6004934500e+00 
123500 5.8218402502e+00 7.0753393127e-05 2.6560961318e+00 -4.6004934500e+00 2.6560961318e+00 4.6004934500e+00 
123600 5.8218402506e+00 6.9759887574e-05 2.6560947999e+00 -4.6004911431e+00 2.6560947999e+00 4.6004911431e+00 
123700 5.8218402510e+00 6.9810629803e-05 2.6560947999e+00 -4.6004911431e+00 2.6560947999e+00 4.6004911431e+00 
123800 5.8218402513e+00 6.9861490835e-05 2.6560947999e+00 -4.6004911431e+00 2.6560947999e+00 4.6004911431e+00 
123900 5.8218402517e+00 6.9912480017e-05 2.6560947999e+00 -4.6004911431e+00 2.6560947999e+00 4.6004911431e+00 
124000 5.8218402521e+00 6.9963605256e-05 2.6560947999e+00 -4.6004911431e+00 2.6560947999e+00 4.6004911431e+00 
124100 5.8218402525e+00 7.0014873087e-05 2.6560947999e+00 -4.6004911431e+00 2.6560947999e+00 4.6004911431e+00 
124200 5.8218402528e+00 7.0066288739e-05 2.6560947999e+00 -4.6004911431e+00 2.6560947999e+00 4.6004911431e+00 
124300 5.8218402532e+00 7.0117856200e-05 2.6560947999e+00 -4.6004911431e+00 2.6560947999e+00 4.6004911431e+00 
124400 5.8218402536e+00 7.0169578280e-05 2.6560947999e+00 -4.6004911431e+00 2.6560947999e+00 4.6004911431e+00 
124500 5.8218402539e+00 7.0221456674e-05 2.6560947999e+00 -4.6004911431e+00 2.6560947999e+00 4.6004911431e+00 
124600 5.8218402543e+00 7.0273492019e-05 2.6560947999e+00 -4.6004911431e+00 2.6560947999e+00 4.6004911431e+00 
124700 5.8218402546e+00 7.0325683960e-05 2.6560947999e+00 -4.6004911431e+00 2.6560947999e+00 4.6004911431e+00 
124800 5.8218402549e+00 7.0378031199e-05 2.6560947999e+00 -4.6004911431e+00 2.6560947999e+00 4.6004911431e+00 
124900 5.8218402553e+00 7.0430531553e-05 2.6560947999e+00 -4.6004911431e+00 2.6560947999e+00 4.6004911431e+00 
125000 5.8218402556e+00 7.0483182010e-05 2.6560947999e+00 -4.6004911431e+00 2.6560947999e+00 4.6004911431e+00 
125100 5.8218402560e+00 7.0535978780e-05 2.6560947999e+00 -4.6004911431e+00 2.6560947999e+00 4.6004911431e+00 
125200 5.8218402563e+00 7.0588917348e-05 2.6560947999e+00 -4.6004911431e+00 2.6560947999e+00 4.6004911431e+00 
125300 5.8218402566e+00 7.0641992517e-05 2.6560947999e+00 -4.6004911431e+00 2.6560947999e+00 4.6004911431e+00 
125400 5.8218402569e+00 7.0695198463e-05 2.6560947999e+00 -4.6004911431e+00 2.6560947999e+00 4.6004911431e+00 
125500 5.8218402572e+00 7.0748528775e-05 2.6560947999e+00 -4.6004911431e+00 2.6560947999e+00 4.6004911431e+00 
125600 5.8218402575e+00 6.9744750675e-05 2.6560934681e+00 -4.6004888363e+00 2.6560934681e+00 4.6004888363e+00 
125700 5.8218402578e+00 6.9785127262e-05 2.6560934681e+00 -4.6004888363e+00 2.6560934681e+00 4.6004888363e+00 
125800 5.8218402581e+00 6.9825600290e-05 2.6560934681e+00 -4.6004888363e+00 2.6560934681e+00 4.6004888363e+00 
125900 5.8218402584e+00 6.9866179850e-05 2.6560934681e+00 -4.6004888363e+00 2.6560934681e+00 4.6004888363e+00 
126000 5.8218402587e+00 6.9906874741e-05 2.6560934681e+00 -4.6004888363e+00 2.6560934681e+00 4.6004888363e+00 
126100 5.8218402590e+00 6.9947692527e-05 2.6560934681e+00 -4.6004888363e+00 2.6560934681e+00 4.6004888363e+00 
126200 5.8218402593e+00 6.9988639594e-05 2.6560934681e+00 -4.6004888363e+00 2.6560934681e+00 4.6004888363e+00 
126300 5.8218402596e+00 7.0029721209e-05 2.6560934681e+00 -4.6004888363e+00 2.6560934681e+00 4.6004888363e+00 
126400 5.8218402599e+00 7.0070941565e-05 2.6560934681e+00 -4.6004888363e+00 2.6560934681e+00 4.6004888363e+00 
126500 5.8218402601e+00 7.0112303845e-05 2.6560934681e+00 -4.6004888363e+00 2.6560934681e+00 4.6004888363e+00 
126600 5.8218402604e+00 7.0153810264e-05 2.6560934681e+00 -4.6004888363e+00 2.6560934681e+00 4.6004888363e+00 
126700 5.8218402607e+00 7.0195462125e-05 2.6560934681e+00 -4.6004888363e+00 2.6560934681e+00 4.6004888363e+00 
126800 5.8218402610e+00 7.0237259866e-05 2.6560934681e+00 -4.6004888363e+00 2.6560934681e+00 4.6004888363e+00 
126900 5.8218402613e+00 7.0279203110e-05 2.6560934681e+00 -4.6004888363e+00 2.6560934681e+00 4.6004888363e+00 
127000 5.8218402615e+00 7.0321290705e-05 2.6560934681e+00 -4.6004888363e+00 2.6560934681e+00 4.6004888363e+00 
127100 5.8218402618e+00 7.0363520778e-05 2.6560934681e+00 -4.6004888363e+00 2.6560934681e+00 4.6004888363e+00 
127200 5.8218402621e+00 7.0405890773e-05 2.6560934681e+00 -4.6004888363e+00 2.6560934681e+00 4.6004888363e+00 
127300 5.8218402623e+00 7.0448397495e-05 2.6560934681e+00 -4.6004888363e+00 2.6560934681e+00 4.6004888363e+00 
127400 5.8218402626e+00 7.0491037153e-05 2.6560934681e+00 -4.6004888363e+00 2.6560934681e+00 4.6004888363e+00 
127500 5.8218402628e+00 7.0533805398e-05 2.6560934681e+00 -4.6004888363e+00 2.6560934681e+00 4.6004888363e+00 
127600 5.8218402631e+00 7.0576697364e-05 2.6560934681e+00 -4.6004888363e+00 2.6560934681e+00 4.6004888363e+00 
127700 5.8218402633e+00 7.0619707705e-05 2.6560934681e+00 -4.6004888363e+00 2.6560934681e+00 4.6004888363e+00 
127800 5.8218402636e+00 7.0662830627e-05 2.6560934681e+00 -4.6004888363e+00 2.6560934681e+00 4.6004888363e+00 
127900 5.8218402638e+00 7.0706059933e-05 2.6560934681e+00 -4.6004888363e+00 2.6560934681e+00 4.6004888363e+00 
128000 5.8218402641e+00 7.0749389048e-05 2.6560934681e+00 -4.6004888363e+00 2.6560934681e+00 4.6004888363e+00 
128100 5.8218402643e+00 6.9735570639e-05 2.6560921362e+00 -4.6004865295e+00 2.6560921362e+00 4.6004865295e+00 
128200 5.8218402645e+00 6.9765896994e-05 2.6560921362e+00 -4.6004865295e+00 2.6560921362e+00 4.6004865295e+00 
128300 5.8218402647e+00 6.9796295884e-05 2.6560921362e+00 -4.6004865295e+00 2.6560921362e+00 4.6004865295e+00 
128400 5.8218402650e+00 6.9826777954e-05 2.6560921362e+00 -4.6004865295e+00 2.6560921362e+00 4.6004865295e+00 
128500 5.8218402652e+00 6.9857352711e-05 2.6560921362e+00 -4.6004865295e+00 2.6560921362e+00 4.6004865295e+00 
128600 5.8218402654e+00 6.9888028573e-05 2.6560921362e+00 -4.6004865295e+00 2.6560921362e+00 4.6004865295e+00 
128700 5.8218402657e+00 6.9918812912e-05 2.6560921362e+00 -4.6004865295e+00 2.6560921362e+00 4.6004865295e+00 
128800 5.8218402659e+00 6.9949712102e-05 2.6560921362e+00 -4.6004865295e+00 2.6560921362e+00 4.6004865295e+00 
128900 5.8218402661e+00 6.9980731563e-05 2.6560921362e+00 -4.6004865295e+00 2.6560921362e+00 4.6004865295e+00 
129000 5.8218402663e+00 7.0011875805e-05 2.6560921362e+00 -4.6004865295e+00 2.6560921362e+00 4.6004865295e+00 
129100 5.8218402666e+00 7.0043148469e-05 2.6560921362e+00 -4.6004865295e+00 2.6560921362e+00 4.6004865295e+00 
129200 5.8218402668e+00 7.0074552374e-05 2.6560921362e+00 -4.6004865295e+00 2.6560921362e+00 4.6004865295e+00 
129300 5.8218402670e+00 7.0106089554e-05 2.6560921362e+00 -4.6004865295e+00 2.6560921362e+00 4.6004865295e+00 
129400 5.8218402672e+00 7.0137761297e-05 2.6560921362e+00 -4.6004865295e+00 2.6560921362e+00 4.6004865295e+00 
129500 5.8218402674e+00 7.0169568186e-05 2.6560921362e+00 -4.6004865295e+00 2.6560921362e+00 4.6004865295e+00 
129600 5.8218402676e+00 7.0201510141e-05 2.6560921362e+00 -4.6004865295e+00 2.6560921362e+00 4.6004865295e+00 
129700 5.8218402679e+00 7.0233586447e-05 2.6560921362e+00 -4.6004865295e+00 2.6560921362e+00 4.6004865295e+00 
129800 5.8218402681e+00 7.0265795800e-05 2.6560921362e+00 -4.6004865295e+00 2.6560921362e+00 4.6004865295e+00 
129900 5.8218402683e+00 7.0298136333e-05 2.6560921362e+00 -4.6004865295e+00 2.6560921362e+00 4.6004865295e+00 
130000 5.8218402685e+00 7.0330605657e-05 2.6560921362e+00 -4.6004865295e+00 2.6560921362e+00 4.6004865295e+00 
130100 5.8218402687e+00 7.0363200894e-05 2.6560921362e+00 -4.6004865295e+00 2.6560921362e+00 4.6004865295e+00 
130200 5.8218402689e+00 7.0395918704e-05 2.6560921362e+00 -4.6004865295e+00 2.6560921362e+00 4.6004865295e+00 
130300 5.8218402691e+00 7.0428755319e-05 2.6560921362e+00 -4.6004865295e+00 2.6560921362e+00 4.6004865295e+00 
130400 5.8218402693e+00 7.0461706575e-05 2.6560921362e+00 -4.6004865295e+00 2.6560921362e+00 4.6004865295e+00 
130500 5.8218402695e+00 7.0494767940e-05 2.6560921362e+00 -4.6004865295e+00 2.6560921362e+00 4.6004865295e+00 
130600 5.8218402697e+00 7.0527934543e-05 2.6560921362e+00 -4.6004865295e+00 2.6560921362e+00 4.6004865295e+00 
130700 5.8218402698e+00 7.0561201196e-05 2.6560921362e+00 -4.6004865295e+00 2.6560921362e+00 4.6004865295e+00 
130800 5.8218402700e+00 7.0594562431e-05 2.6560921362e+00 -4.6004865295e+00 2.6560921362e+00 4.6004865295e+00 
130900 5.8218402702e+00 7.0628012515e-05 2.6560921362e+00 -4.6004865295e+00 2.6560921362e+00 4.6004865295e+00 
131000 5.8218402704e+00 7.0661545480e-05 2.6560921362e+00 -4.6004865295e+00 2.6560921362e+00 4.6004865295e+00 
131100 5.8218402706e+00 7.0695155146e-05 2.6560921362e+00 -4.6004865295e+00 2.6560921362e+00 4.6004865295e+00 
131200 5.8218402708e+00 7.0728835144e-05 2.6560921362e+00 -4.6004865295e+00 2.6560921362e+00 4.6004865295e+00 
131300 5.8218402709e+00 6.9705643861e-05 2.6560908048e+00 -4.6004842234e+00 2.6560908048e+00 4.6004842234e+00 
131400 5.8218402711e+00 6.9726267239e-05 2.6560908048e+00 -4.6004842234e+00 2.6560908048e+00 4.6004842234e+00 
131500 5.8218402712e+00 6.9746935300e-05 2.6560908048e+00 -4.6004842234e+00 2.6560908048e+00 4.6004842234e+00 
131600 5.8218402714e+00 6.9767659525e-05 2.6560908048e+00 -4.6004842234e+00 2.6560908048e+00 4.6004842234e+00 
131700 5.8218402716e+00 6.9788450386e-05 2.6560908048e+00 -4.6004842234e+00 2.6560908048e+00 4.6004842234e+00 
131800 5.8218402718e+00 6.9809317393e-05 2.6560908048e+00 -4.6004842234e+00 2.6560908048e+00 4.6004842234e+00 
131900 5.8218402719e+00 6.9830269125e-05 2.6560908048e+00 -4.6004842234e+00 2.6560908048e+00 4.6004842234e+00 
132000 5.8218402721e+00 6.9851313267e-05 2.6560908048e+00 -4.6004842234e+00 2.6560908048e+00 4.6004842234e+00 
132100 5.8218402723e+00 6.9872456652e-05 2.6560908048e+00 -4.6004842234e+00 2.6560908048e+00 4.6004842234e+00 
132200 5.8218402724e+00 6.9893705289e-05 2.6560908048e+00 -4.6004842234e+00 2.6560908048e+00 4.6004842234e+00 
132300 5.8218402726e+00 6.9915064404e-05 2.6560908048e+00 -4.6004842234e+00 2.6560908048e+00 4.6004842234e+00 
132400 5.8218402728e+00 6.9936538472e-05 2.6560908048e+00 -4.6004842234e+00 2.6560908048e+00 4.6004842234e+00 
132500 5.8218402729e+00 6.9958131253e-05 2.6560908048e+00 -4.6004842234e+00 2.6560908048e+00 4.6004842234e+00 
132600 5.8218402731e+00 6.9979845818e-05 2.6560908048e+00 -4.6004842234e+00 2.6560908048e+00 4.6004842234e+00 
132700 5.8218402733e+00 7.0001684589e-05 2.6560908048e+00 -4.6004842234e+00 2.6560908048e+00 4.6004842234e+00 
132800 5.8218402734e+00 7.0023649368e-05 2.6560908048e+00 -4.6004842234e+00 2.6560908048e+00 4.6004842234e+00 
132900 5.8218402736e+00 7.0045741368e-05 2.6560908048e+00 -4.6004842234e+00 2.6560908048e+00 4.6004842234e+00 
133000 5.8218402737e+00 7.0067961242e-05 2.6560908048e+00 -4.6004842234e+00 2.6560908048e+00 4.6004842234e+00 
133100 5.8218402739e+00 7.0090309114e-05 2.6560908048e+00 -4.6004842234e+00 2.6560908048e+00 4.6004842234e+00 
133200 5.8218402740e+00 7.0112784606e-05 2.6560908048e+00 -4.6004842234e+00 2.6560908048e+00 4.6004842234e+00 
133300 5.8218402742e+00 7.0135386869e-05 2.6560908048e+00 -4.6004842234e+00 2.6560908048e+00 4.6004842234e+00 
133400 5.8218402743e+00 7.0158114608e-05 2.6560908048e+00 -4.6004842234e+00 2.6560908048e+00 4.6004842234e+00 
133500 5.8218402745e+00 7.0180966105e-05 2.6560908048e+00 -4.6004842234e+00 2.6560908048e+00 4.6004842234e+00 
133600 5.8218402746e+00 7.0203939256e-05 2.6560908048e+00 -4.6004842234e+00 2.6560908048e+00 4.6004842234e+00 
133700 5.8218402748e+00 7.0227031581e-05 2.6560908048e+00 -4.6004842234e+00 2.6560908048e+00 4.6004842234e+00 
133800 5.8218402749e+00 7.0250240265e-05 2.6560908048e+00 -4.6004842234e+00 2.6560908048e+00 4.6004842234e+00 
133900 5.8218402751e+00 7.0273562161e-05 2.6560908048e+00 -4.6004842234e+00 2.6560908048e+00 4.6004842234e+00 
134000 5.8218402752e+00 7.0296993833e-05 2.6560908048e+00 -4.6004842234e+00 2.6560908048e+00 4.6004842234e+00 
134100 5.8218402753e+00 7.0320531569e-05 2.6560908048e+00 -4.6004842234e+00 2.6560908048e+00 4.6004842234e+00 
134200 5.8218402755e+00 7.0344171397e-05 2.6560908048e+00 -4.6004842234e+00 2.6560908048e+00 4.6004842234e+00 
134300 5.8218402756e+00 7.0367909118e-05 2.6560908048e+00 -4.6004842234e+00 2.6560908048e+00 4.6004842234e+00 
134400 5.8218402758e+00 7.0391740316e-05 2.6560908048e+00 -4.6004842234e+00 2.6560908048e+00 4.6004842234e+00 
134500 5.8218402759e+00 7.0415660382e-05 2.6560908048e+00 -4.6004842234e+00 2.6560908048e+00 4.6004842234e+00 
134600 5.8218402760e+00 7.0439664529e-05 2.6560908048e+00 -4.6004842234e+00 2.6560908048e+00 4.6004842234e+00 
134700 5.8218402762e+00 7.0463747816e-05 2.6560908048e+00 -4.6004842234e+00 2.6560908048e+00 4.6004842234e+00 
134800 5.8218402763e+00 7.0487905157e-05 2.6560908048e+00 -4.6004842234e+00 2.6560908048e+00 4.6004842234e+00 
134900 5.8218402764e+00 7.0512131346e-05 2.6560908048e+00 -4.6004842234e+00 2.6560908048e+00 4.6004842234e+00 
135000 5.8218402766e+00 7.0536421064e-05 2.6560908048e+00 -4.6004842234e+00 2.6560908048e+00 4.6004842234e+00 
135100 5.8218402767e+00 7.0560768902e-05 2.6560908048e+00 -4.6004842234e+00 2.6560908048e+00 4.6004842234e+00 
135200 5.8218402768e+00 7.0585169373e-05 2.6560908048e+00 -4.6004842234e+00 2.6560908048e+00 4.6004842234e+00 
135300 5.8218402769e+00 7.0609616922e-05 2.6560908048e+00 -4.6004842234e+00 2.6560908048e+00 4.6004842234e+00 
135400 5.8218402771e+00 7.0634105947e-05 2.6560908048e+00 -4.6004842234e+00 2.6560908048e+00 4.6004842234e+00 
135500 5.8218402772e+00 7.0658630803e-05 2.6560908048e+00 -4.6004842234e+00 2.6560908048e+00 4.6004842234e+00 
135600 5.8218402773e+00 7.0683185822e-05 2.6560908048e+00 -4.6004842234e+00 2.6560908048e+00 4.6004842234e+00 
135700 5.8218402774e+00 7.0707765319e-05 2.6560908048e+00 -4.6004842234e+00 2.6560908048e+00 4.6004842234e+00 
135800 5.8218402775e+00 7.0732363604e-05 2.6560908048e+00 -4.6004842234e+00 2.6560908048e+00 4.6004842234e+00 
135900 5.8218402776e+00 6.9699985289e-05 2.6560894733e+00 -4.6004819172e+00 2.6560894733e+00 4.6004819172e+00 
136000 5.8218402777e+00 6.9711425904e-05 2.6560894733e+00 -4.6004819172e+00 2.6560894733e+00 4.6004819172e+00 
136100 5.8218402778e+00 6.9722862715e-05 2.6560894733e+00 -4.6004819172e+00 2.6560894733e+00 4.6004819172e+00 
136200 5.8218402779e+00 6.9734308512e-05 2.6560894733e+00 -4.6004819172e+00 2.6560894733e+00 4.6004819172e+00 
136300 5.8218402780e+00 6.9745775213e-05 2.6560894733e+00 -4.6004819172e+00 2.6560894733e+00 4.6004819172e+00 
136400 5.8218402782e+00 6.9757273897e-05 2.6560894733e+00 -4.6004819172e+00 2.6560894733e+00 4.6004819172e+00 
136500 5.8218402783e+00 6.9768814818e-05 2.6560894733e+00 -4.6004819172e+00 2.6560894733e+00 4.6004819172e+00 
136600 5.8218402784e+00 6.9780407448e-05 2.6560894733e+00 -4.6004819172e+00 2.6560894733e+00 4.6004819172e+00 
136700 5.8218402785e+00 6.9792060494e-05 2.6560894733e+00 -4.6004819172e+00 2.6560894733e+00 4.6004819172e+00 
136800 5.8218402786e+00 6.9803781930e-05 2.6560894733e+00 -4.6004819172e+00 2.6560894733e+00 4.6004819172e+00 
136900 5.8218402787e+00 6.9815579022e-05 2.6560894733e+00 -4.6004819172e+00 2.6560894733e+00 4.6004819172e+00 
137000 5.8218402788e+00 6.9827458358e-05 2.6560894733e+00 -4.6004819172e+00 2.6560894733e+00 4.6004819172e+00 
137100 5.8218402789e+00 6.9839425866e-05 2.6560894733e+00 -4.6004819172e+00 2.6560894733e+00 4.6004819172e+00 
137200 5.8218402790e+00 6.9851486848e-05 2.6560894733e+00 -4.6004819172e+00 2.6560894733e+00 4.6004819172e+00 
137300 5.8218402791e+00 6.9863646001e-05 2.6560894733e+00 -4.6004819172e+00 2.6560894733e+00 4.6004819172e+00 
137400 5.8218402792e+00 6.9875907446e-05 2.6560894733e+00 -4.6004819172e+00 2.6560894733e+00 4.6004819172e+00 
137500 5.8218402793e+00 6.9888274747e-05 2.6560894733e+00 -4.6004819172e+00 2.6560894733e+00 4.6004819172e+00 
137600 5.8218402794e+00 6.9900750936e-05 2.6560894733e+00 -4.6004819172e+00 2.6560894733e+00 4.6004819172e+00 
137700 5.8218402795e+00 6.9913338543e-05 2.6560894733e+00 -4.6004819172e+00 2.6560894733e+00 4.6004819172e+00 
137800 5.8218402796e+00 6.9926039608e-05 2.6560894733e+00 -4.6004819172e+00 2.6560894733e+00 4.6004819172e+00 
137900 5.8218402797e+00 6.9938855715e-05 2.6560894733e+00 -4.6004819172e+00 2.6560894733e+00 4.6004819172e+00 
138000 5.8218402798e+00 6.9951788010e-05 2.6560894733e+00 -4.6004819172e+00 2.6560894733e+00 4.6004819172e+00 
138100 5.8218402799e+00 6.9964837216e-05 2.6560894733e+00 -4.6004819172e+00 2.6560894733e+00 4.6004819172e+00 
138200 5.8218402800e+00 6.9978003665e-05 2.6560894733e+00 -4.6004819172e+00 2.6560894733e+00 4.6004819172e+00 
138300 5.8218402801e+00 6.9991287310e-05 2.6560894733e+00 -4.6004819172e+00 2.6560894733e+00 4.6004819172e+00 
138400 5.8218402802e+00 7.0004687754e-05 2.6560894733e+00 -4.6004819172e+00 2.6560894733e+00 4.6004819172e+00 
138500 5.8218402803e+00 7.0018204258e-05 2.6560894733e+00 -4.6004819172e+00 2.6560894733e+00 4.6004819172e+00 
138600 5.8218402804e+00 7.0031835771e-05 2.6560894733e+00 -4.6004819172e+00 2.6560894733e+00 4.6004819172e+00 
138700 5.8218402805e+00 7.0045580943e-05 2.6560894733e+00 -4.6004819172e+00 2.6560894733e+00 4.6004819172e+00 
138800 5.8218402806e+00 7.0059438145e-05 2.6560894733e+00 -4.6004819172e+00 2.6560894733e+00 4.6004819172e+00 
138900 5.8218402806e+00 7.0073405485e-05 2.6560894733e+00 -4.6004819172e+00 2.6560894733e+00 4.6004819172e+00 
139000 5.8218402807e+00 7.0087480827e-05 2.6560894733e+00 -4.6004819172e+00 2.6560894733e+00 4.6004819172e+00 
139100 5.8218402808e+00 7.0101661806e-05 2.6560894733e+00 -4.6004819172e+00 2.6560894733e+00 4.6004819172e+00 
139200 5.8218402809e+00 7.0115945846e-05 2.6560894733e+00 -4.6004819172e+00 2.6560894733e+00 4.6004819172e+00 
139300 5.8218402810e+00 7.0130330174e-05 2.6560894733e+00 -4.6004819172e+00 2.6560894733e+00 4.6004819172e+00 
139400 5.8218402811e+00 7.0144811834e-05 2.6560894733e+00 -4.6004819172e+00 2.6560894733e+00 4.6004819172e+00 
139500 5.8218402811e+00 7.0159387706e-05 2.6560894733e+00 -4.6004819172e+00 2.6560894733e+00 4.6004819172e+00 
139600 5.8218402812e+00 7.0174054516e-05 2.6560894733e+00 -4.6004819172e+00 2.6560894733e+00 4.6004819172e+00 
139700 5.8218402813e+00 7.0188808849e-05 2.6560894733e+00 -4.6004819172e+00 2.6560894733e+00 4.6004819172e+00 
139800 5.8218402814e+00 7.0203647165e-05 2.6560894733e+00 -4.6004819172e+00 2.6560894733e+00 4.6004819172e+00 
139900 5.8218402815e+00 7.0218565813e-05 2.6560894733e+00 -4.6004819172e+00 2.6560894733e+00 4.6004819172e+00 
140000 5.8218402815e+00 7.0233561037e-05 2.6560894733e+00 -4.6004819172e+00 2.6560894733e+00 4.6004819172e+00 
140100 5.8218402816e+00 7.0248628994e-05 2.6560894733e+00 -4.6004819172e+00 2.6560894733e+00 4.6004819172e+00 
140200 5.8218402817e+00 7.0263765761e-05 2.6560894733e+00 -4.6004819172e+00 2.6560894733e+00 4.6004819172e+00 
140300 5.8218402818e+00 7.0278967349e-05 2.6560894733e+00 -4.6004819172e+00 2.6560894733e+00 4.6004819172e+00 
140400 5.8218402819e+00 7.0294229710e-05 2.6560894733e+00 -4.6004819172e+00 2.6560894733e+00 4.6004819172e+00 
140500 5.8218402819e+00 7.0309548751e-05 2.6560894733e+00 -4.6004819172e+00 2.6560894733e+00 4.6004819172e+00 
140600 5.8218402820e+00 7.0324920337e-05 2.6560894733e+00 -4.6004819172e+00 2.6560894733e+00 4.6004819172e+00 
140700 5.8218402821e+00 7.0340340311e-05 2.6560894733e+00 -4.6004819172e+00 2.6560894733e+00 4.6004819172e+00 
140800 5.8218402821e+00 7.0355804488e-05 2.6560894733e+00 -4.6004819172e+00 2.6560894733e+00 4.6004819172e+00 
140900 5.8218402822e+00 7.0371308677e-05 2.6560894733e+00 -4.6004819172e+00 2.6560894733e+00 4.6004819172e+00 
141000 5.8218402823e+00 7.0386848679e-05 2.6560894733e+00 -4.6004819172e+00 2.6560894733e+00 4.6004819172e+00 
141100 5.8218402824e+00 7.0402420300e-05 2.6560894733e+00 -4.6004819172e+00 2.6560894733e+00 4.6004819172e+00 
141200 5.8218402824e+00 7.0418019356e-05 2.6560894733e+00 -4.6004819172e+00 2.6560894733e+00 4.6004819172e+00 
141300 5.8218402825e+00 7.0433641680e-05 2.6560894733e+00 -4.6004819172e+00 2.6560894733e+00 4.6004819172e+00 
141400 5.8218402826e+00 7.0449283129e-05 2.6560894733e+00 -4.6004819172e+00 2.6560894733e+00 4.6004819172e+00 
141500 5.8218402826e+00 7.0464939587e-05 2.6560894733e+00 -4.6004819172e+00 2.6560894733e+00 4.6004819172e+00 
141600 5.8218402827e+00 7.0480606974e-05 2.6560894733e+00 -4.6004819172e+00 2.6560894733e+00 4.6004819172e+00 
141700 5.8218402828e+00 7.0496281252e-05 2.6560894733e+00 -4.6004819172e+00 2.6560894733e+00 4.6004819172e+00 
141800 5.8218402828e+00 7.0511958425e-05 2.6560894733e+00 -4.6004819172e+00 2.6560894733e+00 4.6004819172e+00 
141900 5.8218402829e+00 7.0527634550e-05 2.6560894733e+00 -4.6004819172e+00 2.6560894733e+00 4.6004819172e+00 
142000 5.8218402830e+00 7.0543305734e-05 2.6560894733e+00 -4.6004819172e+00 2.6560894733e+00 4.6004819172e+00 
142100 5.8218402830e+00 7.0558968144e-05 2.6560894733e+00 -4.6004819172e+00 2.6560894733e+00 4.6004819172e+00 
142200 5.8218402831e+00 7.0574618010e-05 2.6560894733e+00 -4.6004819172e+00 2.6560894733e+00 4.6004819172e+00 
142300 5.8218402831e+00 7.0590251624e-05 2.6560894733e+00 -4.6004819172e+00 2.6560894733e+00 4.6004819172e+00 
142400 5.8218402832e+00 7.0605865351e-05 2.6560894733e+00 -4.6004819172e+00 2.6560894733e+00 4.6004819172e+00 
142500 5.8218402833e+00 7.0621455622e-05 2.6560894733e+00 -4.6004819172e+00 2.6560894733e+00 4.6004819172e+00 
142600 5.8218402833e+00 7.0637018945e-05 2.6560894733e+00 -4.6004819172e+00 2.6560894733e+00 4.6004819172e+00 
142700 5.8218402834e+00 7.0652551905e-05 2.6560894733e+00 -4.6004819172e+00 2.6560894733e+00 4.6004819172e+00 
142800 5.8218402834e+00 7.0668051166e-05 2.6560894733e+00 -4.6004819172e+00 2.6560894733e+00 4.6004819172e+00 
142900 5.8218402835e+00 7.0683513466e-05 2.6560894733e+00 -4.6004819172e+00 2.6560894733e+00 4.6004819172e+00 
143000 5.8218402835e+00 7.0698935632e-05 2.6560894733e+00 -4.6004819172e+00 2.6560894733e+00 4.6004819172e+00 
143100 5.8218402836e+00 7.0714314576e-05 2.6560894733e+00 -4.6004819172e+00 2.6560894733e+00 4.6004819172e+00 
143200 5.8218402836e+00 6.9672925227e-05 2.6560881421e+00 -4.6004796115e+00 2.6560881421e+00 4.6004796115e+00 
143300 5.8218402836e+00 6.9675033897e-05 2.6560881421e+00 -4.6004796115e+00 2.6560881421e+00 4.6004796115e+00 
143400 5.8218402837e+00 6.9677084985e-05 2.6560881421e+00 -4.6004796115e+00 2.6560881421e+00 4.6004796115e+00 
143500 5.8218402837e+00 6.9679094138e-05 2.6560881421e+00 -4.6004796115e+00 2.6560881421e+00 4.6004796115e+00 
143600 5.8218402838e+00 6.9681076176e-05 2.6560881421e+00 -4.6004796115e+00 2.6560881421e+00 4.6004796115e+00 
143700 5.8218402839e+00 6.9683045113e-05 2.6560881421e+00 -4.6004796115e+00 2.6560881421e+00 4.6004796115e+00 
143800 5.8218402839e+00 6.9685014179e-05 2.6560881421e+00 -4.6004796115e+00 2.6560881421e+00 4.6004796115e+00 
143900 5.8218402840e+00 6.9686995838e-05 2.6560881421e+00 -4.6004796115e+00 2.6560881421e+00 4.6004796115e+00 
144000 5.8218402840e+00 6.9689001809e-05 2.6560881421e+00 -4.6004796115e+00 2.6560881421e+00 4.6004796115e+00 
144100 5.8218402841e+00 6.9691043093e-05 2.6560881421e+00 -4.6004796115e+00 2.6560881421e+00 4.6004796115e+00 
144200 5.8218402841e+00 6.9693129987e-05 2.6560881421e+00 -4.6004796115e+00 2.6560881421e+00 4.6004796115e+00 
144300 5.8218402842e+00 6.9695272107e-05 2.6560881421e+00 -4.6004796115e+00 2.6560881421e+00 4.6004796115e+00 
144400 5.8218402842e+00 6.9697478411e-05 2.6560881421e+00 -4.6004796115e+00 2.6560881421e+00 4.6004796115e+00 
144500 5.8218402843e+00 6.9699757216e-05 2.6560881421e+00 -4.6004796115e+00 2.6560881421e+00 4.6004796115e+00 
144600 5.8218402843e+00 6.9702116220e-05 2.6560881421e+00 -4.6004796115e+00 2.6560881421e+00 4.6004796115e+00 
144700 5.8218402843e+00 6.9704562527e-05 2.6560881421e+00 -4.6004796115e+00 2.6560881421e+00 4.6004796115e+00 
144800 5.8218402844e+00 6.9707102657e-05 2.6560881421e+00 -4.6004796115e+00 2.6560881421e+00 4.6004796115e+00 
144900 5.8218402844e+00 6.9709742577e-05 2.6560881421e+00 -4.6004796115e+00 2.6560881421e+00 4.6004796115e+00 
145000 5.8218402845e+00 6.9712487714e-05 2.6560881421e+00 -4.6004796115e+00 2.6560881421e+00 4.6004796115e+00 
145100 5.8218402845e+00 6.9715342976e-05 2.6560881421e+00 -4.6004796115e+00 2.6560881421e+00 4.6004796115e+00 
145200 5.8218402846e+00 6.9718312774e-05 2.6560881421e+00 -4.6004796115e+00 2.6560881421e+00 4.6004796115e+00 
145300 5.8218402846e+00 6.9721401037e-05 2.6560881421e+00 -4.6004796115e+00 2.6560881421e+00 4.6004796115e+00 
145400 5.8218402847e+00 6.9724611234e-05 2.6560881421e+00 -4.6004796115e+00 2.6560881421e+00 4.6004796115e+00 
145500 5.8218402847e+00 6.9727946391e-05 2.6560881421e+00 -4.6004796115e+00 2.6560881421e+00 4.6004796115e+00 
145600 5.8218402847e+00 6.9731409110e-05 2.6560881421e+00 -4.6004796115e+00 2.6560881421e+00 4.6004796115e+00 
145700 5.8218402848e+00 6.9735001586e-05 2.6560881421e+00 -4.6004796115e+00 2.6560881421e+00 4.6004796115e+00 
145800 5.8218402848e+00 6.9738725627e-05 2.6560881421e+00 -4.6004796115e+00 2.6560881421e+00 4.6004796115e+00 
145900 5.8218402849e+00 6.9742582667e-05 2.6560881421e+00 -4.6004796115e+00 2.6560881421e+00 4.6004796115e+00 
146000 5.8218402849e+00 6.9746573788e-05 2.6560881421e+00 -4.6004796115e+00 2.6560881421e+00 4.6004796115e+00 
146100 5.8218402849e+00 6.9750699733e-05 2.6560881421e+00 -4.6004796115e+00 2.6560881421e+00 4.6004796115e+00 
146200 5.8218402850e+00 6.9754960922e-05 2.6560881421e+00 -4.6004796115e+00 2.6560881421e+00 4.6004796115e+00 
146300 5.8218402850e+00 6.9759357474e-05 2.6560881421e+00 -4.6004796115e+00 2.6560881421e+00 4.6004796115e+00 
146400 5.8218402851e+00 6.9763889215e-05 2.6560881421e+00 -4.6004796115e+00 2.6560881421e+00 4.6004796115e+00 
146500 5.8218402851e+00 6.9768555695e-05 2.6560881421e+00 -4.6004796115e+00 2.6560881421e+00 4.6004796115e+00 
146600 5.8218402851e+00 6.9773356206e-05 2.6560881421e+00 -4.6004796115e+00 2.6560881421e+00 4.6004796115e+00 
146700 5.8218402852e+00 6.9778289794e-05 2.6560881421e+00 -4.6004796115e+00 2.6560881421e+00 4.6004796115e+00 
146800 5.8218402852e+00 6.9783355275e-05 2.6560881421e+00 -4.6004796115e+00 2.6560881421e+00 4.6004796115e+00 
146900 5.8218402852e+00 6.9788551243e-05 2.6560881421e+00 -4.6004796115e+00 2.6560881421e+00 4.6004796115e+00 
147000 5.8218402853e+00 6.9789500255e-05 2.6560881421e+00 -4.6004796115e+00 2.6560881421e+00 4.6004796115e+00 
147000 5.8218402853e+00 6.9789500255e-05 2.6560881421e+00 -4.6004796115e+00 2.6560881421e+00 4.6004796115e+00 
