# step Hamiltonian StressXX CellTensor1 CellTensor2 CellTensor3 CellTensor4 
0 5.6234028532e+00 2.4793307940e-01 2.8237630504e+00 -4.8909010719e+00 2.8237630504e+00 4.8909010719e+00 
100 5.5676822713e+00 2.7010942814e-01 2.8237630504e+00 -4.8909010719e+00 2.8237630504e+00 4.8909010719e+00 
200 5.5206675659e+00 2.9139042894e-01 2.8189816108e+00 -4.8826193756e+00 2.8189816108e+00 4.8826193756e+00 
300 5.4821629714e+00 3.1175414235e-01 2.8138148296e+00 -4.8736702480e+00 2.8138148296e+00 4.8736702480e+00 
400 5.4512976083e+00 3.3132337983e-01 2.8082769448e+00 -4.8640783502e+00 2.8082769448e+00 4.8640783502e+00 
500 5.4272655364e+00 3.5024864616e-01 2.8023799634e+00 -4.8538644787e+00 2.8023799634e+00 4.8538644787e+00 
600 5.4093051961e+00 3.6869198453e-01 2.7961331627e+00 -4.8430447025e+00 2.7961331627e+00 4.8430447025e+00 
700 5.3966806615e+00 3.8680856469e-01 2.7895428694e+00 -4.8316299796e+00 2.7895428694e+00 4.8316299796e+00 
800 5.3886614920e+00 4.0472105476e-01 2.7826125594e+00 -4.8196263307e+00 2.7826125594e+00 4.8196263307e+00 
900 5.3844949205e+00 4.2247472361e-01 2.7753434140e+00 -4.8070358015e+00 2.7753434140e+00 4.8070358015e+00 
1000 5.3833589979e+00 4.3994782681e-01 2.7677356872e+00 -4.7938588322e+00 2.7677356872e+00 4.7938588322e+00 
1100 5.3842781555e+00 4.5667058763e-01 2.7597917086e+00 -4.7800994576e+00 2.7597917086e+00 4.7800994576e+00 
1200 5.3859794526e+00 4.7149069090e-01 2.7515222127e+00 -4.7657762705e+00 2.7515222127e+00 4.7657762705e+00 
1300 5.3866967428e+00 4.8209281214e-01 2.7429588576e+00 -4.7509441044e+00 2.7429588576e+00 4.7509441044e+00 
1400 5.3840657753e+00 4.8476278099e-01 2.7341757407e+00 -4.7357312997e+00 2.7341757407e+00 4.7357312997e+00 
1500 5.3755347302e+00 4.7559763367e-01 2.7253156669e+00 -4.7203852018e+00 2.7253156669e+00 4.7203852018e+00 
1600 5.3596671785e+00 4.5401906899e-01 2.7165947866e+00 -4.7052801940e+00 2.7165947866e+00 4.7052801940e+00 
1700 5.3373950141e+00 4.2520537308e-01 2.7082426837e+00 -4.6908139273e+00 2.7082426837e+00 4.6908139273e+00 
1800 5.3113703100e+00 3.9652629866e-01 2.7003962791e+00 -4.6772235559e+00 2.7003962791e+00 4.6772235559e+00 
1900 5.2840769359e+00 3.7218554438e-01 2.6930576131e+00 -4.6645126136e+00 2.6930576131e+00 4.6645126136e+00 
2000 5.2569359124e+00 3.5257681344e-01 2.6861504833e+00 -4.6525491138e+00 2.6861504833e+00 4.6525491138e+00 
2100 5.2305447780e+00 3.3647873189e-01 2.6795902981e+00 -4.6411865398e+00 2.6795902981e+00 4.6411865398e+00 
2200 5.2051064735e+00 3.2261030180e-01 2.6733142076e+00 -4.6303160322e+00 2.6733142076e+00 4.6303160322e+00 
2300 5.1806740328e+00 3.1008346335e-01 2.6672825809e+00 -4.6198689483e+00 2.6672825809e+00 4.6198689483e+00 
2400 5.1572493902e+00 2.9837315793e-01 2.6614719744e+00 -4.6098046826e+00 2.6614719744e+00 4.6098046826e+00 
2500 5.1348174929e+00 2.8719287047e-01 2.6558685301e+00 -4.6000992323e+00 2.6558685301e+00 4.6000992323e+00 
2600 5.1133572331e+00 2.7639417542e-01 2.6504636084e+00 -4.5907376333e+00 2.6504636084e+00 4.5907376333e+00 
2700 5.0928448258e+00 2.6590388596e-01 2.6452512490e+00 -4.5817095621e+00 2.6452512490e+00 4.5817095621e+00 
2800 5.0732548463e+00 2.5568833072e-01 2.6402267826e+00 -4.5730069310e+00 2.6402267826e+00 4.5730069310e+00 
2900 5.0545605874e+00 2.4573390572e-01 2.6353860994e+00 -4.5646226217e+00 2.6353860994e+00 4.5646226217e+00 
3000 5.0367342504e+00 2.3603671589e-01 2.6307252771e+00 -4.5565498407e+00 2.6307252771e+00 4.5565498407e+00 
3100 5.0197471199e+00 2.2659713926e-01 2.6262404014e+00 -4.5487818082e+00 2.6262404014e+00 4.5487818082e+00 
3200 5.0035697571e+00 2.1741702262e-01 2.6219274871e+00 -4.5413116214e+00 2.6219274871e+00 4.5413116214e+00 
3300 4.9881722111e+00 2.0849827622e-01 2.6177824519e+00 -4.5341322099e+00 2.6177824519e+00 4.5341322099e+00 
3400 4.9735242365e+00 1.9984220942e-01 2.6138011178e+00 -4.5272363369e+00 2.6138011178e+00 4.5272363369e+00 
3500 4.9595955082e+00 1.9144925612e-01 2.6099792237e+00 -4.5206166221e+00 2.6099792237e+00 4.5206166221e+00 
3600 4.9463558227e+00 1.8331890232e-01 2.6063124444e+00 -4.5142655741e+00 2.6063124444e+00 4.5142655741e+00 
3700 4.9337752808e+00 1.7544971498e-01 2.6027964112e+00 -4.5081756260e+00 2.6027964112e+00 4.5081756260e+00 
3800 4.9218244482e+00 1.6783941850e-01 2.5994267316e+00 -4.5023391697e+00 2.5994267316e+00 4.5023391697e+00 
3900 4.9104744918e+00 1.6048498990e-01 2.5961990077e+00 -4.4967485880e+00 2.5961990077e+00 4.4967485880e+00 
4000 4.8996972920e+00 1.5338275782e-01 2.5931088535e+00 -4.4913962838e+00 2.5931088535e+00 4.4913962838e+00 
4100 4.8894655324e+00 1.4652849777e-01 2.5901519092e+00 -4.4862747060e+00 2.5901519092e+00 4.4862747060e+00 
4200 4.8797527678e+00 1.3991752012e-01 2.5873238550e+00 -4.4813763725e+00 2.5873238550e+00 4.4813763725e+00 
4300 4.8705334743e+00 1.3354474955e-01 2.5846204222e+00 -4.4766938895e+00 2.5846204222e+00 4.4766938895e+00 
4400 4.8617830815e+00 1.2740479583e-01 2.5820374030e+00 -4.4722199691e+00 2.5820374030e+00 4.4722199691e+00 
4500 4.8534779913e+00 1.2149201647e-01 2.5795706594e+00 -4.4679474438e+00 2.5795706594e+00 4.4679474438e+00 
4600 4.8455955846e+00 1.1580057177e-01 2.5772161297e+00 -4.4638692787e+00 2.5772161297e+00 4.4638692787e+00 
4700 4.8381142178e+00 1.1032447325e-01 2.5749698351e+00 -4.4599785824e+00 2.5749698351e+00 4.4599785824e+00 
4800 4.8310132117e+00 1.0505762610e-01 2.5728278845e+00 -4.4562686151e+00 2.5728278845e+00 4.4562686151e+00 
4900 4.8242728336e+00 9.9993866468e-02 2.5707864786e+00 -4.4527327964e+00 2.5707864786e+00 4.4527327964e+00 
5000 4.8178742751e+00 9.5126994180e-02 2.5688419132e+00 -4.4493647103e+00 2.5688419132e+00 4.4493647103e+00 
5100 4.8117996257e+00 9.0450801439e-02 2.5669905817e+00 -4.4461581101e+00 2.5669905817e+00 4.4461581101e+00 
5200 4.8060318441e+00 8.5959098057e-02 2.5652289771e+00 -4.4431069215e+00 2.5652289771e+00 4.4431069215e+00 
5300 4.8005547275e+00 8.1645733560e-02 2.5635536933e+00 -4.4402052447e+00 2.5635536933e+00 4.4402052447e+00 
5400 4.7953528803e+00 7.7504616559e-02 2.5619614256e+00 -4.4374473561e+00 2.5619614256e+00 4.4374473561e+00 
5500 4.7904116817e+00 7.3529731660e-02 2.5604489714e+00 -4.4348277086e+00 2.5604489714e+00 4.4348277086e+00 
5600 4.7857172536e+00 6.9715154186e-02 2.5590132299e+00 -4.4323409314e+00 2.5590132299e+00 4.4323409314e+00 
5700 4.7812564286e+00 6.6055062913e-02 2.5576512017e+00 -4.4299818293e+00 2.5576512017e+00 4.4299818293e+00 
5800 4.7770167188e+00 6.2543751012e-02 2.5563599876e+00 -4.4277453810e+00 2.5563599876e+00 4.4277453810e+00 
5900 4.7729862849e+00 5.9175635362e-02 2.5551367882e+00 -4.4256267375e+00 2.5551367882e+00 4.4256267375e+00 
6000 4.7691539065e+00 5.5945264371e-02 2.5539789018e+00 -4.4236212194e+00 2.5539789018e+00 4.4236212194e+00 
6100 4.7655089534e+00 5.2847324438e-02 2.5528837232e+00 -4.4217243143e+00 2.5528837232e+00 4.4217243143e+00 
6200 4.7620413574e+00 4.9876645177e-02 2.5518487416e+00 -4.4199316737e+00 2.5518487416e+00 4.4199316737e+00 
6300 4.7587415858e+00 4.7028203499e-02 2.5508715391e+00 -4.4182391092e+00 2.5508715391e+00 4.4182391092e+00 
6400 4.7556006154e+00 4.4297126651e-02 2.5499497880e+00 -4.4166425896e+00 2.5499497880e+00 4.4166425896e+00 
6500 4.7526099079e+00 4.1678694314e-02 2.5490812491e+00 -4.4151382361e+00 2.5490812491e+00 4.4151382361e+00 
6600 4.7497613860e+00 3.9168339837e-02 2.5482637690e+00 -4.4137223190e+00 2.5482637690e+00 4.4137223190e+00 
6700 4.7470474111e+00 3.6761650686e-02 2.5474952777e+00 -4.4123912530e+00 2.5474952777e+00 4.4123912530e+00 
6800 4.7444607607e+00 3.4454368188e-02 2.5467737864e+00 -4.4111415934e+00 2.5467737864e+00 4.4111415934e+00 
6900 4.7419946086e+00 3.2242386648e-02 2.5460973847e+00 -4.4099700313e+00 2.5460973847e+00 4.4099700313e+00 
7000 4.7396425041e+00 3.0121751894e-02 2.5454642382e+00 -4.4088733895e+00 2.5454642382e+00 4.4088733895e+00 
7100 4.7373983534e+00 2.8088659322e-02 2.5448725861e+00 -4.4078486180e+00 2.5448725861e+00 4.4078486180e+00 
7200 4.7352564011e+00 2.6139451510e-02 2.5443207384e+00 -4.4068927897e+00 2.5443207384e+00 4.4068927897e+00 
7300 4.7332112128e+00 2.4270615437e-02 2.5438070734e+00 -4.4060030957e+00 2.5438070734e+00 4.4060030957e+00 
7400 4.7312576585e+00 2.2478779386e-02 2.5433300353e+00 -4.4051768415e+00 2.5433300353e+00 4.4051768415e+00 
7500 4.7293908967e+00 2.0760709560e-02 2.5428881318e+00 -4.4044114422e+00 2.5428881318e+00 4.4044114422e+00 
7600 4.7276063588e+00 1.9113306471e-02 2.5424799315e+00 -4.4037044186e+00 2.5424799315e+00 4.4037044186e+00 
7700 4.7258997349e+00 1.7533601139e-02 2.5421040616e+00 -4.4030533928e+00 2.5421040616e+00 4.4030533928e+00 
7800 4.7242669595e+00 1.6018751142e-02 2.5417592054e+00 -4.4024560844e+00 2.5417592054e+00 4.4024560844e+00 
7900 4.7227041986e+00 1.4566036558e-02 2.5414441004e+00 -4.4019103065e+00 2.5414441004e+00 4.4019103065e+00 
8000 4.7212078370e+00 1.3172855821e-02 2.5411575357e+00 -4.4014139619e+00 2.5411575357e+00 4.4014139619e+00 
8100 4.7197744656e+00 1.1836721537e-02 2.5408983501e+00 -4.4009650392e+00 2.5408983501e+00 4.4009650392e+00 
8200 4.7184008707e+00 1.0555256273e-02 2.5406654297e+00 -4.4005616092e+00 2.5406654297e+00 4.4005616092e+00 
8300 4.7170840225e+00 9.3261883476e-03 2.5404577063e+00 -4.4002018218e+00 2.5404577063e+00 4.4002018218e+00 
8400 4.7158210649e+00 8.1473476524e-03 2.5402741552e+00 -4.3998839020e+00 2.5402741552e+00 4.3998839020e+00 
8500 4.7146093052e+00 7.0166615118e-03 2.5401137933e+00 -4.3996061471e+00 2.5401137933e+00 4.3996061471e+00 
8600 4.7134462051e+00 5.9321506040e-03 2.5399756775e+00 -4.3993669234e+00 2.5399756775e+00 4.3993669234e+00 
8700 4.7123293715e+00 4.8919249568e-03 2.5398589027e+00 -4.3991646635e+00 2.5398589027e+00 4.3991646635e+00 
8800 4.7112565480e+00 3.8941800293e-03 2.5397626002e+00 -4.3989978627e+00 2.5397626002e+00 4.3989978627e+00 
8900 4.7102256068e+00 2.9371928905e-03 2.5396859363e+00 -4.3988650770e+00 2.5396859363e+00 4.3988650770e+00 
9000 4.7092345412e+00 2.0193185031e-03 2.5396281106e+00 -4.3987649200e+00 2.5396281106e+00 4.3987649200e+00 
9100 4.7082814581e+00 1.1389861187e-03 2.5395883546e+00 -4.3986960604e+00 2.5395883546e+00 4.3986960604e+00 
9200 4.7073645713e+00 2.9469579088e-04 2.5395659300e+00 -4.3986572199e+00 2.5395659300e+00 4.3986572199e+00 
9300 4.7064821953e+00 -5.1498499138e-04 2.5395601279e+00 -4.3986471704e+00 2.5395601279e+00 4.3986471704e+00 
9400 4.7056327387e+00 -1.2914245457e-03 2.5395702672e+00 -4.3986647321e+00 2.5395702672e+00 4.3986647321e+00 
9500 4.7048146988e+00 -2.0359301133e-03 2.5395956932e+00 -4.3987087714e+00 2.5395956932e+00 4.3987087714e+00 
9600 4.7040266559e+00 -2.7497508494e-03 2.5396357771e+00 -4.3987781986e+00 2.5396357771e+00 4.3987781986e+00 
9700 4.7032672686e+00 -3.4340806883e-03 2.5396899140e+00 -4.3988719665e+00 2.5396899140e+00 4.3988719665e+00 
9800 4.7025352686e+00 -4.0900610824e-03 2.5397575226e+00 -4.3989890680e+00 2.5397575226e+00 4.3989890680e+00 
9900 4.7018294562e+00 -4.7187836180e-03 2.5398380437e+00 -4.3991285347e+00 2.5398380437e+00 4.3991285347e+00 
10000 4.7011486965e+00 -5.3212925104e-03 2.5399309396e+00 -4.3992894351e+00 2.5399309396e+00 4.3992894351e+00 
10100 4.7004919147e+00 -5.8985869786e-03 2.5400356930e+00 -4.3994708734e+00 2.5400356930e+00 4.3994708734e+00 
10200 4.6998580930e+00 -6.4516235049e-03 2.5401518062e+00 -4.3996719873e+00 2.5401518062e+00 4.3996719873e+00 
10300 4.6992462667e+00 -6.9813179823e-03 2.5402788001e+00 -4.3998919472e+00 2.5402788001e+00 4.3998919472e+00 
10400 4.6986555213e+00 -7.4885477511e-03 2.5404162138e+00 -4.4001299547e+00 2.5404162138e+00 4.4001299547e+00 
10500 4.6980849890e+00 -7.9741535316e-03 2.5405636034e+00 -4.4003852410e+00 2.5405636034e+00 4.4003852410e+00 
10600 4.6975338459e+00 -8.4389412542e-03 2.5407205418e+00 -4.4006570662e+00 2.5407205418e+00 4.4006570662e+00 
10700 4.6970013096e+00 -8.8836837927e-03 2.5408866174e+00 -4.4009447175e+00 2.5408866174e+00 4.4009447175e+00 
10800 4.6964866365e+00 -9.3091226027e-03 2.5410614340e+00 -4.4012475088e+00 2.5410614340e+00 4.4012475088e+00 
10900 4.6959891194e+00 -9.7159692720e-03 2.5412446101e+00 -4.4015647792e+00 2.5412446101e+00 4.4015647792e+00 
11000 4.6955080853e+00 -1.0104906984e-02 2.5414357781e+00 -4.4018958918e+00 2.5414357781e+00 4.4018958918e+00 
11100 4.6950428936e+00 -1.0476591902e-02 2.5416345838e+00 -4.4022402334e+00 2.5416345838e+00 4.4022402334e+00 
11200 4.6945929338e+00 -1.0831654472e-02 2.5418406860e+00 -4.4025972130e+00 2.5418406860e+00 4.4025972130e+00 
11300 4.6941576240e+00 -1.1170700655e-02 2.5420537562e+00 -4.4029662612e+00 2.5420537562e+00 4.4029662612e+00 
11400 4.6937364091e+00 -1.1494313092e-02 2.5422734774e+00 -4.4033468295e+00 2.5422734774e+00 4.4033468295e+00 
11500 4.6933287595e+00 -1.1803052195e-02 2.5424995444e+00 -4.4037383891e+00 2.5424995444e+00 4.4037383891e+00 
11600 4.6929341692e+00 -1.2097457184e-02 2.5427316630e+00 -4.4041404304e+00 2.5427316630e+00 4.4041404304e+00 
11700 4.6925521548e+00 -1.2378047060e-02 2.5429695498e+00 -4.4045524624e+00 2.5429695498e+00 4.4045524624e+00 
11800 4.6921822541e+00 -1.2645321523e-02 2.5432129315e+00 -4.4049740118e+00 2.5432129315e+00 4.4049740118e+00 
11900 4.6918240251e+00 -1.2899761840e-02 2.5434615447e+00 -4.4054046226e+00 2.5434615447e+00 4.4054046226e+00 
12000 4.6914770446e+00 -1.3141831664e-02 2.5437151357e+00 -4.4058438550e+00 2.5437151357e+00 4.4058438550e+00 
12100 4.6911409075e+00 -1.3371977799e-02 2.5439734597e+00 -4.4062912853e+00 2.5439734597e+00 4.4062912853e+00 
12200 4.6908152255e+00 -1.3590630935e-02 2.5442362810e+00 -4.4067465051e+00 2.5442362810e+00 4.4067465051e+00 
12300 4.6904996265e+00 -1.3798206328e-02 2.5445033723e+00 -4.4072091209e+00 2.5445033723e+00 4.4072091209e+00 
12400 4.6901937538e+00 -1.3995104453e-02 2.5447745146e+00 -4.4076787532e+00 2.5447745146e+00 4.4076787532e+00 
12500 4.6898972650e+00 -1.4181711613e-02 2.5450494969e+00 -4.4081550364e+00 2.5450494969e+00 4.4081550364e+00 
12600 4.6896098316e+00 -1.4358400522e-02 2.5453281156e+00 -4.4086376182e+00 2.5453281156e+00 4.4086376182e+00 
12700 4.6893311380e+00 -1.4525530847e-02 2.5456101749e+00 -4.4091261591e+00 2.5456101749e+00 4.4091261591e+00 
12800 4.6890608812e+00 -1.4683449732e-02 2.5458954857e+00 -4.4096203320e+00 2.5458954857e+00 4.4096203320e+00 
12900 4.6887987699e+00 -1.4832492285e-02 2.5461838661e+00 -4.4101198215e+00 2.5461838661e+00 4.4101198215e+00 
13000 4.6885445243e+00 -1.4972982044e-02 2.5464751407e+00 -4.4106243239e+00 2.5464751407e+00 4.4106243239e+00 
13100 4.6882978753e+00 -1.5105231417e-02 2.5467691406e+00 -4.4111335467e+00 2.5467691406e+00 4.4111335467e+00 
13200 4.6880585638e+00 -1.5229542102e-02 2.5470657031e+00 -4.4116472081e+00 2.5470657031e+00 4.4116472081e+00 
13300 4.6878263408e+00 -1.5346205485e-02 2.5473646715e+00 -4.4121650364e+00 2.5473646715e+00 4.4121650364e+00 
13400 4.6876009666e+00 -1.5455503014e-02 2.5476658947e+00 -4.4126867703e+00 2.5476658947e+00 4.4126867703e+00 
13500 4.6873822104e+00 -1.5557706566e-02 2.5479692274e+00 -4.4132121580e+00 2.5479692274e+00 4.4132121580e+00 
13600 4.6871698500e+00 -1.5653078783e-02 2.5482745297e+00 -4.4137409571e+00 2.5482745297e+00 4.4137409571e+00 
13700 4.6869636713e+00 -1.5741873400e-02 2.5485816668e+00 -4.4142729342e+00 2.5485816668e+00 4.4142729342e+00 
13800 4.6867634682e+00 -1.5824335562e-02 2.5488905090e+00 -4.4148078646e+00 2.5488905090e+00 4.4148078646e+00 
13900 4.6865690421e+00 -1.5900702114e-02 2.5492009315e+00 -4.4153455320e+00 2.5492009315e+00 4.4153455320e+00 
14000 4.6863802015e+00 -1.5971201892e-02 2.5495128141e+00 -4.4158857285e+00 2.5495128141e+00 4.4158857285e+00 
14100 4.6861967619e+00 -1.6036055991e-02 2.5498260411e+00 -4.4164282537e+00 2.5498260411e+00 4.4164282537e+00 
14200 4.6860185456e+00 -1.6095478032e-02 2.5501405015e+00 -4.4169729151e+00 2.5501405015e+00 4.4169729151e+00 
14300 4.6858453809e+00 -1.6149674406e-02 2.5504560882e+00 -4.4175195273e+00 2.5504560882e+00 4.4175195273e+00 
14400 4.6856771027e+00 -1.6198844517e-02 2.5507726984e+00 -4.4180679123e+00 2.5507726984e+00 4.4180679123e+00 
14500 4.6855135513e+00 -1.6243181015e-02 2.5510902332e+00 -4.4186178986e+00 2.5510902332e+00 4.4186178986e+00 
14600 4.6853545731e+00 -1.6282870012e-02 2.5514085975e+00 -4.4191693217e+00 2.5514085975e+00 4.4191693217e+00 
14700 4.6852000196e+00 -1.6318091304e-02 2.5517276998e+00 -4.4197220232e+00 2.5517276998e+00 4.4197220232e+00 
14800 4.6850497479e+00 -1.6349018567e-02 2.5520474524e+00 -4.4202758509e+00 2.5520474524e+00 4.4202758509e+00 
14900 4.6849036197e+00 -1.6375819564e-02 2.5523677709e+00 -4.4208306589e+00 2.5523677709e+00 4.4208306589e+00 
15000 4.6847615019e+00 -1.6398656329e-02 2.5526885743e+00 -4.4213863066e+00 2.5526885743e+00 4.4213863066e+00 
15100 4.6846232660e+00 -1.6417685356e-02 2.5530097846e+00 -4.4219426592e+00 2.5530097846e+00 4.4219426592e+00 
15200 4.6844887878e+00 -1.6433057774e-02 2.5533313273e+00 -4.4224995874e+00 2.5533313273e+00 4.4224995874e+00 
15300 4.6843579477e+00 -1.6444919521e-02 2.5536531305e+00 -4.4230569669e+00 2.5536531305e+00 4.4230569669e+00 
15400 4.6842306301e+00 -1.6453411510e-02 2.5539751253e+00 -4.4236146784e+00 2.5539751253e+00 4.4236146784e+00 
15500 4.6841067235e+00 -1.6458669790e-02 2.5542972459e+00 -4.4241726075e+00 2.5542972459e+00 4.4241726075e+00 
15600 4.6839861201e+00 -1.6460825697e-02 2.5546194288e+00 -4.4247306446e+00 2.5546194288e+00 4.4247306446e+00 
15700 4.6838687162e+00 -1.6460006015e-02 2.5549416132e+00 -4.4252886844e+00 2.5549416132e+00 4.4252886844e+00 
15800 4.6837544112e+00 -1.6456333109e-02 2.5552637409e+00 -4.4258466260e+00 2.5552637409e+00 4.4258466260e+00 
15900 4.6836431084e+00 -1.6449925079e-02 2.5555857562e+00 -4.4264043728e+00 2.5555857562e+00 4.4264043728e+00 
16000 4.6835347142e+00 -1.6440895886e-02 2.5559076055e+00 -4.4269618322e+00 2.5559076055e+00 4.4269618322e+00 
16100 4.6834291383e+00 -1.6429355492e-02 2.5562292376e+00 -4.4275189154e+00 2.5562292376e+00 4.4275189154e+00 
16200 4.6833262935e+00 -1.6415409987e-02 2.5565506036e+00 -4.4280755375e+00 2.5565506036e+00 4.4280755375e+00 
16300 4.6832260955e+00 -1.6399161711e-02 2.5568716564e+00 -4.4286316172e+00 2.5568716564e+00 4.4286316172e+00 
16400 4.6831284630e+00 -1.6380709381e-02 2.5571923511e+00 -4.4291870768e+00 2.5571923511e+00 4.4291870768e+00 
16500 4.6830333175e+00 -1.6360148201e-02 2.5575126448e+00 -4.4297418417e+00 2.5575126448e+00 4.4297418417e+00 
16600 4.6829405831e+00 -1.6337569982e-02 2.5578324963e+00 -4.4302958409e+00 2.5578324963e+00 4.4302958409e+00 
16700 4.6828501864e+00 -1.6313063251e-02 2.5581518665e+00 -4.4308490063e+00 2.5581518665e+00 4.4308490063e+00 
16800 4.6827620568e+00 -1.6286713358e-02 2.5584707179e+00 -4.4314012730e+00 2.5584707179e+00 4.4314012730e+00 
16900 4.6826761257e+00 -1.6258602577e-02 2.5587890145e+00 -4.4319525789e+00 2.5587890145e+00 4.4319525789e+00 
17000 4.6825923271e+00 -1.6228810214e-02 2.5591067222e+00 -4.4325028648e+00 2.5591067222e+00 4.4325028648e+00 
17100 4.6825105971e+00 -1.6197412700e-02 2.5594238083e+00 -4.4330520741e+00 2.5594238083e+00 4.4330520741e+00 
17200 4.6824308742e+00 -1.6164483685e-02 2.5597402418e+00 -4.4336001529e+00 2.5597402418e+00 4.4336001529e+00 
17300 4.6823530986e+00 -1.6130094137e-02 2.5600559929e+00 -4.4341470498e+00 2.5600559929e+00 4.4341470498e+00 
17400 4.6822772127e+00 -1.6094312424e-02 2.5603710333e+00 -4.4346927159e+00 2.5603710333e+00 4.4346927159e+00 
17500 4.6822031609e+00 -1.6057204406e-02 2.5606853362e+00 -4.4352371046e+00 2.5606853362e+00 4.4352371046e+00 
17600 4.6821308893e+00 -1.6018833516e-02 2.5609988760e+00 -4.4357801713e+00 2.5609988760e+00 4.4357801713e+00 
17700 4.6820603460e+00 -1.5979260845e-02 2.5613116282e+00 -4.4363218740e+00 2.5613116282e+00 4.4363218740e+00 
17800 4.6819914806e+00 -1.5938545220e-02 2.5616235696e+00 -4.4368621724e+00 2.5616235696e+00 4.4368621724e+00 
17900 4.6819242445e+00 -1.5896743279e-02 2.5619346783e+00 -4.4374010285e+00 2.5619346783e+00 4.4374010285e+00 
18000 4.6818585907e+00 -1.5853909549e-02 2.5622449334e+00 -4.4379384060e+00 2.5622449334e+00 4.4379384060e+00 
18100 4.6817944738e+00 -1.5810096515e-02 2.5625543150e+00 -4.4384742707e+00 2.5625543150e+00 4.4384742707e+00 
18200 4.6817318498e+00 -1.5765354695e-02 2.5628628043e+00 -4.4390085899e+00 2.5628628043e+00 4.4390085899e+00 
18300 4.6816706761e+00 -1.5719732700e-02 2.5631703836e+00 -4.4395413328e+00 2.5631703836e+00 4.4395413328e+00 
18400 4.6816109117e+00 -1.5673277309e-02 2.5634770360e+00 -4.4400724703e+00 2.5634770360e+00 4.4400724703e+00 
18500 4.6815525168e+00 -1.5626033527e-02 2.5637827455e+00 -4.4406019748e+00 2.5637827455e+00 4.4406019748e+00 
18600 4.6814954529e+00 -1.5578044646e-02 2.5640874972e+00 -4.4411298203e+00 2.5640874972e+00 4.4411298203e+00 
18700 4.6814396827e+00 -1.5529352309e-02 2.5643912769e+00 -4.4416559820e+00 2.5643912769e+00 4.4416559820e+00 
18800 4.6813851703e+00 -1.5479996568e-02 2.5646940711e+00 -4.4421804370e+00 2.5646940711e+00 4.4421804370e+00 
18900 4.6813318807e+00 -1.5430015934e-02 2.5649958673e+00 -4.4427031635e+00 2.5649958673e+00 4.4427031635e+00 
19000 4.6812797803e+00 -1.5379447439e-02 2.5652966537e+00 -4.4432241408e+00 2.5652966537e+00 4.4432241408e+00 
19100 4.6812288362e+00 -1.5328326683e-02 2.5655964192e+00 -4.4437433498e+00 2.5655964192e+00 4.4437433498e+00 
19200 4.6811790171e+00 -1.5276687888e-02 2.5658951533e+00 -4.4442607725e+00 2.5658951533e+00 4.4442607725e+00 
19300 4.6811302921e+00 -1.5224563946e-02 2.5661928464e+00 -4.4447763920e+00 2.5661928464e+00 4.4447763920e+00 
19400 4.6810826316e+00 -1.5171986466e-02 2.5664894893e+00 -4.4452901925e+00 2.5664894893e+00 4.4452901925e+00 
19500 4.6810360071e+00 -1.5118985821e-02 2.5667850735e+00 -4.4458021595e+00 2.5667850735e+00 4.4458021595e+00 
19600 4.6809903905e+00 -1.5065591195e-02 2.5670795913e+00 -4.4463122792e+00 2.5670795913e+00 4.4463122792e+00 
19700 4.6809457551e+00 -1.5011830619e-02 2.5673730352e+00 -4.4468205390e+00 2.5673730352e+00 4.4468205390e+00 
19800 4.6809020747e+00 -1.4957731022e-02 2.5676653986e+00 -4.4473269271e+00 2.5676653986e+00 4.4473269271e+00 
19900 4.6808593240e+00 -1.4903318261e-02 2.5679566751e+00 -4.4478314329e+00 2.5679566751e+00 4.4478314329e+00 
20000 4.6808174786e+00 -1.4848617170e-02 2.5682468591e+00 -4.4483340463e+00 2.5682468591e+00 4.4483340463e+00 
20100 4.6807765146e+00 -1.4793651589e-02 2.5685359453e+00 -4.4488347584e+00 2.5685359453e+00 4.4488347584e+00 
20200 4.6807364092e+00 -1.4738444406e-02 2.5688239290e+00 -4.4493335607e+00 2.5688239290e+00 4.4493335607e+00 
20300 4.6806971399e+00 -1.4683017589e-02 2.5691108058e+00 -4.4498304459e+00 2.5691108058e+00 4.4498304459e+00 
20400 4.6806586851e+00 -1.4627392222e-02 2.5693965717e+00 -4.4503254071e+00 2.5693965717e+00 4.4503254071e+00 
20500 4.6806210239e+00 -1.4571588536e-02 2.5696812235e+00 -4.4508184383e+00 2.5696812235e+00 4.4508184383e+00 
20600 4.6805841360e+00 -1.4515625939e-02 2.5699647578e+00 -4.4513095341e+00 2.5699647578e+00 4.4513095341e+00 
20700 4.6805480016e+00 -1.4459523052e-02 2.5702471720e+00 -4.4517986899e+00 2.5702471720e+00 4.4517986899e+00 
20800 4.6805126016e+00 -1.4403297731e-02 2.5705284637e+00 -4.4522859015e+00 2.5705284637e+00 4.4522859015e+00 
20900 4.6804779174e+00 -1.4346967101e-02 2.5708086310e+00 -4.4527711655e+00 2.5708086310e+00 4.4527711655e+00 
21000 4.6804439310e+00 -1.4290547582e-02 2.5710876722e+00 -4.4532544789e+00 2.5710876722e+00 4.4532544789e+00 
21100 4.6804106250e+00 -1.4234054913e-02 2.5713655858e+00 -4.4537358394e+00 2.5713655858e+00 4.4537358394e+00 
21200 4.6803779824e+00 -1.4177504182e-02 2.5716423708e+00 -4.4542152451e+00 2.5716423708e+00 4.4542152451e+00 
21300 4.6803459867e+00 -1.4120909843e-02 2.5719180265e+00 -4.4546926948e+00 2.5719180265e+00 4.4546926948e+00 
21400 4.6803146220e+00 -1.4064285749e-02 2.5721925524e+00 -4.4551681876e+00 2.5721925524e+00 4.4551681876e+00 
21500 4.6802838728e+00 -1.4007645168e-02 2.5724659482e+00 -4.4556417230e+00 2.5724659482e+00 4.4556417230e+00 
21600 4.6802537239e+00 -1.3951000806e-02 2.5727382141e+00 -4.4561133013e+00 2.5727382141e+00 4.4561133013e+00 
21700 4.6802241608e+00 -1.3894364832e-02 2.5730093502e+00 -4.4565829229e+00 2.5730093502e+00 4.4565829229e+00 
21800 4.6801951692e+00 -1.3837748894e-02 2.5732793571e+00 -4.4570505886e+00 2.5732793571e+00 4.4570505886e+00 
21900 4.6801667355e+00 -1.3781164140e-02 2.5735482356e+00 -4.4575162998e+00 2.5735482356e+00 4.4575162998e+00 
22000 4.6801388460e+00 -1.3724621237e-02 2.5738159866e+00 -4.4579800582e+00 2.5738159866e+00 4.4579800582e+00 
22100 4.6801114879e+00 -1.3668130391e-02 2.5740826113e+00 -4.4584418657e+00 2.5740826113e+00 4.4584418657e+00 
22200 4.6800846485e+00 -1.3611701363e-02 2.5743481111e+00 -4.4589017248e+00 2.5743481111e+00 4.4589017248e+00 
22300 4.6800583155e+00 -1.3555343484e-02 2.5746124874e+00 -4.4593596380e+00 2.5746124874e+00 4.4593596380e+00 
22400 4.6800324769e+00 -1.3499065675e-02 2.5748757421e+00 -4.4598156084e+00 2.5748757421e+00 4.4598156084e+00 
22500 4.6800071211e+00 -1.3442876461e-02 2.5751378769e+00 -4.4602696394e+00 2.5751378769e+00 4.4602696394e+00 
22600 4.6799822369e+00 -1.3386783986e-02 2.5753988941e+00 -4.4607217344e+00 2.5753988941e+00 4.4607217344e+00 
22700 4.6799578131e+00 -1.3330796027e-02 2.5756587958e+00 -4.4611718972e+00 2.5756587958e+00 4.4611718972e+00 
22800 4.6799338392e+00 -1.3274920009e-02 2.5759175843e+00 -4.4616201321e+00 2.5759175843e+00 4.4616201321e+00 
22900 4.6799103048e+00 -1.3219163020e-02 2.5761752622e+00 -4.4620664434e+00 2.5761752622e+00 4.4620664434e+00 
23000 4.6798871997e+00 -1.3163531820e-02 2.5764318322e+00 -4.4625108355e+00 2.5764318322e+00 4.4625108355e+00 
23100 4.6798645142e+00 -1.3108032856e-02 2.5766872969e+00 -4.4629533134e+00 2.5766872969e+00 4.4629533134e+00 
23200 4.6798422386e+00 -1.3052672275e-02 2.5769416593e+00 -4.4633938821e+00 2.5769416593e+00 4.4633938821e+00 
23300 4.6798203637e+00 -1.2997455933e-02 2.5771949224e+00 -4.4638325467e+00 2.5771949224e+00 4.4638325467e+00 
23400 4.6797988805e+00 -1.2942389410e-02 2.5774470894e+00 -4.4642693126e+00 2.5774470894e+00 4.4642693126e+00 
23500 4.6797777800e+00 -1.2887478014e-02 2.5776981634e+00 -4.4647041856e+00 2.5776981634e+00 4.4647041856e+00 
23600 4.6797570538e+00 -1.2832726800e-02 2.5779481478e+00 -4.4651371713e+00 2.5779481478e+00 4.4651371713e+00 
23700 4.6797366935e+00 -1.2778140574e-02 2.5781970460e+00 -4.4655682756e+00 2.5781970460e+00 4.4655682756e+00 
23800 4.6797166909e+00 -1.2723723902e-02 2.5784448615e+00 -4.4659975047e+00 2.5784448615e+00 4.4659975047e+00 
23900 4.6796970382e+00 -1.2669481124e-02 2.5786915980e+00 -4.4664248648e+00 2.5786915980e+00 4.4664248648e+00 
24000 4.6796777277e+00 -1.2615416359e-02 2.5789372590e+00 -4.4668503622e+00 2.5789372590e+00 4.4668503622e+00 
24100 4.6796587518e+00 -1.2561533515e-02 2.5791818485e+00 -4.4672740035e+00 2.5791818485e+00 4.4672740035e+00 
24200 4.6796401032e+00 -1.2507836297e-02 2.5794253701e+00 -4.4676957953e+00 2.5794253701e+00 4.4676957953e+00 
24300 4.6796217749e+00 -1.2454328214e-02 2.5796678278e+00 -4.4681157444e+00 2.5796678278e+00 4.4681157444e+00 
24400 4.6796037598e+00 -1.2401012588e-02 2.5799092256e+00 -4.4685338577e+00 2.5799092256e+00 4.4685338577e+00 
24500 4.6795860514e+00 -1.2347892560e-02 2.5801495675e+00 -4.4689501420e+00 2.5801495675e+00 4.4689501420e+00 
24600 4.6795686429e+00 -1.2294971099e-02 2.5803888576e+00 -4.4693646046e+00 2.5803888576e+00 4.4693646046e+00 
24700 4.6795515279e+00 -1.2242251005e-02 2.5806271000e+00 -4.4697772525e+00 2.5806271000e+00 4.4697772525e+00 
24800 4.6795347002e+00 -1.2189734921e-02 2.5808642989e+00 -4.4701880931e+00 2.5808642989e+00 4.4701880931e+00 
24900 4.6795181538e+00 -1.2137425334e-02 2.5811004585e+00 -4.4705971336e+00 2.5811004585e+00 4.4705971336e+00 
25000 4.6795018826e+00 -1.2085324582e-02 2.5813355832e+00 -4.4710043815e+00 2.5813355832e+00 4.4710043815e+00 
25100 4.6794858810e+00 -1.2033434865e-02 2.5815696773e+00 -4.4714098444e+00 2.5815696773e+00 4.4714098444e+00 
25200 4.6794701432e+00 -1.1981758243e-02 2.5818027451e+00 -4.4718135297e+00 2.5818027451e+00 4.4718135297e+00 
25300 4.6794546637e+00 -1.1930296645e-02 2.5820347911e+00 -4.4722154451e+00 2.5820347911e+00 4.4722154451e+00 
25400 4.6794394372e+00 -1.1879051875e-02 2.5822658196e+00 -4.4726155982e+00 2.5822658196e+00 4.4726155982e+00 
25500 4.6794244585e+00 -1.1828025617e-02 2.5824958352e+00 -4.4730139969e+00 2.5824958352e+00 4.4730139969e+00 
25600 4.6794097225e+00 -1.1777219436e-02 2.5827248424e+00 -4.4734106489e+00 2.5827248424e+00 4.4734106489e+00 
25700 4.6793952241e+00 -1.1726634787e-02 2.5829528456e+00 -4.4738055621e+00 2.5829528456e+00 4.4738055621e+00 
25800 4.6793809586e+00 -1.1676273018e-02 2.5831798495e+00 -4.4741987444e+00 2.5831798495e+00 4.4741987444e+00 
25900 4.6793669211e+00 -1.1626135373e-02 2.5834058586e+00 -4.4745902037e+00 2.5834058586e+00 4.4745902037e+00 
26000 4.6793531072e+00 -1.1576222996e-02 2.5836308775e+00 -4.4749799479e+00 2.5836308775e+00 4.4749799479e+00 
26100 4.6793395122e+00 -1.1526536938e-02 2.5838549109e+00 -4.4753679850e+00 2.5838549109e+00 4.4753679850e+00 
26200 4.6793261318e+00 -1.1477078157e-02 2.5840779633e+00 -4.4757543232e+00 2.5840779633e+00 4.4757543232e+00 
26300 4.6793129616e+00 -1.1427847525e-02 2.5843000395e+00 -4.4761389704e+00 2.5843000395e+00 4.4761389704e+00 
26400 4.6792999976e+00 -1.1378845828e-02 2.5845211440e+00 -4.4765219347e+00 2.5845211440e+00 4.4765219347e+00 
26500 4.6792872355e+00 -1.1330073772e-02 2.5847412817e+00 -4.4769032243e+00 2.5847412817e+00 4.4769032243e+00 
26600 4.6792746715e+00 -1.1281531985e-02 2.5849604571e+00 -4.4772828472e+00 2.5849604571e+00 4.4772828472e+00 
26700 4.6792623016e+00 -1.1233221021e-02 2.5851786749e+00 -4.4776608116e+00 2.5851786749e+00 4.4776608116e+00 
26800 4.6792501220e+00 -1.1185141362e-02 2.5853959400e+00 -4.4780371257e+00 2.5853959400e+00 4.4780371257e+00 
26900 4.6792381289e+00 -1.1137293421e-02 2.5856122569e+00 -4.4784117976e+00 2.5856122569e+00 4.4784117976e+00 
27000 4.6792263189e+00 -1.1089677546e-02 2.5858276304e+00 -4.4787848354e+00 2.5858276304e+00 4.4787848354e+00 
27100 4.6792146883e+00 -1.1042294021e-02 2.5860420652e+00 -4.4791562475e+00 2.5860420652e+00 4.4791562475e+00 
27200 4.6792032336e+00 -1.0995143069e-02 2.5862555661e+00 -4.4795260419e+00 2.5862555661e+00 4.4795260419e+00 
27300 4.6791919516e+00 -1.0948224857e-02 2.5864681378e+00 -4.4798942268e+00 2.5864681378e+00 4.4798942268e+00 
27400 4.6791808388e+00 -1.0901539492e-02 2.5866797850e+00 -4.4802608105e+00 2.5866797850e+00 4.4802608105e+00 
27500 4.6791698921e+00 -1.0855087032e-02 2.5868905124e+00 -4.4806258011e+00 2.5868905124e+00 4.4806258011e+00 
27600 4.6791591083e+00 -1.0808867481e-02 2.5871003248e+00 -4.4809892068e+00 2.5871003248e+00 4.4809892068e+00 
27700 4.6791484843e+00 -1.0762880793e-02 2.5873092269e+00 -4.4813510359e+00 2.5873092269e+00 4.4813510359e+00 
27800 4.6791380171e+00 -1.0717126877e-02 2.5875172234e+00 -4.4817112964e+00 2.5875172234e+00 4.4817112964e+00 
27900 4.6791277039e+00 -1.0671605596e-02 2.5877243190e+00 -4.4820699965e+00 2.5877243190e+00 4.4820699965e+00 
28000 4.6791175416e+00 -1.0626316769e-02 2.5879305185e+00 -4.4824271445e+00 2.5879305185e+00 4.4824271445e+00 
28100 4.6791075276e+00 -1.0581260173e-02 2.5881358265e+00 -4.4827827484e+00 2.5881358265e+00 4.4827827484e+00 
28200 4.6790976590e+00 -1.0536435546e-02 2.5883402477e+00 -4.4831368164e+00 2.5883402477e+00 4.4831368164e+00 
28300 4.6790879332e+00 -1.0491842588e-02 2.5885437869e+00 -4.4834893566e+00 2.5885437869e+00 4.4834893566e+00 
28400 4.6790783475e+00 -1.0447480963e-02 2.5887464487e+00 -4.4838403771e+00 2.5887464487e+00 4.4838403771e+00 
28500 4.6790688994e+00 -1.0403350297e-02 2.5889482378e+00 -4.4841898861e+00 2.5889482378e+00 4.4841898861e+00 
28600 4.6790595865e+00 -1.0359450187e-02 2.5891491589e+00 -4.4845378916e+00 2.5891491589e+00 4.4845378916e+00 
28700 4.6790504061e+00 -1.0315780194e-02 2.5893492166e+00 -4.4848844017e+00 2.5893492166e+00 4.4848844017e+00 
28800 4.6790413560e+00 -1.0272339850e-02 2.5895484155e+00 -4.4852294244e+00 2.5895484155e+00 4.4852294244e+00 
28900 4.6790324338e+00 -1.0229128658e-02 2.5897467604e+00 -4.4855729677e+00 2.5897467604e+00 4.4855729677e+00 
29000 4.6790236371e+00 -1.0186146092e-02 2.5899442557e+00 -4.4859150397e+00 2.5899442557e+00 4.4859150397e+00 
29100 4.6790149638e+00 -1.0143391600e-02 2.5901409062e+00 -4.4862556483e+00 2.5901409062e+00 4.4862556483e+00 
29200 4.6790064117e+00 -1.0100864604e-02 2.5903367164e+00 -4.4865948015e+00 2.5903367164e+00 4.4865948015e+00 
29300 4.6789979786e+00 -1.0058564502e-02 2.5905316909e+00 -4.4869325072e+00 2.5905316909e+00 4.4869325072e+00 
29400 4.6789896623e+00 -1.0016490667e-02 2.5907258342e+00 -4.4872687733e+00 2.5907258342e+00 4.4872687733e+00 
29500 4.6789814610e+00 -9.9746424529e-03 2.5909191510e+00 -4.4876036078e+00 2.5909191510e+00 4.4876036078e+00 
29600 4.6789733724e+00 -9.9330191887e-03 2.5911116457e+00 -4.4879370185e+00 2.5911116457e+00 4.4879370185e+00 
29700 4.6789653948e+00 -9.8916201852e-03 2.5913033229e+00 -4.4882690132e+00 2.5913033229e+00 4.4882690132e+00 
29800 4.6789575260e+00 -9.8504447334e-03 2.5914941872e+00 -4.4885995997e+00 2.5914941872e+00 4.4885995997e+00 
29900 4.6789497644e+00 -9.8094921060e-03 2.5916842429e+00 -4.4889287858e+00 2.5916842429e+00 4.4889287858e+00 
30000 4.6789421079e+00 -9.7687615579e-03 2.5918734945e+00 -4.4892565793e+00 2.5918734945e+00 4.4892565793e+00 
30100 4.6789345549e+00 -9.7282523274e-03 2.5920619466e+00 -4.4895829879e+00 2.5920619466e+00 4.4895829879e+00 
30200 4.6789271034e+00 -9.6879636370e-03 2.5922496036e+00 -4.4899080193e+00 2.5922496036e+00 4.4899080193e+00 
30300 4.6789197519e+00 -9.6478946942e-03 2.5924364699e+00 -4.4902316812e+00 2.5924364699e+00 4.4902316812e+00 
30400 4.6789124986e+00 -9.6080446918e-03 2.5926225498e+00 -4.4905539812e+00 2.5926225498e+00 4.4905539812e+00 
30500 4.6789053418e+00 -9.5684128093e-03 2.5928078479e+00 -4.4908749268e+00 2.5928078479e+00 4.4908749268e+00 
30600 4.6788982800e+00 -9.5289982132e-03 2.5929923684e+00 -4.4911945258e+00 2.5929923684e+00 4.4911945258e+00 
30700 4.6788913115e+00 -9.4898000579e-03 2.5931761158e+00 -4.4915127856e+00 2.5931761158e+00 4.4915127856e+00 
30800 4.6788844347e+00 -9.4508174861e-03 2.5933590944e+00 -4.4918297137e+00 2.5933590944e+00 4.4918297137e+00 
30900 4.6788776482e+00 -9.4120496295e-03 2.5935413084e+00 -4.4921453177e+00 2.5935413084e+00 4.4921453177e+00 
31000 4.6788709504e+00 -9.3734956096e-03 2.5937227622e+00 -4.4924596049e+00 2.5937227622e+00 4.4924596049e+00 
31100 4.6788643399e+00 -9.3351545382e-03 2.5939034601e+00 -4.4927725828e+00 2.5939034601e+00 4.4927725828e+00 
31200 4.6788578152e+00 -9.2970255177e-03 2.5940834063e+00 -4.4930842588e+00 2.5940834063e+00 4.4930842588e+00 
31300 4.6788513750e+00 -9.2591076421e-03 2.5942626051e+00 -4.4933946402e+00 2.5942626051e+00 4.4933946402e+00 
31400 4.6788450178e+00 -9.2213999970e-03 2.5944410607e+00 -4.4937037344e+00 2.5944410607e+00 4.4937037344e+00 
31500 4.6788387423e+00 -9.1839016606e-03 2.5946187773e+00 -4.4940115486e+00 2.5946187773e+00 4.4940115486e+00 
31600 4.6788325472e+00 -9.1466117038e-03 2.5947957591e+00 -4.4943180901e+00 2.5947957591e+00 4.4943180901e+00 
31700 4.6788264311e+00 -9.1095291910e-03 2.5949720103e+00 -4.4946233660e+00 2.5949720103e+00 4.4946233660e+00 
31800 4.6788203928e+00 -9.0726531803e-03 2.5951475349e+00 -4.4949273837e+00 2.5951475349e+00 4.4949273837e+00 
31900 4.6788144311e+00 -9.0359827239e-03 2.5953223372e+00 -4.4952301501e+00 2.5953223372e+00 4.4952301501e+00 
32000 4.6788085448e+00 -8.9995168688e-03 2.5954964213e+00 -4.4955316725e+00 2.5954964213e+00 4.4955316725e+00 
32100 4.6788027325e+00 -8.9632546569e-03 2.5956697911e+00 -4.4958319579e+00 2.5956697911e+00 4.4958319579e+00 
32200 4.6787969932e+00 -8.9271951255e-03 2.5958424509e+00 -4.4961310134e+00 2.5958424509e+00 4.4961310134e+00 
32300 4.6787913258e+00 -8.8913373079e-03 2.5960144046e+00 -4.4964288459e+00 2.5960144046e+00 4.4964288459e+00 
32400 4.6787857289e+00 -8.8556802332e-03 2.5961856562e+00 -4.4967254625e+00 2.5961856562e+00 4.4967254625e+00 
32500 4.6787802017e+00 -8.8202229272e-03 2.5963562098e+00 -4.4970208700e+00 2.5963562098e+00 4.4970208700e+00 
32600 4.6787747429e+00 -8.7849644125e-03 2.5965260694e+00 -4.4973150754e+00 2.5965260694e+00 4.4973150754e+00 
32700 4.6787693515e+00 -8.7499037089e-03 2.5966952389e+00 -4.4976080856e+00 2.5966952389e+00 4.4976080856e+00 
32800 4.6787640265e+00 -8.7150398335e-03 2.5968637223e+00 -4.4978999073e+00 2.5968637223e+00 4.4978999073e+00 
32900 4.6787587669e+00 -8.6803718012e-03 2.5970315234e+00 -4.4981905474e+00 2.5970315234e+00 4.4981905474e+00 
33000 4.6787535715e+00 -8.6458986250e-03 2.5971986462e+00 -4.4984800126e+00 2.5971986462e+00 4.4984800126e+00 
33100 4.6787484395e+00 -8.6116193162e-03 2.5973650946e+00 -4.4987683097e+00 2.5973650946e+00 4.4987683097e+00 
33200 4.6787433699e+00 -8.5775328845e-03 2.5975308724e+00 -4.4990554453e+00 2.5975308724e+00 4.4990554453e+00 
33300 4.6787383617e+00 -8.5436383386e-03 2.5976959836e+00 -4.4993414261e+00 2.5976959836e+00 4.4993414261e+00 
33400 4.6787334140e+00 -8.5099346863e-03 2.5978604317e+00 -4.4996262588e+00 2.5978604317e+00 4.4996262588e+00 
33500 4.6787285258e+00 -8.4764209345e-03 2.5980242208e+00 -4.4999099498e+00 2.5980242208e+00 4.4999099498e+00 
33600 4.6787236964e+00 -8.4430960898e-03 2.5981873546e+00 -4.5001925058e+00 2.5981873546e+00 4.5001925058e+00 
33700 4.6787189247e+00 -8.4099591586e-03 2.5983498368e+00 -4.5004739332e+00 2.5983498368e+00 4.5004739332e+00 
33800 4.6787142100e+00 -8.3770091472e-03 2.5985116712e+00 -4.5007542386e+00 2.5985116712e+00 4.5007542386e+00 
33900 4.6787095513e+00 -8.3442450618e-03 2.5986728615e+00 -4.5010334283e+00 2.5986728615e+00 4.5010334283e+00 
34000 4.6787049479e+00 -8.3116659095e-03 2.5988334113e+00 -4.5013115088e+00 2.5988334113e+00 4.5013115088e+00 
34100 4.6787003989e+00 -8.2792706975e-03 2.5989933244e+00 -4.5015884864e+00 2.5989933244e+00 4.5015884864e+00 
34200 4.6786959036e+00 -8.2470584339e-03 2.5991526045e+00 -4.5018643676e+00 2.5991526045e+00 4.5018643676e+00 
34300 4.6786914610e+00 -8.2150281277e-03 2.5993112551e+00 -4.5021391585e+00 2.5993112551e+00 4.5021391585e+00 
34400 4.6786870706e+00 -8.1831787889e-03 2.5994692798e+00 -4.5024128654e+00 2.5994692798e+00 4.5024128654e+00 
34500 4.6786827314e+00 -8.1515094289e-03 2.5996266824e+00 -4.5026854946e+00 2.5996266824e+00 4.5026854946e+00 
34600 4.6786784428e+00 -8.1200190602e-03 2.5997834663e+00 -4.5029570522e+00 2.5997834663e+00 4.5029570522e+00 
34700 4.6786742040e+00 -8.0887066970e-03 2.5999396350e+00 -4.5032275445e+00 2.5999396350e+00 4.5032275445e+00 
34800 4.6786700142e+00 -8.0575713553e-03 2.6000951923e+00 -4.5034969775e+00 2.6000951923e+00 4.5034969775e+00 
34900 4.6786658729e+00 -8.0266120526e-03 2.6002501414e+00 -4.5037653573e+00 2.6002501414e+00 4.5037653573e+00 
35000 4.6786617793e+00 -7.9958278085e-03 2.6004044860e+00 -4.5040326900e+00 2.6004044860e+00 4.5040326900e+00 
35100 4.6786577326e+00 -7.9652176448e-03 2.6005582295e+00 -4.5042989816e+00 2.6005582295e+00 4.5042989816e+00 
35200 4.6786537323e+00 -7.9347805851e-03 2.6007113754e+00 -4.5045642381e+00 2.6007113754e+00 4.5045642381e+00 
35300 4.6786497777e+00 -7.9045156558e-03 2.6008639271e+00 -4.5048284653e+00 2.6008639271e+00 4.5048284653e+00 
35400 4.6786458681e+00 -7.8744218852e-03 2.6010158880e+00 -4.5050916693e+00 2.6010158880e+00 4.5050916693e+00 
35500 4.6786420029e+00 -7.8444983045e-03 2.6011672615e+00 -4.5053538560e+00 2.6011672615e+00 4.5053538560e+00 
35600 4.6786381815e+00 -7.8147439474e-03 2.6013180510e+00 -4.5056150310e+00 2.6013180510e+00 4.5056150310e+00 
35700 4.6786344032e+00 -7.7851578502e-03 2.6014682599e+00 -4.5058752004e+00 2.6014682599e+00 4.5058752004e+00 
35800 4.6786306674e+00 -7.7557390521e-03 2.6016178914e+00 -4.5061343697e+00 2.6016178914e+00 4.5061343697e+00 
35900 4.6786269736e+00 -7.7264865952e-03 2.6017669489e+00 -4.5063925449e+00 2.6017669489e+00 4.5063925449e+00 
36000 4.6786233212e+00 -7.6973995245e-03 2.6019154357e+00 -4.5066497316e+00 2.6019154357e+00 4.5066497316e+00 
36100 4.6786197096e+00 -7.6684768883e-03 2.6020633550e+00 -4.5069059354e+00 2.6020633550e+00 4.5069059354e+00 
36200 4.6786161381e+00 -7.6397177377e-03 2.6022107102e+00 -4.5071611620e+00 2.6022107102e+00 4.5071611620e+00 
36300 4.6786126064e+00 -7.6111211273e-03 2.6023575044e+00 -4.5074154170e+00 2.6023575044e+00 4.5074154170e+00 
36400 4.6786091138e+00 -7.5826861149e-03 2.6025037409e+00 -4.5076687061e+00 2.6025037409e+00 4.5076687061e+00 
36500 4.6786056598e+00 -7.5544117615e-03 2.6026494228e+00 -4.5079210346e+00 2.6026494228e+00 4.5079210346e+00 
36600 4.6786022438e+00 -7.5262971318e-03 2.6027945534e+00 -4.5081724082e+00 2.6027945534e+00 4.5081724082e+00 
36700 4.6785988654e+00 -7.4983412937e-03 2.6029391359e+00 -4.5084228323e+00 2.6029391359e+00 4.5084228323e+00 
36800 4.6785955240e+00 -7.4705433189e-03 2.6030831732e+00 -4.5086723124e+00 2.6030831732e+00 4.5086723124e+00 
36900 4.6785922191e+00 -7.4429022825e-03 2.6032266687e+00 -4.5089208538e+00 2.6032266687e+00 4.5089208538e+00 
37000 4.6785889503e+00 -7.4154172633e-03 2.6033696253e+00 -4.5091684619e+00 2.6033696253e+00 4.5091684619e+00 
37100 4.6785857171e+00 -7.3880873440e-03 2.6035120462e+00 -4.5094151422e+00 2.6035120462e+00 4.5094151422e+00 
37200 4.6785825189e+00 -7.3609116106e-03 2.6036539344e+00 -4.5096608998e+00 2.6036539344e+00 4.5096608998e+00 
37300 4.6785793553e+00 -7.3338891534e-03 2.6037952931e+00 -4.5099057401e+00 2.6037952931e+00 4.5099057401e+00 
37400 4.6785762259e+00 -7.3070190663e-03 2.6039361251e+00 -4.5101496683e+00 2.6039361251e+00 4.5101496683e+00 
37500 4.6785731301e+00 -7.2803004469e-03 2.6040764335e+00 -4.5103926897e+00 2.6040764335e+00 4.5103926897e+00 
37600 4.6785700676e+00 -7.2537323971e-03 2.6042162214e+00 -4.5106348093e+00 2.6042162214e+00 4.5106348093e+00 
37700 4.6785670380e+00 -7.2273140226e-03 2.6043554916e+00 -4.5108760325e+00 2.6043554916e+00 4.5108760325e+00 
37800 4.6785640406e+00 -7.2010444328e-03 2.6044942472e+00 -4.5111163642e+00 2.6044942472e+00 4.5111163642e+00 
37900 4.6785610753e+00 -7.1749227417e-03 2.6046324911e+00 -4.5113558097e+00 2.6046324911e+00 4.5113558097e+00 
38000 4.6785581414e+00 -7.1489480668e-03 2.6047702262e+00 -4.5115943739e+00 2.6047702262e+00 4.5115943739e+00 
38100 4.6785552387e+00 -7.1231195300e-03 2.6049074554e+00 -4.5118320618e+00 2.6049074554e+00 4.5118320618e+00 
38200 4.6785523667e+00 -7.0974362572e-03 2.6050441816e+00 -4.5120688785e+00 2.6050441816e+00 4.5120688785e+00 
38300 4.6785495250e+00 -7.0718973785e-03 2.6051804077e+00 -4.5123048290e+00 2.6051804077e+00 4.5123048290e+00 
38400 4.6785467132e+00 -7.0465020280e-03 2.6053161365e+00 -4.5125399181e+00 2.6053161365e+00 4.5125399181e+00 
38500 4.6785439309e+00 -7.0212493443e-03 2.6054513708e+00 -4.5127741508e+00 2.6054513708e+00 4.5127741508e+00 
38600 4.6785411778e+00 -6.9961384698e-03 2.6055861135e+00 -4.5130075320e+00 2.6055861135e+00 4.5130075320e+00 
38700 4.6785384534e+00 -6.9711685514e-03 2.6057203673e+00 -4.5132400665e+00 2.6057203673e+00 4.5132400665e+00 
38800 4.6785357575e+00 -6.9463387401e-03 2.6058541351e+00 -4.5134717590e+00 2.6058541351e+00 4.5134717590e+00 
38900 4.6785330896e+00 -6.9216481913e-03 2.6059874195e+00 -4.5137026145e+00 2.6059874195e+00 4.5137026145e+00 
39000 4.6785304493e+00 -6.8970960644e-03 2.6061202235e+00 -4.5139326377e+00 2.6061202235e+00 4.5139326377e+00 
39100 4.6785278365e+00 -6.8726815233e-03 2.6062525496e+00 -4.5141618332e+00 2.6062525496e+00 4.5141618332e+00 
39200 4.6785252505e+00 -6.8484037362e-03 2.6063844005e+00 -4.5143902058e+00 2.6063844005e+00 4.5143902058e+00 
39300 4.6785226913e+00 -6.8242618755e-03 2.6065157791e+00 -4.5146177602e+00 2.6065157791e+00 4.5146177602e+00 
39400 4.6785201583e+00 -6.8002551178e-03 2.6066466880e+00 -4.5148445009e+00 2.6066466880e+00 4.5148445009e+00 
39500 4.6785176513e+00 -6.7763826444e-03 2.6067771297e+00 -4.5150704327e+00 2.6067771297e+00 4.5150704327e+00 
39600 4.6785151700e+00 -6.7526436405e-03 2.6069071071e+00 -4.5152955600e+00 2.6069071071e+00 4.5152955600e+00 
39700 4.6785127140e+00 -6.7290372958e-03 2.6070366226e+00 -4.5155198875e+00 2.6070366226e+00 4.5155198875e+00 
39800 4.6785102830e+00 -6.7055628045e-03 2.6071656789e+00 -4.5157434197e+00 2.6071656789e+00 4.5157434197e+00 
39900 4.6785078767e+00 -6.6822193648e-03 2.6072942787e+00 -4.5159661610e+00 2.6072942787e+00 4.5159661610e+00 
40000 4.6785054948e+00 -6.6590061795e-03 2.6074224245e+00 -4.5161881160e+00 2.6074224245e+00 4.5161881160e+00 
40100 4.6785031369e+00 -6.6359224557e-03 2.6075501188e+00 -4.5164092890e+00 2.6075501188e+00 4.5164092890e+00 
40200 4.6785008029e+00 -6.6129674048e-03 2.6076773642e+00 -4.5166296846e+00 2.6076773642e+00 4.5166296846e+00 
40300 4.6784984924e+00 -6.5901402426e-03 2.6078041633e+00 -4.5168493070e+00 2.6078041633e+00 4.5168493070e+00 
40400 4.6784962050e+00 -6.5674401891e-03 2.6079305185e+00 -4.5170681606e+00 2.6079305185e+00 4.5170681606e+00 
40500 4.6784939406e+00 -6.5448664687e-03 2.6080564324e+00 -4.5172862499e+00 2.6080564324e+00 4.5172862499e+00 
40600 4.6784916989e+00 -6.5224183104e-03 2.6081819074e+00 -4.5175035790e+00 2.6081819074e+00 4.5175035790e+00 
40700 4.6784894795e+00 -6.5000949471e-03 2.6083069460e+00 -4.5177201523e+00 2.6083069460e+00 4.5177201523e+00 
40800 4.6784872822e+00 -6.4778956164e-03 2.6084315508e+00 -4.5179359740e+00 2.6084315508e+00 4.5179359740e+00 
40900 4.6784851067e+00 -6.4558195600e-03 2.6085557240e+00 -4.5181510483e+00 2.6085557240e+00 4.5181510483e+00 
41000 4.6784829528e+00 -6.4338660240e-03 2.6086794681e+00 -4.5183653795e+00 2.6086794681e+00 4.5183653795e+00 
41100 4.6784808201e+00 -6.4120342588e-03 2.6088027856e+00 -4.5185789717e+00 2.6088027856e+00 4.5185789717e+00 
41200 4.6784787085e+00 -6.3903235192e-03 2.6089256789e+00 -4.5187918290e+00 2.6089256789e+00 4.5187918290e+00 
41300 4.6784766178e+00 -6.3687330642e-03 2.6090481502e+00 -4.5190039556e+00 2.6090481502e+00 4.5190039556e+00 
41400 4.6784745475e+00 -6.3472621571e-03 2.6091702021e+00 -4.5192153556e+00 2.6091702021e+00 4.5192153556e+00 
41500 4.6784724975e+00 -6.3259100655e-03 2.6092918368e+00 -4.5194260330e+00 2.6092918368e+00 4.5194260330e+00 
41600 4.6784704676e+00 -6.3046760614e-03 2.6094130566e+00 -4.5196359920e+00 2.6094130566e+00 4.5196359920e+00 
41700 4.6784684575e+00 -6.2835594208e-03 2.6095338639e+00 -4.5198452364e+00 2.6095338639e+00 4.5198452364e+00 
41800 4.6784664670e+00 -6.2625594243e-03 2.6096542611e+00 -4.5200537704e+00 2.6096542611e+00 4.5200537704e+00 
41900 4.6784644958e+00 -6.2416753564e-03 2.6097742503e+00 -4.5202615978e+00 2.6097742503e+00 4.5202615978e+00 
42000 4.6784625437e+00 -6.2209065061e-03 2.6098938339e+00 -4.5204687226e+00 2.6098938339e+00 4.5204687226e+00 
42100 4.6784606105e+00 -6.2002521664e-03 2.6100130141e+00 -4.5206751488e+00 2.6100130141e+00 4.5206751488e+00 
42200 4.6784586959e+00 -6.1797116349e-03 2.6101317932e+00 -4.5208808802e+00 2.6101317932e+00 4.5208808802e+00 
42300 4.6784567999e+00 -6.1592842128e-03 2.6102501734e+00 -4.5210859207e+00 2.6102501734e+00 4.5210859207e+00 
42400 4.6784549220e+00 -6.1389692061e-03 2.6103681569e+00 -4.5212902742e+00 2.6103681569e+00 4.5212902742e+00 
42500 4.6784530621e+00 -6.1187659247e-03 2.6104857460e+00 -4.5214939444e+00 2.6104857460e+00 4.5214939444e+00 
42600 4.6784512201e+00 -6.0986736825e-03 2.6106029428e+00 -4.5216969353e+00 2.6106029428e+00 4.5216969353e+00 
42700 4.6784493956e+00 -6.0786917978e-03 2.6107197495e+00 -4.5218992504e+00 2.6107197495e+00 4.5218992504e+00 
42800 4.6784475886e+00 -6.0588195930e-03 2.6108361683e+00 -4.5221008937e+00 2.6108361683e+00 4.5221008937e+00 
42900 4.6784457987e+00 -6.0390563945e-03 2.6109522013e+00 -4.5223018688e+00 2.6109522013e+00 4.5223018688e+00 
43000 4.6784440258e+00 -6.0194015330e-03 2.6110678507e+00 -4.5225021794e+00 2.6110678507e+00 4.5225021794e+00 
43100 4.6784422697e+00 -5.9998543431e-03 2.6111831186e+00 -4.5227018293e+00 2.6111831186e+00 4.5227018293e+00 
43200 4.6784405302e+00 -5.9804141635e-03 2.6112980071e+00 -4.5229008220e+00 2.6112980071e+00 4.5229008220e+00 
43300 4.6784388071e+00 -5.9610803371e-03 2.6114125183e+00 -4.5230991612e+00 2.6114125183e+00 4.5230991612e+00 
43400 4.6784371002e+00 -5.9418522106e-03 2.6115266543e+00 -4.5232968506e+00 2.6115266543e+00 4.5232968506e+00 
43500 4.6784354093e+00 -5.9227291351e-03 2.6116404172e+00 -4.5234938937e+00 2.6116404172e+00 4.5234938937e+00 
43600 4.6784337343e+00 -5.9037104654e-03 2.6117538090e+00 -4.5236902940e+00 2.6117538090e+00 4.5236902940e+00 
43700 4.6784320750e+00 -5.8847955603e-03 2.6118668317e+00 -4.5238860552e+00 2.6118668317e+00 4.5238860552e+00 
43800 4.6784304312e+00 -5.8659837828e-03 2.6119794875e+00 -4.5240811807e+00 2.6119794875e+00 4.5240811807e+00 
43900 4.6784288026e+00 -5.8472744997e-03 2.6120917783e+00 -4.5242756741e+00 2.6120917783e+00 4.5242756741e+00 
44000 4.6784271892e+00 -5.8286670817e-03 2.6122037062e+00 -4.5244695388e+00 2.6122037062e+00 4.5244695388e+00 
44100 4.6784255908e+00 -5.8101609036e-03 2.6123152731e+00 -4.5246627783e+00 2.6123152731e+00 4.5246627783e+00 
44200 4.6784240071e+00 -5.7917553440e-03 2.6124264810e+00 -4.5248553961e+00 2.6124264810e+00 4.5248553961e+00 
44300 4.6784224381e+00 -5.7734497853e-03 2.6125373319e+00 -4.5250473955e+00 2.6125373319e+00 4.5250473955e+00 
44400 4.6784208836e+00 -5.7552436140e-03 2.6126478277e+00 -4.5252387799e+00 2.6126478277e+00 4.5252387799e+00 
44500 4.6784193433e+00 -5.7371362202e-03 2.6127579705e+00 -4.5254295527e+00 2.6127579705e+00 4.5254295527e+00 
44600 4.6784178172e+00 -5.7191269982e-03 2.6128677620e+00 -4.5256197173e+00 2.6128677620e+00 4.5256197173e+00 
44700 4.6784163051e+00 -5.7012153457e-03 2.6129772044e+00 -4.5258092770e+00 2.6129772044e+00 4.5258092770e+00 
44800 4.6784148068e+00 -5.6834006645e-03 2.6130862994e+00 -4.5259982351e+00 2.6130862994e+00 4.5259982351e+00 
44900 4.6784133222e+00 -5.6656823600e-03 2.6131950489e+00 -4.5261865948e+00 2.6131950489e+00 4.5261865948e+00 
45000 4.6784118511e+00 -5.6480598415e-03 2.6133034550e+00 -4.5263743596e+00 2.6133034550e+00 4.5263743596e+00 
45100 4.6784103933e+00 -5.6305325220e-03 2.6134115193e+00 -4.5265615325e+00 2.6134115193e+00 4.5265615325e+00 
45200 4.6784089488e+00 -5.6130998183e-03 2.6135192438e+00 -4.5267481169e+00 2.6135192438e+00 4.5267481169e+00 
45300 4.6784075174e+00 -5.5957611506e-03 2.6136266304e+00 -4.5269341159e+00 2.6136266304e+00 4.5269341159e+00 
45400 4.6784060989e+00 -5.5785159432e-03 2.6137336809e+00 -4.5271195328e+00 2.6137336809e+00 4.5271195328e+00 
45500 4.6784046931e+00 -5.5613636239e-03 2.6138403971e+00 -4.5273043706e+00 2.6138403971e+00 4.5273043706e+00 
45600 4.6784033001e+00 -5.5443036241e-03 2.6139467808e+00 -4.5274886327e+00 2.6139467808e+00 4.5274886327e+00 
45700 4.6784019195e+00 -5.5273353789e-03 2.6140528339e+00 -4.5276723219e+00 2.6140528339e+00 4.5276723219e+00 
45800 4.6784005513e+00 -5.5104583269e-03 2.6141585581e+00 -4.5278554416e+00 2.6141585581e+00 4.5278554416e+00 
45900 4.6783991953e+00 -5.4936719104e-03 2.6142639552e+00 -4.5280379948e+00 2.6142639552e+00 4.5280379948e+00 
46000 4.6783978514e+00 -5.4769755754e-03 2.6143690270e+00 -4.5282199845e+00 2.6143690270e+00 4.5282199845e+00 
46100 4.6783965195e+00 -5.4603687712e-03 2.6144737753e+00 -4.5284014138e+00 2.6144737753e+00 4.5284014138e+00 
46200 4.6783951995e+00 -5.4438509508e-03 2.6145782017e+00 -4.5285822857e+00 2.6145782017e+00 4.5285822857e+00 
46300 4.6783938911e+00 -5.4274215706e-03 2.6146823081e+00 -4.5287626033e+00 2.6146823081e+00 4.5287626033e+00 
46400 4.6783925943e+00 -5.4110800907e-03 2.6147860962e+00 -4.5289423696e+00 2.6147860962e+00 4.5289423696e+00 
46500 4.6783913090e+00 -5.3948259744e-03 2.6148895677e+00 -4.5291215874e+00 2.6148895677e+00 4.5291215874e+00 
46600 4.6783900350e+00 -5.3786586887e-03 2.6149927243e+00 -4.5293002599e+00 2.6149927243e+00 4.5293002599e+00 
46700 4.6783887723e+00 -5.3625777038e-03 2.6150955677e+00 -4.5294783898e+00 2.6150955677e+00 4.5294783898e+00 
46800 4.6783875206e+00 -5.3465824937e-03 2.6151980995e+00 -4.5296559802e+00 2.6151980995e+00 4.5296559802e+00 
46900 4.6783862799e+00 -5.3306725354e-03 2.6153003216e+00 -4.5298330340e+00 2.6153003216e+00 4.5298330340e+00 
47000 4.6783850500e+00 -5.3148473095e-03 2.6154022354e+00 -4.5300095540e+00 2.6154022354e+00 4.5300095540e+00 
47100 4.6783838309e+00 -5.2991062998e-03 2.6155038428e+00 -4.5301855431e+00 2.6155038428e+00 4.5301855431e+00 
47200 4.6783826223e+00 -5.2834489937e-03 2.6156051453e+00 -4.5303610041e+00 2.6156051453e+00 4.5303610041e+00 
47300 4.6783814243e+00 -5.2678748817e-03 2.6157061445e+00 -4.5305359400e+00 2.6157061445e+00 4.5305359400e+00 
47400 4.6783802367e+00 -5.2523834577e-03 2.6158068421e+00 -4.5307103534e+00 2.6158068421e+00 4.5307103534e+00 
47500 4.6783790594e+00 -5.2369742188e-03 2.6159072398e+00 -4.5308842472e+00 2.6159072398e+00 4.5308842472e+00 
47600 4.6783778922e+00 -5.2216466655e-03 2.6160073391e+00 -4.5310576242e+00 2.6160073391e+00 4.5310576242e+00 
47700 4.6783767351e+00 -5.2064003014e-03 2.6161071415e+00 -4.5312304872e+00 2.6161071415e+00 4.5312304872e+00 
47800 4.6783755880e+00 -5.1912346334e-03 2.6162066488e+00 -4.5314028388e+00 2.6162066488e+00 4.5314028388e+00 
47900 4.6783744507e+00 -5.1761491717e-03 2.6163058624e+00 -4.5315746819e+00 2.6163058624e+00 4.5315746819e+00 
48000 4.6783733232e+00 -5.1611434294e-03 2.6164047840e+00 -4.5317460190e+00 2.6164047840e+00 4.5317460190e+00 
48100 4.6783722053e+00 -5.1462169231e-03 2.6165034151e+00 -4.5319168531e+00 2.6165034151e+00 4.5319168531e+00 
48200 4.6783710970e+00 -5.1313691724e-03 2.6166017572e+00 -4.5320871866e+00 2.6166017572e+00 4.5320871866e+00 
48300 4.6783699981e+00 -5.1165997000e-03 2.6166998119e+00 -4.5322570223e+00 2.6166998119e+00 4.5322570223e+00 
48400 4.6783689085e+00 -5.1019080317e-03 2.6167975806e+00 -4.5324263628e+00 2.6167975806e+00 4.5324263628e+00 
48500 4.6783678282e+00 -5.0872936965e-03 2.6168950651e+00 -4.5325952108e+00 2.6168950651e+00 4.5325952108e+00 
48600 4.6783667571e+00 -5.0727562264e-03 2.6169922666e+00 -4.5327635688e+00 2.6169922666e+00 4.5327635688e+00 
48700 4.6783656950e+00 -5.0582951564e-03 2.6170891868e+00 -4.5329314395e+00 2.6170891868e+00 4.5329314395e+00 
48800 4.6783646418e+00 -5.0439100247e-03 2.6171858271e+00 -4.5330988254e+00 2.6171858271e+00 4.5330988254e+00 
48900 4.6783635976e+00 -5.0296003723e-03 2.6172821890e+00 -4.5332657291e+00 2.6172821890e+00 4.5332657291e+00 
49000 4.6783625621e+00 -5.0153657433e-03 2.6173782740e+00 -4.5334321532e+00 2.6173782740e+00 4.5334321532e+00 
49100 4.6783615352e+00 -5.0012056848e-03 2.6174740836e+00 -4.5335981002e+00 2.6174740836e+00 4.5335981002e+00 
49200 4.6783605170e+00 -4.9871197470e-03 2.6175696191e+00 -4.5337635726e+00 2.6175696191e+00 4.5337635726e+00 
49300 4.6783595073e+00 -4.9731074826e-03 2.6176648821e+00 -4.5339285730e+00 2.6176648821e+00 4.5339285730e+00 
49400 4.6783585060e+00 -4.9591684478e-03 2.6177598740e+00 -4.5340931037e+00 2.6177598740e+00 4.5340931037e+00 
49500 4.6783575130e+00 -4.9453022012e-03 2.6178545961e+00 -4.5342571673e+00 2.6178545961e+00 4.5342571673e+00 
49600 4.6783565283e+00 -4.9315083045e-03 2.6179490501e+00 -4.5344207663e+00 2.6179490501e+00 4.5344207663e+00 
49700 4.6783555517e+00 -4.9177863224e-03 2.6180432371e+00 -4.5345839031e+00 2.6180432371e+00 4.5345839031e+00 
49800 4.6783545832e+00 -4.9041358221e-03 2.6181371587e+00 -4.5347465800e+00 2.6181371587e+00 4.5347465800e+00 
49900 4.6783536227e+00 -4.8905563741e-03 2.6182308162e+00 -4.5349087996e+00 2.6182308162e+00 4.5349087996e+00 
50000 4.6783526701e+00 -4.8770475512e-03 2.6183242111e+00 -4.5350705643e+00 2.6183242111e+00 4.5350705643e+00 
50100 4.6783517253e+00 -4.8636089294e-03 2.6184173446e+00 -4.5352318763e+00 2.6184173446e+00 4.5352318763e+00 
50200 4.6783507883e+00 -4.8502400872e-03 2.6185102182e+00 -4.5353927381e+00 2.6185102182e+00 4.5353927381e+00 
50300 4.6783498590e+00 -4.8369406061e-03 2.6186028333e+00 -4.5355531521e+00 2.6186028333e+00 4.5355531521e+00 
50400 4.6783489372e+00 -4.8237100701e-03 2.6186951911e+00 -4.5357131205e+00 2.6186951911e+00 4.5357131205e+00 
50500 4.6783480229e+00 -4.8105480661e-03 2.6187872930e+00 -4.5358726458e+00 2.6187872930e+00 4.5358726458e+00 
50600 4.6783471161e+00 -4.7974541836e-03 2.6188791404e+00 -4.5360317301e+00 2.6188791404e+00 4.5360317301e+00 
50700 4.6783462167e+00 -4.7844280148e-03 2.6189707346e+00 -4.5361903759e+00 2.6189707346e+00 4.5361903759e+00 
50800 4.6783453245e+00 -4.7714691547e-03 2.6190620769e+00 -4.5363485854e+00 2.6190620769e+00 4.5363485854e+00 
50900 4.6783444396e+00 -4.7585772008e-03 2.6191531686e+00 -4.5365063609e+00 2.6191531686e+00 4.5365063609e+00 
51000 4.6783435617e+00 -4.7457517532e-03 2.6192440111e+00 -4.5366637046e+00 2.6192440111e+00 4.5366637046e+00 
51100 4.6783426910e+00 -4.7329924148e-03 2.6193346055e+00 -4.5368206188e+00 2.6193346055e+00 4.5368206188e+00 
51200 4.6783418273e+00 -4.7202987909e-03 2.6194249532e+00 -4.5369771056e+00 2.6194249532e+00 4.5369771056e+00 
51300 4.6783409704e+00 -4.7076704896e-03 2.6195150556e+00 -4.5371331675e+00 2.6195150556e+00 4.5371331675e+00 
51400 4.6783401205e+00 -4.6951071213e-03 2.6196049138e+00 -4.5372888064e+00 2.6196049138e+00 4.5372888064e+00 
51500 4.6783392773e+00 -4.6826082992e-03 2.6196945291e+00 -4.5374440247e+00 2.6196945291e+00 4.5374440247e+00 
51600 4.6783384408e+00 -4.6701736388e-03 2.6197839028e+00 -4.5375988244e+00 2.6197839028e+00 4.5375988244e+00 
51700 4.6783376110e+00 -4.6578027584e-03 2.6198730361e+00 -4.5377532078e+00 2.6198730361e+00 4.5377532078e+00 
51800 4.6783367878e+00 -4.6454952785e-03 2.6199619302e+00 -4.5379071771e+00 2.6199619302e+00 4.5379071771e+00 
51900 4.6783359711e+00 -4.6332508223e-03 2.6200505865e+00 -4.5380607342e+00 2.6200505865e+00 4.5380607342e+00 
52000 4.6783351609e+00 -4.6210690152e-03 2.6201390061e+00 -4.5382138815e+00 2.6201390061e+00 4.5382138815e+00 
52100 4.6783343570e+00 -4.6089494855e-03 2.6202271903e+00 -4.5383666209e+00 2.6202271903e+00 4.5383666209e+00 
52200 4.6783335595e+00 -4.5968918634e-03 2.6203151402e+00 -4.5385189547e+00 2.6203151402e+00 4.5385189547e+00 
52300 4.6783327683e+00 -4.5848957819e-03 2.6204028571e+00 -4.5386708848e+00 2.6204028571e+00 4.5386708848e+00 
52400 4.6783319832e+00 -4.5729608763e-03 2.6204903421e+00 -4.5388224133e+00 2.6204903421e+00 4.5388224133e+00 
52500 4.6783312043e+00 -4.5610867841e-03 2.6205775965e+00 -4.5389735424e+00 2.6205775965e+00 4.5389735424e+00 
52600 4.6783304315e+00 -4.5492731455e-03 2.6206646215e+00 -4.5391242740e+00 2.6206646215e+00 4.5391242740e+00 
52700 4.6783296646e+00 -4.5375196027e-03 2.6207514181e+00 -4.5392746102e+00 2.6207514181e+00 4.5392746102e+00 
52800 4.6783289038e+00 -4.5258258005e-03 2.6208379876e+00 -4.5394245530e+00 2.6208379876e+00 4.5394245530e+00 
52900 4.6783281488e+00 -4.5141913858e-03 2.6209243312e+00 -4.5395741045e+00 2.6209243312e+00 4.5395741045e+00 
53000 4.6783273997e+00 -4.5026160081e-03 2.6210104500e+00 -4.5397232666e+00 2.6210104500e+00 4.5397232666e+00 
53100 4.6783266564e+00 -4.4910993189e-03 2.6210963451e+00 -4.5398720413e+00 2.6210963451e+00 4.5398720413e+00 
53200 4.6783259188e+00 -4.4796409721e-03 2.6211820178e+00 -4.5400204306e+00 2.6211820178e+00 4.5400204306e+00 
53300 4.6783251869e+00 -4.4682406239e-03 2.6212674690e+00 -4.5401684365e+00 2.6212674690e+00 4.5401684365e+00 
53400 4.6783244606e+00 -4.4568979325e-03 2.6213527000e+00 -4.5403160610e+00 2.6213527000e+00 4.5403160610e+00 
53500 4.6783237399e+00 -4.4456125587e-03 2.6214377119e+00 -4.5404633058e+00 2.6214377119e+00 4.5404633058e+00 
53600 4.6783230246e+00 -4.4343841652e-03 2.6215225057e+00 -4.5406101731e+00 2.6215225057e+00 4.5406101731e+00 
53700 4.6783223149e+00 -4.4232124171e-03 2.6216070827e+00 -4.5407566647e+00 2.6216070827e+00 4.5407566647e+00 
53800 4.6783216105e+00 -4.4120969814e-03 2.6216914438e+00 -4.5409027825e+00 2.6216914438e+00 4.5409027825e+00 
53900 4.6783209115e+00 -4.4010375277e-03 2.6217755903e+00 -4.5410485284e+00 2.6217755903e+00 4.5410485284e+00 
54000 4.6783202177e+00 -4.3900337273e-03 2.6218595231e+00 -4.5411939044e+00 2.6218595231e+00 4.5411939044e+00 
54100 4.6783195292e+00 -4.3790852540e-03 2.6219432434e+00 -4.5413389122e+00 2.6219432434e+00 4.5413389122e+00 
54200 4.6783188460e+00 -4.3681917835e-03 2.6220267523e+00 -4.5414835537e+00 2.6220267523e+00 4.5414835537e+00 
54300 4.6783181678e+00 -4.3573529936e-03 2.6221100507e+00 -4.5416278309e+00 2.6221100507e+00 4.5416278309e+00 
54400 4.6783174948e+00 -4.3465685643e-03 2.6221931398e+00 -4.5417717454e+00 2.6221931398e+00 4.5417717454e+00 
54500 4.6783168268e+00 -4.3358381777e-03 2.6222760207e+00 -4.5419152992e+00 2.6222760207e+00 4.5419152992e+00 
54600 4.6783161638e+00 -4.3251615179e-03 2.6223586943e+00 -4.5420584942e+00 2.6223586943e+00 4.5420584942e+00 
54700 4.6783155057e+00 -4.3145382710e-03 2.6224411617e+00 -4.5422013320e+00 2.6224411617e+00 4.5422013320e+00 
54800 4.6783148525e+00 -4.3039681252e-03 2.6225234240e+00 -4.5423438144e+00 2.6225234240e+00 4.5423438144e+00 
54900 4.6783142042e+00 -4.2934507706e-03 2.6226054822e+00 -4.5424859434e+00 2.6226054822e+00 4.5424859434e+00 
55000 4.6783135607e+00 -4.2829858996e-03 2.6226873373e+00 -4.5426277206e+00 2.6226873373e+00 4.5426277206e+00 
55100 4.6783129220e+00 -4.2725732064e-03 2.6227689904e+00 -4.5427691478e+00 2.6227689904e+00 4.5427691478e+00 
55200 4.6783122880e+00 -4.2622123870e-03 2.6228504424e+00 -4.5429102268e+00 2.6228504424e+00 4.5429102268e+00 
55300 4.6783116586e+00 -4.2519031397e-03 2.6229316943e+00 -4.5430509593e+00 2.6229316943e+00 4.5430509593e+00 
55400 4.6783110339e+00 -4.2416451647e-03 2.6230127472e+00 -4.5431913471e+00 2.6230127472e+00 4.5431913471e+00 
55500 4.6783104138e+00 -4.2314381638e-03 2.6230936021e+00 -4.5433313918e+00 2.6230936021e+00 4.5433313918e+00 
55600 4.6783097982e+00 -4.2212818411e-03 2.6231742599e+00 -4.5434710953e+00 2.6231742599e+00 4.5434710953e+00 
55700 4.6783091870e+00 -4.2111759025e-03 2.6232547216e+00 -4.5436104591e+00 2.6232547216e+00 4.5436104591e+00 
55800 4.6783085804e+00 -4.2011200557e-03 2.6233349883e+00 -4.5437494850e+00 2.6233349883e+00 4.5437494850e+00 
55900 4.6783079781e+00 -4.1911140105e-03 2.6234150608e+00 -4.5438881747e+00 2.6234150608e+00 4.5438881747e+00 
56000 4.6783073803e+00 -4.1811574783e-03 2.6234949402e+00 -4.5440265298e+00 2.6234949402e+00 4.5440265298e+00 
56100 4.6783067867e+00 -4.1712501726e-03 2.6235746274e+00 -4.5441645521e+00 2.6235746274e+00 4.5441645521e+00 
56200 4.6783061974e+00 -4.1613918086e-03 2.6236541233e+00 -4.5443022431e+00 2.6236541233e+00 4.5443022431e+00 
56300 4.6783056124e+00 -4.1515821034e-03 2.6237334290e+00 -4.5444396046e+00 2.6237334290e+00 4.5444396046e+00 
56400 4.6783050316e+00 -4.1418207759e-03 2.6238125453e+00 -4.5445766380e+00 2.6238125453e+00 4.5445766380e+00 
56500 4.6783044549e+00 -4.1321075468e-03 2.6238914733e+00 -4.5447133452e+00 2.6238914733e+00 4.5447133452e+00 
56600 4.6783038824e+00 -4.1224421386e-03 2.6239702137e+00 -4.5448497277e+00 2.6239702137e+00 4.5448497277e+00 
56700 4.6783033139e+00 -4.1128242756e-03 2.6240487676e+00 -4.5449857871e+00 2.6240487676e+00 4.5449857871e+00 
56800 4.6783027495e+00 -4.1032536838e-03 2.6241271359e+00 -4.5451215249e+00 2.6241271359e+00 4.5451215249e+00 
56900 4.6783021891e+00 -4.0937300912e-03 2.6242053195e+00 -4.5452569429e+00 2.6242053195e+00 4.5452569429e+00 
57000 4.6783016327e+00 -4.0842532271e-03 2.6242833193e+00 -4.5453920425e+00 2.6242833193e+00 4.5453920425e+00 
57100 4.6783010802e+00 -4.0748228230e-03 2.6243611363e+00 -4.5455268254e+00 2.6243611363e+00 4.5455268254e+00 
57200 4.6783005316e+00 -4.0654386119e-03 2.6244387712e+00 -4.5456612931e+00 2.6244387712e+00 4.5456612931e+00 
57300 4.6782999869e+00 -4.0561003285e-03 2.6245162251e+00 -4.5457954471e+00 2.6245162251e+00 4.5457954471e+00 
57400 4.6782994460e+00 -4.0468077092e-03 2.6245934988e+00 -4.5459292891e+00 2.6245934988e+00 4.5459292891e+00 
57500 4.6782989089e+00 -4.0375604921e-03 2.6246705931e+00 -4.5460628204e+00 2.6246705931e+00 4.5460628204e+00 
57600 4.6782983756e+00 -4.0283584171e-03 2.6247475091e+00 -4.5461960427e+00 2.6247475091e+00 4.5461960427e+00 
57700 4.6782978459e+00 -4.0192012256e-03 2.6248242475e+00 -4.5463289575e+00 2.6248242475e+00 4.5463289575e+00 
57800 4.6782973200e+00 -4.0100886608e-03 2.6249008092e+00 -4.5464615663e+00 2.6249008092e+00 4.5464615663e+00 
57900 4.6782967977e+00 -4.0010204672e-03 2.6249771951e+00 -4.5465938706e+00 2.6249771951e+00 4.5465938706e+00 
58000 4.6782962790e+00 -3.9919963914e-03 2.6250534060e+00 -4.5467258718e+00 2.6250534060e+00 4.5467258718e+00 
58100 4.6782957639e+00 -3.9830161814e-03 2.6251294429e+00 -4.5468575715e+00 2.6251294429e+00 4.5468575715e+00 
58200 4.6782952523e+00 -3.9740795866e-03 2.6252053065e+00 -4.5469889711e+00 2.6252053065e+00 4.5469889711e+00 
58300 4.6782947443e+00 -3.9651863585e-03 2.6252809977e+00 -4.5471200721e+00 2.6252809977e+00 4.5471200721e+00 
58400 4.6782942398e+00 -3.9563362496e-03 2.6253565173e+00 -4.5472508759e+00 2.6253565173e+00 4.5472508759e+00 
58500 4.6782937387e+00 -3.9475290144e-03 2.6254318662e+00 -4.5473813841e+00 2.6254318662e+00 4.5473813841e+00 
58600 4.6782932410e+00 -3.9387644087e-03 2.6255070452e+00 -4.5475115980e+00 2.6255070452e+00 4.5475115980e+00 
58700 4.6782927467e+00 -3.9300421902e-03 2.6255820552e+00 -4.5476415190e+00 2.6255820552e+00 4.5476415190e+00 
58800 4.6782922558e+00 -3.9213621177e-03 2.6256568969e+00 -4.5477711486e+00 2.6256568969e+00 4.5477711486e+00 
58900 4.6782917682e+00 -3.9127239517e-03 2.6257315712e+00 -4.5479004883e+00 2.6257315712e+00 4.5479004883e+00 
59000 4.6782912838e+00 -3.9041274545e-03 2.6258060788e+00 -4.5480295393e+00 2.6258060788e+00 4.5480295393e+00 
59100 4.6782908028e+00 -3.8955723894e-03 2.6258804207e+00 -4.5481583032e+00 2.6258804207e+00 4.5481583032e+00 
59200 4.6782903250e+00 -3.8870585216e-03 2.6259545975e+00 -4.5482867813e+00 2.6259545975e+00 4.5482867813e+00 
59300 4.6782898504e+00 -3.8785856177e-03 2.6260286102e+00 -4.5484149749e+00 2.6260286102e+00 4.5484149749e+00 
59400 4.6782893790e+00 -3.8701534456e-03 2.6261024594e+00 -4.5485428856e+00 2.6261024594e+00 4.5485428856e+00 
59500 4.6782889107e+00 -3.8617617748e-03 2.6261761460e+00 -4.5486705145e+00 2.6261761460e+00 4.5486705145e+00 
59600 4.6782884455e+00 -3.8534103764e-03 2.6262496708e+00 -4.5487978631e+00 2.6262496708e+00 4.5487978631e+00 
59700 4.6782879835e+00 -3.8450990226e-03 2.6263230345e+00 -4.5489249328e+00 2.6263230345e+00 4.5489249328e+00 
59800 4.6782875245e+00 -3.8368274874e-03 2.6263962379e+00 -4.5490517249e+00 2.6263962379e+00 4.5490517249e+00 
59900 4.6782870685e+00 -3.8285955460e-03 2.6264692818e+00 -4.5491782406e+00 2.6264692818e+00 4.5491782406e+00 
60000 4.6782866155e+00 -3.8204029750e-03 2.6265421670e+00 -4.5493044815e+00 2.6265421670e+00 4.5493044815e+00 
60100 4.6782861656e+00 -3.8122495526e-03 2.6266148942e+00 -4.5494304486e+00 2.6266148942e+00 4.5494304486e+00 
60200 4.6782857185e+00 -3.8041350582e-03 2.6266874642e+00 -4.5495561435e+00 2.6266874642e+00 4.5495561435e+00 
60300 4.6782852744e+00 -3.7960592727e-03 2.6267598776e+00 -4.5496815674e+00 2.6267598776e+00 4.5496815674e+00 
60400 4.6782848332e+00 -3.7880219784e-03 2.6268321354e+00 -4.5498067215e+00 2.6268321354e+00 4.5498067215e+00 
60500 4.6782843949e+00 -3.7800229588e-03 2.6269042382e+00 -4.5499316072e+00 2.6269042382e+00 4.5499316072e+00 
60600 4.6782839594e+00 -3.7720619989e-03 2.6269761868e+00 -4.5500562258e+00 2.6269761868e+00 4.5500562258e+00 
60700 4.6782835267e+00 -3.7641388851e-03 2.6270479819e+00 -4.5501805785e+00 2.6270479819e+00 4.5501805785e+00 
60800 4.6782830969e+00 -3.7562534049e-03 2.6271196242e+00 -4.5503046667e+00 2.6271196242e+00 4.5503046667e+00 
60900 4.6782826698e+00 -3.7484053475e-03 2.6271911145e+00 -4.5504284915e+00 2.6271911145e+00 4.5504284915e+00 
61000 4.6782822454e+00 -3.7405945031e-03 2.6272624535e+00 -4.5505520542e+00 2.6272624535e+00 4.5505520542e+00 
61100 4.6782818238e+00 -3.7328206633e-03 2.6273336418e+00 -4.5506753561e+00 2.6273336418e+00 4.5506753561e+00 
61200 4.6782814049e+00 -3.7250836211e-03 2.6274046803e+00 -4.5507983984e+00 2.6274046803e+00 4.5507983984e+00 
61300 4.6782809886e+00 -3.7173831706e-03 2.6274755697e+00 -4.5509211824e+00 2.6274755697e+00 4.5509211824e+00 
61400 4.6782805750e+00 -3.7097191075e-03 2.6275463106e+00 -4.5510437092e+00 2.6275463106e+00 4.5510437092e+00 
61500 4.6782801640e+00 -3.7020912284e-03 2.6276169038e+00 -4.5511659801e+00 2.6276169038e+00 4.5511659801e+00 
61600 4.6782797556e+00 -3.6944993314e-03 2.6276873499e+00 -4.5512879964e+00 2.6276873499e+00 4.5512879964e+00 
61700 4.6782793498e+00 -3.6869432159e-03 2.6277576496e+00 -4.5514097591e+00 2.6277576496e+00 4.5514097591e+00 
61800 4.6782789465e+00 -3.6794226823e-03 2.6278278037e+00 -4.5515312696e+00 2.6278278037e+00 4.5515312696e+00 
61900 4.6782785458e+00 -3.6719375325e-03 2.6278978129e+00 -4.5516525290e+00 2.6278978129e+00 4.5516525290e+00 
62000 4.6782781476e+00 -3.6644875695e-03 2.6279676777e+00 -4.5517735385e+00 2.6279676777e+00 4.5517735385e+00 
62100 4.6782777519e+00 -3.6570725976e-03 2.6280373990e+00 -4.5518942992e+00 2.6280373990e+00 4.5518942992e+00 
62200 4.6782773586e+00 -3.6496924222e-03 2.6281069773e+00 -4.5520148124e+00 2.6281069773e+00 4.5520148124e+00 
62300 4.6782769678e+00 -3.6423468500e-03 2.6281764134e+00 -4.5521350792e+00 2.6281764134e+00 4.5521350792e+00 
62400 4.6782765794e+00 -3.6350356889e-03 2.6282457079e+00 -4.5522551008e+00 2.6282457079e+00 4.5522551008e+00 
62500 4.6782761934e+00 -3.6277587480e-03 2.6283148614e+00 -4.5523748783e+00 2.6283148614e+00 4.5523748783e+00 
62600 4.6782758098e+00 -3.6205158374e-03 2.6283838747e+00 -4.5524944129e+00 2.6283838747e+00 4.5524944129e+00 
62700 4.6782754285e+00 -3.6133067687e-03 2.6284527485e+00 -4.5526137056e+00 2.6284527485e+00 4.5526137056e+00 
62800 4.6782750496e+00 -3.6061313544e-03 2.6285214832e+00 -4.5527327578e+00 2.6285214832e+00 4.5527327578e+00 
62900 4.6782746730e+00 -3.5989894082e-03 2.6285900797e+00 -4.5528515704e+00 2.6285900797e+00 4.5528515704e+00 
63000 4.6782742987e+00 -3.5918807451e-03 2.6286585386e+00 -4.5529701446e+00 2.6286585386e+00 4.5529701446e+00 
63100 4.6782739266e+00 -3.5848051811e-03 2.6287268604e+00 -4.5530884815e+00 2.6287268604e+00 4.5530884815e+00 
63200 4.6782735568e+00 -3.5777625334e-03 2.6287950459e+00 -4.5532065822e+00 2.6287950459e+00 4.5532065822e+00 
63300 4.6782731893e+00 -3.5707526202e-03 2.6288630957e+00 -4.5533244479e+00 2.6288630957e+00 4.5533244479e+00 
63400 4.6782728240e+00 -3.5637752611e-03 2.6289310104e+00 -4.5534420796e+00 2.6289310104e+00 4.5534420796e+00 
63500 4.6782724608e+00 -3.5568302764e-03 2.6289987906e+00 -4.5535594784e+00 2.6289987906e+00 4.5535594784e+00 
63600 4.6782720998e+00 -3.5499174879e-03 2.6290664370e+00 -4.5536766454e+00 2.6290664370e+00 4.5536766454e+00 
63700 4.6782717410e+00 -3.5430367182e-03 2.6291339502e+00 -4.5537935816e+00 2.6291339502e+00 4.5537935816e+00 
63800 4.6782713844e+00 -3.5361877913e-03 2.6292013308e+00 -4.5539102882e+00 2.6292013308e+00 4.5539102882e+00 
63900 4.6782710298e+00 -3.5293705319e-03 2.6292685794e+00 -4.5540267662e+00 2.6292685794e+00 4.5540267662e+00 
64000 4.6782706774e+00 -3.5225847661e-03 2.6293356966e+00 -4.5541430167e+00 2.6293356966e+00 4.5541430167e+00 
64100 4.6782703270e+00 -3.5158303208e-03 2.6294026831e+00 -4.5542590407e+00 2.6294026831e+00 4.5542590407e+00 
64200 4.6782699787e+00 -3.5091070243e-03 2.6294695395e+00 -4.5543748393e+00 2.6294695395e+00 4.5543748393e+00 
64300 4.6782696325e+00 -3.5024147056e-03 2.6295362663e+00 -4.5544904135e+00 2.6295362663e+00 4.5544904135e+00 
64400 4.6782692883e+00 -3.4957531949e-03 2.6296028641e+00 -4.5546057644e+00 2.6296028641e+00 4.5546057644e+00 
64500 4.6782689461e+00 -3.4891223235e-03 2.6296693336e+00 -4.5547208930e+00 2.6296693336e+00 4.5547208930e+00 
64600 4.6782686058e+00 -3.4825219236e-03 2.6297356754e+00 -4.5548358002e+00 2.6297356754e+00 4.5548358002e+00 
64700 4.6782682676e+00 -3.4759518285e-03 2.6298018899e+00 -4.5549504872e+00 2.6298018899e+00 4.5549504872e+00 
64800 4.6782679313e+00 -3.4694118724e-03 2.6298679779e+00 -4.5550649550e+00 2.6298679779e+00 4.5550649550e+00 
64900 4.6782675970e+00 -3.4629018908e-03 2.6299339399e+00 -4.5551792045e+00 2.6299339399e+00 4.5551792045e+00 
65000 4.6782672646e+00 -3.4564217199e-03 2.6299997765e+00 -4.5552932368e+00 2.6299997765e+00 4.5552932368e+00 
65100 4.6782669341e+00 -3.4499711969e-03 2.6300654882e+00 -4.5554070528e+00 2.6300654882e+00 4.5554070528e+00 
65200 4.6782666055e+00 -3.4435501603e-03 2.6301310757e+00 -4.5555206536e+00 2.6301310757e+00 4.5555206536e+00 
65300 4.6782662787e+00 -3.4371584493e-03 2.6301965394e+00 -4.5556340401e+00 2.6301965394e+00 4.5556340401e+00 
65400 4.6782659539e+00 -3.4307959040e-03 2.6302618800e+00 -4.5557472134e+00 2.6302618800e+00 4.5557472134e+00 
65500 4.6782656308e+00 -3.4244623658e-03 2.6303270980e+00 -4.5558601743e+00 2.6303270980e+00 4.5558601743e+00 
65600 4.6782653096e+00 -3.4181576768e-03 2.6303921941e+00 -4.5559729239e+00 2.6303921941e+00 4.5559729239e+00 
65700 4.6782649902e+00 -3.4118816802e-03 2.6304571686e+00 -4.5560854632e+00 2.6304571686e+00 4.5560854632e+00 
65800 4.6782646726e+00 -3.4056342199e-03 2.6305220223e+00 -4.5561977930e+00 2.6305220223e+00 4.5561977930e+00 
65900 4.6782643568e+00 -3.3994151412e-03 2.6305867556e+00 -4.5563099144e+00 2.6305867556e+00 4.5563099144e+00 
66000 4.6782640428e+00 -3.3932242898e-03 2.6306513691e+00 -4.5564218283e+00 2.6306513691e+00 4.5564218283e+00 
66100 4.6782637305e+00 -3.3870615128e-03 2.6307158634e+00 -4.5565335356e+00 2.6307158634e+00 4.5565335356e+00 
66200 4.6782634199e+00 -3.3809266579e-03 2.6307802389e+00 -4.5566450373e+00 2.6307802389e+00 4.5566450373e+00 
66300 4.6782631111e+00 -3.3748195738e-03 2.6308444963e+00 -4.5567563344e+00 2.6308444963e+00 4.5567563344e+00 
66400 4.6782628039e+00 -3.3687401102e-03 2.6309086360e+00 -4.5568674277e+00 2.6309086360e+00 4.5568674277e+00 
66500 4.6782624985e+00 -3.3626881177e-03 2.6309726586e+00 -4.5569783181e+00 2.6309726586e+00 4.5569783181e+00 
66600 4.6782621947e+00 -3.3566634476e-03 2.6310365647e+00 -4.5570890066e+00 2.6310365647e+00 4.5570890066e+00 
66700 4.6782618926e+00 -3.3506659524e-03 2.6311003547e+00 -4.5571994942e+00 2.6311003547e+00 4.5571994942e+00 
66800 4.6782615922e+00 -3.3446954852e-03 2.6311640292e+00 -4.5573097816e+00 2.6311640292e+00 4.5573097816e+00 
66900 4.6782612934e+00 -3.3387519002e-03 2.6312275887e+00 -4.5574198699e+00 2.6312275887e+00 4.5574198699e+00 
67000 4.6782609962e+00 -3.3328350523e-03 2.6312910337e+00 -4.5575297599e+00 2.6312910337e+00 4.5575297599e+00 
67100 4.6782607006e+00 -3.3269447974e-03 2.6313543648e+00 -4.5576394525e+00 2.6313543648e+00 4.5576394525e+00 
67200 4.6782604066e+00 -3.3210809922e-03 2.6314175824e+00 -4.5577489486e+00 2.6314175824e+00 4.5577489486e+00 
67300 4.6782601141e+00 -3.3152434942e-03 2.6314806870e+00 -4.5578582490e+00 2.6314806870e+00 4.5578582490e+00 
67400 4.6782598233e+00 -3.3094321619e-03 2.6315436792e+00 -4.5579673548e+00 2.6315436792e+00 4.5579673548e+00 
67500 4.6782595340e+00 -3.3036468545e-03 2.6316065596e+00 -4.5580762667e+00 2.6316065596e+00 4.5580762667e+00 
67600 4.6782592462e+00 -3.2978874322e-03 2.6316693284e+00 -4.5581849856e+00 2.6316693284e+00 4.5581849856e+00 
67700 4.6782589600e+00 -3.2921537559e-03 2.6317319864e+00 -4.5582935123e+00 2.6317319864e+00 4.5582935123e+00 
67800 4.6782586753e+00 -3.2864456873e-03 2.6317945339e+00 -4.5584018478e+00 2.6317945339e+00 4.5584018478e+00 
67900 4.6782583921e+00 -3.2807630891e-03 2.6318569715e+00 -4.5585099929e+00 2.6318569715e+00 4.5585099929e+00 
68000 4.6782581103e+00 -3.2751058246e-03 2.6319192997e+00 -4.5586179485e+00 2.6319192997e+00 4.5586179485e+00 
68100 4.6782578301e+00 -3.2694737580e-03 2.6319815189e+00 -4.5587257153e+00 2.6319815189e+00 4.5587257153e+00 
68200 4.6782575513e+00 -3.2638667545e-03 2.6320436296e+00 -4.5588332943e+00 2.6320436296e+00 4.5588332943e+00 
68300 4.6782572740e+00 -3.2582846797e-03 2.6321056324e+00 -4.5589406862e+00 2.6321056324e+00 4.5589406862e+00 
68400 4.6782569981e+00 -3.2527274004e-03 2.6321675277e+00 -4.5590478919e+00 2.6321675277e+00 4.5590478919e+00 
68500 4.6782567236e+00 -3.2471947840e-03 2.6322293159e+00 -4.5591549123e+00 2.6322293159e+00 4.5591549123e+00 
68600 4.6782564505e+00 -3.2416866986e-03 2.6322909976e+00 -4.5592617482e+00 2.6322909976e+00 4.5592617482e+00 
68700 4.6782561789e+00 -3.2362030132e-03 2.6323525732e+00 -4.5593684003e+00 2.6323525732e+00 4.5593684003e+00 
68800 4.6782559086e+00 -3.2307435976e-03 2.6324140433e+00 -4.5594748695e+00 2.6324140433e+00 4.5594748695e+00 
68900 4.6782556397e+00 -3.2253083223e-03 2.6324754081e+00 -4.5595811566e+00 2.6324754081e+00 4.5595811566e+00 
69000 4.6782553722e+00 -3.2198970586e-03 2.6325366684e+00 -4.5596872624e+00 2.6325366684e+00 4.5596872624e+00 
69100 4.6782551061e+00 -3.2145096785e-03 2.6325978244e+00 -4.5597931878e+00 2.6325978244e+00 4.5597931878e+00 
69200 4.6782548412e+00 -3.2091460549e-03 2.6326588767e+00 -4.5598989334e+00 2.6326588767e+00 4.5598989334e+00 
69300 4.6782545778e+00 -3.2038060612e-03 2.6327198257e+00 -4.5600045002e+00 2.6327198257e+00 4.5600045002e+00 
69400 4.6782543156e+00 -3.1984895718e-03 2.6327806718e+00 -4.5601098888e+00 2.6327806718e+00 4.5601098888e+00 
69500 4.6782540548e+00 -3.1931964617e-03 2.6328414156e+00 -4.5602151002e+00 2.6328414156e+00 4.5602151002e+00 
69600 4.6782537952e+00 -3.1879266067e-03 2.6329020575e+00 -4.5603201350e+00 2.6329020575e+00 4.5603201350e+00 
69700 4.6782535370e+00 -3.1826798833e-03 2.6329625979e+00 -4.5604249940e+00 2.6329625979e+00 4.5604249940e+00 
69800 4.6782532800e+00 -3.1774561687e-03 2.6330230373e+00 -4.5605296781e+00 2.6330230373e+00 4.5605296781e+00 
69900 4.6782530243e+00 -3.1722553408e-03 2.6330833761e+00 -4.5606341879e+00 2.6330833761e+00 4.5606341879e+00 
70000 4.6782527699e+00 -3.1670772783e-03 2.6331436147e+00 -4.5607385243e+00 2.6331436147e+00 4.5607385243e+00 
70100 4.6782525167e+00 -3.1619218606e-03 2.6332037537e+00 -4.5608426880e+00 2.6332037537e+00 4.5608426880e+00 
70200 4.6782522647e+00 -3.1567889677e-03 2.6332637933e+00 -4.5609466798e+00 2.6332637933e+00 4.5609466798e+00 
70300 4.6782520140e+00 -3.1516784804e-03 2.6333237342e+00 -4.5610505004e+00 2.6333237342e+00 4.5610505004e+00 
70400 4.6782517645e+00 -3.1465902802e-03 2.6333835766e+00 -4.5611541505e+00 2.6333835766e+00 4.5611541505e+00 
70500 4.6782515162e+00 -3.1415242493e-03 2.6334433211e+00 -4.5612576310e+00 2.6334433211e+00 4.5612576310e+00 
70600 4.6782512691e+00 -3.1364802705e-03 2.6335029680e+00 -4.5613609425e+00 2.6335029680e+00 4.5613609425e+00 
70700 4.6782510232e+00 -3.1314582272e-03 2.6335625178e+00 -4.5614640858e+00 2.6335625178e+00 4.5614640858e+00 
70800 4.6782507785e+00 -3.1264580039e-03 2.6336219709e+00 -4.5615670616e+00 2.6336219709e+00 4.5615670616e+00 
70900 4.6782505349e+00 -3.1214794852e-03 2.6336813278e+00 -4.5616698707e+00 2.6336813278e+00 4.5616698707e+00 
71000 4.6782502925e+00 -3.1165225568e-03 2.6337405888e+00 -4.5617725137e+00 2.6337405888e+00 4.5617725137e+00 
71100 4.6782500512e+00 -3.1115871049e-03 2.6337997543e+00 -4.5618749915e+00 2.6337997543e+00 4.5618749915e+00 
71200 4.6782498111e+00 -3.1066730165e-03 2.6338588249e+00 -4.5619773046e+00 2.6338588249e+00 4.5619773046e+00 
71300 4.6782495721e+00 -3.1017801789e-03 2.6339178008e+00 -4.5620794539e+00 2.6339178008e+00 4.5620794539e+00 
71400 4.6782493343e+00 -3.0969084804e-03 2.6339766825e+00 -4.5621814400e+00 2.6339766825e+00 4.5621814400e+00 
71500 4.6782490975e+00 -3.0920578099e-03 2.6340354704e+00 -4.5622832637e+00 2.6340354704e+00 4.5622832637e+00 
71600 4.6782488619e+00 -3.0872280568e-03 2.6340941649e+00 -4.5623849256e+00 2.6340941649e+00 4.5623849256e+00 
71700 4.6782486273e+00 -3.0824191112e-03 2.6341527665e+00 -4.5624864264e+00 2.6341527665e+00 4.5624864264e+00 
71800 4.6782483939e+00 -3.0776308639e-03 2.6342112754e+00 -4.5625877669e+00 2.6342112754e+00 4.5625877669e+00 
71900 4.6782481615e+00 -3.0728632063e-03 2.6342696922e+00 -4.5626889477e+00 2.6342696922e+00 4.5626889477e+00 
72000 4.6782479302e+00 -3.0681160304e-03 2.6343280172e+00 -4.5627899695e+00 2.6343280172e+00 4.5627899695e+00 
72100 4.6782476999e+00 -3.0633892289e-03 2.6343862508e+00 -4.5628908331e+00 2.6343862508e+00 4.5628908331e+00 
72200 4.6782474707e+00 -3.0586826949e-03 2.6344443933e+00 -4.5629915390e+00 2.6344443933e+00 4.5629915390e+00 
72300 4.6782472425e+00 -3.0539963223e-03 2.6345024453e+00 -4.5630920879e+00 2.6345024453e+00 4.5630920879e+00 
72400 4.6782470154e+00 -3.0493300057e-03 2.6345604071e+00 -4.5631924806e+00 2.6345604071e+00 4.5631924806e+00 
72500 4.6782467893e+00 -3.0446836402e-03 2.6346182790e+00 -4.5632927177e+00 2.6346182790e+00 4.5632927177e+00 
72600 4.6782465642e+00 -3.0400571213e-03 2.6346760614e+00 -4.5633927999e+00 2.6346760614e+00 4.5633927999e+00 
72700 4.6782463401e+00 -3.0354503454e-03 2.6347337548e+00 -4.5634927278e+00 2.6347337548e+00 4.5634927278e+00 
72800 4.6782461170e+00 -3.0308632094e-03 2.6347913595e+00 -4.5635925021e+00 2.6347913595e+00 4.5635925021e+00 
72900 4.6782458949e+00 -3.0262956107e-03 2.6348488759e+00 -4.5636921234e+00 2.6348488759e+00 4.5636921234e+00 
73000 4.6782456738e+00 -3.0217474475e-03 2.6349063044e+00 -4.5637915924e+00 2.6349063044e+00 4.5637915924e+00 
73100 4.6782454537e+00 -3.0172186183e-03 2.6349636453e+00 -4.5638909098e+00 2.6349636453e+00 4.5638909098e+00 
73200 4.6782452345e+00 -3.0127090224e-03 2.6350208990e+00 -4.5639900761e+00 2.6350208990e+00 4.5639900761e+00 
73300 4.6782450164e+00 -3.0082185596e-03 2.6350780659e+00 -4.5640890921e+00 2.6350780659e+00 4.5640890921e+00 
73400 4.6782447991e+00 -3.0037471302e-03 2.6351351464e+00 -4.5641879584e+00 2.6351351464e+00 4.5641879584e+00 
73500 4.6782445828e+00 -2.9992946353e-03 2.6351921408e+00 -4.5642866756e+00 2.6351921408e+00 4.5642866756e+00 
73600 4.6782443675e+00 -2.9948609762e-03 2.6352490495e+00 -4.5643852443e+00 2.6352490495e+00 4.5643852443e+00 
73700 4.6782441530e+00 -2.9904460551e-03 2.6353058728e+00 -4.5644836651e+00 2.6353058728e+00 4.5644836651e+00 
73800 4.6782439395e+00 -2.9860497747e-03 2.6353626111e+00 -4.5645819388e+00 2.6353626111e+00 4.5645819388e+00 
73900 4.6782437270e+00 -2.9816720380e-03 2.6354192648e+00 -4.5646800659e+00 2.6354192648e+00 4.5646800659e+00 
74000 4.6782435153e+00 -2.9773127488e-03 2.6354758342e+00 -4.5647780470e+00 2.6354758342e+00 4.5647780470e+00 
74100 4.6782433045e+00 -2.9729718114e-03 2.6355323197e+00 -4.5648758827e+00 2.6355323197e+00 4.5648758827e+00 
74200 4.6782430946e+00 -2.9686491306e-03 2.6355887216e+00 -4.5649735737e+00 2.6355887216e+00 4.5649735737e+00 
74300 4.6782428856e+00 -2.9643446118e-03 2.6356450404e+00 -4.5650711206e+00 2.6356450404e+00 4.5650711206e+00 
74400 4.6782426775e+00 -2.9600581608e-03 2.6357012762e+00 -4.5651685240e+00 2.6357012762e+00 4.5651685240e+00 
74500 4.6782424703e+00 -2.9557896842e-03 2.6357574296e+00 -4.5652657844e+00 2.6357574296e+00 4.5652657844e+00 
74600 4.6782422639e+00 -2.9515390888e-03 2.6358135007e+00 -4.5653629025e+00 2.6358135007e+00 4.5653629025e+00 
74700 4.6782420584e+00 -2.9473062821e-03 2.6358694901e+00 -4.5654598789e+00 2.6358694901e+00 4.5654598789e+00 
74800 4.6782418538e+00 -2.9430911723e-03 2.6359253979e+00 -4.5655567142e+00 2.6359253979e+00 4.5655567142e+00 
74900 4.6782416500e+00 -2.9388936677e-03 2.6359812247e+00 -4.5656534089e+00 2.6359812247e+00 4.5656534089e+00 
75000 4.6782414470e+00 -2.9347136774e-03 2.6360369706e+00 -4.5657499637e+00 2.6360369706e+00 4.5657499637e+00 
75100 4.6782412449e+00 -2.9305511110e-03 2.6360926360e+00 -4.5658463791e+00 2.6360926360e+00 4.5658463791e+00 
75200 4.6782410436e+00 -2.9264058786e-03 2.6361482214e+00 -4.5659426557e+00 2.6361482214e+00 4.5659426557e+00 
75300 4.6782408431e+00 -2.9222778908e-03 2.6362037269e+00 -4.5660387941e+00 2.6362037269e+00 4.5660387941e+00 
75400 4.6782406434e+00 -2.9181670585e-03 2.6362591530e+00 -4.5661347949e+00 2.6362591530e+00 4.5661347949e+00 
75500 4.6782404445e+00 -2.9140732935e-03 2.6363144999e+00 -4.5662306586e+00 2.6363144999e+00 4.5662306586e+00 
75600 4.6782402465e+00 -2.9099965077e-03 2.6363697680e+00 -4.5663263858e+00 2.6363697680e+00 4.5663263858e+00 
75700 4.6782400492e+00 -2.9059366138e-03 2.6364249577e+00 -4.5664219771e+00 2.6364249577e+00 4.5664219771e+00 
75800 4.6782398527e+00 -2.9018935248e-03 2.6364800692e+00 -4.5665174330e+00 2.6364800692e+00 4.5665174330e+00 
75900 4.6782396570e+00 -2.8978671542e-03 2.6365351029e+00 -4.5666127541e+00 2.6365351029e+00 4.5666127541e+00 
76000 4.6782394621e+00 -2.8938574161e-03 2.6365900590e+00 -4.5667079410e+00 2.6365900590e+00 4.5667079410e+00 
76100 4.6782392679e+00 -2.8898642250e-03 2.6366449380e+00 -4.5668029942e+00 2.6366449380e+00 4.5668029942e+00 
76200 4.6782390746e+00 -2.8858874960e-03 2.6366997401e+00 -4.5668979142e+00 2.6366997401e+00 4.5668979142e+00 
76300 4.6782388819e+00 -2.8819271443e-03 2.6367544657e+00 -4.5669927017e+00 2.6367544657e+00 4.5669927017e+00 
76400 4.6782386900e+00 -2.8779830861e-03 2.6368091150e+00 -4.5670873571e+00 2.6368091150e+00 4.5670873571e+00 
76500 4.6782384989e+00 -2.8740552377e-03 2.6368636884e+00 -4.5671818810e+00 2.6368636884e+00 4.5671818810e+00 
76600 4.6782383085e+00 -2.8701435160e-03 2.6369181862e+00 -4.5672762739e+00 2.6369181862e+00 4.5672762739e+00 
76700 4.6782381189e+00 -2.8662478383e-03 2.6369726087e+00 -4.5673705364e+00 2.6369726087e+00 4.5673705364e+00 
76800 4.6782379300e+00 -2.8623681225e-03 2.6370269562e+00 -4.5674646691e+00 2.6370269562e+00 4.5674646691e+00 
76900 4.6782377418e+00 -2.8585042867e-03 2.6370812290e+00 -4.5675586724e+00 2.6370812290e+00 4.5675586724e+00 
77000 4.6782375543e+00 -2.8546562498e-03 2.6371354275e+00 -4.5676525468e+00 2.6371354275e+00 4.5676525468e+00 
77100 4.6782373675e+00 -2.8508239308e-03 2.6371895519e+00 -4.5677462930e+00 2.6371895519e+00 4.5677462930e+00 
77200 4.6782371815e+00 -2.8470072494e-03 2.6372436025e+00 -4.5678399114e+00 2.6372436025e+00 4.5678399114e+00 
77300 4.6782369961e+00 -2.8432061256e-03 2.6372975796e+00 -4.5679334025e+00 2.6372975796e+00 4.5679334025e+00 
77400 4.6782368114e+00 -2.8394204800e-03 2.6373514836e+00 -4.5680267669e+00 2.6373514836e+00 4.5680267669e+00 
77500 4.6782366275e+00 -2.8356502335e-03 2.6374053146e+00 -4.5681200051e+00 2.6374053146e+00 4.5681200051e+00 
77600 4.6782364442e+00 -2.8318953075e-03 2.6374590732e+00 -4.5682131176e+00 2.6374590732e+00 4.5682131176e+00 
77700 4.6782362616e+00 -2.8281556238e-03 2.6375127594e+00 -4.5683061049e+00 2.6375127594e+00 4.5683061049e+00 
77800 4.6782360797e+00 -2.8244311046e-03 2.6375663736e+00 -4.5683989675e+00 2.6375663736e+00 4.5683989675e+00 
77900 4.6782358984e+00 -2.8207216727e-03 2.6376199162e+00 -4.5684917059e+00 2.6376199162e+00 4.5684917059e+00 
78000 4.6782357178e+00 -2.8170272511e-03 2.6376733873e+00 -4.5685843206e+00 2.6376733873e+00 4.5685843206e+00 
78100 4.6782355379e+00 -2.8133477634e-03 2.6377267874e+00 -4.5686768122e+00 2.6377267874e+00 4.5686768122e+00 
78200 4.6782353586e+00 -2.8096831335e-03 2.6377801166e+00 -4.5687691811e+00 2.6377801166e+00 4.5687691811e+00 
78300 4.6782351800e+00 -2.8060332858e-03 2.6378333752e+00 -4.5688614278e+00 2.6378333752e+00 4.5688614278e+00 
78400 4.6782350020e+00 -2.8023981451e-03 2.6378865636e+00 -4.5689535528e+00 2.6378865636e+00 4.5689535528e+00 
78500 4.6782348247e+00 -2.7987776367e-03 2.6379396820e+00 -4.5690455566e+00 2.6379396820e+00 4.5690455566e+00 
78600 4.6782346480e+00 -2.7951716860e-03 2.6379927308e+00 -4.5691374397e+00 2.6379927308e+00 4.5691374397e+00 
78700 4.6782344719e+00 -2.7915802192e-03 2.6380457101e+00 -4.5692292026e+00 2.6380457101e+00 4.5692292026e+00 
78800 4.6782342965e+00 -2.7880031627e-03 2.6380986203e+00 -4.5693208457e+00 2.6380986203e+00 4.5693208457e+00 
78900 4.6782341216e+00 -2.7844404433e-03 2.6381514616e+00 -4.5694123696e+00 2.6381514616e+00 4.5694123696e+00 
79000 4.6782339474e+00 -2.7808919883e-03 2.6382042343e+00 -4.5695037746e+00 2.6382042343e+00 4.5695037746e+00 
79100 4.6782337738e+00 -2.7773577252e-03 2.6382569388e+00 -4.5695950614e+00 2.6382569388e+00 4.5695950614e+00 
79200 4.6782336009e+00 -2.7738375822e-03 2.6383095752e+00 -4.5696862303e+00 2.6383095752e+00 4.5696862303e+00 
79300 4.6782334285e+00 -2.7703314877e-03 2.6383621438e+00 -4.5697772819e+00 2.6383621438e+00 4.5697772819e+00 
79400 4.6782332567e+00 -2.7668393704e-03 2.6384146450e+00 -4.5698682165e+00 2.6384146450e+00 4.5698682165e+00 
79500 4.6782330855e+00 -2.7633611597e-03 2.6384670789e+00 -4.5699590347e+00 2.6384670789e+00 4.5699590347e+00 
79600 4.6782329149e+00 -2.7598967850e-03 2.6385194458e+00 -4.5700497370e+00 2.6385194458e+00 4.5700497370e+00 
79700 4.6782327449e+00 -2.7564461764e-03 2.6385717461e+00 -4.5701403237e+00 2.6385717461e+00 4.5701403237e+00 
79800 4.6782325755e+00 -2.7530092642e-03 2.6386239800e+00 -4.5702307954e+00 2.6386239800e+00 4.5702307954e+00 
79900 4.6782324066e+00 -2.7495859792e-03 2.6386761477e+00 -4.5703211525e+00 2.6386761477e+00 4.5703211525e+00 
80000 4.6782322383e+00 -2.7461762525e-03 2.6387282495e+00 -4.5704113954e+00 2.6387282495e+00 4.5704113954e+00 
80100 4.6782320706e+00 -2.7427800156e-03 2.6387802856e+00 -4.5705015247e+00 2.6387802856e+00 4.5705015247e+00 
80200 4.6782319034e+00 -2.7393972004e-03 2.6388322564e+00 -4.5705915407e+00 2.6388322564e+00 4.5705915407e+00 
80300 4.6782317369e+00 -2.7360277391e-03 2.6388841620e+00 -4.5706814439e+00 2.6388841620e+00 4.5706814439e+00 
80400 4.6782315708e+00 -2.7326715642e-03 2.6389360028e+00 -4.5707712348e+00 2.6389360028e+00 4.5707712348e+00 
80500 4.6782314053e+00 -2.7293286089e-03 2.6389877790e+00 -4.5708609138e+00 2.6389877790e+00 4.5708609138e+00 
80600 4.6782312404e+00 -2.7259988064e-03 2.6390394908e+00 -4.5709504813e+00 2.6390394908e+00 4.5709504813e+00 
80700 4.6782310760e+00 -2.7226820904e-03 2.6390911386e+00 -4.5710399378e+00 2.6390911386e+00 4.5710399378e+00 
80800 4.6782309121e+00 -2.7193783950e-03 2.6391427224e+00 -4.5711292837e+00 2.6391427224e+00 4.5711292837e+00 
80900 4.6782307488e+00 -2.7160876546e-03 2.6391942427e+00 -4.5712185194e+00 2.6391942427e+00 4.5712185194e+00 
81000 4.6782305860e+00 -2.7128098040e-03 2.6392456996e+00 -4.5713076454e+00 2.6392456996e+00 4.5713076454e+00 
81100 4.6782304238e+00 -2.7095447783e-03 2.6392970935e+00 -4.5713966621e+00 2.6392970935e+00 4.5713966621e+00 
81200 4.6782302620e+00 -2.7062925129e-03 2.6393484244e+00 -4.5714855700e+00 2.6393484244e+00 4.5714855700e+00 
81300 4.6782301008e+00 -2.7030529438e-03 2.6393996928e+00 -4.5715743694e+00 2.6393996928e+00 4.5715743694e+00 
81400 4.6782299401e+00 -2.6998260070e-03 2.6394508988e+00 -4.5716630608e+00 2.6394508988e+00 4.5716630608e+00 
81500 4.6782297799e+00 -2.6966116392e-03 2.6395020426e+00 -4.5717516445e+00 2.6395020426e+00 4.5717516445e+00 
81600 4.6782296203e+00 -2.6934097770e-03 2.6395531246e+00 -4.5718401211e+00 2.6395531246e+00 4.5718401211e+00 
81700 4.6782294611e+00 -2.6902203579e-03 2.6396041450e+00 -4.5719284910e+00 2.6396041450e+00 4.5719284910e+00 
81800 4.6782293024e+00 -2.6870433192e-03 2.6396551039e+00 -4.5720167545e+00 2.6396551039e+00 4.5720167545e+00 
81900 4.6782291442e+00 -2.6838785988e-03 2.6397060017e+00 -4.5721049120e+00 2.6397060017e+00 4.5721049120e+00 
82000 4.6782289866e+00 -2.6807261351e-03 2.6397568386e+00 -4.5721929640e+00 2.6397568386e+00 4.5721929640e+00 
82100 4.6782288294e+00 -2.6775858664e-03 2.6398076147e+00 -4.5722809109e+00 2.6398076147e+00 4.5722809109e+00 
82200 4.6782286727e+00 -2.6744577318e-03 2.6398583305e+00 -4.5723687531e+00 2.6398583305e+00 4.5723687531e+00 
82300 4.6782285164e+00 -2.6713416703e-03 2.6399089859e+00 -4.5724564910e+00 2.6399089859e+00 4.5724564910e+00 
82400 4.6782283607e+00 -2.6682376215e-03 2.6399595814e+00 -4.5725441250e+00 2.6399595814e+00 4.5725441250e+00 
82500 4.6782282054e+00 -2.6651455252e-03 2.6400101172e+00 -4.5726316555e+00 2.6400101172e+00 4.5726316555e+00 
82600 4.6782280507e+00 -2.6620653217e-03 2.6400605934e+00 -4.5727190828e+00 2.6400605934e+00 4.5727190828e+00 
82700 4.6782278963e+00 -2.6589969514e-03 2.6401110103e+00 -4.5728064075e+00 2.6401110103e+00 4.5728064075e+00 
82800 4.6782277425e+00 -2.6559403552e-03 2.6401613681e+00 -4.5728936298e+00 2.6401613681e+00 4.5728936298e+00 
82900 4.6782275891e+00 -2.6528954741e-03 2.6402116671e+00 -4.5729807502e+00 2.6402116671e+00 4.5729807502e+00 
83000 4.6782274362e+00 -2.6498622496e-03 2.6402619075e+00 -4.5730677690e+00 2.6402619075e+00 4.5730677690e+00 
83100 4.6782272837e+00 -2.6468406234e-03 2.6403120894e+00 -4.5731546868e+00 2.6403120894e+00 4.5731546868e+00 
83200 4.6782271317e+00 -2.6438305377e-03 2.6403622132e+00 -4.5732415037e+00 2.6403622132e+00 4.5732415037e+00 
83300 4.6782269801e+00 -2.6408319348e-03 2.6404122791e+00 -4.5733282203e+00 2.6404122791e+00 4.5733282203e+00 
83400 4.6782268290e+00 -2.6378447573e-03 2.6404622872e+00 -4.5734148369e+00 2.6404622872e+00 4.5734148369e+00 
83500 4.6782266783e+00 -2.6348689484e-03 2.6405122378e+00 -4.5735013538e+00 2.6405122378e+00 4.5735013538e+00 
83600 4.6782265281e+00 -2.6319044512e-03 2.6405621311e+00 -4.5735877716e+00 2.6405621311e+00 4.5735877716e+00 
83700 4.6782263783e+00 -2.6289512093e-03 2.6406119673e+00 -4.5736740904e+00 2.6406119673e+00 4.5736740904e+00 
83800 4.6782262289e+00 -2.6260091667e-03 2.6406617466e+00 -4.5737603108e+00 2.6406617466e+00 4.5737603108e+00 
83900 4.6782260800e+00 -2.6230782676e-03 2.6407114694e+00 -4.5738464331e+00 2.6407114694e+00 4.5738464331e+00 
84000 4.6782259314e+00 -2.6201584564e-03 2.6407611356e+00 -4.5739324576e+00 2.6407611356e+00 4.5739324576e+00 
84100 4.6782257834e+00 -2.6172496779e-03 2.6408107457e+00 -4.5740183847e+00 2.6408107457e+00 4.5740183847e+00 
84200 4.6782256357e+00 -2.6143518772e-03 2.6408602998e+00 -4.5741042149e+00 2.6408602998e+00 4.5741042149e+00 
84300 4.6782254885e+00 -2.6114649997e-03 2.6409097980e+00 -4.5741899484e+00 2.6409097980e+00 4.5741899484e+00 
84400 4.6782253416e+00 -2.6085889910e-03 2.6409592407e+00 -4.5742755856e+00 2.6409592407e+00 4.5742755856e+00 
84500 4.6782251952e+00 -2.6057237971e-03 2.6410086280e+00 -4.5743611270e+00 2.6410086280e+00 4.5743611270e+00 
84600 4.6782250492e+00 -2.6028693642e-03 2.6410579602e+00 -4.5744465727e+00 2.6410579602e+00 4.5744465727e+00 
84700 4.6782249036e+00 -2.6000256388e-03 2.6411072373e+00 -4.5745319233e+00 2.6411072373e+00 4.5745319233e+00 
84800 4.6782247585e+00 -2.5971925678e-03 2.6411564597e+00 -4.5746171790e+00 2.6411564597e+00 4.5746171790e+00 
84900 4.6782246137e+00 -2.5943700981e-03 2.6412056276e+00 -4.5747023403e+00 2.6412056276e+00 4.5747023403e+00 
85000 4.6782244693e+00 -2.5915581772e-03 2.6412547411e+00 -4.5747874074e+00 2.6412547411e+00 4.5747874074e+00 
85100 4.6782243253e+00 -2.5887567528e-03 2.6413038005e+00 -4.5748723807e+00 2.6413038005e+00 4.5748723807e+00 
85200 4.6782241817e+00 -2.5859657726e-03 2.6413528059e+00 -4.5749572606e+00 2.6413528059e+00 4.5749572606e+00 
85300 4.6782240385e+00 -2.5831851850e-03 2.6414017576e+00 -4.5750420474e+00 2.6414017576e+00 4.5750420474e+00 
85400 4.6782238957e+00 -2.5804149383e-03 2.6414506558e+00 -4.5751267415e+00 2.6414506558e+00 4.5751267415e+00 
85500 4.6782237533e+00 -2.5776549813e-03 2.6414995006e+00 -4.5752113432e+00 2.6414995006e+00 4.5752113432e+00 
85600 4.6782236112e+00 -2.5749052631e-03 2.6415482923e+00 -4.5752958528e+00 2.6415482923e+00 4.5752958528e+00 
85700 4.6782234695e+00 -2.5721657328e-03 2.6415970310e+00 -4.5753802708e+00 2.6415970310e+00 4.5753802708e+00 
85800 4.6782233283e+00 -2.5694363401e-03 2.6416457169e+00 -4.5754645973e+00 2.6416457169e+00 4.5754645973e+00 
85900 4.6782231873e+00 -2.5667170347e-03 2.6416943503e+00 -4.5755488328e+00 2.6416943503e+00 4.5755488328e+00 
86000 4.6782230468e+00 -2.5640077667e-03 2.6417429314e+00 -4.5756329776e+00 2.6417429314e+00 4.5756329776e+00 
86100 4.6782229066e+00 -2.5613084864e-03 2.6417914602e+00 -4.5757170321e+00 2.6417914602e+00 4.5757170321e+00 
86200 4.6782227668e+00 -2.5586191444e-03 2.6418399371e+00 -4.5758009965e+00 2.6418399371e+00 4.5758009965e+00 
86300 4.6782226274e+00 -2.5559396916e-03 2.6418883622e+00 -4.5758848712e+00 2.6418883622e+00 4.5758848712e+00 
86400 4.6782224883e+00 -2.5532700791e-03 2.6419367357e+00 -4.5759686566e+00 2.6419367357e+00 4.5759686566e+00 
86500 4.6782223496e+00 -2.5506102583e-03 2.6419850578e+00 -4.5760523529e+00 2.6419850578e+00 4.5760523529e+00 
86600 4.6782222113e+00 -2.5479601806e-03 2.6420333286e+00 -4.5761359605e+00 2.6420333286e+00 4.5761359605e+00 
86700 4.6782220733e+00 -2.5453197982e-03 2.6420815485e+00 -4.5762194797e+00 2.6420815485e+00 4.5762194797e+00 
86800 4.6782219356e+00 -2.5426890629e-03 2.6421297175e+00 -4.5763029108e+00 2.6421297175e+00 4.5763029108e+00 
86900 4.6782217983e+00 -2.5400679273e-03 2.6421778358e+00 -4.5763862542e+00 2.6421778358e+00 4.5763862542e+00 
87000 4.6782216614e+00 -2.5374563440e-03 2.6422259036e+00 -4.5764695101e+00 2.6422259036e+00 4.5764695101e+00 
87100 4.6782215248e+00 -2.5348542657e-03 2.6422739212e+00 -4.5765526790e+00 2.6422739212e+00 4.5765526790e+00 
87200 4.6782213885e+00 -2.5322616457e-03 2.6423218886e+00 -4.5766357610e+00 2.6423218886e+00 4.5766357610e+00 
87300 4.6782212526e+00 -2.5296784373e-03 2.6423698061e+00 -4.5767187565e+00 2.6423698061e+00 4.5767187565e+00 
87400 4.6782211170e+00 -2.5271045941e-03 2.6424176738e+00 -4.5768016659e+00 2.6424176738e+00 4.5768016659e+00 
87500 4.6782209818e+00 -2.5245400699e-03 2.6424654920e+00 -4.5768844894e+00 2.6424654920e+00 4.5768844894e+00 
87600 4.6782208469e+00 -2.5219848189e-03 2.6425132608e+00 -4.5769672274e+00 2.6425132608e+00 4.5769672274e+00 
87700 4.6782207123e+00 -2.5194387952e-03 2.6425609804e+00 -4.5770498801e+00 2.6425609804e+00 4.5770498801e+00 
87800 4.6782205781e+00 -2.5169019536e-03 2.6426086509e+00 -4.5771324479e+00 2.6426086509e+00 4.5771324479e+00 
87900 4.6782204442e+00 -2.5143742489e-03 2.6426562726e+00 -4.5772149311e+00 2.6426562726e+00 4.5772149311e+00 
88000 4.6782203106e+00 -2.5118556359e-03 2.6427038456e+00 -4.5772973300e+00 2.6427038456e+00 4.5772973300e+00 
88100 4.6782201773e+00 -2.5093460700e-03 2.6427513701e+00 -4.5773796448e+00 2.6427513701e+00 4.5773796448e+00 
88200 4.6782200444e+00 -2.5068455068e-03 2.6427988463e+00 -4.5774618759e+00 2.6427988463e+00 4.5774618759e+00 
88300 4.6782199117e+00 -2.5043539019e-03 2.6428462743e+00 -4.5775440236e+00 2.6428462743e+00 4.5775440236e+00 
88400 4.6782197794e+00 -2.5018712112e-03 2.6428936543e+00 -4.5776260882e+00 2.6428936543e+00 4.5776260882e+00 
88500 4.6782196474e+00 -2.4993973911e-03 2.6429409865e+00 -4.5777080700e+00 2.6429409865e+00 4.5777080700e+00 
88600 4.6782195158e+00 -2.4969323978e-03 2.6429882710e+00 -4.5777899692e+00 2.6429882710e+00 4.5777899692e+00 
88700 4.6782193844e+00 -2.4944761881e-03 2.6430355081e+00 -4.5778717862e+00 2.6430355081e+00 4.5778717862e+00 
88800 4.6782192534e+00 -2.4920287187e-03 2.6430826978e+00 -4.5779535212e+00 2.6430826978e+00 4.5779535212e+00 
88900 4.6782191226e+00 -2.4895899468e-03 2.6431298404e+00 -4.5780351746e+00 2.6431298404e+00 4.5780351746e+00 
89000 4.6782189922e+00 -2.4871598297e-03 2.6431769360e+00 -4.5781167466e+00 2.6431769360e+00 4.5781167466e+00 
89100 4.6782188620e+00 -2.4847383249e-03 2.6432239849e+00 -4.5781982376e+00 2.6432239849e+00 4.5781982376e+00 
89200 4.6782187322e+00 -2.4823253901e-03 2.6432709870e+00 -4.5782796477e+00 2.6432709870e+00 4.5782796477e+00 
89300 4.6782186027e+00 -2.4799209834e-03 2.6433179427e+00 -4.5783609774e+00 2.6433179427e+00 4.5783609774e+00 
89400 4.6782184734e+00 -2.4775250629e-03 2.6433648521e+00 -4.5784422268e+00 2.6433648521e+00 4.5784422268e+00 
89500 4.6782183445e+00 -2.4751375869e-03 2.6434117154e+00 -4.5785233963e+00 2.6434117154e+00 4.5785233963e+00 
89600 4.6782182158e+00 -2.4727585142e-03 2.6434585326e+00 -4.5786044862e+00 2.6434585326e+00 4.5786044862e+00 
89700 4.6782180875e+00 -2.4703878035e-03 2.6435053040e+00 -4.5786854966e+00 2.6435053040e+00 4.5786854966e+00 
89800 4.6782179594e+00 -2.4680254139e-03 2.6435520298e+00 -4.5787664280e+00 2.6435520298e+00 4.5787664280e+00 
89900 4.6782178316e+00 -2.4656713047e-03 2.6435987100e+00 -4.5788472805e+00 2.6435987100e+00 4.5788472805e+00 
90000 4.6782177041e+00 -2.4633254351e-03 2.6436453449e+00 -4.5789280545e+00 2.6436453449e+00 4.5789280545e+00 
90100 4.6782175769e+00 -2.4609877651e-03 2.6436919346e+00 -4.5790087502e+00 2.6436919346e+00 4.5790087502e+00 
90200 4.6782174500e+00 -2.4586582543e-03 2.6437384792e+00 -4.5790893680e+00 2.6437384792e+00 4.5790893680e+00 
90300 4.6782173233e+00 -2.4563368630e-03 2.6437849790e+00 -4.5791699080e+00 2.6437849790e+00 4.5791699080e+00 
90400 4.6782171970e+00 -2.4540235513e-03 2.6438314341e+00 -4.5792503705e+00 2.6438314341e+00 4.5792503705e+00 
90500 4.6782170709e+00 -2.4517182798e-03 2.6438778446e+00 -4.5793307558e+00 2.6438778446e+00 4.5793307558e+00 
90600 4.6782169451e+00 -2.4494210091e-03 2.6439242107e+00 -4.5794110643e+00 2.6439242107e+00 4.5794110643e+00 
90700 4.6782168195e+00 -2.4471317002e-03 2.6439705325e+00 -4.5794912960e+00 2.6439705325e+00 4.5794912960e+00 
90800 4.6782166943e+00 -2.4448503141e-03 2.6440168102e+00 -4.5795714514e+00 2.6440168102e+00 4.5795714514e+00 
90900 4.6782165693e+00 -2.4425768121e-03 2.6440630440e+00 -4.5796515306e+00 2.6440630440e+00 4.5796515306e+00 
91000 4.6782164445e+00 -2.4403111557e-03 2.6441092340e+00 -4.5797315340e+00 2.6441092340e+00 4.5797315340e+00 
91100 4.6782163201e+00 -2.4380533067e-03 2.6441553803e+00 -4.5798114618e+00 2.6441553803e+00 4.5798114618e+00 
91200 4.6782161959e+00 -2.4358032268e-03 2.6442014831e+00 -4.5798913142e+00 2.6442014831e+00 4.5798913142e+00 
91300 4.6782160720e+00 -2.4335608782e-03 2.6442475426e+00 -4.5799710915e+00 2.6442475426e+00 4.5799710915e+00 
91400 4.6782159483e+00 -2.4313262230e-03 2.6442935588e+00 -4.5800507941e+00 2.6442935588e+00 4.5800507941e+00 
91500 4.6782158249e+00 -2.4290992239e-03 2.6443395321e+00 -4.5801304220e+00 2.6443395321e+00 4.5801304220e+00 
91600 4.6782157017e+00 -2.4268798434e-03 2.6443854624e+00 -4.5802099756e+00 2.6443854624e+00 4.5802099756e+00 
91700 4.6782155788e+00 -2.4246680444e-03 2.6444313499e+00 -4.5802894552e+00 2.6444313499e+00 4.5802894552e+00 
91800 4.6782154562e+00 -2.4224637899e-03 2.6444771948e+00 -4.5803688609e+00 2.6444771948e+00 4.5803688609e+00 
91900 4.6782153338e+00 -2.4202670432e-03 2.6445229973e+00 -4.5804481931e+00 2.6445229973e+00 4.5804481931e+00 
92000 4.6782152117e+00 -2.4180777676e-03 2.6445687574e+00 -4.5805274519e+00 2.6445687574e+00 4.5805274519e+00 
92100 4.6782150898e+00 -2.4158959267e-03 2.6446144753e+00 -4.5806066377e+00 2.6446144753e+00 4.5806066377e+00 
92200 4.6782149682e+00 -2.4137214843e-03 2.6446601512e+00 -4.5806857507e+00 2.6446601512e+00 4.5806857507e+00 
92300 4.6782148468e+00 -2.4115544045e-03 2.6447057852e+00 -4.5807647911e+00 2.6447057852e+00 4.5807647911e+00 
92400 4.6782147257e+00 -2.4093946512e-03 2.6447513775e+00 -4.5808437592e+00 2.6447513775e+00 4.5808437592e+00 
92500 4.6782146048e+00 -2.4072421889e-03 2.6447969281e+00 -4.5809226552e+00 2.6447969281e+00 4.5809226552e+00 
92600 4.6782144842e+00 -2.4050969821e-03 2.6448424373e+00 -4.5810014793e+00 2.6448424373e+00 4.5810014793e+00 
92700 4.6782143638e+00 -2.4029589955e-03 2.6448879051e+00 -4.5810802319e+00 2.6448879051e+00 4.5810802319e+00 
92800 4.6782142436e+00 -2.4008281938e-03 2.6449333317e+00 -4.5811589131e+00 2.6449333317e+00 4.5811589131e+00 
92900 4.6782141237e+00 -2.3987045423e-03 2.6449787172e+00 -4.5812375232e+00 2.6449787172e+00 4.5812375232e+00 
93000 4.6782140040e+00 -2.3965880060e-03 2.6450240619e+00 -4.5813160624e+00 2.6450240619e+00 4.5813160624e+00 
93100 4.6782138846e+00 -2.3944785505e-03 2.6450693657e+00 -4.5813945309e+00 2.6450693657e+00 4.5813945309e+00 
93200 4.6782137654e+00 -2.3923761412e-03 2.6451146289e+00 -4.5814729291e+00 2.6451146289e+00 4.5814729291e+00 
93300 4.6782136464e+00 -2.3902807440e-03 2.6451598515e+00 -4.5815512570e+00 2.6451598515e+00 4.5815512570e+00 
93400 4.6782135276e+00 -2.3881923247e-03 2.6452050338e+00 -4.5816295150e+00 2.6452050338e+00 4.5816295150e+00 
93500 4.6782134091e+00 -2.3861108495e-03 2.6452501759e+00 -4.5817077034e+00 2.6452501759e+00 4.5817077034e+00 
93600 4.6782132908e+00 -2.3840362846e-03 2.6452952778e+00 -4.5817858222e+00 2.6452952778e+00 4.5817858222e+00 
93700 4.6782131728e+00 -2.3819685964e-03 2.6453403398e+00 -4.5818638718e+00 2.6453403398e+00 4.5818638718e+00 
93800 4.6782130550e+00 -2.3799077516e-03 2.6453853618e+00 -4.5819418523e+00 2.6453853618e+00 4.5819418523e+00 
93900 4.6782129374e+00 -2.3778537170e-03 2.6454303442e+00 -4.5820197641e+00 2.6454303442e+00 4.5820197641e+00 
94000 4.6782128200e+00 -2.3758064594e-03 2.6454752870e+00 -4.5820976073e+00 2.6454752870e+00 4.5820976073e+00 
94100 4.6782127028e+00 -2.3737659460e-03 2.6455201903e+00 -4.5821753821e+00 2.6455201903e+00 4.5821753821e+00 
94200 4.6782125859e+00 -2.3717321441e-03 2.6455650544e+00 -4.5822530889e+00 2.6455650544e+00 4.5822530889e+00 
94300 4.6782124692e+00 -2.3697050211e-03 2.6456098792e+00 -4.5823307277e+00 2.6456098792e+00 4.5823307277e+00 
94400 4.6782123527e+00 -2.3676845446e-03 2.6456546649e+00 -4.5824082989e+00 2.6456546649e+00 4.5824082989e+00 
94500 4.6782122364e+00 -2.3656706824e-03 2.6456994117e+00 -4.5824858026e+00 2.6456994117e+00 4.5824858026e+00 
94600 4.6782121204e+00 -2.3636634025e-03 2.6457441197e+00 -4.5825632391e+00 2.6457441197e+00 4.5825632391e+00 
94700 4.6782120045e+00 -2.3616626728e-03 2.6457887890e+00 -4.5826406086e+00 2.6457887890e+00 4.5826406086e+00 
94800 4.6782118889e+00 -2.3596684617e-03 2.6458334197e+00 -4.5827179112e+00 2.6458334197e+00 4.5827179112e+00 
94900 4.6782117735e+00 -2.3576807375e-03 2.6458780120e+00 -4.5827951473e+00 2.6458780120e+00 4.5827951473e+00 
95000 4.6782116583e+00 -2.3556994689e-03 2.6459225659e+00 -4.5828723171e+00 2.6459225659e+00 4.5828723171e+00 
95100 4.6782115433e+00 -2.3537246246e-03 2.6459670817e+00 -4.5829494207e+00 2.6459670817e+00 4.5829494207e+00 
95200 4.6782114285e+00 -2.3517561734e-03 2.6460115594e+00 -4.5830264583e+00 2.6460115594e+00 4.5830264583e+00 
95300 4.6782113140e+00 -2.3497940844e-03 2.6460559992e+00 -4.5831034303e+00 2.6460559992e+00 4.5831034303e+00 
95400 4.6782111996e+00 -2.3478383268e-03 2.6461004011e+00 -4.5831803367e+00 2.6461004011e+00 4.5831803367e+00 
95500 4.6782110854e+00 -2.3458888699e-03 2.6461447654e+00 -4.5832571778e+00 2.6461447654e+00 4.5832571778e+00 
95600 4.6782109715e+00 -2.3439456833e-03 2.6461890920e+00 -4.5833339538e+00 2.6461890920e+00 4.5833339538e+00 
95700 4.6782108577e+00 -2.3420087366e-03 2.6462333812e+00 -4.5834106650e+00 2.6462333812e+00 4.5834106650e+00 
95800 4.6782107442e+00 -2.3400779997e-03 2.6462776331e+00 -4.5834873115e+00 2.6462776331e+00 4.5834873115e+00 
95900 4.6782106308e+00 -2.3381534424e-03 2.6463218478e+00 -4.5835638935e+00 2.6463218478e+00 4.5835638935e+00 
96000 4.6782105177e+00 -2.3362350349e-03 2.6463660253e+00 -4.5836404112e+00 2.6463660253e+00 4.5836404112e+00 
96100 4.6782104047e+00 -2.3343227474e-03 2.6464101659e+00 -4.5837168649e+00 2.6464101659e+00 4.5837168649e+00 
96200 4.6782102920e+00 -2.3324165504e-03 2.6464542696e+00 -4.5837932548e+00 2.6464542696e+00 4.5837932548e+00 
96300 4.6782101794e+00 -2.3305164144e-03 2.6464983365e+00 -4.5838695810e+00 2.6464983365e+00 4.5838695810e+00 
96400 4.6782100671e+00 -2.3286223102e-03 2.6465423668e+00 -4.5839458437e+00 2.6465423668e+00 4.5839458437e+00 
96500 4.6782099549e+00 -2.3267342085e-03 2.6465863606e+00 -4.5840220432e+00 2.6465863606e+00 4.5840220432e+00 
96600 4.6782098430e+00 -2.3248520804e-03 2.6466303180e+00 -4.5840981796e+00 2.6466303180e+00 4.5840981796e+00 
96700 4.6782097312e+00 -2.3229758970e-03 2.6466742391e+00 -4.5841742532e+00 2.6466742391e+00 4.5841742532e+00 
96800 4.6782096196e+00 -2.3211056296e-03 2.6467181240e+00 -4.5842502641e+00 2.6467181240e+00 4.5842502641e+00 
96900 4.6782095082e+00 -2.3192412497e-03 2.6467619729e+00 -4.5843262126e+00 2.6467619729e+00 4.5843262126e+00 
97000 4.6782093970e+00 -2.3173827287e-03 2.6468057858e+00 -4.5844020988e+00 2.6468057858e+00 4.5844020988e+00 
97100 4.6782092860e+00 -2.3155300384e-03 2.6468495629e+00 -4.5844779230e+00 2.6468495629e+00 4.5844779230e+00 
97200 4.6782091752e+00 -2.3136831507e-03 2.6468933043e+00 -4.5845536852e+00 2.6468933043e+00 4.5845536852e+00 
97300 4.6782090645e+00 -2.3118420376e-03 2.6469370100e+00 -4.5846293858e+00 2.6469370100e+00 4.5846293858e+00 
97400 4.6782089541e+00 -2.3100066711e-03 2.6469806803e+00 -4.5847050249e+00 2.6469806803e+00 4.5847050249e+00 
97500 4.6782088438e+00 -2.3081770237e-03 2.6470243152e+00 -4.5847806027e+00 2.6470243152e+00 4.5847806027e+00 
97600 4.6782087337e+00 -2.3063530675e-03 2.6470679147e+00 -4.5848561194e+00 2.6470679147e+00 4.5848561194e+00 
97700 4.6782086238e+00 -2.3045347753e-03 2.6471114792e+00 -4.5849315752e+00 2.6471114792e+00 4.5849315752e+00 
97800 4.6782085141e+00 -2.3027221198e-03 2.6471550085e+00 -4.5850069703e+00 2.6471550085e+00 4.5850069703e+00 
97900 4.6782084045e+00 -2.3009150736e-03 2.6471985029e+00 -4.5850823048e+00 2.6471985029e+00 4.5850823048e+00 
98000 4.6782082952e+00 -2.2991136098e-03 2.6472419625e+00 -4.5851575789e+00 2.6472419625e+00 4.5851575789e+00 
98100 4.6782081860e+00 -2.2973177015e-03 2.6472853873e+00 -4.5852327929e+00 2.6472853873e+00 4.5852327929e+00 
98200 4.6782080770e+00 -2.2955273218e-03 2.6473287775e+00 -4.5853079469e+00 2.6473287775e+00 4.5853079469e+00 
98300 4.6782079682e+00 -2.2937424442e-03 2.6473721331e+00 -4.5853830411e+00 2.6473721331e+00 4.5853830411e+00 
98400 4.6782078595e+00 -2.2919630422e-03 2.6474154544e+00 -4.5854580757e+00 2.6474154544e+00 4.5854580757e+00 
98500 4.6782077511e+00 -2.2901890893e-03 2.6474587413e+00 -4.5855330509e+00 2.6474587413e+00 4.5855330509e+00 
98600 4.6782076427e+00 -2.2884205593e-03 2.6475019940e+00 -4.5856079667e+00 2.6475019940e+00 4.5856079667e+00 
98700 4.6782075346e+00 -2.2866574260e-03 2.6475452126e+00 -4.5856828236e+00 2.6475452126e+00 4.5856828236e+00 
98800 4.6782074267e+00 -2.2848996636e-03 2.6475883972e+00 -4.5857576215e+00 2.6475883972e+00 4.5857576215e+00 
98900 4.6782073189e+00 -2.2831472461e-03 2.6476315479e+00 -4.5858323607e+00 2.6476315479e+00 4.5858323607e+00 
99000 4.6782072113e+00 -2.2814001477e-03 2.6476746648e+00 -4.5859070414e+00 2.6476746648e+00 4.5859070414e+00 
99100 4.6782071038e+00 -2.2796583430e-03 2.6477177480e+00 -4.5859816637e+00 2.6477177480e+00 4.5859816637e+00 
99200 4.6782069966e+00 -2.2779218064e-03 2.6477607976e+00 -4.5860562278e+00 2.6477607976e+00 4.5860562278e+00 
99300 4.6782068894e+00 -2.2761905125e-03 2.6478038137e+00 -4.5861307339e+00 2.6478038137e+00 4.5861307339e+00 
99400 4.6782067825e+00 -2.2744644361e-03 2.6478467965e+00 -4.5862051822e+00 2.6478467965e+00 4.5862051822e+00 
99500 4.6782066757e+00 -2.2727435522e-03 2.6478897459e+00 -4.5862795728e+00 2.6478897459e+00 4.5862795728e+00 
99600 4.6782065691e+00 -2.2710278357e-03 2.6479326622e+00 -4.5863539059e+00 2.6479326622e+00 4.5863539059e+00 
99700 4.6782064627e+00 -2.2693172618e-03 2.6479755453e+00 -4.5864281817e+00 2.6479755453e+00 4.5864281817e+00 
99800 4.6782063564e+00 -2.2676118057e-03 2.6480183955e+00 -4.5865024003e+00 2.6480183955e+00 4.5865024003e+00 
99900 4.6782062503e+00 -2.2659114428e-03 2.6480612127e+00 -4.5865765620e+00 2.6480612127e+00 4.5865765620e+00 
100000 4.6782061443e+00 -2.2642161488e-03 2.6481039972e+00 -4.5866506669e+00 2.6481039972e+00 4.5866506669e+00 
100100 4.6782060386e+00 -2.2625258990e-03 2.6481467490e+00 -4.5867247151e+00 2.6481467490e+00 4.5867247151e+00 
100200 4.6782059329e+00 -2.2608406695e-03 2.6481894681e+00 -4.5867987068e+00 2.6481894681e+00 4.5867987068e+00 
100300 4.6782058275e+00 -2.2591604359e-03 2.6482321548e+00 -4.5868726423e+00 2.6482321548e+00 4.5868726423e+00 
100400 4.6782057221e+00 -2.2574851743e-03 2.6482748090e+00 -4.5869465216e+00 2.6482748090e+00 4.5869465216e+00 
100500 4.6782056170e+00 -2.2558148608e-03 2.6483174309e+00 -4.5870203449e+00 2.6483174309e+00 4.5870203449e+00 
100600 4.6782055120e+00 -2.2541494716e-03 2.6483600206e+00 -4.5870941125e+00 2.6483600206e+00 4.5870941125e+00 
100700 4.6782054072e+00 -2.2524889831e-03 2.6484025782e+00 -4.5871678243e+00 2.6484025782e+00 4.5871678243e+00 
100800 4.6782053025e+00 -2.2508333717e-03 2.6484451037e+00 -4.5872414807e+00 2.6484451037e+00 4.5872414807e+00 
100900 4.6782051980e+00 -2.2491826140e-03 2.6484875973e+00 -4.5873150818e+00 2.6484875973e+00 4.5873150818e+00 
101000 4.6782050936e+00 -2.2475366866e-03 2.6485300591e+00 -4.5873886277e+00 2.6485300591e+00 4.5873886277e+00 
101100 4.6782049894e+00 -2.2458955665e-03 2.6485724891e+00 -4.5874621186e+00 2.6485724891e+00 4.5874621186e+00 
101200 4.6782048853e+00 -2.2442592305e-03 2.6486148874e+00 -4.5875355547e+00 2.6486148874e+00 4.5875355547e+00 
101300 4.6782047814e+00 -2.2426276556e-03 2.6486572542e+00 -4.5876089361e+00 2.6486572542e+00 4.5876089361e+00 
101400 4.6782046776e+00 -2.2410008190e-03 2.6486995895e+00 -4.5876822630e+00 2.6486995895e+00 4.5876822630e+00 
101500 4.6782045740e+00 -2.2393786980e-03 2.6487418934e+00 -4.5877555355e+00 2.6487418934e+00 4.5877555355e+00 
101600 4.6782044706e+00 -2.2377612698e-03 2.6487841660e+00 -4.5878287538e+00 2.6487841660e+00 4.5878287538e+00 
101700 4.6782043673e+00 -2.2361485121e-03 2.6488264074e+00 -4.5879019181e+00 2.6488264074e+00 4.5879019181e+00 
101800 4.6782042641e+00 -2.2345404023e-03 2.6488686177e+00 -4.5879750284e+00 2.6488686177e+00 4.5879750284e+00 
101900 4.6782041611e+00 -2.2329369182e-03 2.6489107970e+00 -4.5880480851e+00 2.6489107970e+00 4.5880480851e+00 
102000 4.6782040582e+00 -2.2313380377e-03 2.6489529453e+00 -4.5881210881e+00 2.6489529453e+00 4.5881210881e+00 
102100 4.6782039555e+00 -2.2297437385e-03 2.6489950628e+00 -4.5881940377e+00 2.6489950628e+00 4.5881940377e+00 
102200 4.6782038529e+00 -2.2281539987e-03 2.6490371495e+00 -4.5882669340e+00 2.6490371495e+00 4.5882669340e+00 
102300 4.6782037505e+00 -2.2265687966e-03 2.6490792055e+00 -4.5883397772e+00 2.6490792055e+00 4.5883397772e+00 
102400 4.6782036482e+00 -2.2249881102e-03 2.6491212309e+00 -4.5884125674e+00 2.6491212309e+00 4.5884125674e+00 
102500 4.6782035461e+00 -2.2234119180e-03 2.6491632259e+00 -4.5884853048e+00 2.6491632259e+00 4.5884853048e+00 
102600 4.6782034441e+00 -2.2218401985e-03 2.6492051904e+00 -4.5885579895e+00 2.6492051904e+00 4.5885579895e+00 
102700 4.6782033422e+00 -2.2202729301e-03 2.6492471246e+00 -4.5886306216e+00 2.6492471246e+00 4.5886306216e+00 
102800 4.6782032405e+00 -2.2187100915e-03 2.6492890286e+00 -4.5887032014e+00 2.6492890286e+00 4.5887032014e+00 
102900 4.6782031390e+00 -2.2171516616e-03 2.6493309024e+00 -4.5887757290e+00 2.6493309024e+00 4.5887757290e+00 
103000 4.6782030375e+00 -2.2155976191e-03 2.6493727461e+00 -4.5888482044e+00 2.6493727461e+00 4.5888482044e+00 
103100 4.6782029363e+00 -2.2140479431e-03 2.6494145598e+00 -4.5889206280e+00 2.6494145598e+00 4.5889206280e+00 
103200 4.6782028351e+00 -2.2125026127e-03 2.6494563437e+00 -4.5889929997e+00 2.6494563437e+00 4.5889929997e+00 
103300 4.6782027341e+00 -2.2109616069e-03 2.6494980977e+00 -4.5890653197e+00 2.6494980977e+00 4.5890653197e+00 
103400 4.6782026332e+00 -2.2094249052e-03 2.6495398219e+00 -4.5891375883e+00 2.6495398219e+00 4.5891375883e+00 
103500 4.6782025325e+00 -2.2078924869e-03 2.6495815166e+00 -4.5892098055e+00 2.6495815166e+00 4.5892098055e+00 
103600 4.6782024319e+00 -2.2063643314e-03 2.6496231816e+00 -4.5892819714e+00 2.6496231816e+00 4.5892819714e+00 
103700 4.6782023315e+00 -2.2048404184e-03 2.6496648171e+00 -4.5893540863e+00 2.6496648171e+00 4.5893540863e+00 
103800 4.6782022311e+00 -2.2033207275e-03 2.6497064233e+00 -4.5894261503e+00 2.6497064233e+00 4.5894261503e+00 
103900 4.6782021309e+00 -2.2018052386e-03 2.6497480001e+00 -4.5894981634e+00 2.6497480001e+00 4.5894981634e+00 
104000 4.6782020309e+00 -2.2002939315e-03 2.6497895476e+00 -4.5895701259e+00 2.6497895476e+00 4.5895701259e+00 
104100 4.6782019310e+00 -2.1987867862e-03 2.6498310660e+00 -4.5896420378e+00 2.6498310660e+00 4.5896420378e+00 
104200 4.6782018312e+00 -2.1972837827e-03 2.6498725553e+00 -4.5897138994e+00 2.6498725553e+00 4.5897138994e+00 
104300 4.6782017315e+00 -2.1957849013e-03 2.6499140156e+00 -4.5897857107e+00 2.6499140156e+00 4.5897857107e+00 
104400 4.6782016320e+00 -2.1942901222e-03 2.6499554470e+00 -4.5898574719e+00 2.6499554470e+00 4.5898574719e+00 
104500 4.6782015326e+00 -2.1927994258e-03 2.6499968495e+00 -4.5899291832e+00 2.6499968495e+00 4.5899291832e+00 
104600 4.6782014334e+00 -2.1913127926e-03 2.6500382232e+00 -4.5900008446e+00 2.6500382232e+00 4.5900008446e+00 
104700 4.6782013343e+00 -2.1898302031e-03 2.6500795682e+00 -4.5900724563e+00 2.6500795682e+00 4.5900724563e+00 
104800 4.6782012353e+00 -2.1883516379e-03 2.6501208846e+00 -4.5901440184e+00 2.6501208846e+00 4.5901440184e+00 
104900 4.6782011364e+00 -2.1868770779e-03 2.6501621725e+00 -4.5902155311e+00 2.6501621725e+00 4.5902155311e+00 
105000 4.6782010377e+00 -2.1854065038e-03 2.6502034319e+00 -4.5902869945e+00 2.6502034319e+00 4.5902869945e+00 
105100 4.6782009391e+00 -2.1839398966e-03 2.6502446630e+00 -4.5903584087e+00 2.6502446630e+00 4.5903584087e+00 
105200 4.6782008406e+00 -2.1824772373e-03 2.6502858657e+00 -4.5904297739e+00 2.6502858657e+00 4.5904297739e+00 
105300 4.6782007422e+00 -2.1810185071e-03 2.6503270402e+00 -4.5905010902e+00 2.6503270402e+00 4.5905010902e+00 
105400 4.6782006440e+00 -2.1795636871e-03 2.6503681865e+00 -4.5905723577e+00 2.6503681865e+00 4.5905723577e+00 
105500 4.6782005459e+00 -2.1781127587e-03 2.6504093047e+00 -4.5906435766e+00 2.6504093047e+00 4.5906435766e+00 
105600 4.6782004479e+00 -2.1766657032e-03 2.6504503949e+00 -4.5907147470e+00 2.6504503949e+00 4.5907147470e+00 
105700 4.6782003501e+00 -2.1752225022e-03 2.6504914572e+00 -4.5907858690e+00 2.6504914572e+00 4.5907858690e+00 
105800 4.6782002524e+00 -2.1737831372e-03 2.6505324917e+00 -4.5908569427e+00 2.6505324917e+00 4.5908569427e+00 
105900 4.6782001548e+00 -2.1723475899e-03 2.6505734983e+00 -4.5909279683e+00 2.6505734983e+00 4.5909279683e+00 
106000 4.6782000573e+00 -2.1709158420e-03 2.6506144772e+00 -4.5909989458e+00 2.6506144772e+00 4.5909989458e+00 
106100 4.6781999600e+00 -2.1694878753e-03 2.6506554285e+00 -4.5910698756e+00 2.6506554285e+00 4.5910698756e+00 
106200 4.6781998627e+00 -2.1680636719e-03 2.6506963522e+00 -4.5911407575e+00 2.6506963522e+00 4.5911407575e+00 
106300 4.6781997656e+00 -2.1666432137e-03 2.6507372485e+00 -4.5912115918e+00 2.6507372485e+00 4.5912115918e+00 
106400 4.6781996687e+00 -2.1652264828e-03 2.6507781173e+00 -4.5912823787e+00 2.6507781173e+00 4.5912823787e+00 
106500 4.6781995718e+00 -2.1638134614e-03 2.6508189587e+00 -4.5913531181e+00 2.6508189587e+00 4.5913531181e+00 
106600 4.6781994751e+00 -2.1624041319e-03 2.6508597729e+00 -4.5914238103e+00 2.6508597729e+00 4.5914238103e+00 
106700 4.6781993784e+00 -2.1609984765e-03 2.6509005598e+00 -4.5914944554e+00 2.6509005598e+00 4.5914944554e+00 
106800 4.6781992819e+00 -2.1595964777e-03 2.6509413196e+00 -4.5915650535e+00 2.6509413196e+00 4.5915650535e+00 
106900 4.6781991856e+00 -2.1581981181e-03 2.6509820524e+00 -4.5916356046e+00 2.6509820524e+00 4.5916356046e+00 
107000 4.6781990893e+00 -2.1568033802e-03 2.6510227581e+00 -4.5917061090e+00 2.6510227581e+00 4.5917061090e+00 
107100 4.6781989932e+00 -2.1554122468e-03 2.6510634369e+00 -4.5917765668e+00 2.6510634369e+00 4.5917765668e+00 
107200 4.6781988971e+00 -2.1540247007e-03 2.6511040888e+00 -4.5918469780e+00 2.6511040888e+00 4.5918469780e+00 
107300 4.6781988012e+00 -2.1526407247e-03 2.6511447140e+00 -4.5919173429e+00 2.6511447140e+00 4.5919173429e+00 
107400 4.6781987054e+00 -2.1512603018e-03 2.6511853124e+00 -4.5919876614e+00 2.6511853124e+00 4.5919876614e+00 
107500 4.6781986098e+00 -2.1498834150e-03 2.6512258842e+00 -4.5920579338e+00 2.6512258842e+00 4.5920579338e+00 
107600 4.6781985142e+00 -2.1485100475e-03 2.6512664294e+00 -4.5921281601e+00 2.6512664294e+00 4.5921281601e+00 
107700 4.6781984188e+00 -2.1471401824e-03 2.6513069481e+00 -4.5921983405e+00 2.6513069481e+00 4.5921983405e+00 
107800 4.6781983235e+00 -2.1457738030e-03 2.6513474403e+00 -4.5922684751e+00 2.6513474403e+00 4.5922684751e+00 
107900 4.6781982282e+00 -2.1444108927e-03 2.6513879061e+00 -4.5923385639e+00 2.6513879061e+00 4.5923385639e+00 
108000 4.6781981332e+00 -2.1430514350e-03 2.6514283456e+00 -4.5924086072e+00 2.6514283456e+00 4.5924086072e+00 
108100 4.6781980382e+00 -2.1416954133e-03 2.6514687588e+00 -4.5924786050e+00 2.6514687588e+00 4.5924786050e+00 
108200 4.6781979433e+00 -2.1403428113e-03 2.6515091459e+00 -4.5925485575e+00 2.6515091459e+00 4.5925485575e+00 
108300 4.6781978486e+00 -2.1389936126e-03 2.6515495069e+00 -4.5926184647e+00 2.6515495069e+00 4.5926184647e+00 
108400 4.6781977539e+00 -2.1376478011e-03 2.6515898417e+00 -4.5926883267e+00 2.6515898417e+00 4.5926883267e+00 
108500 4.6781976594e+00 -2.1363053605e-03 2.6516301506e+00 -4.5927581438e+00 2.6516301506e+00 4.5927581438e+00 
108600 4.6781975650e+00 -2.1349662747e-03 2.6516704336e+00 -4.5928279159e+00 2.6516704336e+00 4.5928279159e+00 
108700 4.6781974707e+00 -2.1336305278e-03 2.6517106907e+00 -4.5928976433e+00 2.6517106907e+00 4.5928976433e+00 
108800 4.6781973765e+00 -2.1322981039e-03 2.6517509220e+00 -4.5929673260e+00 2.6517509220e+00 4.5929673260e+00 
108900 4.6781972824e+00 -2.1309689870e-03 2.6517911276e+00 -4.5930369641e+00 2.6517911276e+00 4.5930369641e+00 
109000 4.6781971884e+00 -2.1296431615e-03 2.6518313075e+00 -4.5931065577e+00 2.6518313075e+00 4.5931065577e+00 
109100 4.6781970946e+00 -2.1283206115e-03 2.6518714618e+00 -4.5931761070e+00 2.6518714618e+00 4.5931761070e+00 
109200 4.6781970008e+00 -2.1270013216e-03 2.6519115906e+00 -4.5932456120e+00 2.6519115906e+00 4.5932456120e+00 
109300 4.6781969072e+00 -2.1256852761e-03 2.6519516938e+00 -4.5933150730e+00 2.6519516938e+00 4.5933150730e+00 
109400 4.6781968136e+00 -2.1243724597e-03 2.6519917717e+00 -4.5933844898e+00 2.6519917717e+00 4.5933844898e+00 
109500 4.6781967202e+00 -2.1230628567e-03 2.6520318242e+00 -4.5934538628e+00 2.6520318242e+00 4.5934538628e+00 
109600 4.6781966269e+00 -2.1217564521e-03 2.6520718514e+00 -4.5935231919e+00 2.6520718514e+00 4.5935231919e+00 
109700 4.6781965337e+00 -2.1204532305e-03 2.6521118534e+00 -4.5935924774e+00 2.6521118534e+00 4.5935924774e+00 
109800 4.6781964406e+00 -2.1191531767e-03 2.6521518302e+00 -4.5936617192e+00 2.6521518302e+00 4.5936617192e+00 
109900 4.6781963476e+00 -2.1178562757e-03 2.6521917818e+00 -4.5937309175e+00 2.6521917818e+00 4.5937309175e+00 
110000 4.6781962547e+00 -2.1165625124e-03 2.6522317085e+00 -4.5938000725e+00 2.6522317085e+00 4.5938000725e+00 
110100 4.6781961619e+00 -2.1152718718e-03 2.6522716101e+00 -4.5938691842e+00 2.6522716101e+00 4.5938691842e+00 
110200 4.6781960693e+00 -2.1139843391e-03 2.6523114868e+00 -4.5939382526e+00 2.6523114868e+00 4.5939382526e+00 
110300 4.6781959767e+00 -2.1126998995e-03 2.6523513386e+00 -4.5940072781e+00 2.6523513386e+00 4.5940072781e+00 
110400 4.6781958842e+00 -2.1114185383e-03 2.6523911657e+00 -4.5940762605e+00 2.6523911657e+00 4.5940762605e+00 
110500 4.6781957919e+00 -2.1101402407e-03 2.6524309679e+00 -4.5941452000e+00 2.6524309679e+00 4.5941452000e+00 
110600 4.6781956996e+00 -2.1088649921e-03 2.6524707455e+00 -4.5942140968e+00 2.6524707455e+00 4.5942140968e+00 
110700 4.6781956075e+00 -2.1075927781e-03 2.6525104985e+00 -4.5942829509e+00 2.6525104985e+00 4.5942829509e+00 
110800 4.6781955154e+00 -2.1063235842e-03 2.6525502268e+00 -4.5943517625e+00 2.6525502268e+00 4.5943517625e+00 
110900 4.6781954235e+00 -2.1050573959e-03 2.6525899307e+00 -4.5944205316e+00 2.6525899307e+00 4.5944205316e+00 
111000 4.6781953316e+00 -2.1037941991e-03 2.6526296100e+00 -4.5944892583e+00 2.6526296100e+00 4.5944892583e+00 
111100 4.6781952399e+00 -2.1025339793e-03 2.6526692650e+00 -4.5945579427e+00 2.6526692650e+00 4.5945579427e+00 
111200 4.6781951483e+00 -2.1012767225e-03 2.6527088957e+00 -4.5946265850e+00 2.6527088957e+00 4.5946265850e+00 
111300 4.6781950567e+00 -2.1000224145e-03 2.6527485020e+00 -4.5946951852e+00 2.6527485020e+00 4.5946951852e+00 
111400 4.6781949653e+00 -2.0987710413e-03 2.6527880841e+00 -4.5947637434e+00 2.6527880841e+00 4.5947637434e+00 
111500 4.6781948740e+00 -2.0975225890e-03 2.6528276420e+00 -4.5948322597e+00 2.6528276420e+00 4.5948322597e+00 
111600 4.6781947827e+00 -2.0962770435e-03 2.6528671759e+00 -4.5949007343e+00 2.6528671759e+00 4.5949007343e+00 
111700 4.6781946916e+00 -2.0950343911e-03 2.6529066856e+00 -4.5949691672e+00 2.6529066856e+00 4.5949691672e+00 
111800 4.6781946006e+00 -2.0937946179e-03 2.6529461713e+00 -4.5950375585e+00 2.6529461713e+00 4.5950375585e+00 
111900 4.6781945097e+00 -2.0925577104e-03 2.6529856331e+00 -4.5951059083e+00 2.6529856331e+00 4.5951059083e+00 
112000 4.6781944188e+00 -2.0913236547e-03 2.6530250710e+00 -4.5951742167e+00 2.6530250710e+00 4.5951742167e+00 
112100 4.6781943281e+00 -2.0900924374e-03 2.6530644851e+00 -4.5952424839e+00 2.6530644851e+00 4.5952424839e+00 
112200 4.6781942375e+00 -2.0888640450e-03 2.6531038753e+00 -4.5953107098e+00 2.6531038753e+00 4.5953107098e+00 
112300 4.6781941469e+00 -2.0876384639e-03 2.6531432418e+00 -4.5953788946e+00 2.6531432418e+00 4.5953788946e+00 
112400 4.6781940565e+00 -2.0864156809e-03 2.6531825847e+00 -4.5954470384e+00 2.6531825847e+00 4.5954470384e+00 
112500 4.6781939662e+00 -2.0851956825e-03 2.6532219039e+00 -4.5955151413e+00 2.6532219039e+00 4.5955151413e+00 
112600 4.6781938759e+00 -2.0839784556e-03 2.6532611995e+00 -4.5955832033e+00 2.6532611995e+00 4.5955832033e+00 
112700 4.6781937858e+00 -2.0827639869e-03 2.6533004716e+00 -4.5956512246e+00 2.6533004716e+00 4.5956512246e+00 
112800 4.6781936958e+00 -2.0815522634e-03 2.6533397203e+00 -4.5957192052e+00 2.6533397203e+00 4.5957192052e+00 
112900 4.6781936058e+00 -2.0803432718e-03 2.6533789455e+00 -4.5957871453e+00 2.6533789455e+00 4.5957871453e+00 
113000 4.6781935160e+00 -2.0791369994e-03 2.6534181474e+00 -4.5958550450e+00 2.6534181474e+00 4.5958550450e+00 
113100 4.6781934262e+00 -2.0779334331e-03 2.6534573259e+00 -4.5959229042e+00 2.6534573259e+00 4.5959229042e+00 
113200 4.6781933366e+00 -2.0767325600e-03 2.6534964812e+00 -4.5959907232e+00 2.6534964812e+00 4.5959907232e+00 
113300 4.6781932470e+00 -2.0755343673e-03 2.6535356133e+00 -4.5960585020e+00 2.6535356133e+00 4.5960585020e+00 
113400 4.6781931576e+00 -2.0743388423e-03 2.6535747223e+00 -4.5961262407e+00 2.6535747223e+00 4.5961262407e+00 
113500 4.6781930682e+00 -2.0731459723e-03 2.6536138081e+00 -4.5961939393e+00 2.6536138081e+00 4.5961939393e+00 
113600 4.6781929789e+00 -2.0719557446e-03 2.6536528709e+00 -4.5962615981e+00 2.6536528709e+00 4.5962615981e+00 
113700 4.6781928897e+00 -2.0707681468e-03 2.6536919107e+00 -4.5963292170e+00 2.6536919107e+00 4.5963292170e+00 
113800 4.6781928007e+00 -2.0695831661e-03 2.6537309275e+00 -4.5963967961e+00 2.6537309275e+00 4.5963967961e+00 
113900 4.6781927117e+00 -2.0684007904e-03 2.6537699215e+00 -4.5964643356e+00 2.6537699215e+00 4.5964643356e+00 
114000 4.6781926228e+00 -2.0672210070e-03 2.6538088925e+00 -4.5965318355e+00 2.6538088925e+00 4.5965318355e+00 
114100 4.6781925340e+00 -2.0660438038e-03 2.6538478408e+00 -4.5965992959e+00 2.6538478408e+00 4.5965992959e+00 
114200 4.6781924453e+00 -2.0648691683e-03 2.6538867664e+00 -4.5966667169e+00 2.6538867664e+00 4.5966667169e+00 
114300 4.6781923566e+00 -2.0636970886e-03 2.6539256692e+00 -4.5967340986e+00 2.6539256692e+00 4.5967340986e+00 
114400 4.6781922681e+00 -2.0625275522e-03 2.6539645494e+00 -4.5968014410e+00 2.6539645494e+00 4.5968014410e+00 
114500 4.6781921797e+00 -2.0613605473e-03 2.6540034070e+00 -4.5968687443e+00 2.6540034070e+00 4.5968687443e+00 
114600 4.6781920914e+00 -2.0601960617e-03 2.6540422420e+00 -4.5969360085e+00 2.6540422420e+00 4.5969360085e+00 
114700 4.6781920031e+00 -2.0590340834e-03 2.6540810545e+00 -4.5970032338e+00 2.6540810545e+00 4.5970032338e+00 
114800 4.6781919150e+00 -2.0578746006e-03 2.6541198445e+00 -4.5970704201e+00 2.6541198445e+00 4.5970704201e+00 
114900 4.6781918269e+00 -2.0567176014e-03 2.6541586122e+00 -4.5971375677e+00 2.6541586122e+00 4.5971375677e+00 
115000 4.6781917389e+00 -2.0555630739e-03 2.6541973575e+00 -4.5972046765e+00 2.6541973575e+00 4.5972046765e+00 
115100 4.6781916510e+00 -2.0544110065e-03 2.6542360804e+00 -4.5972717466e+00 2.6542360804e+00 4.5972717466e+00 
115200 4.6781915633e+00 -2.0532613874e-03 2.6542747812e+00 -4.5973387782e+00 2.6542747812e+00 4.5973387782e+00 
115300 4.6781914756e+00 -2.0521142049e-03 2.6543134596e+00 -4.5974057713e+00 2.6543134596e+00 4.5974057713e+00 
115400 4.6781913879e+00 -2.0509694476e-03 2.6543521159e+00 -4.5974727260e+00 2.6543521159e+00 4.5974727260e+00 
115500 4.6781913004e+00 -2.0498271039e-03 2.6543907501e+00 -4.5975396424e+00 2.6543907501e+00 4.5975396424e+00 
115600 4.6781912130e+00 -2.0486871623e-03 2.6544293622e+00 -4.5976065205e+00 2.6544293622e+00 4.5976065205e+00 
115700 4.6781911257e+00 -2.0475496113e-03 2.6544679523e+00 -4.5976733604e+00 2.6544679523e+00 4.5976733604e+00 
115800 4.6781910384e+00 -2.0464144397e-03 2.6545065204e+00 -4.5977401623e+00 2.6545065204e+00 4.5977401623e+00 
115900 4.6781909512e+00 -2.0452816362e-03 2.6545450665e+00 -4.5978069262e+00 2.6545450665e+00 4.5978069262e+00 
116000 4.6781908642e+00 -2.0441511894e-03 2.6545835907e+00 -4.5978736521e+00 2.6545835907e+00 4.5978736521e+00 
116100 4.6781907772e+00 -2.0430230882e-03 2.6546220931e+00 -4.5979403402e+00 2.6546220931e+00 4.5979403402e+00 
116200 4.6781906903e+00 -2.0418973214e-03 2.6546605737e+00 -4.5980069905e+00 2.6546605737e+00 4.5980069905e+00 
116300 4.6781906035e+00 -2.0407738779e-03 2.6546990325e+00 -4.5980736031e+00 2.6546990325e+00 4.5980736031e+00 
116400 4.6781905168e+00 -2.0396527468e-03 2.6547374696e+00 -4.5981401782e+00 2.6547374696e+00 4.5981401782e+00 
116500 4.6781904301e+00 -2.0385339170e-03 2.6547758851e+00 -4.5982067156e+00 2.6547758851e+00 4.5982067156e+00 
116600 4.6781903436e+00 -2.0374173776e-03 2.6548142789e+00 -4.5982732157e+00 2.6548142789e+00 4.5982732157e+00 
116700 4.6781902571e+00 -2.0363031177e-03 2.6548526511e+00 -4.5983396783e+00 2.6548526511e+00 4.5983396783e+00 
116800 4.6781901708e+00 -2.0351911265e-03 2.6548910018e+00 -4.5984061036e+00 2.6548910018e+00 4.5984061036e+00 
116900 4.6781900845e+00 -2.0340813932e-03 2.6549293309e+00 -4.5984724917e+00 2.6549293309e+00 4.5984724917e+00 
117000 4.6781899983e+00 -2.0329739071e-03 2.6549676387e+00 -4.5985388426e+00 2.6549676387e+00 4.5985388426e+00 
117100 4.6781899122e+00 -2.0318686575e-03 2.6550059250e+00 -4.5986051565e+00 2.6550059250e+00 4.5986051565e+00 
117200 4.6781898261e+00 -2.0307656339e-03 2.6550441900e+00 -4.5986714333e+00 2.6550441900e+00 4.5986714333e+00 
117300 4.6781897402e+00 -2.0296648255e-03 2.6550824336e+00 -4.5987376732e+00 2.6550824336e+00 4.5987376732e+00 
117400 4.6781896543e+00 -2.0285662219e-03 2.6551206559e+00 -4.5988038763e+00 2.6551206559e+00 4.5988038763e+00 
117500 4.6781895686e+00 -2.0274698127e-03 2.6551588570e+00 -4.5988700426e+00 2.6551588570e+00 4.5988700426e+00 
117600 4.6781894829e+00 -2.0263755875e-03 2.6551970369e+00 -4.5989361721e+00 2.6551970369e+00 4.5989361721e+00 
117700 4.6781893973e+00 -2.0252835357e-03 2.6552351957e+00 -4.5990022650e+00 2.6552351957e+00 4.5990022650e+00 
117800 4.6781893118e+00 -2.0241936472e-03 2.6552733334e+00 -4.5990683214e+00 2.6552733334e+00 4.5990683214e+00 
117900 4.6781892264e+00 -2.0231059117e-03 2.6553114499e+00 -4.5991343412e+00 2.6553114499e+00 4.5991343412e+00 
118000 4.6781891410e+00 -2.0220203189e-03 2.6553495455e+00 -4.5992003246e+00 2.6553495455e+00 4.5992003246e+00 
118100 4.6781890557e+00 -2.0209368587e-03 2.6553876200e+00 -4.5992662717e+00 2.6553876200e+00 4.5992662717e+00 
118200 4.6781889706e+00 -2.0198555210e-03 2.6554256736e+00 -4.5993321825e+00 2.6554256736e+00 4.5993321825e+00 
118300 4.6781888855e+00 -2.0187762957e-03 2.6554637063e+00 -4.5993980570e+00 2.6554637063e+00 4.5993980570e+00 
118400 4.6781888005e+00 -2.0176991727e-03 2.6555017182e+00 -4.5994638955e+00 2.6555017182e+00 4.5994638955e+00 
118500 4.6781887155e+00 -2.0166241421e-03 2.6555397092e+00 -4.5995296978e+00 2.6555397092e+00 4.5995296978e+00 
118600 4.6781886307e+00 -2.0155511939e-03 2.6555776794e+00 -4.5995954642e+00 2.6555776794e+00 4.5995954642e+00 
118700 4.6781885459e+00 -2.0144803184e-03 2.6556156289e+00 -4.5996611946e+00 2.6556156289e+00 4.5996611946e+00 
118800 4.6781884613e+00 -2.0134115055e-03 2.6556535577e+00 -4.5997268892e+00 2.6556535577e+00 4.5997268892e+00 
118900 4.6781883767e+00 -2.0123447457e-03 2.6556914658e+00 -4.5997925480e+00 2.6556914658e+00 4.5997925480e+00 
119000 4.6781882922e+00 -2.0112800290e-03 2.6557293533e+00 -4.5998581710e+00 2.6557293533e+00 4.5998581710e+00 
119100 4.6781882077e+00 -2.0102173459e-03 2.6557672202e+00 -4.5999237584e+00 2.6557672202e+00 4.5999237584e+00 
119200 4.6781881234e+00 -2.0091566866e-03 2.6558050665e+00 -4.5999893102e+00 2.6558050665e+00 4.5999893102e+00 
119300 4.6781880391e+00 -2.0080980417e-03 2.6558428924e+00 -4.6000548265e+00 2.6558428924e+00 4.6000548265e+00 
119400 4.6781879549e+00 -2.0070414014e-03 2.6558806978e+00 -4.6001203074e+00 2.6558806978e+00 4.6001203074e+00 
119500 4.6781878708e+00 -2.0059867564e-03 2.6559184827e+00 -4.6001857528e+00 2.6559184827e+00 4.6001857528e+00 
119600 4.6781877868e+00 -2.0049340971e-03 2.6559562473e+00 -4.6002511629e+00 2.6559562473e+00 4.6002511629e+00 
119700 4.6781877029e+00 -2.0038834142e-03 2.6559939915e+00 -4.6003165378e+00 2.6559939915e+00 4.6003165378e+00 
119800 4.6781876190e+00 -2.0028346983e-03 2.6560317153e+00 -4.6003818775e+00 2.6560317153e+00 4.6003818775e+00 
119900 4.6781875352e+00 -2.0017879399e-03 2.6560694189e+00 -4.6004471820e+00 2.6560694189e+00 4.6004471820e+00 
120000 4.6781874515e+00 -2.0007431300e-03 2.6561071023e+00 -4.6005124515e+00 2.6561071023e+00 4.6005124515e+00 
120100 4.6781873679e+00 -1.9997002592e-03 2.6561447655e+00 -4.6005776861e+00 2.6561447655e+00 4.6005776861e+00 
120200 4.6781872844e+00 -1.9986593183e-03 2.6561824085e+00 -4.6006428856e+00 2.6561824085e+00 4.6006428856e+00 
120300 4.6781872009e+00 -1.9976202982e-03 2.6562200313e+00 -4.6007080504e+00 2.6562200313e+00 4.6007080504e+00 
120400 4.6781871175e+00 -1.9965831897e-03 2.6562576341e+00 -4.6007731803e+00 2.6562576341e+00 4.6007731803e+00 
120500 4.6781870342e+00 -1.9955479839e-03 2.6562952168e+00 -4.6008382755e+00 2.6562952168e+00 4.6008382755e+00 
120600 4.6781869510e+00 -1.9945146717e-03 2.6563327795e+00 -4.6009033360e+00 2.6563327795e+00 4.6009033360e+00 
120700 4.6781868678e+00 -1.9934832441e-03 2.6563703223e+00 -4.6009683619e+00 2.6563703223e+00 4.6009683619e+00 
120800 4.6781867848e+00 -1.9924536922e-03 2.6564078450e+00 -4.6010333532e+00 2.6564078450e+00 4.6010333532e+00 
120900 4.6781867018e+00 -1.9914260072e-03 2.6564453479e+00 -4.6010983101e+00 2.6564453479e+00 4.6010983101e+00 
121000 4.6781866189e+00 -1.9904001801e-03 2.6564828309e+00 -4.6011632326e+00 2.6564828309e+00 4.6011632326e+00 
121100 4.6781865361e+00 -1.9893762021e-03 2.6565202941e+00 -4.6012281207e+00 2.6565202941e+00 4.6012281207e+00 
121200 4.6781864533e+00 -1.9883540646e-03 2.6565577374e+00 -4.6012929745e+00 2.6565577374e+00 4.6012929745e+00 
121300 4.6781863707e+00 -1.9873337587e-03 2.6565951610e+00 -4.6013577940e+00 2.6565951610e+00 4.6013577940e+00 
121400 4.6781862881e+00 -1.9863152758e-03 2.6566325649e+00 -4.6014225794e+00 2.6566325649e+00 4.6014225794e+00 
121500 4.6781862056e+00 -1.9852986074e-03 2.6566699491e+00 -4.6014873307e+00 2.6566699491e+00 4.6014873307e+00 
121600 4.6781861231e+00 -1.9842837447e-03 2.6567073136e+00 -4.6015520479e+00 2.6567073136e+00 4.6015520479e+00 
121700 4.6781860408e+00 -1.9832706792e-03 2.6567446584e+00 -4.6016167312e+00 2.6567446584e+00 4.6016167312e+00 
121800 4.6781859585e+00 -1.9822594024e-03 2.6567819837e+00 -4.6016813805e+00 2.6567819837e+00 4.6016813805e+00 
121900 4.6781858763e+00 -1.9812499059e-03 2.6568192895e+00 -4.6017459959e+00 2.6568192895e+00 4.6017459959e+00 
122000 4.6781857941e+00 -1.9802421812e-03 2.6568565757e+00 -4.6018105775e+00 2.6568565757e+00 4.6018105775e+00 
122100 4.6781857121e+00 -1.9792362199e-03 2.6568938424e+00 -4.6018751254e+00 2.6568938424e+00 4.6018751254e+00 
122200 4.6781856301e+00 -1.9782320137e-03 2.6569310897e+00 -4.6019396395e+00 2.6569310897e+00 4.6019396395e+00 
122300 4.6781855482e+00 -1.9772295543e-03 2.6569683175e+00 -4.6020041201e+00 2.6569683175e+00 4.6020041201e+00 
122400 4.6781854664e+00 -1.9762288334e-03 2.6570055260e+00 -4.6020685670e+00 2.6570055260e+00 4.6020685670e+00 
122500 4.6781853847e+00 -1.9752298428e-03 2.6570427151e+00 -4.6021329804e+00 2.6570427151e+00 4.6021329804e+00 
122600 4.6781853030e+00 -1.9742325742e-03 2.6570798849e+00 -4.6021973604e+00 2.6570798849e+00 4.6021973604e+00 
122700 4.6781852214e+00 -1.9732370196e-03 2.6571170354e+00 -4.6022617070e+00 2.6571170354e+00 4.6022617070e+00 
122800 4.6781851399e+00 -1.9722431708e-03 2.6571541667e+00 -4.6023260202e+00 2.6571541667e+00 4.6023260202e+00 
122900 4.6781850585e+00 -1.9712510198e-03 2.6571912787e+00 -4.6023903001e+00 2.6571912787e+00 4.6023903001e+00 
123000 4.6781849771e+00 -1.9702605585e-03 2.6572283715e+00 -4.6024545468e+00 2.6572283715e+00 4.6024545468e+00 
123100 4.6781848958e+00 -1.9692717790e-03 2.6572654452e+00 -4.6025187603e+00 2.6572654452e+00 4.6025187603e+00 
123200 4.6781848146e+00 -1.9682846732e-03 2.6573024998e+00 -4.6025829407e+00 2.6573024998e+00 4.6025829407e+00 
123300 4.6781847335e+00 -1.9672992332e-03 2.6573395353e+00 -4.6026470880e+00 2.6573395353e+00 4.6026470880e+00 
123400 4.6781846524e+00 -1.9663154513e-03 2.6573765517e+00 -4.6027112023e+00 2.6573765517e+00 4.6027112023e+00 
123500 4.6781845714e+00 -1.9653333194e-03 2.6574135491e+00 -4.6027752837e+00 2.6574135491e+00 4.6027752837e+00 
123600 4.6781844905e+00 -1.9643528300e-03 2.6574505275e+00 -4.6028393322e+00 2.6574505275e+00 4.6028393322e+00 
123700 4.6781844096e+00 -1.9633739750e-03 2.6574874869e+00 -4.6029033478e+00 2.6574874869e+00 4.6029033478e+00 
123800 4.6781843289e+00 -1.9623967470e-03 2.6575244274e+00 -4.6029673306e+00 2.6575244274e+00 4.6029673306e+00 
123900 4.6781842482e+00 -1.9614211380e-03 2.6575613490e+00 -4.6030312807e+00 2.6575613490e+00 4.6030312807e+00 
124000 4.6781841676e+00 -1.9604471406e-03 2.6575982517e+00 -4.6030951981e+00 2.6575982517e+00 4.6030951981e+00 
124100 4.6781840870e+00 -1.9594747471e-03 2.6576351356e+00 -4.6031590829e+00 2.6576351356e+00 4.6031590829e+00 
124200 4.6781840066e+00 -1.9585039498e-03 2.6576720007e+00 -4.6032229351e+00 2.6576720007e+00 4.6032229351e+00 
124300 4.6781839262e+00 -1.9575347413e-03 2.6577088470e+00 -4.6032867548e+00 2.6577088470e+00 4.6032867548e+00 
124400 4.6781838459e+00 -1.9565671141e-03 2.6577456746e+00 -4.6033505420e+00 2.6577456746e+00 4.6033505420e+00 
124500 4.6781837656e+00 -1.9556010606e-03 2.6577824835e+00 -4.6034142968e+00 2.6577824835e+00 4.6034142968e+00 
124600 4.6781836854e+00 -1.9546365735e-03 2.6578192736e+00 -4.6034780193e+00 2.6578192736e+00 4.6034780193e+00 
124700 4.6781836053e+00 -1.9536736453e-03 2.6578560452e+00 -4.6035417094e+00 2.6578560452e+00 4.6035417094e+00 
124800 4.6781835253e+00 -1.9527122687e-03 2.6578927981e+00 -4.6036053673e+00 2.6578927981e+00 4.6036053673e+00 
124900 4.6781834454e+00 -1.9517524363e-03 2.6579295324e+00 -4.6036689930e+00 2.6579295324e+00 4.6036689930e+00 
125000 4.6781833655e+00 -1.9507941409e-03 2.6579662481e+00 -4.6037325865e+00 2.6579662481e+00 4.6037325865e+00 
125100 4.6781832857e+00 -1.9498373752e-03 2.6580029453e+00 -4.6037961479e+00 2.6580029453e+00 4.6037961479e+00 
125200 4.6781832059e+00 -1.9488821319e-03 2.6580396240e+00 -4.6038596773e+00 2.6580396240e+00 4.6038596773e+00 
125300 4.6781831263e+00 -1.9479284040e-03 2.6580762842e+00 -4.6039231747e+00 2.6580762842e+00 4.6039231747e+00 
125400 4.6781830467e+00 -1.9469761841e-03 2.6581129260e+00 -4.6039866401e+00 2.6581129260e+00 4.6039866401e+00 
125500 4.6781829672e+00 -1.9460254653e-03 2.6581495494e+00 -4.6040500736e+00 2.6581495494e+00 4.6040500736e+00 
125600 4.6781828877e+00 -1.9450762405e-03 2.6581861544e+00 -4.6041134753e+00 2.6581861544e+00 4.6041134753e+00 
125700 4.6781828083e+00 -1.9441285025e-03 2.6582227410e+00 -4.6041768452e+00 2.6582227410e+00 4.6041768452e+00 
125800 4.6781827290e+00 -1.9431822443e-03 2.6582593093e+00 -4.6042401833e+00 2.6582593093e+00 4.6042401833e+00 
125900 4.6781826498e+00 -1.9422374591e-03 2.6582958592e+00 -4.6043034897e+00 2.6582958592e+00 4.6043034897e+00 
126000 4.6781825706e+00 -1.9412941397e-03 2.6583323909e+00 -4.6043667645e+00 2.6583323909e+00 4.6043667645e+00 
126100 4.6781824915e+00 -1.9403522794e-03 2.6583689044e+00 -4.6044300077e+00 2.6583689044e+00 4.6044300077e+00 
126200 4.6781824125e+00 -1.9394118712e-03 2.6584053997e+00 -4.6044932193e+00 2.6584053997e+00 4.6044932193e+00 
126300 4.6781823336e+00 -1.9384729083e-03 2.6584418767e+00 -4.6045563995e+00 2.6584418767e+00 4.6045563995e+00 
126400 4.6781822547e+00 -1.9375353839e-03 2.6584783356e+00 -4.6046195481e+00 2.6584783356e+00 4.6046195481e+00 
126500 4.6781821759e+00 -1.9365992912e-03 2.6585147764e+00 -4.6046826654e+00 2.6585147764e+00 4.6046826654e+00 
126600 4.6781820972e+00 -1.9356646234e-03 2.6585511991e+00 -4.6047457513e+00 2.6585511991e+00 4.6047457513e+00 
126700 4.6781820185e+00 -1.9347313738e-03 2.6585876036e+00 -4.6048088059e+00 2.6585876036e+00 4.6048088059e+00 
126800 4.6781819399e+00 -1.9337995357e-03 2.6586239902e+00 -4.6048718292e+00 2.6586239902e+00 4.6048718292e+00 
126900 4.6781818614e+00 -1.9328691026e-03 2.6586603587e+00 -4.6049348213e+00 2.6586603587e+00 4.6049348213e+00 
127000 4.6781817829e+00 -1.9319400677e-03 2.6586967092e+00 -4.6049977823e+00 2.6586967092e+00 4.6049977823e+00 
127100 4.6781817046e+00 -1.9310124244e-03 2.6587330417e+00 -4.6050607121e+00 2.6587330417e+00 4.6050607121e+00 
127200 4.6781816263e+00 -1.9300861663e-03 2.6587693564e+00 -4.6051236108e+00 2.6587693564e+00 4.6051236108e+00 
127300 4.6781815480e+00 -1.9291612868e-03 2.6588056530e+00 -4.6051864785e+00 2.6588056530e+00 4.6051864785e+00 
127400 4.6781814698e+00 -1.9282377794e-03 2.6588419318e+00 -4.6052493152e+00 2.6588419318e+00 4.6052493152e+00 
127500 4.6781813917e+00 -1.9273156376e-03 2.6588781928e+00 -4.6053121210e+00 2.6588781928e+00 4.6053121210e+00 
127600 4.6781813137e+00 -1.9263948550e-03 2.6589144359e+00 -4.6053748959e+00 2.6589144359e+00 4.6053748959e+00 
127700 4.6781812358e+00 -1.9254754252e-03 2.6589506612e+00 -4.6054376400e+00 2.6589506612e+00 4.6054376400e+00 
127800 4.6781811579e+00 -1.9245573419e-03 2.6589868687e+00 -4.6055003532e+00 2.6589868687e+00 4.6055003532e+00 
127900 4.6781810800e+00 -1.9236405987e-03 2.6590230585e+00 -4.6055630357e+00 2.6590230585e+00 4.6055630357e+00 
128000 4.6781810023e+00 -1.9227251892e-03 2.6590592305e+00 -4.6056256875e+00 2.6590592305e+00 4.6056256875e+00 
128100 4.6781809246e+00 -1.9218111073e-03 2.6590953848e+00 -4.6056883086e+00 2.6590953848e+00 4.6056883086e+00 
128200 4.6781808470e+00 -1.9208983466e-03 2.6591315214e+00 -4.6057508991e+00 2.6591315214e+00 4.6057508991e+00 
128300 4.6781807694e+00 -1.9199869010e-03 2.6591676404e+00 -4.6058134591e+00 2.6591676404e+00 4.6058134591e+00 
128400 4.6781806920e+00 -1.9190767643e-03 2.6592037418e+00 -4.6058759884e+00 2.6592037418e+00 4.6058759884e+00 
128500 4.6781806146e+00 -1.9181679303e-03 2.6592398255e+00 -4.6059384873e+00 2.6592398255e+00 4.6059384873e+00 
128600 4.6781805372e+00 -1.9172603929e-03 2.6592758917e+00 -4.6060009558e+00 2.6592758917e+00 4.6060009558e+00 
128700 4.6781804599e+00 -1.9163541460e-03 2.6593119403e+00 -4.6060633938e+00 2.6593119403e+00 4.6060633938e+00 
128800 4.6781803827e+00 -1.9154491834e-03 2.6593479714e+00 -4.6061258015e+00 2.6593479714e+00 4.6061258015e+00 
128900 4.6781803056e+00 -1.9145454993e-03 2.6593839850e+00 -4.6061881789e+00 2.6593839850e+00 4.6061881789e+00 
129000 4.6781802285e+00 -1.9136430876e-03 2.6594199811e+00 -4.6062505260e+00 2.6594199811e+00 4.6062505260e+00 
129100 4.6781801515e+00 -1.9127419422e-03 2.6594559598e+00 -4.6063128429e+00 2.6594559598e+00 4.6063128429e+00 
129200 4.6781800746e+00 -1.9118420574e-03 2.6594919210e+00 -4.6063751295e+00 2.6594919210e+00 4.6063751295e+00 
129300 4.6781799978e+00 -1.9109434270e-03 2.6595278649e+00 -4.6064373861e+00 2.6595278649e+00 4.6064373861e+00 
129400 4.6781799210e+00 -1.9100460453e-03 2.6595637913e+00 -4.6064996125e+00 2.6595637913e+00 4.6064996125e+00 
129500 4.6781798442e+00 -1.9091499064e-03 2.6595997004e+00 -4.6065618089e+00 2.6595997004e+00 4.6065618089e+00 
129600 4.6781797676e+00 -1.9082550044e-03 2.6596355922e+00 -4.6066239752e+00 2.6596355922e+00 4.6066239752e+00 
129700 4.6781796910e+00 -1.9073613335e-03 2.6596714666e+00 -4.6066861116e+00 2.6596714666e+00 4.6066861116e+00 
129800 4.6781796145e+00 -1.9064688880e-03 2.6597073238e+00 -4.6067482180e+00 2.6597073238e+00 4.6067482180e+00 
129900 4.6781795380e+00 -1.9055776621e-03 2.6597431637e+00 -4.6068102946e+00 2.6597431637e+00 4.6068102946e+00 
130000 4.6781794616e+00 -1.9046876500e-03 2.6597789863e+00 -4.6068723413e+00 2.6597789863e+00 4.6068723413e+00 
130100 4.6781793853e+00 -1.9037988462e-03 2.6598147918e+00 -4.6069343581e+00 2.6598147918e+00 4.6069343581e+00 
130200 4.6781793090e+00 -1.9029112449e-03 2.6598505801e+00 -4.6069963452e+00 2.6598505801e+00 4.6069963452e+00 
130300 4.6781792329e+00 -1.9020248404e-03 2.6598863512e+00 -4.6070583026e+00 2.6598863512e+00 4.6070583026e+00 
130400 4.6781791567e+00 -1.9011396273e-03 2.6599221051e+00 -4.6071202302e+00 2.6599221051e+00 4.6071202302e+00 
130500 4.6781790807e+00 -1.9002555998e-03 2.6599578420e+00 -4.6071821283e+00 2.6599578420e+00 4.6071821283e+00 
130600 4.6781790047e+00 -1.8993727524e-03 2.6599935617e+00 -4.6072439966e+00 2.6599935617e+00 4.6072439966e+00 
130700 4.6781789288e+00 -1.8984910796e-03 2.6600292643e+00 -4.6073058355e+00 2.6600292643e+00 4.6073058355e+00 
130800 4.6781788529e+00 -1.8976105760e-03 2.6600649500e+00 -4.6073676448e+00 2.6600649500e+00 4.6073676448e+00 
130900 4.6781787771e+00 -1.8967312359e-03 2.6601006185e+00 -4.6074294246e+00 2.6601006185e+00 4.6074294246e+00 
131000 4.6781787014e+00 -1.8958530540e-03 2.6601362701e+00 -4.6074911749e+00 2.6601362701e+00 4.6074911749e+00 
131100 4.6781786258e+00 -1.8949760249e-03 2.6601719047e+00 -4.6075528958e+00 2.6601719047e+00 4.6075528958e+00 
131200 4.6781785502e+00 -1.8941001430e-03 2.6602075223e+00 -4.6076145874e+00 2.6602075223e+00 4.6076145874e+00 
131300 4.6781784746e+00 -1.8932254032e-03 2.6602431230e+00 -4.6076762496e+00 2.6602431230e+00 4.6076762496e+00 
131400 4.6781783992e+00 -1.8923518000e-03 2.6602787068e+00 -4.6077378825e+00 2.6602787068e+00 4.6077378825e+00 
131500 4.6781783238e+00 -1.8914793281e-03 2.6603142737e+00 -4.6077994861e+00 2.6603142737e+00 4.6077994861e+00 
131600 4.6781782485e+00 -1.8906079822e-03 2.6603498237e+00 -4.6078610605e+00 2.6603498237e+00 4.6078610605e+00 
131700 4.6781781732e+00 -1.8897377571e-03 2.6603853568e+00 -4.6079226057e+00 2.6603853568e+00 4.6079226057e+00 
131800 4.6781780980e+00 -1.8888686474e-03 2.6604208731e+00 -4.6079841218e+00 2.6604208731e+00 4.6079841218e+00 
131900 4.6781780229e+00 -1.8880006481e-03 2.6604563726e+00 -4.6080456087e+00 2.6604563726e+00 4.6080456087e+00 
132000 4.6781779478e+00 -1.8871337539e-03 2.6604918554e+00 -4.6081070666e+00 2.6604918554e+00 4.6081070666e+00 
132100 4.6781778728e+00 -1.8862679596e-03 2.6605273213e+00 -4.6081684955e+00 2.6605273213e+00 4.6081684955e+00 
132200 4.6781777979e+00 -1.8854032601e-03 2.6605627705e+00 -4.6082298953e+00 2.6605627705e+00 4.6082298953e+00 
132300 4.6781777230e+00 -1.8845396502e-03 2.6605982030e+00 -4.6082912662e+00 2.6605982030e+00 4.6082912662e+00 
132400 4.6781776482e+00 -1.8836771250e-03 2.6606336188e+00 -4.6083526081e+00 2.6606336188e+00 4.6083526081e+00 
132500 4.6781775735e+00 -1.8828156793e-03 2.6606690179e+00 -4.6084139212e+00 2.6606690179e+00 4.6084139212e+00 
132600 4.6781774988e+00 -1.8819553081e-03 2.6607044004e+00 -4.6084752054e+00 2.6607044004e+00 4.6084752054e+00 
132700 4.6781774242e+00 -1.8810960064e-03 2.6607397662e+00 -4.6085364608e+00 2.6607397662e+00 4.6085364608e+00 
132800 4.6781773497e+00 -1.8802377691e-03 2.6607751154e+00 -4.6085976874e+00 2.6607751154e+00 4.6085976874e+00 
132900 4.6781772752e+00 -1.8793805914e-03 2.6608104480e+00 -4.6086588853e+00 2.6608104480e+00 4.6086588853e+00 
133000 4.6781772008e+00 -1.8785244682e-03 2.6608457640e+00 -4.6087200544e+00 2.6608457640e+00 4.6087200544e+00 
133100 4.6781771264e+00 -1.8776693947e-03 2.6608810635e+00 -4.6087811949e+00 2.6608810635e+00 4.6087811949e+00 
133200 4.6781770521e+00 -1.8768153660e-03 2.6609163464e+00 -4.6088423067e+00 2.6609163464e+00 4.6088423067e+00 
133300 4.6781769779e+00 -1.8759623771e-03 2.6609516128e+00 -4.6089033899e+00 2.6609516128e+00 4.6089033899e+00 
133400 4.6781769038e+00 -1.8751104233e-03 2.6609868627e+00 -4.6089644446e+00 2.6609868627e+00 4.6089644446e+00 
133500 4.6781768297e+00 -1.8742594997e-03 2.6610220962e+00 -4.6090254707e+00 2.6610220962e+00 4.6090254707e+00 
133600 4.6781767556e+00 -1.8734096016e-03 2.6610573132e+00 -4.6090864683e+00 2.6610573132e+00 4.6090864683e+00 
133700 4.6781766817e+00 -1.8725607241e-03 2.6610925137e+00 -4.6091474374e+00 2.6610925137e+00 4.6091474374e+00 
133800 4.6781766078e+00 -1.8717128625e-03 2.6611276979e+00 -4.6092083781e+00 2.6611276979e+00 4.6092083781e+00 
133900 4.6781765339e+00 -1.8708660120e-03 2.6611628656e+00 -4.6092692904e+00 2.6611628656e+00 4.6092692904e+00 
134000 4.6781764602e+00 -1.8700201680e-03 2.6611980170e+00 -4.6093301744e+00 2.6611980170e+00 4.6093301744e+00 
134100 4.6781763864e+00 -1.8691753258e-03 2.6612331520e+00 -4.6093910300e+00 2.6612331520e+00 4.6093910300e+00 
134200 4.6781763128e+00 -1.8683314807e-03 2.6612682707e+00 -4.6094518573e+00 2.6612682707e+00 4.6094518573e+00 
134300 4.6781762392e+00 -1.8674886282e-03 2.6613033730e+00 -4.6095126564e+00 2.6613033730e+00 4.6095126564e+00 
134400 4.6781761657e+00 -1.8666467634e-03 2.6613384591e+00 -4.6095734272e+00 2.6613384591e+00 4.6095734272e+00 
134500 4.6781760923e+00 -1.8658058820e-03 2.6613735288e+00 -4.6096341699e+00 2.6613735288e+00 4.6096341699e+00 
134600 4.6781760189e+00 -1.8649659793e-03 2.6614085824e+00 -4.6096948843e+00 2.6614085824e+00 4.6096948843e+00 
134700 4.6781759455e+00 -1.8641270507e-03 2.6614436196e+00 -4.6097555707e+00 2.6614436196e+00 4.6097555707e+00 
134800 4.6781758723e+00 -1.8632890918e-03 2.6614786407e+00 -4.6098162289e+00 2.6614786407e+00 4.6098162289e+00 
134900 4.6781757991e+00 -1.8624520980e-03 2.6615136455e+00 -4.6098768591e+00 2.6615136455e+00 4.6098768591e+00 
135000 4.6781757259e+00 -1.8616160649e-03 2.6615486342e+00 -4.6099374612e+00 2.6615486342e+00 4.6099374612e+00 
135100 4.6781756529e+00 -1.8607809880e-03 2.6615836067e+00 -4.6099980354e+00 2.6615836067e+00 4.6099980354e+00 
135200 4.6781755798e+00 -1.8599468629e-03 2.6616185630e+00 -4.6100585816e+00 2.6616185630e+00 4.6100585816e+00 
135300 4.6781755069e+00 -1.8591136851e-03 2.6616535033e+00 -4.6101190998e+00 2.6616535033e+00 4.6101190998e+00 
135400 4.6781754340e+00 -1.8582814503e-03 2.6616884274e+00 -4.6101795901e+00 2.6616884274e+00 4.6101795901e+00 
135500 4.6781753612e+00 -1.8574501540e-03 2.6617233354e+00 -4.6102400526e+00 2.6617233354e+00 4.6102400526e+00 
135600 4.6781752884e+00 -1.8566197921e-03 2.6617582273e+00 -4.6103004872e+00 2.6617582273e+00 4.6103004872e+00 
135700 4.6781752157e+00 -1.8557903600e-03 2.6617931032e+00 -4.6103608940e+00 2.6617931032e+00 4.6103608940e+00 
135800 4.6781751431e+00 -1.8549618535e-03 2.6618279631e+00 -4.6104212731e+00 2.6618279631e+00 4.6104212731e+00 
135900 4.6781750705e+00 -1.8541342684e-03 2.6618628069e+00 -4.6104816244e+00 2.6618628069e+00 4.6104816244e+00 
136000 4.6781749980e+00 -1.8533076004e-03 2.6618976348e+00 -4.6105419480e+00 2.6618976348e+00 4.6105419480e+00 
136100 4.6781749255e+00 -1.8524818451e-03 2.6619324466e+00 -4.6106022439e+00 2.6619324466e+00 4.6106022439e+00 
136200 4.6781748532e+00 -1.8516569985e-03 2.6619672425e+00 -4.6106625121e+00 2.6619672425e+00 4.6106625121e+00 
136300 4.6781747808e+00 -1.8508330563e-03 2.6620020224e+00 -4.6107227527e+00 2.6620020224e+00 4.6107227527e+00 
136400 4.6781747086e+00 -1.8500100143e-03 2.6620367864e+00 -4.6107829657e+00 2.6620367864e+00 4.6107829657e+00 
136500 4.6781746364e+00 -1.8491878683e-03 2.6620715345e+00 -4.6108431512e+00 2.6620715345e+00 4.6108431512e+00 
136600 4.6781745642e+00 -1.8483666143e-03 2.6621062667e+00 -4.6109033091e+00 2.6621062667e+00 4.6109033091e+00 
136700 4.6781744921e+00 -1.8475462480e-03 2.6621409831e+00 -4.6109634396e+00 2.6621409831e+00 4.6109634396e+00 
136800 4.6781744201e+00 -1.8467267655e-03 2.6621756835e+00 -4.6110235425e+00 2.6621756835e+00 4.6110235425e+00 
136900 4.6781743482e+00 -1.8459081626e-03 2.6622103681e+00 -4.6110836180e+00 2.6622103681e+00 4.6110836180e+00 
137000 4.6781742763e+00 -1.8450904353e-03 2.6622450369e+00 -4.6111436661e+00 2.6622450369e+00 4.6111436661e+00 
137100 4.6781742044e+00 -1.8442735795e-03 2.6622796899e+00 -4.6112036869e+00 2.6622796899e+00 4.6112036869e+00 
137200 4.6781741327e+00 -1.8434575912e-03 2.6623143271e+00 -4.6112636802e+00 2.6623143271e+00 4.6112636802e+00 
137300 4.6781740610e+00 -1.8426424665e-03 2.6623489485e+00 -4.6113236463e+00 2.6623489485e+00 4.6113236463e+00 
137400 4.6781739893e+00 -1.8418282013e-03 2.6623835541e+00 -4.6113835850e+00 2.6623835541e+00 4.6113835850e+00 
137500 4.6781739177e+00 -1.8410147916e-03 2.6624181441e+00 -4.6114434965e+00 2.6624181441e+00 4.6114434965e+00 
137600 4.6781738462e+00 -1.8402022336e-03 2.6624527182e+00 -4.6115033807e+00 2.6624527182e+00 4.6115033807e+00 
137700 4.6781737747e+00 -1.8393905234e-03 2.6624872767e+00 -4.6115632378e+00 2.6624872767e+00 4.6115632378e+00 
137800 4.6781737033e+00 -1.8385796569e-03 2.6625218195e+00 -4.6116230676e+00 2.6625218195e+00 4.6116230676e+00 
137900 4.6781736320e+00 -1.8377696304e-03 2.6625563466e+00 -4.6116828703e+00 2.6625563466e+00 4.6116828703e+00 
138000 4.6781735607e+00 -1.8369604400e-03 2.6625908581e+00 -4.6117426459e+00 2.6625908581e+00 4.6117426459e+00 
138100 4.6781734895e+00 -1.8361520818e-03 2.6626253539e+00 -4.6118023944e+00 2.6626253539e+00 4.6118023944e+00 
138200 4.6781734183e+00 -1.8353445521e-03 2.6626598340e+00 -4.6118621158e+00 2.6626598340e+00 4.6118621158e+00 
138300 4.6781733472e+00 -1.8345378470e-03 2.6626942986e+00 -4.6119218102e+00 2.6626942986e+00 4.6119218102e+00 
138400 4.6781732762e+00 -1.8337319627e-03 2.6627287476e+00 -4.6119814776e+00 2.6627287476e+00 4.6119814776e+00 
138500 4.6781732052e+00 -1.8329268954e-03 2.6627631810e+00 -4.6120411180e+00 2.6627631810e+00 4.6120411180e+00 
138600 4.6781731343e+00 -1.8321226415e-03 2.6627975988e+00 -4.6121007314e+00 2.6627975988e+00 4.6121007314e+00 
138700 4.6781730635e+00 -1.8313191972e-03 2.6628320011e+00 -4.6121603179e+00 2.6628320011e+00 4.6121603179e+00 
138800 4.6781729927e+00 -1.8305165587e-03 2.6628663879e+00 -4.6122198776e+00 2.6628663879e+00 4.6122198776e+00 
138900 4.6781729219e+00 -1.8297147225e-03 2.6629007591e+00 -4.6122794103e+00 2.6629007591e+00 4.6122794103e+00 
139000 4.6781728513e+00 -1.8289136848e-03 2.6629351149e+00 -4.6123389162e+00 2.6629351149e+00 4.6123389162e+00 
139100 4.6781727806e+00 -1.8281134419e-03 2.6629694551e+00 -4.6123983953e+00 2.6629694551e+00 4.6123983953e+00 
139200 4.6781727101e+00 -1.8273139902e-03 2.6630037799e+00 -4.6124578475e+00 2.6630037799e+00 4.6124578475e+00 
139300 4.6781726396e+00 -1.8265153262e-03 2.6630380892e+00 -4.6125172731e+00 2.6630380892e+00 4.6125172731e+00 
139400 4.6781725692e+00 -1.8257174461e-03 2.6630723831e+00 -4.6125766718e+00 2.6630723831e+00 4.6125766718e+00 
139500 4.6781724988e+00 -1.8249203465e-03 2.6631066616e+00 -4.6126360439e+00 2.6631066616e+00 4.6126360439e+00 
139600 4.6781724285e+00 -1.8241240238e-03 2.6631409247e+00 -4.6126953893e+00 2.6631409247e+00 4.6126953893e+00 
139700 4.6781723582e+00 -1.8233284743e-03 2.6631751724e+00 -4.6127547080e+00 2.6631751724e+00 4.6127547080e+00 
139800 4.6781722880e+00 -1.8225336946e-03 2.6632094047e+00 -4.6128140001e+00 2.6632094047e+00 4.6128140001e+00 
139900 4.6781722179e+00 -1.8217396812e-03 2.6632436216e+00 -4.6128732656e+00 2.6632436216e+00 4.6128732656e+00 
140000 4.6781721478e+00 -1.8209464306e-03 2.6632778232e+00 -4.6129325045e+00 2.6632778232e+00 4.6129325045e+00 
140100 4.6781720778e+00 -1.8201539393e-03 2.6633120095e+00 -4.6129917168e+00 2.6633120095e+00 4.6129917168e+00 
140200 4.6781720078e+00 -1.8193622038e-03 2.6633461804e+00 -4.6130509026e+00 2.6633461804e+00 4.6130509026e+00 
140300 4.6781719379e+00 -1.8185712208e-03 2.6633803361e+00 -4.6131100619e+00 2.6633803361e+00 4.6131100619e+00 
140400 4.6781718681e+00 -1.8177809867e-03 2.6634144764e+00 -4.6131691948e+00 2.6634144764e+00 4.6131691948e+00 
140500 4.6781717983e+00 -1.8169914981e-03 2.6634486015e+00 -4.6132283012e+00 2.6634486015e+00 4.6132283012e+00 
140600 4.6781717286e+00 -1.8162027518e-03 2.6634827113e+00 -4.6132873811e+00 2.6634827113e+00 4.6132873811e+00 
140700 4.6781716590e+00 -1.8154147442e-03 2.6635168059e+00 -4.6133464347e+00 2.6635168059e+00 4.6133464347e+00 
140800 4.6781715894e+00 -1.8146274721e-03 2.6635508853e+00 -4.6134054618e+00 2.6635508853e+00 4.6134054618e+00 
140900 4.6781715198e+00 -1.8138409321e-03 2.6635849494e+00 -4.6134644626e+00 2.6635849494e+00 4.6134644626e+00 
141000 4.6781714503e+00 -1.8130551209e-03 2.6636189983e+00 -4.6135234371e+00 2.6636189983e+00 4.6135234371e+00 
141100 4.6781713809e+00 -1.8122700352e-03 2.6636530321e+00 -4.6135823853e+00 2.6636530321e+00 4.6135823853e+00 
141200 4.6781713116e+00 -1.8114856717e-03 2.6636870507e+00 -4.6136413072e+00 2.6636870507e+00 4.6136413072e+00 
141300 4.6781712422e+00 -1.8107020270e-03 2.6637210541e+00 -4.6137002029e+00 2.6637210541e+00 4.6137002029e+00 
141400 4.6781711730e+00 -1.8099190981e-03 2.6637550424e+00 -4.6137590723e+00 2.6637550424e+00 4.6137590723e+00 
141500 4.6781711038e+00 -1.8091368815e-03 2.6637890155e+00 -4.6138179155e+00 2.6637890155e+00 4.6138179155e+00 
141600 4.6781710347e+00 -1.8083553742e-03 2.6638229736e+00 -4.6138767326e+00 2.6638229736e+00 4.6138767326e+00 
141700 4.6781709656e+00 -1.8075745728e-03 2.6638569165e+00 -4.6139355235e+00 2.6638569165e+00 4.6139355235e+00 
141800 4.6781708966e+00 -1.8067944743e-03 2.6638908443e+00 -4.6139942882e+00 2.6638908443e+00 4.6139942882e+00 
141900 4.6781708277e+00 -1.8060150754e-03 2.6639247571e+00 -4.6140530268e+00 2.6639247571e+00 4.6140530268e+00 
142000 4.6781707588e+00 -1.8052363729e-03 2.6639586548e+00 -4.6141117394e+00 2.6639586548e+00 4.6141117394e+00 
142100 4.6781706899e+00 -1.8044583637e-03 2.6639925375e+00 -4.6141704259e+00 2.6639925375e+00 4.6141704259e+00 
142200 4.6781706212e+00 -1.8036810448e-03 2.6640264051e+00 -4.6142290863e+00 2.6640264051e+00 4.6142290863e+00 
142300 4.6781705524e+00 -1.8029044129e-03 2.6640602577e+00 -4.6142877208e+00 2.6640602577e+00 4.6142877208e+00 
142400 4.6781704838e+00 -1.8021284650e-03 2.6640940953e+00 -4.6143463292e+00 2.6640940953e+00 4.6143463292e+00 
142500 4.6781704152e+00 -1.8013531980e-03 2.6641279179e+00 -4.6144049117e+00 2.6641279179e+00 4.6144049117e+00 
142600 4.6781703466e+00 -1.8005786089e-03 2.6641617256e+00 -4.6144634682e+00 2.6641617256e+00 4.6144634682e+00 
142700 4.6781702782e+00 -1.7998046945e-03 2.6641955182e+00 -4.6145219988e+00 2.6641955182e+00 4.6145219988e+00 
142800 4.6781702097e+00 -1.7990314519e-03 2.6642292959e+00 -4.6145805036e+00 2.6642292959e+00 4.6145805036e+00 
142900 4.6781701414e+00 -1.7982588780e-03 2.6642630587e+00 -4.6146389824e+00 2.6642630587e+00 4.6146389824e+00 
143000 4.6781700731e+00 -1.7974869698e-03 2.6642968065e+00 -4.6146974354e+00 2.6642968065e+00 4.6146974354e+00 
143100 4.6781700048e+00 -1.7967157244e-03 2.6643305395e+00 -4.6147558625e+00 2.6643305395e+00 4.6147558625e+00 
143200 4.6781699366e+00 -1.7959451388e-03 2.6643642575e+00 -4.6148142639e+00 2.6643642575e+00 4.6148142639e+00 
143300 4.6781698685e+00 -1.7951752100e-03 2.6643979606e+00 -4.6148726394e+00 2.6643979606e+00 4.6148726394e+00 
143400 4.6781698004e+00 -1.7944059350e-03 2.6644316489e+00 -4.6149309892e+00 2.6644316489e+00 4.6149309892e+00 
143500 4.6781697324e+00 -1.7936373110e-03 2.6644653223e+00 -4.6149893133e+00 2.6644653223e+00 4.6149893133e+00 
143600 4.6781696644e+00 -1.7928693350e-03 2.6644989809e+00 -4.6150476116e+00 2.6644989809e+00 4.6150476116e+00 
143700 4.6781695965e+00 -1.7921020041e-03 2.6645326246e+00 -4.6151058842e+00 2.6645326246e+00 4.6151058842e+00 
143800 4.6781695287e+00 -1.7913353155e-03 2.6645662535e+00 -4.6151641312e+00 2.6645662535e+00 4.6151641312e+00 
143900 4.6781694609e+00 -1.7905692663e-03 2.6645998676e+00 -4.6152223525e+00 2.6645998676e+00 4.6152223525e+00 
144000 4.6781693931e+00 -1.7898038536e-03 2.6646334669e+00 -4.6152805481e+00 2.6646334669e+00 4.6152805481e+00 
144100 4.6781693255e+00 -1.7890390745e-03 2.6646670514e+00 -4.6153387182e+00 2.6646670514e+00 4.6153387182e+00 
144200 4.6781692578e+00 -1.7882749263e-03 2.6647006211e+00 -4.6153968627e+00 2.6647006211e+00 4.6153968627e+00 
144300 4.6781691903e+00 -1.7875114062e-03 2.6647341760e+00 -4.6154549816e+00 2.6647341760e+00 4.6154549816e+00 
144400 4.6781691228e+00 -1.7867485113e-03 2.6647677163e+00 -4.6155130749e+00 2.6647677163e+00 4.6155130749e+00 
144500 4.6781690553e+00 -1.7859862389e-03 2.6648012417e+00 -4.6155711428e+00 2.6648012417e+00 4.6155711428e+00 
144600 4.6781689879e+00 -1.7852245861e-03 2.6648347525e+00 -4.6156291851e+00 2.6648347525e+00 4.6156291851e+00 
144700 4.6781689206e+00 -1.7844635503e-03 2.6648682485e+00 -4.6156872019e+00 2.6648682485e+00 4.6156872019e+00 
144800 4.6781688533e+00 -1.7837031287e-03 2.6649017299e+00 -4.6157451933e+00 2.6649017299e+00 4.6157451933e+00 
144900 4.6781687861e+00 -1.7829433186e-03 2.6649351965e+00 -4.6158031593e+00 2.6649351965e+00 4.6158031593e+00 
145000 4.6781687190e+00 -1.7821841172e-03 2.6649686485e+00 -4.6158610998e+00 2.6649686485e+00 4.6158610998e+00 
145100 4.6781686519e+00 -1.7814255219e-03 2.6650020858e+00 -4.6159190149e+00 2.6650020858e+00 4.6159190149e+00 
145200 4.6781685848e+00 -1.7806675300e-03 2.6650355085e+00 -4.6159769047e+00 2.6650355085e+00 4.6159769047e+00 
145300 4.6781685178e+00 -1.7799101388e-03 2.6650689165e+00 -4.6160347691e+00 2.6650689165e+00 4.6160347691e+00 
145400 4.6781684509e+00 -1.7791533456e-03 2.6651023099e+00 -4.6160926081e+00 2.6651023099e+00 4.6160926081e+00 
145500 4.6781683840e+00 -1.7783971478e-03 2.6651356887e+00 -4.6161504218e+00 2.6651356887e+00 4.6161504218e+00 
145600 4.6781683172e+00 -1.7776415428e-03 2.6651690528e+00 -4.6162082103e+00 2.6651690528e+00 4.6162082103e+00 
145700 4.6781682504e+00 -1.7768865280e-03 2.6652024024e+00 -4.6162659734e+00 2.6652024024e+00 4.6162659734e+00 
145800 4.6781681837e+00 -1.7761321007e-03 2.6652357374e+00 -4.6163237114e+00 2.6652357374e+00 4.6163237114e+00 
145900 4.6781681171e+00 -1.7753782584e-03 2.6652690578e+00 -4.6163814240e+00 2.6652690578e+00 4.6163814240e+00 
146000 4.6781680505e+00 -1.7746249984e-03 2.6653023637e+00 -4.6164391115e+00 2.6653023637e+00 4.6164391115e+00 
146100 4.6781679839e+00 -1.7738723183e-03 2.6653356550e+00 -4.6164967737e+00 2.6653356550e+00 4.6164967737e+00 
146200 4.6781679175e+00 -1.7731202154e-03 2.6653689318e+00 -4.6165544108e+00 2.6653689318e+00 4.6165544108e+00 
146300 4.6781678510e+00 -1.7723686873e-03 2.6654021941e+00 -4.6166120227e+00 2.6654021941e+00 4.6166120227e+00 
146400 4.6781677847e+00 -1.7716177314e-03 2.6654354418e+00 -4.6166696095e+00 2.6654354418e+00 4.6166696095e+00 
146500 4.6781677184e+00 -1.7708673452e-03 2.6654686751e+00 -4.6167271712e+00 2.6654686751e+00 4.6167271712e+00 
146600 4.6781676521e+00 -1.7701175262e-03 2.6655018938e+00 -4.6167847078e+00 2.6655018938e+00 4.6167847078e+00 
146700 4.6781675859e+00 -1.7693682719e-03 2.6655350981e+00 -4.6168422193e+00 2.6655350981e+00 4.6168422193e+00 
146800 4.6781675198e+00 -1.7686195798e-03 2.6655682879e+00 -4.6168997057e+00 2.6655682879e+00 4.6168997057e+00 
146900 4.6781674537e+00 -1.7678714475e-03 2.6656014633e+00 -4.6169571671e+00 2.6656014633e+00 4.6169571671e+00 
147000 4.6781673877e+00 -1.7671238726e-03 2.6656346242e+00 -4.6170146035e+00 2.6656346242e+00 4.6170146035e+00 
147100 4.6781673217e+00 -1.7663768526e-03 2.6656677706e+00 -4.6170720148e+00 2.6656677706e+00 4.6170720148e+00 
147200 4.6781672558e+00 -1.7656303850e-03 2.6657009027e+00 -4.6171294012e+00 2.6657009027e+00 4.6171294012e+00 
147300 4.6781671899e+00 -1.7648844675e-03 2.6657340203e+00 -4.6171867626e+00 2.6657340203e+00 4.6171867626e+00 
147400 4.6781671241e+00 -1.7641390976e-03 2.6657671235e+00 -4.6172440991e+00 2.6657671235e+00 4.6172440991e+00 
147500 4.6781670583e+00 -1.7633942731e-03 2.6658002124e+00 -4.6173014107e+00 2.6658002124e+00 4.6173014107e+00 
147600 4.6781669926e+00 -1.7626499914e-03 2.6658332868e+00 -4.6173586973e+00 2.6658332868e+00 4.6173586973e+00 
147700 4.6781669270e+00 -1.7619062503e-03 2.6658663469e+00 -4.6174159591e+00 2.6658663469e+00 4.6174159591e+00 
147800 4.6781668614e+00 -1.7611630474e-03 2.6658993926e+00 -4.6174731959e+00 2.6658993926e+00 4.6174731959e+00 
147900 4.6781667959e+00 -1.7604203804e-03 2.6659324240e+00 -4.6175304080e+00 2.6659324240e+00 4.6175304080e+00 
148000 4.6781667304e+00 -1.7596782469e-03 2.6659654411e+00 -4.6175875952e+00 2.6659654411e+00 4.6175875952e+00 
148100 4.6781666650e+00 -1.7589366447e-03 2.6659984438e+00 -4.6176447575e+00 2.6659984438e+00 4.6176447575e+00 
148200 4.6781665996e+00 -1.7581955713e-03 2.6660314322e+00 -4.6177018951e+00 2.6660314322e+00 4.6177018951e+00 
148300 4.6781665343e+00 -1.7574550246e-03 2.6660644063e+00 -4.6177590079e+00 2.6660644063e+00 4.6177590079e+00 
148400 4.6781664691e+00 -1.7567150023e-03 2.6660973661e+00 -4.6178160959e+00 2.6660973661e+00 4.6178160959e+00 
148500 4.6781664039e+00 -1.7559755021e-03 2.6661303116e+00 -4.6178731592e+00 2.6661303116e+00 4.6178731592e+00 
148600 4.6781663388e+00 -1.7552365217e-03 2.6661632428e+00 -4.6179301978e+00 2.6661632428e+00 4.6179301978e+00 
148700 4.6781662737e+00 -1.7544980590e-03 2.6661961598e+00 -4.6179872117e+00 2.6661961598e+00 4.6179872117e+00 
148800 4.6781662086e+00 -1.7537601116e-03 2.6662290625e+00 -4.6180442008e+00 2.6662290625e+00 4.6180442008e+00 
148900 4.6781661437e+00 -1.7530226774e-03 2.6662619509e+00 -4.6181011653e+00 2.6662619509e+00 4.6181011653e+00 
149000 4.6781660787e+00 -1.7522857541e-03 2.6662948252e+00 -4.6181581052e+00 2.6662948252e+00 4.6181581052e+00 
149100 4.6781660139e+00 -1.7515493396e-03 2.6663276852e+00 -4.6182150204e+00 2.6663276852e+00 4.6182150204e+00 
149200 4.6781659491e+00 -1.7508134316e-03 2.6663605310e+00 -4.6182719110e+00 2.6663605310e+00 4.6182719110e+00 
149300 4.6781658843e+00 -1.7500780281e-03 2.6663933626e+00 -4.6183287769e+00 2.6663933626e+00 4.6183287769e+00 
149400 4.6781658196e+00 -1.7493431268e-03 2.6664261800e+00 -4.6183856183e+00 2.6664261800e+00 4.6183856183e+00 
149500 4.6781657550e+00 -1.7486087257e-03 2.6664589832e+00 -4.6184424351e+00 2.6664589832e+00 4.6184424351e+00 
149600 4.6781656904e+00 -1.7478748224e-03 2.6664917722e+00 -4.6184992274e+00 2.6664917722e+00 4.6184992274e+00 
149700 4.6781656258e+00 -1.7471414151e-03 2.6665245471e+00 -4.6185559952e+00 2.6665245471e+00 4.6185559952e+00 
149800 4.6781655614e+00 -1.7464085014e-03 2.6665573078e+00 -4.6186127384e+00 2.6665573078e+00 4.6186127384e+00 
149900 4.6781654969e+00 -1.7456760793e-03 2.6665900544e+00 -4.6186694571e+00 2.6665900544e+00 4.6186694571e+00 
150000 4.6781654326e+00 -1.7449441468e-03 2.6666227868e+00 -4.6187261513e+00 2.6666227868e+00 4.6187261513e+00 
150100 4.6781653683e+00 -1.7442127017e-03 2.6666555051e+00 -4.6187828211e+00 2.6666555051e+00 4.6187828211e+00 
150200 4.6781653040e+00 -1.7434817419e-03 2.6666882093e+00 -4.6188394664e+00 2.6666882093e+00 4.6188394664e+00 
150300 4.6781652398e+00 -1.7427512655e-03 2.6667208994e+00 -4.6188960873e+00 2.6667208994e+00 4.6188960873e+00 
150400 4.6781651756e+00 -1.7420212703e-03 2.6667535754e+00 -4.6189526838e+00 2.6667535754e+00 4.6189526838e+00 
150500 4.6781651115e+00 -1.7412917543e-03 2.6667862373e+00 -4.6190092559e+00 2.6667862373e+00 4.6190092559e+00 
150600 4.6781650475e+00 -1.7405627155e-03 2.6668188851e+00 -4.6190658036e+00 2.6668188851e+00 4.6190658036e+00 
150700 4.6781649835e+00 -1.7398341519e-03 2.6668515188e+00 -4.6191223269e+00 2.6668515188e+00 4.6191223269e+00 
150800 4.6781649196e+00 -1.7391060615e-03 2.6668841385e+00 -4.6191788259e+00 2.6668841385e+00 4.6191788259e+00 
150900 4.6781648557e+00 -1.7383784422e-03 2.6669167442e+00 -4.6192353005e+00 2.6669167442e+00 4.6192353005e+00 
151000 4.6781647919e+00 -1.7376512921e-03 2.6669493358e+00 -4.6192917508e+00 2.6669493358e+00 4.6192917508e+00 
151100 4.6781647281e+00 -1.7369246092e-03 2.6669819134e+00 -4.6193481768e+00 2.6669819134e+00 4.6193481768e+00 
151200 4.6781646644e+00 -1.7361983915e-03 2.6670144769e+00 -4.6194045785e+00 2.6670144769e+00 4.6194045785e+00 
151300 4.6781646007e+00 -1.7354726371e-03 2.6670470265e+00 -4.6194609560e+00 2.6670470265e+00 4.6194609560e+00 
151400 4.6781645371e+00 -1.7347473440e-03 2.6670795620e+00 -4.6195173092e+00 2.6670795620e+00 4.6195173092e+00 
151500 4.6781644736e+00 -1.7340225104e-03 2.6671120835e+00 -4.6195736382e+00 2.6671120835e+00 4.6195736382e+00 
151600 4.6781644100e+00 -1.7332981342e-03 2.6671445911e+00 -4.6196299429e+00 2.6671445911e+00 4.6196299429e+00 
151700 4.6781643466e+00 -1.7325742136e-03 2.6671770847e+00 -4.6196862235e+00 2.6671770847e+00 4.6196862235e+00 
151800 4.6781642832e+00 -1.7318507467e-03 2.6672095643e+00 -4.6197424798e+00 2.6672095643e+00 4.6197424798e+00 
151900 4.6781642199e+00 -1.7311277315e-03 2.6672420300e+00 -4.6197987120e+00 2.6672420300e+00 4.6197987120e+00 
152000 4.6781641566e+00 -1.7304051662e-03 2.6672744817e+00 -4.6198549200e+00 2.6672744817e+00 4.6198549200e+00 
152100 4.6781640934e+00 -1.7296830490e-03 2.6673069194e+00 -4.6199111038e+00 2.6673069194e+00 4.6199111038e+00 
152200 4.6781640302e+00 -1.7289613779e-03 2.6673393433e+00 -4.6199672636e+00 2.6673393433e+00 4.6199672636e+00 
152300 4.6781639670e+00 -1.7282401510e-03 2.6673717532e+00 -4.6200233992e+00 2.6673717532e+00 4.6200233992e+00 
152400 4.6781639040e+00 -1.7275193667e-03 2.6674041492e+00 -4.6200795107e+00 2.6674041492e+00 4.6200795107e+00 
152500 4.6781638410e+00 -1.7267990229e-03 2.6674365313e+00 -4.6201355982e+00 2.6674365313e+00 4.6201355982e+00 
152600 4.6781637780e+00 -1.7260791179e-03 2.6674688995e+00 -4.6201916615e+00 2.6674688995e+00 4.6201916615e+00 
152700 4.6781637151e+00 -1.7253596500e-03 2.6675012538e+00 -4.6202477008e+00 2.6675012538e+00 4.6202477008e+00 
152800 4.6781636522e+00 -1.7246406171e-03 2.6675335942e+00 -4.6203037161e+00 2.6675335942e+00 4.6203037161e+00 
152900 4.6781635894e+00 -1.7239220177e-03 2.6675659208e+00 -4.6203597074e+00 2.6675659208e+00 4.6203597074e+00 
153000 4.6781635267e+00 -1.7232038499e-03 2.6675982335e+00 -4.6204156746e+00 2.6675982335e+00 4.6204156746e+00 
153100 4.6781634640e+00 -1.7224861118e-03 2.6676305324e+00 -4.6204716179e+00 2.6676305324e+00 4.6204716179e+00 
153200 4.6781634013e+00 -1.7217688019e-03 2.6676628174e+00 -4.6205275372e+00 2.6676628174e+00 4.6205275372e+00 
153300 4.6781633387e+00 -1.7210519182e-03 2.6676950886e+00 -4.6205834325e+00 2.6676950886e+00 4.6205834325e+00 
153400 4.6781632762e+00 -1.7203354590e-03 2.6677273459e+00 -4.6206393038e+00 2.6677273459e+00 4.6206393038e+00 
153500 4.6781632137e+00 -1.7196194227e-03 2.6677595894e+00 -4.6206951513e+00 2.6677595894e+00 4.6206951513e+00 
153600 4.6781631513e+00 -1.7189038074e-03 2.6677918192e+00 -4.6207509748e+00 2.6677918192e+00 4.6207509748e+00 
153700 4.6781630889e+00 -1.7181886115e-03 2.6678240351e+00 -4.6208067744e+00 2.6678240351e+00 4.6208067744e+00 
153800 4.6781630266e+00 -1.7174738332e-03 2.6678562372e+00 -4.6208625501e+00 2.6678562372e+00 4.6208625501e+00 
153900 4.6781629643e+00 -1.7167594709e-03 2.6678884255e+00 -4.6209183020e+00 2.6678884255e+00 4.6209183020e+00 
154000 4.6781629021e+00 -1.7160455228e-03 2.6679206001e+00 -4.6209740299e+00 2.6679206001e+00 4.6209740299e+00 
154100 4.6781628399e+00 -1.7153319873e-03 2.6679527609e+00 -4.6210297341e+00 2.6679527609e+00 4.6210297341e+00 
154200 4.6781627778e+00 -1.7146188627e-03 2.6679849079e+00 -4.6210854144e+00 2.6679849079e+00 4.6210854144e+00 
154300 4.6781627158e+00 -1.7139061474e-03 2.6680170412e+00 -4.6211410708e+00 2.6680170412e+00 4.6211410708e+00 
154400 4.6781626538e+00 -1.7131938395e-03 2.6680491608e+00 -4.6211967035e+00 2.6680491608e+00 4.6211967035e+00 
154500 4.6781625918e+00 -1.7124819377e-03 2.6680812666e+00 -4.6212523124e+00 2.6680812666e+00 4.6212523124e+00 
154600 4.6781625299e+00 -1.7117704401e-03 2.6681133586e+00 -4.6213078975e+00 2.6681133586e+00 4.6213078975e+00 
154700 4.6781624681e+00 -1.7110593451e-03 2.6681454370e+00 -4.6213634589e+00 2.6681454370e+00 4.6213634589e+00 
154800 4.6781624063e+00 -1.7103486512e-03 2.6681775016e+00 -4.6214189965e+00 2.6681775016e+00 4.6214189965e+00 
154900 4.6781623445e+00 -1.7096383567e-03 2.6682095526e+00 -4.6214745103e+00 2.6682095526e+00 4.6214745103e+00 
155000 4.6781622828e+00 -1.7089284601e-03 2.6682415898e+00 -4.6215300005e+00 2.6682415898e+00 4.6215300005e+00 
155100 4.6781622212e+00 -1.7082189596e-03 2.6682736134e+00 -4.6215854669e+00 2.6682736134e+00 4.6215854669e+00 
155200 4.6781621596e+00 -1.7075098538e-03 2.6683056233e+00 -4.6216409096e+00 2.6683056233e+00 4.6216409096e+00 
155300 4.6781620981e+00 -1.7068011411e-03 2.6683376195e+00 -4.6216963287e+00 2.6683376195e+00 4.6216963287e+00 
155400 4.6781620366e+00 -1.7060928198e-03 2.6683696020e+00 -4.6217517241e+00 2.6683696020e+00 4.6217517241e+00 
155500 4.6781619752e+00 -1.7053848885e-03 2.6684015709e+00 -4.6218070958e+00 2.6684015709e+00 4.6218070958e+00 
155600 4.6781619138e+00 -1.7046773456e-03 2.6684335262e+00 -4.6218624439e+00 2.6684335262e+00 4.6218624439e+00 
155700 4.6781618525e+00 -1.7039701895e-03 2.6684654678e+00 -4.6219177684e+00 2.6684654678e+00 4.6219177684e+00 
155800 4.6781617912e+00 -1.7032634187e-03 2.6684973957e+00 -4.6219730693e+00 2.6684973957e+00 4.6219730693e+00 
155900 4.6781617300e+00 -1.7025570316e-03 2.6685293101e+00 -4.6220283465e+00 2.6685293101e+00 4.6220283465e+00 
156000 4.6781616688e+00 -1.7018510268e-03 2.6685612108e+00 -4.6220836002e+00 2.6685612108e+00 4.6220836002e+00 
156100 4.6781616077e+00 -1.7011454028e-03 2.6685930979e+00 -4.6221388303e+00 2.6685930979e+00 4.6221388303e+00 
156200 4.6781615467e+00 -1.7004401580e-03 2.6686249714e+00 -4.6221940368e+00 2.6686249714e+00 4.6221940368e+00 
156300 4.6781614856e+00 -1.6997352910e-03 2.6686568313e+00 -4.6222492198e+00 2.6686568313e+00 4.6222492198e+00 
156400 4.6781614247e+00 -1.6990308002e-03 2.6686886777e+00 -4.6223043793e+00 2.6686886777e+00 4.6223043793e+00 
156500 4.6781613638e+00 -1.6983266842e-03 2.6687205104e+00 -4.6223595153e+00 2.6687205104e+00 4.6223595153e+00 
156600 4.6781613029e+00 -1.6976229416e-03 2.6687523296e+00 -4.6224146277e+00 2.6687523296e+00 4.6224146277e+00 
156700 4.6781612421e+00 -1.6969195707e-03 2.6687841352e+00 -4.6224697166e+00 2.6687841352e+00 4.6224697166e+00 
156800 4.6781611814e+00 -1.6962165703e-03 2.6688159273e+00 -4.6225247821e+00 2.6688159273e+00 4.6225247821e+00 
156900 4.6781611207e+00 -1.6955139389e-03 2.6688477058e+00 -4.6225798241e+00 2.6688477058e+00 4.6225798241e+00 
157000 4.6781610600e+00 -1.6948116749e-03 2.6688794708e+00 -4.6226348426e+00 2.6688794708e+00 4.6226348426e+00 
157100 4.6781609994e+00 -1.6941097771e-03 2.6689112222e+00 -4.6226898377e+00 2.6689112222e+00 4.6226898377e+00 
157200 4.6781609389e+00 -1.6934082439e-03 2.6689429601e+00 -4.6227448094e+00 2.6689429601e+00 4.6227448094e+00 
157300 4.6781608784e+00 -1.6927070739e-03 2.6689746845e+00 -4.6227997577e+00 2.6689746845e+00 4.6227997577e+00 
157400 4.6781608180e+00 -1.6920062658e-03 2.6690063954e+00 -4.6228546825e+00 2.6690063954e+00 4.6228546825e+00 
157500 4.6781607576e+00 -1.6913058182e-03 2.6690380927e+00 -4.6229095840e+00 2.6690380927e+00 4.6229095840e+00 
157600 4.6781606973e+00 -1.6906057296e-03 2.6690697766e+00 -4.6229644620e+00 2.6690697766e+00 4.6229644620e+00 
157700 4.6781606370e+00 -1.6899059987e-03 2.6691014470e+00 -4.6230193167e+00 2.6691014470e+00 4.6230193167e+00 
157800 4.6781605767e+00 -1.6892066241e-03 2.6691331039e+00 -4.6230741481e+00 2.6691331039e+00 4.6230741481e+00 
157900 4.6781605166e+00 -1.6885076044e-03 2.6691647473e+00 -4.6231289561e+00 2.6691647473e+00 4.6231289561e+00 
158000 4.6781604564e+00 -1.6878089383e-03 2.6691963773e+00 -4.6231837408e+00 2.6691963773e+00 4.6231837408e+00 
158100 4.6781603964e+00 -1.6871106244e-03 2.6692279937e+00 -4.6232385021e+00 2.6692279937e+00 4.6232385021e+00 
158200 4.6781603363e+00 -1.6864126614e-03 2.6692595968e+00 -4.6232932402e+00 2.6692595968e+00 4.6232932402e+00 
158300 4.6781602764e+00 -1.6857150479e-03 2.6692911864e+00 -4.6233479550e+00 2.6692911864e+00 4.6233479550e+00 
158400 4.6781602164e+00 -1.6850177826e-03 2.6693227625e+00 -4.6234026464e+00 2.6693227625e+00 4.6234026464e+00 
158500 4.6781601566e+00 -1.6843208643e-03 2.6693543252e+00 -4.6234573147e+00 2.6693543252e+00 4.6234573147e+00 
158600 4.6781600967e+00 -1.6836242914e-03 2.6693858745e+00 -4.6235119596e+00 2.6693858745e+00 4.6235119596e+00 
158700 4.6781600370e+00 -1.6829280628e-03 2.6694174103e+00 -4.6235665813e+00 2.6694174103e+00 4.6235665813e+00 
158800 4.6781599773e+00 -1.6822321772e-03 2.6694489328e+00 -4.6236211798e+00 2.6694489328e+00 4.6236211798e+00 
158900 4.6781599176e+00 -1.6815366333e-03 2.6694804418e+00 -4.6236757551e+00 2.6694804418e+00 4.6236757551e+00 
159000 4.6781598580e+00 -1.6808414297e-03 2.6695119375e+00 -4.6237303071e+00 2.6695119375e+00 4.6237303071e+00 
159100 4.6781597984e+00 -1.6801465652e-03 2.6695434197e+00 -4.6237848360e+00 2.6695434197e+00 4.6237848360e+00 
159200 4.6781597389e+00 -1.6794520385e-03 2.6695748886e+00 -4.6238393416e+00 2.6695748886e+00 4.6238393416e+00 
159300 4.6781596794e+00 -1.6787578484e-03 2.6696063441e+00 -4.6238938241e+00 2.6696063441e+00 4.6238938241e+00 
159400 4.6781596200e+00 -1.6780639936e-03 2.6696377862e+00 -4.6239482835e+00 2.6696377862e+00 4.6239482835e+00 
159500 4.6781595607e+00 -1.6773704729e-03 2.6696692149e+00 -4.6240027197e+00 2.6696692149e+00 4.6240027197e+00 
159600 4.6781595013e+00 -1.6766772849e-03 2.6697006303e+00 -4.6240571327e+00 2.6697006303e+00 4.6240571327e+00 
159700 4.6781594421e+00 -1.6759844285e-03 2.6697320323e+00 -4.6241115226e+00 2.6697320323e+00 4.6241115226e+00 
159800 4.6781593829e+00 -1.6752919025e-03 2.6697634210e+00 -4.6241658894e+00 2.6697634210e+00 4.6241658894e+00 
159900 4.6781593237e+00 -1.6745997055e-03 2.6697947964e+00 -4.6242202331e+00 2.6697947964e+00 4.6242202331e+00 
160000 4.6781592646e+00 -1.6739078365e-03 2.6698261584e+00 -4.6242745537e+00 2.6698261584e+00 4.6242745537e+00 
160100 4.6781592056e+00 -1.6732162942e-03 2.6698575071e+00 -4.6243288512e+00 2.6698575071e+00 4.6243288512e+00 
160200 4.6781591465e+00 -1.6725250773e-03 2.6698888425e+00 -4.6243831257e+00 2.6698888425e+00 4.6243831257e+00 
160300 4.6781590876e+00 -1.6718341847e-03 2.6699201645e+00 -4.6244373771e+00 2.6699201645e+00 4.6244373771e+00 
160400 4.6781590287e+00 -1.6711436153e-03 2.6699514733e+00 -4.6244916055e+00 2.6699514733e+00 4.6244916055e+00 
160500 4.6781589698e+00 -1.6704533677e-03 2.6699827687e+00 -4.6245458108e+00 2.6699827687e+00 4.6245458108e+00 
160600 4.6781589110e+00 -1.6697634409e-03 2.6700140509e+00 -4.6245999931e+00 2.6700140509e+00 4.6245999931e+00 
160700 4.6781588523e+00 -1.6690738336e-03 2.6700453198e+00 -4.6246541523e+00 2.6700453198e+00 4.6246541523e+00 
160800 4.6781587936e+00 -1.6683845448e-03 2.6700765754e+00 -4.6247082886e+00 2.6700765754e+00 4.6247082886e+00 
160900 4.6781587349e+00 -1.6676955732e-03 2.6701078177e+00 -4.6247624019e+00 2.6701078177e+00 4.6247624019e+00 
161000 4.6781586763e+00 -1.6670069177e-03 2.6701390467e+00 -4.6248164922e+00 2.6701390467e+00 4.6248164922e+00 
161100 4.6781586178e+00 -1.6663185772e-03 2.6701702625e+00 -4.6248705596e+00 2.6701702625e+00 4.6248705596e+00 
161200 4.6781585593e+00 -1.6656305505e-03 2.6702014651e+00 -4.6249246039e+00 2.6702014651e+00 4.6249246039e+00 
161300 4.6781585008e+00 -1.6649428365e-03 2.6702326544e+00 -4.6249786254e+00 2.6702326544e+00 4.6249786254e+00 
161400 4.6781584424e+00 -1.6642554341e-03 2.6702638304e+00 -4.6250326239e+00 2.6702638304e+00 4.6250326239e+00 
161500 4.6781583841e+00 -1.6635683421e-03 2.6702949932e+00 -4.6250865995e+00 2.6702949932e+00 4.6250865995e+00 
161600 4.6781583258e+00 -1.6628815595e-03 2.6703261428e+00 -4.6251405521e+00 2.6703261428e+00 4.6251405521e+00 
161700 4.6781582675e+00 -1.6621950851e-03 2.6703572792e+00 -4.6251944819e+00 2.6703572792e+00 4.6251944819e+00 
161800 4.6781582093e+00 -1.6615089179e-03 2.6703884023e+00 -4.6252483887e+00 2.6703884023e+00 4.6252483887e+00 
161900 4.6781581512e+00 -1.6608230567e-03 2.6704195122e+00 -4.6253022727e+00 2.6704195122e+00 4.6253022727e+00 
162000 4.6781580931e+00 -1.6601375004e-03 2.6704506090e+00 -4.6253561338e+00 2.6704506090e+00 4.6253561338e+00 
162100 4.6781580350e+00 -1.6594522481e-03 2.6704816925e+00 -4.6254099721e+00 2.6704816925e+00 4.6254099721e+00 
162200 4.6781579770e+00 -1.6587672985e-03 2.6705127628e+00 -4.6254637875e+00 2.6705127628e+00 4.6254637875e+00 
162300 4.6781579191e+00 -1.6580826507e-03 2.6705438200e+00 -4.6255175801e+00 2.6705438200e+00 4.6255175801e+00 
162400 4.6781578612e+00 -1.6573983036e-03 2.6705748640e+00 -4.6255713498e+00 2.6705748640e+00 4.6255713498e+00 
162500 4.6781578033e+00 -1.6567142561e-03 2.6706058948e+00 -4.6256250967e+00 2.6706058948e+00 4.6256250967e+00 
162600 4.6781577455e+00 -1.6560305072e-03 2.6706369124e+00 -4.6256788209e+00 2.6706369124e+00 4.6256788209e+00 
162700 4.6781576878e+00 -1.6553470558e-03 2.6706679169e+00 -4.6257325222e+00 2.6706679169e+00 4.6257325222e+00 
162800 4.6781576301e+00 -1.6546639009e-03 2.6706989082e+00 -4.6257862007e+00 2.6706989082e+00 4.6257862007e+00 
162900 4.6781575724e+00 -1.6539810415e-03 2.6707298864e+00 -4.6258398565e+00 2.6707298864e+00 4.6258398565e+00 
163000 4.6781575148e+00 -1.6532984765e-03 2.6707608514e+00 -4.6258934895e+00 2.6707608514e+00 4.6258934895e+00 
163100 4.6781574573e+00 -1.6526162049e-03 2.6707918033e+00 -4.6259470997e+00 2.6707918033e+00 4.6259470997e+00 
163200 4.6781573998e+00 -1.6519342258e-03 2.6708227420e+00 -4.6260006872e+00 2.6708227420e+00 4.6260006872e+00 
163300 4.6781573423e+00 -1.6512525380e-03 2.6708536676e+00 -4.6260542519e+00 2.6708536676e+00 4.6260542519e+00 
163400 4.6781572849e+00 -1.6505711407e-03 2.6708845802e+00 -4.6261077940e+00 2.6708845802e+00 4.6261077940e+00 
163500 4.6781572276e+00 -1.6498900328e-03 2.6709154796e+00 -4.6261613133e+00 2.6709154796e+00 4.6261613133e+00 
163600 4.6781571703e+00 -1.6492092132e-03 2.6709463658e+00 -4.6262148099e+00 2.6709463658e+00 4.6262148099e+00 
163700 4.6781571130e+00 -1.6485286811e-03 2.6709772390e+00 -4.6262682838e+00 2.6709772390e+00 4.6262682838e+00 
163800 4.6781570558e+00 -1.6478484355e-03 2.6710080991e+00 -4.6263217351e+00 2.6710080991e+00 4.6263217351e+00 
163900 4.6781569986e+00 -1.6471684754e-03 2.6710389461e+00 -4.6263751637e+00 2.6710389461e+00 4.6263751637e+00 
164000 4.6781569415e+00 -1.6464887997e-03 2.6710697800e+00 -4.6264285696e+00 2.6710697800e+00 4.6264285696e+00 
164100 4.6781568845e+00 -1.6458094076e-03 2.6711006009e+00 -4.6264819528e+00 2.6711006009e+00 4.6264819528e+00 
164200 4.6781568275e+00 -1.6451302981e-03 2.6711314086e+00 -4.6265353134e+00 2.6711314086e+00 4.6265353134e+00 
164300 4.6781567705e+00 -1.6444514703e-03 2.6711622033e+00 -4.6265886514e+00 2.6711622033e+00 4.6265886514e+00 
164400 4.6781567136e+00 -1.6437729232e-03 2.6711929849e+00 -4.6266419667e+00 2.6711929849e+00 4.6266419667e+00 
164500 4.6781566567e+00 -1.6430946558e-03 2.6712237535e+00 -4.6266952595e+00 2.6712237535e+00 4.6266952595e+00 
164600 4.6781565999e+00 -1.6424166672e-03 2.6712545090e+00 -4.6267485296e+00 2.6712545090e+00 4.6267485296e+00 
164700 4.6781565432e+00 -1.6417389566e-03 2.6712852515e+00 -4.6268017771e+00 2.6712852515e+00 4.6268017771e+00 
164800 4.6781564864e+00 -1.6410615229e-03 2.6713159810e+00 -4.6268550021e+00 2.6713159810e+00 4.6268550021e+00 
164900 4.6781564298e+00 -1.6403843653e-03 2.6713466974e+00 -4.6269082045e+00 2.6713466974e+00 4.6269082045e+00 
165000 4.6781563732e+00 -1.6397074829e-03 2.6713774008e+00 -4.6269613843e+00 2.6713774008e+00 4.6269613843e+00 
165100 4.6781563166e+00 -1.6390308747e-03 2.6714080911e+00 -4.6270145416e+00 2.6714080911e+00 4.6270145416e+00 
165200 4.6781562601e+00 -1.6383545398e-03 2.6714387685e+00 -4.6270676763e+00 2.6714387685e+00 4.6270676763e+00 
165300 4.6781562036e+00 -1.6376784774e-03 2.6714694328e+00 -4.6271207885e+00 2.6714694328e+00 4.6271207885e+00 
165400 4.6781561472e+00 -1.6370026865e-03 2.6715000841e+00 -4.6271738781e+00 2.6715000841e+00 4.6271738781e+00 
165500 4.6781560908e+00 -1.6363271664e-03 2.6715307224e+00 -4.6272269452e+00 2.6715307224e+00 4.6272269452e+00 
165600 4.6781560345e+00 -1.6356519160e-03 2.6715613478e+00 -4.6272799899e+00 2.6715613478e+00 4.6272799899e+00 
165700 4.6781559782e+00 -1.6349769345e-03 2.6715919601e+00 -4.6273330120e+00 2.6715919601e+00 4.6273330120e+00 
165800 4.6781559220e+00 -1.6343022211e-03 2.6716225595e+00 -4.6273860117e+00 2.6716225595e+00 4.6273860117e+00 
165900 4.6781558658e+00 -1.6336277748e-03 2.6716531459e+00 -4.6274389888e+00 2.6716531459e+00 4.6274389888e+00 
166000 4.6781558097e+00 -1.6329535949e-03 2.6716837193e+00 -4.6274919435e+00 2.6716837193e+00 4.6274919435e+00 
166100 4.6781557536e+00 -1.6322796805e-03 2.6717142797e+00 -4.6275448758e+00 2.6717142797e+00 4.6275448758e+00 
166200 4.6781556976e+00 -1.6316060306e-03 2.6717448272e+00 -4.6275977855e+00 2.6717448272e+00 4.6275977855e+00 
166300 4.6781556416e+00 -1.6309326446e-03 2.6717753617e+00 -4.6276506729e+00 2.6717753617e+00 4.6276506729e+00 
166400 4.6781555857e+00 -1.6302595215e-03 2.6718058833e+00 -4.6277035378e+00 2.6718058833e+00 4.6277035378e+00 
166500 4.6781555298e+00 -1.6295866605e-03 2.6718363919e+00 -4.6277563803e+00 2.6718363919e+00 4.6277563803e+00 
166600 4.6781554740e+00 -1.6289140608e-03 2.6718668876e+00 -4.6278092004e+00 2.6718668876e+00 4.6278092004e+00 
166700 4.6781554182e+00 -1.6282417215e-03 2.6718973704e+00 -4.6278619981e+00 2.6718973704e+00 4.6278619981e+00 
166800 4.6781553624e+00 -1.6275696419e-03 2.6719278402e+00 -4.6279147733e+00 2.6719278402e+00 4.6279147733e+00 
166900 4.6781553067e+00 -1.6268978210e-03 2.6719582971e+00 -4.6279675262e+00 2.6719582971e+00 4.6279675262e+00 
167000 4.6781552511e+00 -1.6262262582e-03 2.6719887411e+00 -4.6280202568e+00 2.6719887411e+00 4.6280202568e+00 
167100 4.6781551955e+00 -1.6255549526e-03 2.6720191721e+00 -4.6280729649e+00 2.6720191721e+00 4.6280729649e+00 
167200 4.6781551400e+00 -1.6248839034e-03 2.6720495903e+00 -4.6281256507e+00 2.6720495903e+00 4.6281256507e+00 
167300 4.6781550845e+00 -1.6242131099e-03 2.6720799955e+00 -4.6281783142e+00 2.6720799955e+00 4.6281783142e+00 
167400 4.6781550290e+00 -1.6235425711e-03 2.6721103879e+00 -4.6282309553e+00 2.6721103879e+00 4.6282309553e+00 
167500 4.6781549736e+00 -1.6228722864e-03 2.6721407674e+00 -4.6282835740e+00 2.6721407674e+00 4.6282835740e+00 
167600 4.6781549183e+00 -1.6222022549e-03 2.6721711339e+00 -4.6283361705e+00 2.6721711339e+00 4.6283361705e+00 
167700 4.6781548629e+00 -1.6215324759e-03 2.6722014876e+00 -4.6283887446e+00 2.6722014876e+00 4.6283887446e+00 
167800 4.6781548077e+00 -1.6208629487e-03 2.6722318284e+00 -4.6284412965e+00 2.6722318284e+00 4.6284412965e+00 
167900 4.6781547525e+00 -1.6201936724e-03 2.6722621564e+00 -4.6284938260e+00 2.6722621564e+00 4.6284938260e+00 
168000 4.6781546973e+00 -1.6195246462e-03 2.6722924715e+00 -4.6285463333e+00 2.6722924715e+00 4.6285463333e+00 
168100 4.6781546422e+00 -1.6188558695e-03 2.6723227737e+00 -4.6285988182e+00 2.6723227737e+00 4.6285988182e+00 
168200 4.6781545871e+00 -1.6181873415e-03 2.6723530630e+00 -4.6286512810e+00 2.6723530630e+00 4.6286512810e+00 
168300 4.6781545321e+00 -1.6175190614e-03 2.6723833396e+00 -4.6287037214e+00 2.6723833396e+00 4.6287037214e+00 
168400 4.6781544771e+00 -1.6168510285e-03 2.6724136032e+00 -4.6287561396e+00 2.6724136032e+00 4.6287561396e+00 
168500 4.6781544222e+00 -1.6161832420e-03 2.6724438540e+00 -4.6288085356e+00 2.6724438540e+00 4.6288085356e+00 
168600 4.6781543673e+00 -1.6155157013e-03 2.6724740920e+00 -4.6288609093e+00 2.6724740920e+00 4.6288609093e+00 
168700 4.6781543125e+00 -1.6148484055e-03 2.6725043172e+00 -4.6289132608e+00 2.6725043172e+00 4.6289132608e+00 
168800 4.6781542577e+00 -1.6141813540e-03 2.6725345295e+00 -4.6289655901e+00 2.6725345295e+00 4.6289655901e+00 
168900 4.6781542030e+00 -1.6135145460e-03 2.6725647290e+00 -4.6290178972e+00 2.6725647290e+00 4.6290178972e+00 
169000 4.6781541483e+00 -1.6128479809e-03 2.6725949157e+00 -4.6290701820e+00 2.6725949157e+00 4.6290701820e+00 
169100 4.6781540937e+00 -1.6121816578e-03 2.6726250896e+00 -4.6291224447e+00 2.6726250896e+00 4.6291224447e+00 
169200 4.6781540391e+00 -1.6115155762e-03 2.6726552506e+00 -4.6291746852e+00 2.6726552506e+00 4.6291746852e+00 
169300 4.6781539846e+00 -1.6108497353e-03 2.6726853989e+00 -4.6292269036e+00 2.6726853989e+00 4.6292269036e+00 
169400 4.6781539301e+00 -1.6101841343e-03 2.6727155344e+00 -4.6292790997e+00 2.6727155344e+00 4.6292790997e+00 
169500 4.6781538756e+00 -1.6095187727e-03 2.6727456571e+00 -4.6293312737e+00 2.6727456571e+00 4.6293312737e+00 
169600 4.6781538212e+00 -1.6088536497e-03 2.6727757670e+00 -4.6293834256e+00 2.6727757670e+00 4.6293834256e+00 
169700 4.6781537669e+00 -1.6081887646e-03 2.6728058641e+00 -4.6294355553e+00 2.6728058641e+00 4.6294355553e+00 
169800 4.6781537126e+00 -1.6075241168e-03 2.6728359484e+00 -4.6294876629e+00 2.6728359484e+00 4.6294876629e+00 
169900 4.6781536583e+00 -1.6068597056e-03 2.6728660200e+00 -4.6295397484e+00 2.6728660200e+00 4.6295397484e+00 
170000 4.6781536041e+00 -1.6061955303e-03 2.6728960788e+00 -4.6295918118e+00 2.6728960788e+00 4.6295918118e+00 
170100 4.6781535499e+00 -1.6055315902e-03 2.6729261248e+00 -4.6296438530e+00 2.6729261248e+00 4.6296438530e+00 
170200 4.6781534958e+00 -1.6048678846e-03 2.6729561581e+00 -4.6296958722e+00 2.6729561581e+00 4.6296958722e+00 
170300 4.6781534418e+00 -1.6042044130e-03 2.6729861786e+00 -4.6297478693e+00 2.6729861786e+00 4.6297478693e+00 
170400 4.6781533877e+00 -1.6035411746e-03 2.6730161864e+00 -4.6297998443e+00 2.6730161864e+00 4.6297998443e+00 
170500 4.6781533338e+00 -1.6028781689e-03 2.6730461814e+00 -4.6298517972e+00 2.6730461814e+00 4.6298517972e+00 
170600 4.6781532798e+00 -1.6022153951e-03 2.6730761637e+00 -4.6299037280e+00 2.6730761637e+00 4.6299037280e+00 
170700 4.6781532260e+00 -1.6015528526e-03 2.6731061333e+00 -4.6299556368e+00 2.6731061333e+00 4.6299556368e+00 
170800 4.6781531721e+00 -1.6008905407e-03 2.6731360901e+00 -4.6300075236e+00 2.6731360901e+00 4.6300075236e+00 
170900 4.6781531183e+00 -1.6002284589e-03 2.6731660342e+00 -4.6300593883e+00 2.6731660342e+00 4.6300593883e+00 
171000 4.6781530646e+00 -1.5995666065e-03 2.6731959656e+00 -4.6301112310e+00 2.6731959656e+00 4.6301112310e+00 
171100 4.6781530109e+00 -1.5989049829e-03 2.6732258843e+00 -4.6301630517e+00 2.6732258843e+00 4.6301630517e+00 
171200 4.6781529573e+00 -1.5982435875e-03 2.6732557902e+00 -4.6302148503e+00 2.6732557902e+00 4.6302148503e+00 
171300 4.6781529037e+00 -1.5975824195e-03 2.6732856835e+00 -4.6302666270e+00 2.6732856835e+00 4.6302666270e+00 
171400 4.6781528501e+00 -1.5969214785e-03 2.6733155641e+00 -4.6303183816e+00 2.6733155641e+00 4.6303183816e+00 
171500 4.6781527966e+00 -1.5962607638e-03 2.6733454319e+00 -4.6303701143e+00 2.6733454319e+00 4.6303701143e+00 
171600 4.6781527431e+00 -1.5956002748e-03 2.6733752871e+00 -4.6304218249e+00 2.6733752871e+00 4.6304218249e+00 
171700 4.6781526897e+00 -1.5949400109e-03 2.6734051296e+00 -4.6304735136e+00 2.6734051296e+00 4.6304735136e+00 
171800 4.6781526364e+00 -1.5942799715e-03 2.6734349594e+00 -4.6305251804e+00 2.6734349594e+00 4.6305251804e+00 
171900 4.6781525831e+00 -1.5936201559e-03 2.6734647765e+00 -4.6305768251e+00 2.6734647765e+00 4.6305768251e+00 
172000 4.6781525298e+00 -1.5929605637e-03 2.6734945810e+00 -4.6306284480e+00 2.6734945810e+00 4.6306284480e+00 
172100 4.6781524766e+00 -1.5923011942e-03 2.6735243727e+00 -4.6306800489e+00 2.6735243727e+00 4.6306800489e+00 
172200 4.6781524234e+00 -1.5916420468e-03 2.6735541519e+00 -4.6307316278e+00 2.6735541519e+00 4.6307316278e+00 
172300 4.6781523703e+00 -1.5909831210e-03 2.6735839183e+00 -4.6307831848e+00 2.6735839183e+00 4.6307831848e+00 
172400 4.6781523172e+00 -1.5903244161e-03 2.6736136721e+00 -4.6308347199e+00 2.6736136721e+00 4.6308347199e+00 
172500 4.6781522641e+00 -1.5896659317e-03 2.6736434133e+00 -4.6308862331e+00 2.6736434133e+00 4.6308862331e+00 
172600 4.6781522111e+00 -1.5890076671e-03 2.6736731418e+00 -4.6309377244e+00 2.6736731418e+00 4.6309377244e+00 
172700 4.6781521582e+00 -1.5883496217e-03 2.6737028577e+00 -4.6309891938e+00 2.6737028577e+00 4.6309891938e+00 
172800 4.6781521053e+00 -1.5876917950e-03 2.6737325609e+00 -4.6310406414e+00 2.6737325609e+00 4.6310406414e+00 
172900 4.6781520524e+00 -1.5870341865e-03 2.6737622515e+00 -4.6310920670e+00 2.6737622515e+00 4.6310920670e+00 
173000 4.6781519996e+00 -1.5863767956e-03 2.6737919295e+00 -4.6311434708e+00 2.6737919295e+00 4.6311434708e+00 
173100 4.6781519469e+00 -1.5857196217e-03 2.6738215949e+00 -4.6311948527e+00 2.6738215949e+00 4.6311948527e+00 
173200 4.6781518942e+00 -1.5850626642e-03 2.6738512476e+00 -4.6312462127e+00 2.6738512476e+00 4.6312462127e+00 
173300 4.6781518415e+00 -1.5844059228e-03 2.6738808877e+00 -4.6312975509e+00 2.6738808877e+00 4.6312975509e+00 
173400 4.6781517889e+00 -1.5837493967e-03 2.6739105152e+00 -4.6313488673e+00 2.6739105152e+00 4.6313488673e+00 
173500 4.6781517363e+00 -1.5830930855e-03 2.6739401301e+00 -4.6314001618e+00 2.6739401301e+00 4.6314001618e+00 
173600 4.6781516838e+00 -1.5824369886e-03 2.6739697324e+00 -4.6314514345e+00 2.6739697324e+00 4.6314514345e+00 
173700 4.6781516313e+00 -1.5817811055e-03 2.6739993222e+00 -4.6315026854e+00 2.6739993222e+00 4.6315026854e+00 
173800 4.6781515788e+00 -1.5811254357e-03 2.6740288993e+00 -4.6315539145e+00 2.6740288993e+00 4.6315539145e+00 
173900 4.6781515265e+00 -1.5804699786e-03 2.6740584638e+00 -4.6316051217e+00 2.6740584638e+00 4.6316051217e+00 
174000 4.6781514741e+00 -1.5798147338e-03 2.6740880158e+00 -4.6316563072e+00 2.6740880158e+00 4.6316563072e+00 
174100 4.6781514218e+00 -1.5791597007e-03 2.6741175551e+00 -4.6317074709e+00 2.6741175551e+00 4.6317074709e+00 
174200 4.6781513696e+00 -1.5785048788e-03 2.6741470819e+00 -4.6317586128e+00 2.6741470819e+00 4.6317586128e+00 
174300 4.6781513173e+00 -1.5778502675e-03 2.6741765962e+00 -4.6318097330e+00 2.6741765962e+00 4.6318097330e+00 
174400 4.6781512652e+00 -1.5771958665e-03 2.6742060978e+00 -4.6318608313e+00 2.6742060978e+00 4.6318608313e+00 
174500 4.6781512131e+00 -1.5765416751e-03 2.6742355869e+00 -4.6319119080e+00 2.6742355869e+00 4.6319119080e+00 
174600 4.6781511610e+00 -1.5758876930e-03 2.6742650635e+00 -4.6319629628e+00 2.6742650635e+00 4.6319629628e+00 
174700 4.6781511090e+00 -1.5752339195e-03 2.6742945275e+00 -4.6320139960e+00 2.6742945275e+00 4.6320139960e+00 
174800 4.6781510570e+00 -1.5745803542e-03 2.6743239789e+00 -4.6320650074e+00 2.6743239789e+00 4.6320650074e+00 
174900 4.6781510051e+00 -1.5739269966e-03 2.6743534178e+00 -4.6321159970e+00 2.6743534178e+00 4.6321159970e+00 
175000 4.6781509532e+00 -1.5732738462e-03 2.6743828442e+00 -4.6321669650e+00 2.6743828442e+00 4.6321669650e+00 
175100 4.6781509013e+00 -1.5726209026e-03 2.6744122580e+00 -4.6322179112e+00 2.6744122580e+00 4.6322179112e+00 
175200 4.6781508495e+00 -1.5719681652e-03 2.6744416593e+00 -4.6322688358e+00 2.6744416593e+00 4.6322688358e+00 
175300 4.6781507978e+00 -1.5713156336e-03 2.6744710481e+00 -4.6323197386e+00 2.6744710481e+00 4.6323197386e+00 
175400 4.6781507461e+00 -1.5706633072e-03 2.6745004243e+00 -4.6323706198e+00 2.6745004243e+00 4.6323706198e+00 
175500 4.6781506944e+00 -1.5700111858e-03 2.6745297880e+00 -4.6324214793e+00 2.6745297880e+00 4.6324214793e+00 
175600 4.6781506428e+00 -1.5693592687e-03 2.6745591393e+00 -4.6324723171e+00 2.6745591393e+00 4.6324723171e+00 
175700 4.6781505912e+00 -1.5687075555e-03 2.6745884780e+00 -4.6325231332e+00 2.6745884780e+00 4.6325231332e+00 
175800 4.6781505397e+00 -1.5680560457e-03 2.6746178042e+00 -4.6325739277e+00 2.6746178042e+00 4.6325739277e+00 
175900 4.6781504882e+00 -1.5674047390e-03 2.6746471179e+00 -4.6326247005e+00 2.6746471179e+00 4.6326247005e+00 
176000 4.6781504368e+00 -1.5667536347e-03 2.6746764191e+00 -4.6326754517e+00 2.6746764191e+00 4.6326754517e+00 
176100 4.6781503854e+00 -1.5661027326e-03 2.6747057078e+00 -4.6327261812e+00 2.6747057078e+00 4.6327261812e+00 
176200 4.6781503341e+00 -1.5654520320e-03 2.6747349840e+00 -4.6327768891e+00 2.6747349840e+00 4.6327768891e+00 
176300 4.6781502828e+00 -1.5648015327e-03 2.6747642478e+00 -4.6328275754e+00 2.6747642478e+00 4.6328275754e+00 
176400 4.6781502315e+00 -1.5641512341e-03 2.6747934990e+00 -4.6328782400e+00 2.6747934990e+00 4.6328782400e+00 
176500 4.6781501803e+00 -1.5635011358e-03 2.6748227378e+00 -4.6329288831e+00 2.6748227378e+00 4.6329288831e+00 
176600 4.6781501292e+00 -1.5628512374e-03 2.6748519641e+00 -4.6329795045e+00 2.6748519641e+00 4.6329795045e+00 
176700 4.6781500781e+00 -1.5622015385e-03 2.6748811779e+00 -4.6330301044e+00 2.6748811779e+00 4.6330301044e+00 
176800 4.6781500270e+00 -1.5615520385e-03 2.6749103793e+00 -4.6330806827e+00 2.6749103793e+00 4.6330806827e+00 
176900 4.6781499760e+00 -1.5609027371e-03 2.6749395682e+00 -4.6331312394e+00 2.6749395682e+00 4.6331312394e+00 
177000 4.6781499250e+00 -1.5602536339e-03 2.6749687447e+00 -4.6331817745e+00 2.6749687447e+00 4.6331817745e+00 
177100 4.6781498740e+00 -1.5596047284e-03 2.6749979087e+00 -4.6332322880e+00 2.6749979087e+00 4.6332322880e+00 
177200 4.6781498232e+00 -1.5589560203e-03 2.6750270603e+00 -4.6332827800e+00 2.6750270603e+00 4.6332827800e+00 
177300 4.6781497723e+00 -1.5583075090e-03 2.6750561994e+00 -4.6333332505e+00 2.6750561994e+00 4.6333332505e+00 
177400 4.6781497215e+00 -1.5576591943e-03 2.6750853261e+00 -4.6333836994e+00 2.6750853261e+00 4.6333836994e+00 
177500 4.6781496708e+00 -1.5570110756e-03 2.6751144403e+00 -4.6334341267e+00 2.6751144403e+00 4.6334341267e+00 
177600 4.6781496200e+00 -1.5563631526e-03 2.6751435422e+00 -4.6334845326e+00 2.6751435422e+00 4.6334845326e+00 
177700 4.6781495694e+00 -1.5557154248e-03 2.6751726316e+00 -4.6335349169e+00 2.6751726316e+00 4.6335349169e+00 
177800 4.6781495188e+00 -1.5550678920e-03 2.6752017085e+00 -4.6335852797e+00 2.6752017085e+00 4.6335852797e+00 
177900 4.6781494682e+00 -1.5544205536e-03 2.6752307731e+00 -4.6336356209e+00 2.6752307731e+00 4.6336356209e+00 
178000 4.6781494176e+00 -1.5537734093e-03 2.6752598252e+00 -4.6336859407e+00 2.6752598252e+00 4.6336859407e+00 
178100 4.6781493672e+00 -1.5531264587e-03 2.6752888649e+00 -4.6337362390e+00 2.6752888649e+00 4.6337362390e+00 
178200 4.6781493167e+00 -1.5524797014e-03 2.6753178923e+00 -4.6337865158e+00 2.6753178923e+00 4.6337865158e+00 
178300 4.6781492663e+00 -1.5518331370e-03 2.6753469072e+00 -4.6338367711e+00 2.6753469072e+00 4.6338367711e+00 
178400 4.6781492160e+00 -1.5511867651e-03 2.6753759097e+00 -4.6338870049e+00 2.6753759097e+00 4.6338870049e+00 
178500 4.6781491657e+00 -1.5505405854e-03 2.6754048998e+00 -4.6339372173e+00 2.6754048998e+00 4.6339372173e+00 
178600 4.6781491154e+00 -1.5498945974e-03 2.6754338775e+00 -4.6339874082e+00 2.6754338775e+00 4.6339874082e+00 
178700 4.6781490652e+00 -1.5492488008e-03 2.6754628429e+00 -4.6340375776e+00 2.6754628429e+00 4.6340375776e+00 
178800 4.6781490150e+00 -1.5486031953e-03 2.6754917959e+00 -4.6340877257e+00 2.6754917959e+00 4.6340877257e+00 
178900 4.6781489649e+00 -1.5479577804e-03 2.6755207364e+00 -4.6341378522e+00 2.6755207364e+00 4.6341378522e+00 
179000 4.6781489148e+00 -1.5473125558e-03 2.6755496647e+00 -4.6341879574e+00 2.6755496647e+00 4.6341879574e+00 
179100 4.6781488647e+00 -1.5466675211e-03 2.6755785805e+00 -4.6342380411e+00 2.6755785805e+00 4.6342380411e+00 
179200 4.6781488147e+00 -1.5460226759e-03 2.6756074840e+00 -4.6342881033e+00 2.6756074840e+00 4.6342881033e+00 
179300 4.6781487648e+00 -1.5453780200e-03 2.6756363751e+00 -4.6343381442e+00 2.6756363751e+00 4.6343381442e+00 
179400 4.6781487149e+00 -1.5447335529e-03 2.6756652538e+00 -4.6343881637e+00 2.6756652538e+00 4.6343881637e+00 
179500 4.6781486650e+00 -1.5440892742e-03 2.6756941202e+00 -4.6344381617e+00 2.6756941202e+00 4.6344381617e+00 
179600 4.6781486152e+00 -1.5434451837e-03 2.6757229743e+00 -4.6344881384e+00 2.6757229743e+00 4.6344881384e+00 
179700 4.6781485654e+00 -1.5428012810e-03 2.6757518160e+00 -4.6345380937e+00 2.6757518160e+00 4.6345380937e+00 
179800 4.6781485157e+00 -1.5421575657e-03 2.6757806453e+00 -4.6345880276e+00 2.6757806453e+00 4.6345880276e+00 
179900 4.6781484660e+00 -1.5415140376e-03 2.6758094623e+00 -4.6346379402e+00 2.6758094623e+00 4.6346379402e+00 
180000 4.6781484163e+00 -1.5408706961e-03 2.6758382670e+00 -4.6346878313e+00 2.6758382670e+00 4.6346878313e+00 
180100 4.6781483667e+00 -1.5402275411e-03 2.6758670594e+00 -4.6347377011e+00 2.6758670594e+00 4.6347377011e+00 
180200 4.6781483172e+00 -1.5395845722e-03 2.6758958394e+00 -4.6347875496e+00 2.6758958394e+00 4.6347875496e+00 
180300 4.6781482677e+00 -1.5389417889e-03 2.6759246071e+00 -4.6348373767e+00 2.6759246071e+00 4.6348373767e+00 
180400 4.6781482182e+00 -1.5382991911e-03 2.6759533625e+00 -4.6348871825e+00 2.6759533625e+00 4.6348871825e+00 
180500 4.6781481688e+00 -1.5376567784e-03 2.6759821055e+00 -4.6349369669e+00 2.6759821055e+00 4.6349369669e+00 
180600 4.6781481194e+00 -1.5370145505e-03 2.6760108363e+00 -4.6349867301e+00 2.6760108363e+00 4.6349867301e+00 
180700 4.6781480701e+00 -1.5363725069e-03 2.6760395547e+00 -4.6350364719e+00 2.6760395547e+00 4.6350364719e+00 
180800 4.6781480208e+00 -1.5357306475e-03 2.6760682609e+00 -4.6350861924e+00 2.6760682609e+00 4.6350861924e+00 
180900 4.6781479715e+00 -1.5350889718e-03 2.6760969547e+00 -4.6351358915e+00 2.6760969547e+00 4.6351358915e+00 
181000 4.6781479223e+00 -1.5344474797e-03 2.6761256363e+00 -4.6351855694e+00 2.6761256363e+00 4.6351855694e+00 
181100 4.6781478732e+00 -1.5338061707e-03 2.6761543055e+00 -4.6352352260e+00 2.6761543055e+00 4.6352352260e+00 
181200 4.6781478240e+00 -1.5331650445e-03 2.6761829625e+00 -4.6352848613e+00 2.6761829625e+00 4.6352848613e+00 
181300 4.6781477750e+00 -1.5325241009e-03 2.6762116071e+00 -4.6353344754e+00 2.6762116071e+00 4.6353344754e+00 
181400 4.6781477259e+00 -1.5318833394e-03 2.6762402395e+00 -4.6353840681e+00 2.6762402395e+00 4.6353840681e+00 
181500 4.6781476769e+00 -1.5312427600e-03 2.6762688596e+00 -4.6354336396e+00 2.6762688596e+00 4.6354336396e+00 
181600 4.6781476280e+00 -1.5306023621e-03 2.6762974675e+00 -4.6354831899e+00 2.6762974675e+00 4.6354831899e+00 
181700 4.6781475791e+00 -1.5299621455e-03 2.6763260631e+00 -4.6355327188e+00 2.6763260631e+00 4.6355327188e+00 
181800 4.6781475302e+00 -1.5293221100e-03 2.6763546464e+00 -4.6355822266e+00 2.6763546464e+00 4.6355822266e+00 
181900 4.6781474814e+00 -1.5286822552e-03 2.6763832174e+00 -4.6356317131e+00 2.6763832174e+00 4.6356317131e+00 
182000 4.6781474327e+00 -1.5280425809e-03 2.6764117762e+00 -4.6356811783e+00 2.6764117762e+00 4.6356811783e+00 
182100 4.6781473839e+00 -1.5274030866e-03 2.6764403227e+00 -4.6357306224e+00 2.6764403227e+00 4.6357306224e+00 
182200 4.6781473353e+00 -1.5267637723e-03 2.6764688570e+00 -4.6357800452e+00 2.6764688570e+00 4.6357800452e+00 
182300 4.6781472866e+00 -1.5261246375e-03 2.6764973790e+00 -4.6358294468e+00 2.6764973790e+00 4.6358294468e+00 
182400 4.6781472380e+00 -1.5254856819e-03 2.6765258888e+00 -4.6358788272e+00 2.6765258888e+00 4.6358788272e+00 
182500 4.6781471895e+00 -1.5248469054e-03 2.6765543864e+00 -4.6359281864e+00 2.6765543864e+00 4.6359281864e+00 
182600 4.6781471410e+00 -1.5242083076e-03 2.6765828717e+00 -4.6359775244e+00 2.6765828717e+00 4.6359775244e+00 
182700 4.6781470925e+00 -1.5235698882e-03 2.6766113447e+00 -4.6360268412e+00 2.6766113447e+00 4.6360268412e+00 
182800 4.6781470441e+00 -1.5229316470e-03 2.6766398056e+00 -4.6360761368e+00 2.6766398056e+00 4.6360761368e+00 
182900 4.6781469957e+00 -1.5222935837e-03 2.6766682542e+00 -4.6361254113e+00 2.6766682542e+00 4.6361254113e+00 
183000 4.6781469473e+00 -1.5216556980e-03 2.6766966906e+00 -4.6361746646e+00 2.6766966906e+00 4.6361746646e+00 
183100 4.6781468991e+00 -1.5210179897e-03 2.6767251148e+00 -4.6362238967e+00 2.6767251148e+00 4.6362238967e+00 
183200 4.6781468508e+00 -1.5203804584e-03 2.6767535268e+00 -4.6362731077e+00 2.6767535268e+00 4.6362731077e+00 
183300 4.6781468026e+00 -1.5197431040e-03 2.6767819265e+00 -4.6363222975e+00 2.6767819265e+00 4.6363222975e+00 
183400 4.6781467544e+00 -1.5191059261e-03 2.6768103141e+00 -4.6363714662e+00 2.6768103141e+00 4.6363714662e+00 
183500 4.6781467063e+00 -1.5184689245e-03 2.6768386894e+00 -4.6364206138e+00 2.6768386894e+00 4.6364206138e+00 
183600 4.6781466582e+00 -1.5178320990e-03 2.6768670526e+00 -4.6364697402e+00 2.6768670526e+00 4.6364697402e+00 
183700 4.6781466102e+00 -1.5171954492e-03 2.6768954035e+00 -4.6365188455e+00 2.6768954035e+00 4.6365188455e+00 
183800 4.6781465622e+00 -1.5165589750e-03 2.6769237423e+00 -4.6365679297e+00 2.6769237423e+00 4.6365679297e+00 
183900 4.6781465143e+00 -1.5159226760e-03 2.6769520689e+00 -4.6366169927e+00 2.6769520689e+00 4.6366169927e+00 
184000 4.6781464663e+00 -1.5152865521e-03 2.6769803833e+00 -4.6366660347e+00 2.6769803833e+00 4.6366660347e+00 
184100 4.6781464185e+00 -1.5146506029e-03 2.6770086855e+00 -4.6367150556e+00 2.6770086855e+00 4.6367150556e+00 
184200 4.6781463707e+00 -1.5140148283e-03 2.6770369755e+00 -4.6367640553e+00 2.6770369755e+00 4.6367640553e+00 
184300 4.6781463229e+00 -1.5133792279e-03 2.6770652534e+00 -4.6368130340e+00 2.6770652534e+00 4.6368130340e+00 
184400 4.6781462751e+00 -1.5127438016e-03 2.6770935191e+00 -4.6368619916e+00 2.6770935191e+00 4.6368619916e+00 
184500 4.6781462275e+00 -1.5121085491e-03 2.6771217726e+00 -4.6369109282e+00 2.6771217726e+00 4.6369109282e+00 
184600 4.6781461798e+00 -1.5114734702e-03 2.6771500139e+00 -4.6369598436e+00 2.6771500139e+00 4.6369598436e+00 
184700 4.6781461322e+00 -1.5108385646e-03 2.6771782431e+00 -4.6370087380e+00 2.6771782431e+00 4.6370087380e+00 
184800 4.6781460846e+00 -1.5102038321e-03 2.6772064602e+00 -4.6370576114e+00 2.6772064602e+00 4.6370576114e+00 
184900 4.6781460371e+00 -1.5095692724e-03 2.6772346651e+00 -4.6371064637e+00 2.6772346651e+00 4.6371064637e+00 
185000 4.6781459896e+00 -1.5089348854e-03 2.6772628578e+00 -4.6371552950e+00 2.6772628578e+00 4.6371552950e+00 
185100 4.6781459422e+00 -1.5083006708e-03 2.6772910384e+00 -4.6372041052e+00 2.6772910384e+00 4.6372041052e+00 
185200 4.6781458948e+00 -1.5076666284e-03 2.6773192069e+00 -4.6372528944e+00 2.6773192069e+00 4.6372528944e+00 
185300 4.6781458474e+00 -1.5070327579e-03 2.6773473632e+00 -4.6373016626e+00 2.6773473632e+00 4.6373016626e+00 
185400 4.6781458001e+00 -1.5063990591e-03 2.6773755074e+00 -4.6373504098e+00 2.6773755074e+00 4.6373504098e+00 
185500 4.6781457529e+00 -1.5057655319e-03 2.6774036395e+00 -4.6373991359e+00 2.6774036395e+00 4.6373991359e+00 
185600 4.6781457056e+00 -1.5051321760e-03 2.6774317594e+00 -4.6374478411e+00 2.6774317594e+00 4.6374478411e+00 
185700 4.6781456584e+00 -1.5044989911e-03 2.6774598672e+00 -4.6374965252e+00 2.6774598672e+00 4.6374965252e+00 
185800 4.6781456113e+00 -1.5038659771e-03 2.6774879629e+00 -4.6375451884e+00 2.6774879629e+00 4.6375451884e+00 
185900 4.6781455642e+00 -1.5032331337e-03 2.6775160465e+00 -4.6375938306e+00 2.6775160465e+00 4.6375938306e+00 
186000 4.6781455171e+00 -1.5026004608e-03 2.6775441179e+00 -4.6376424518e+00 2.6775441179e+00 4.6376424518e+00 
186100 4.6781454701e+00 -1.5019679581e-03 2.6775721773e+00 -4.6376910520e+00 2.6775721773e+00 4.6376910520e+00 
186200 4.6781454232e+00 -1.5013356254e-03 2.6776002245e+00 -4.6377396312e+00 2.6776002245e+00 4.6377396312e+00 
186300 4.6781453762e+00 -1.5007034625e-03 2.6776282597e+00 -4.6377881895e+00 2.6776282597e+00 4.6377881895e+00 
186400 4.6781453293e+00 -1.5000714692e-03 2.6776562827e+00 -4.6378367269e+00 2.6776562827e+00 4.6378367269e+00 
186500 4.6781452825e+00 -1.4994396453e-03 2.6776842937e+00 -4.6378852433e+00 2.6776842937e+00 4.6378852433e+00 
186600 4.6781452357e+00 -1.4988079907e-03 2.6777122925e+00 -4.6379337387e+00 2.6777122925e+00 4.6379337387e+00 
186700 4.6781451889e+00 -1.4981765050e-03 2.6777402793e+00 -4.6379822132e+00 2.6777402793e+00 4.6379822132e+00 
186800 4.6781451422e+00 -1.4975451881e-03 2.6777682540e+00 -4.6380306668e+00 2.6777682540e+00 4.6380306668e+00 
186900 4.6781450955e+00 -1.4969140399e-03 2.6777962166e+00 -4.6380790995e+00 2.6777962166e+00 4.6380790995e+00 
187000 4.6781450489e+00 -1.4962830601e-03 2.6778241671e+00 -4.6381275112e+00 2.6778241671e+00 4.6381275112e+00 
187100 4.6781450023e+00 -1.4956522485e-03 2.6778521056e+00 -4.6381759021e+00 2.6778521056e+00 4.6381759021e+00 
187200 4.6781449557e+00 -1.4950216049e-03 2.6778800320e+00 -4.6382242720e+00 2.6778800320e+00 4.6382242720e+00 
187300 4.6781449092e+00 -1.4943911292e-03 2.6779079463e+00 -4.6382726210e+00 2.6779079463e+00 4.6382726210e+00 
187400 4.6781448628e+00 -1.4937608212e-03 2.6779358486e+00 -4.6383209491e+00 2.6779358486e+00 4.6383209491e+00 
187500 4.6781448163e+00 -1.4931306806e-03 2.6779637388e+00 -4.6383692564e+00 2.6779637388e+00 4.6383692564e+00 
187600 4.6781447700e+00 -1.4925007073e-03 2.6779916169e+00 -4.6384175428e+00 2.6779916169e+00 4.6384175428e+00 
187700 4.6781447236e+00 -1.4918709012e-03 2.6780194830e+00 -4.6384658082e+00 2.6780194830e+00 4.6384658082e+00 
187800 4.6781446773e+00 -1.4912412619e-03 2.6780473371e+00 -4.6385140529e+00 2.6780473371e+00 4.6385140529e+00 
187900 4.6781446310e+00 -1.4906117895e-03 2.6780751791e+00 -4.6385622766e+00 2.6780751791e+00 4.6385622766e+00 
188000 4.6781445848e+00 -1.4899824836e-03 2.6781030090e+00 -4.6386104795e+00 2.6781030090e+00 4.6386104795e+00 
188100 4.6781445387e+00 -1.4893533441e-03 2.6781308269e+00 -4.6386586616e+00 2.6781308269e+00 4.6386586616e+00 
188200 4.6781444925e+00 -1.4887243708e-03 2.6781586328e+00 -4.6387068228e+00 2.6781586328e+00 4.6387068228e+00 
188300 4.6781444464e+00 -1.4880955636e-03 2.6781864267e+00 -4.6387549631e+00 2.6781864267e+00 4.6387549631e+00 
188400 4.6781444004e+00 -1.4874669223e-03 2.6782142085e+00 -4.6388030827e+00 2.6782142085e+00 4.6388030827e+00 
188500 4.6781443544e+00 -1.4868384467e-03 2.6782419783e+00 -4.6388511814e+00 2.6782419783e+00 4.6388511814e+00 
188600 4.6781443084e+00 -1.4862101366e-03 2.6782697361e+00 -4.6388992593e+00 2.6782697361e+00 4.6388992593e+00 
188700 4.6781442625e+00 -1.4855819919e-03 2.6782974818e+00 -4.6389473163e+00 2.6782974818e+00 4.6389473163e+00 
188800 4.6781442166e+00 -1.4849540125e-03 2.6783252156e+00 -4.6389953526e+00 2.6783252156e+00 4.6389953526e+00 
188900 4.6781441707e+00 -1.4843261981e-03 2.6783529373e+00 -4.6390433681e+00 2.6783529373e+00 4.6390433681e+00 
189000 4.6781441249e+00 -1.4836985486e-03 2.6783806471e+00 -4.6390913627e+00 2.6783806471e+00 4.6390913627e+00 
189100 4.6781440792e+00 -1.4830710639e-03 2.6784083448e+00 -4.6391393366e+00 2.6784083448e+00 4.6391393366e+00 
189200 4.6781440334e+00 -1.4824437437e-03 2.6784360305e+00 -4.6391872897e+00 2.6784360305e+00 4.6391872897e+00 
189300 4.6781439878e+00 -1.4818165880e-03 2.6784637042e+00 -4.6392352220e+00 2.6784637042e+00 4.6392352220e+00 
189400 4.6781439421e+00 -1.4811895965e-03 2.6784913660e+00 -4.6392831335e+00 2.6784913660e+00 4.6392831335e+00 
189500 4.6781438965e+00 -1.4805627692e-03 2.6785190157e+00 -4.6393310243e+00 2.6785190157e+00 4.6393310243e+00 
189600 4.6781438510e+00 -1.4799361058e-03 2.6785466535e+00 -4.6393788943e+00 2.6785466535e+00 4.6393788943e+00 
189700 4.6781438054e+00 -1.4793096063e-03 2.6785742793e+00 -4.6394267435e+00 2.6785742793e+00 4.6394267435e+00 
189800 4.6781437600e+00 -1.4786832704e-03 2.6786018931e+00 -4.6394745720e+00 2.6786018931e+00 4.6394745720e+00 
189900 4.6781437145e+00 -1.4780570980e-03 2.6786294949e+00 -4.6395223798e+00 2.6786294949e+00 4.6395223798e+00 
190000 4.6781436691e+00 -1.4774310890e-03 2.6786570847e+00 -4.6395701668e+00 2.6786570847e+00 4.6395701668e+00 
190100 4.6781436238e+00 -1.4768052433e-03 2.6786846626e+00 -4.6396179331e+00 2.6786846626e+00 4.6396179331e+00 
190200 4.6781435785e+00 -1.4761795606e-03 2.6787122285e+00 -4.6396656787e+00 2.6787122285e+00 4.6396656787e+00 
190300 4.6781435332e+00 -1.4755540409e-03 2.6787397825e+00 -4.6397134035e+00 2.6787397825e+00 4.6397134035e+00 
190400 4.6781434880e+00 -1.4749286840e-03 2.6787673245e+00 -4.6397611076e+00 2.6787673245e+00 4.6397611076e+00 
190500 4.6781434428e+00 -1.4743034898e-03 2.6787948545e+00 -4.6398087911e+00 2.6787948545e+00 4.6398087911e+00 
190600 4.6781433976e+00 -1.4736784581e-03 2.6788223726e+00 -4.6398564538e+00 2.6788223726e+00 4.6398564538e+00 
190700 4.6781433525e+00 -1.4730535888e-03 2.6788498787e+00 -4.6399040958e+00 2.6788498787e+00 4.6399040958e+00 
190800 4.6781433075e+00 -1.4724288817e-03 2.6788773729e+00 -4.6399517171e+00 2.6788773729e+00 4.6399517171e+00 
190900 4.6781432624e+00 -1.4718043368e-03 2.6789048552e+00 -4.6399993178e+00 2.6789048552e+00 4.6399993178e+00 
191000 4.6781432175e+00 -1.4711799539e-03 2.6789323255e+00 -4.6400468977e+00 2.6789323255e+00 4.6400468977e+00 
191100 4.6781431725e+00 -1.4705557329e-03 2.6789597838e+00 -4.6400944570e+00 2.6789597838e+00 4.6400944570e+00 
191200 4.6781431276e+00 -1.4699316736e-03 2.6789872303e+00 -4.6401419957e+00 2.6789872303e+00 4.6401419957e+00 
191300 4.6781430827e+00 -1.4693077759e-03 2.6790146648e+00 -4.6401895136e+00 2.6790146648e+00 4.6401895136e+00 
191400 4.6781430379e+00 -1.4686840398e-03 2.6790420874e+00 -4.6402370110e+00 2.6790420874e+00 4.6402370110e+00 
191500 4.6781429931e+00 -1.4680604649e-03 2.6790694980e+00 -4.6402844876e+00 2.6790694980e+00 4.6402844876e+00 
191600 4.6781429484e+00 -1.4674370514e-03 2.6790968968e+00 -4.6403319436e+00 2.6790968968e+00 4.6403319436e+00 
191700 4.6781429037e+00 -1.4668137989e-03 2.6791242836e+00 -4.6403793790e+00 2.6791242836e+00 4.6403793790e+00 
191800 4.6781428590e+00 -1.4661907075e-03 2.6791516585e+00 -4.6404267938e+00 2.6791516585e+00 4.6404267938e+00 
191900 4.6781428144e+00 -1.4655677769e-03 2.6791790216e+00 -4.6404741879e+00 2.6791790216e+00 4.6404741879e+00 
192000 4.6781427698e+00 -1.4649450071e-03 2.6792063727e+00 -4.6405215614e+00 2.6792063727e+00 4.6405215614e+00 
192100 4.6781427253e+00 -1.4643223979e-03 2.6792337119e+00 -4.6405689143e+00 2.6792337119e+00 4.6405689143e+00 
192200 4.6781426808e+00 -1.4636999493e-03 2.6792610392e+00 -4.6406162466e+00 2.6792610392e+00 4.6406162466e+00 
192300 4.6781426363e+00 -1.4630776610e-03 2.6792883546e+00 -4.6406635583e+00 2.6792883546e+00 4.6406635583e+00 
192400 4.6781425919e+00 -1.4624555331e-03 2.6793156581e+00 -4.6407108494e+00 2.6793156581e+00 4.6407108494e+00 
192500 4.6781425476e+00 -1.4618335654e-03 2.6793429497e+00 -4.6407581199e+00 2.6793429497e+00 4.6407581199e+00 
192600 4.6781425032e+00 -1.4612117578e-03 2.6793702295e+00 -4.6408053698e+00 2.6793702295e+00 4.6408053698e+00 
192700 4.6781424589e+00 -1.4605901101e-03 2.6793974974e+00 -4.6408525991e+00 2.6793974974e+00 4.6408525991e+00 
192800 4.6781424147e+00 -1.4599686223e-03 2.6794247534e+00 -4.6408998079e+00 2.6794247534e+00 4.6408998079e+00 
192900 4.6781423704e+00 -1.4593472943e-03 2.6794519975e+00 -4.6409469961e+00 2.6794519975e+00 4.6409469961e+00 
193000 4.6781423263e+00 -1.4587261259e-03 2.6794792297e+00 -4.6409941637e+00 2.6794792297e+00 4.6409941637e+00 
193100 4.6781422821e+00 -1.4581051171e-03 2.6795064501e+00 -4.6410413108e+00 2.6795064501e+00 4.6410413108e+00 
193200 4.6781422380e+00 -1.4574842677e-03 2.6795336586e+00 -4.6410884373e+00 2.6795336586e+00 4.6410884373e+00 
193300 4.6781421940e+00 -1.4568635777e-03 2.6795608552e+00 -4.6411355433e+00 2.6795608552e+00 4.6411355433e+00 
193400 4.6781421500e+00 -1.4562430469e-03 2.6795880400e+00 -4.6411826287e+00 2.6795880400e+00 4.6411826287e+00 
193500 4.6781421060e+00 -1.4556226753e-03 2.6796152130e+00 -4.6412296936e+00 2.6796152130e+00 4.6412296936e+00 
193600 4.6781420620e+00 -1.4550024627e-03 2.6796423741e+00 -4.6412767380e+00 2.6796423741e+00 4.6412767380e+00 
193700 4.6781420181e+00 -1.4543824090e-03 2.6796695233e+00 -4.6413237618e+00 2.6796695233e+00 4.6413237618e+00 
193800 4.6781419743e+00 -1.4537625143e-03 2.6796966607e+00 -4.6413707652e+00 2.6796966607e+00 4.6413707652e+00 
193900 4.6781419305e+00 -1.4531427783e-03 2.6797237862e+00 -4.6414177480e+00 2.6797237862e+00 4.6414177480e+00 
194000 4.6781418867e+00 -1.4525232009e-03 2.6797509000e+00 -4.6414647103e+00 2.6797509000e+00 4.6414647103e+00 
194100 4.6781418430e+00 -1.4519037822e-03 2.6797780018e+00 -4.6415116522e+00 2.6797780018e+00 4.6415116522e+00 
194200 4.6781417993e+00 -1.4512845219e-03 2.6798050919e+00 -4.6415585735e+00 2.6798050919e+00 4.6415585735e+00 
194300 4.6781417556e+00 -1.4506654200e-03 2.6798321701e+00 -4.6416054744e+00 2.6798321701e+00 4.6416054744e+00 
194400 4.6781417120e+00 -1.4500464765e-03 2.6798592365e+00 -4.6416523547e+00 2.6798592365e+00 4.6416523547e+00 
194500 4.6781416684e+00 -1.4494276911e-03 2.6798862911e+00 -4.6416992146e+00 2.6798862911e+00 4.6416992146e+00 
194600 4.6781416249e+00 -1.4488090639e-03 2.6799133338e+00 -4.6417460540e+00 2.6799133338e+00 4.6417460540e+00 
194700 4.6781415814e+00 -1.4481905948e-03 2.6799403648e+00 -4.6417928730e+00 2.6799403648e+00 4.6417928730e+00 
194800 4.6781415379e+00 -1.4475722836e-03 2.6799673839e+00 -4.6418396715e+00 2.6799673839e+00 4.6418396715e+00 
194900 4.6781414945e+00 -1.4469541303e-03 2.6799943912e+00 -4.6418864496e+00 2.6799943912e+00 4.6418864496e+00 
195000 4.6781414511e+00 -1.4463361348e-03 2.6800213867e+00 -4.6419332072e+00 2.6800213867e+00 4.6419332072e+00 
195100 4.6781414078e+00 -1.4457182970e-03 2.6800483704e+00 -4.6419799443e+00 2.6800483704e+00 4.6419799443e+00 
195200 4.6781413645e+00 -1.4451006169e-03 2.6800753423e+00 -4.6420266611e+00 2.6800753423e+00 4.6420266611e+00 
195300 4.6781413212e+00 -1.4444830943e-03 2.6801023025e+00 -4.6420733573e+00 2.6801023025e+00 4.6420733573e+00 
195400 4.6781412780e+00 -1.4438657293e-03 2.6801292508e+00 -4.6421200332e+00 2.6801292508e+00 4.6421200332e+00 
195500 4.6781412348e+00 -1.4432485216e-03 2.6801561873e+00 -4.6421666887e+00 2.6801561873e+00 4.6421666887e+00 
195600 4.6781411916e+00 -1.4426314713e-03 2.6801831121e+00 -4.6422133237e+00 2.6801831121e+00 4.6422133237e+00 
195700 4.6781411485e+00 -1.4420145782e-03 2.6802100251e+00 -4.6422599384e+00 2.6802100251e+00 4.6422599384e+00 
195800 4.6781411055e+00 -1.4413978423e-03 2.6802369263e+00 -4.6423065326e+00 2.6802369263e+00 4.6423065326e+00 
195900 4.6781410624e+00 -1.4407812635e-03 2.6802638157e+00 -4.6423531064e+00 2.6802638157e+00 4.6423531064e+00 
196000 4.6781410195e+00 -1.4401648418e-03 2.6802906933e+00 -4.6423996599e+00 2.6802906933e+00 4.6423996599e+00 
196100 4.6781409765e+00 -1.4395485771e-03 2.6803175592e+00 -4.6424461929e+00 2.6803175592e+00 4.6424461929e+00 
196200 4.6781409336e+00 -1.4389324692e-03 2.6803444133e+00 -4.6424927056e+00 2.6803444133e+00 4.6424927056e+00 
196300 4.6781408907e+00 -1.4383165182e-03 2.6803712557e+00 -4.6425391979e+00 2.6803712557e+00 4.6425391979e+00 
196400 4.6781408479e+00 -1.4377007240e-03 2.6803980862e+00 -4.6425856699e+00 2.6803980862e+00 4.6425856699e+00 
196500 4.6781408051e+00 -1.4370850864e-03 2.6804249051e+00 -4.6426321215e+00 2.6804249051e+00 4.6426321215e+00 
196600 4.6781407624e+00 -1.4364696055e-03 2.6804517122e+00 -4.6426785527e+00 2.6804517122e+00 4.6426785527e+00 
196700 4.6781407196e+00 -1.4358542812e-03 2.6804785075e+00 -4.6427249636e+00 2.6804785075e+00 4.6427249636e+00 
196800 4.6781406770e+00 -1.4352391134e-03 2.6805052911e+00 -4.6427713541e+00 2.6805052911e+00 4.6427713541e+00 
196900 4.6781406343e+00 -1.4346241020e-03 2.6805320629e+00 -4.6428177243e+00 2.6805320629e+00 4.6428177243e+00 
197000 4.6781405917e+00 -1.4340092470e-03 2.6805588230e+00 -4.6428640742e+00 2.6805588230e+00 4.6428640742e+00 
197100 4.6781405492e+00 -1.4333945484e-03 2.6805855714e+00 -4.6429104037e+00 2.6805855714e+00 4.6429104037e+00 
197200 4.6781405067e+00 -1.4327800060e-03 2.6806123081e+00 -4.6429567129e+00 2.6806123081e+00 4.6429567129e+00 
197300 4.6781404642e+00 -1.4321656198e-03 2.6806390330e+00 -4.6430030018e+00 2.6806390330e+00 4.6430030018e+00 
197400 4.6781404217e+00 -1.4315513898e-03 2.6806657461e+00 -4.6430492704e+00 2.6806657461e+00 4.6430492704e+00 
197500 4.6781403793e+00 -1.4309373159e-03 2.6806924476e+00 -4.6430955187e+00 2.6806924476e+00 4.6430955187e+00 
197600 4.6781403370e+00 -1.4303233980e-03 2.6807191373e+00 -4.6431417467e+00 2.6807191373e+00 4.6431417467e+00 
197700 4.6781402946e+00 -1.4297096361e-03 2.6807458154e+00 -4.6431879544e+00 2.6807458154e+00 4.6431879544e+00 
197800 4.6781402524e+00 -1.4290960301e-03 2.6807724817e+00 -4.6432341418e+00 2.6807724817e+00 4.6432341418e+00 
197900 4.6781402101e+00 -1.4284825800e-03 2.6807991363e+00 -4.6432803089e+00 2.6807991363e+00 4.6432803089e+00 
198000 4.6781401679e+00 -1.4278692858e-03 2.6808257792e+00 -4.6433264558e+00 2.6808257792e+00 4.6433264558e+00 
198100 4.6781401257e+00 -1.4272561473e-03 2.6808524104e+00 -4.6433725823e+00 2.6808524104e+00 4.6433725823e+00 
198200 4.6781400836e+00 -1.4266431645e-03 2.6808790299e+00 -4.6434186887e+00 2.6808790299e+00 4.6434186887e+00 
198300 4.6781400415e+00 -1.4260303374e-03 2.6809056376e+00 -4.6434647747e+00 2.6809056376e+00 4.6434647747e+00 
198400 4.6781399994e+00 -1.4254176660e-03 2.6809322337e+00 -4.6435108405e+00 2.6809322337e+00 4.6435108405e+00 
198500 4.6781399574e+00 -1.4248051501e-03 2.6809588182e+00 -4.6435568860e+00 2.6809588182e+00 4.6435568860e+00 
198600 4.6781399155e+00 -1.4241927898e-03 2.6809853909e+00 -4.6436029114e+00 2.6809853909e+00 4.6436029114e+00 
198700 4.6781398735e+00 -1.4235805850e-03 2.6810119519e+00 -4.6436489164e+00 2.6810119519e+00 4.6436489164e+00 
198800 4.6781398316e+00 -1.4229685356e-03 2.6810385013e+00 -4.6436949013e+00 2.6810385013e+00 4.6436949013e+00 
198900 4.6781397897e+00 -1.4223566416e-03 2.6810650390e+00 -4.6437408659e+00 2.6810650390e+00 4.6437408659e+00 
199000 4.6781397479e+00 -1.4217449029e-03 2.6810915650e+00 -4.6437868103e+00 2.6810915650e+00 4.6437868103e+00 
199100 4.6781397061e+00 -1.4211333196e-03 2.6811180793e+00 -4.6438327344e+00 2.6811180793e+00 4.6438327344e+00 
199200 4.6781396644e+00 -1.4205218916e-03 2.6811445820e+00 -4.6438786384e+00 2.6811445820e+00 4.6438786384e+00 
199300 4.6781396227e+00 -1.4199106188e-03 2.6811710730e+00 -4.6439245222e+00 2.6811710730e+00 4.6439245222e+00 
199400 4.6781395810e+00 -1.4192995012e-03 2.6811975523e+00 -4.6439703857e+00 2.6811975523e+00 4.6439703857e+00 
199500 4.6781395394e+00 -1.4186885387e-03 2.6812240200e+00 -4.6440162291e+00 2.6812240200e+00 4.6440162291e+00 
199600 4.6781394978e+00 -1.4180777314e-03 2.6812504760e+00 -4.6440620523e+00 2.6812504760e+00 4.6440620523e+00 
199700 4.6781394562e+00 -1.4174670791e-03 2.6812769204e+00 -4.6441078553e+00 2.6812769204e+00 4.6441078553e+00 
199800 4.6781394147e+00 -1.4168565819e-03 2.6813033531e+00 -4.6441536381e+00 2.6813033531e+00 4.6441536381e+00 
199900 4.6781393732e+00 -1.4162462397e-03 2.6813297742e+00 -4.6441994008e+00 2.6813297742e+00 4.6441994008e+00 
200000 4.6781393318e+00 -1.4156360525e-03 2.6813561837e+00 -4.6442451433e+00 2.6813561837e+00 4.6442451433e+00 
200100 4.6781392904e+00 -1.4150260202e-03 2.6813825815e+00 -4.6442908656e+00 2.6813825815e+00 4.6442908656e+00 
200200 4.6781392490e+00 -1.4144161429e-03 2.6814089676e+00 -4.6443365678e+00 2.6814089676e+00 4.6443365678e+00 
200300 4.6781392077e+00 -1.4138064204e-03 2.6814353422e+00 -4.6443822499e+00 2.6814353422e+00 4.6443822499e+00 
200400 4.6781391664e+00 -1.4131968527e-03 2.6814617051e+00 -4.6444279118e+00 2.6814617051e+00 4.6444279118e+00 
200500 4.6781391251e+00 -1.4125874399e-03 2.6814880564e+00 -4.6444735535e+00 2.6814880564e+00 4.6444735535e+00 
200600 4.6781390839e+00 -1.4119781818e-03 2.6815143960e+00 -4.6445191752e+00 2.6815143960e+00 4.6445191752e+00 
200700 4.6781390427e+00 -1.4113690785e-03 2.6815407241e+00 -4.6445647767e+00 2.6815407241e+00 4.6445647767e+00 
200800 4.6781390016e+00 -1.4107601300e-03 2.6815670405e+00 -4.6446103581e+00 2.6815670405e+00 4.6446103581e+00 
200900 4.6781389605e+00 -1.4101513361e-03 2.6815933453e+00 -4.6446559193e+00 2.6815933453e+00 4.6446559193e+00 
201000 4.6781389194e+00 -1.4095426969e-03 2.6816196385e+00 -4.6447014605e+00 2.6816196385e+00 4.6447014605e+00 
201100 4.6781388784e+00 -1.4089342123e-03 2.6816459201e+00 -4.6447469816e+00 2.6816459201e+00 4.6447469816e+00 
201200 4.6781388374e+00 -1.4083258824e-03 2.6816721901e+00 -4.6447924825e+00 2.6816721901e+00 4.6447924825e+00 
201300 4.6781387965e+00 -1.4077177071e-03 2.6816984485e+00 -4.6448379634e+00 2.6816984485e+00 4.6448379634e+00 
201400 4.6781387556e+00 -1.4071096863e-03 2.6817246953e+00 -4.6448834242e+00 2.6817246953e+00 4.6448834242e+00 
201500 4.6781387147e+00 -1.4065018201e-03 2.6817509305e+00 -4.6449288649e+00 2.6817509305e+00 4.6449288649e+00 
201600 4.6781386738e+00 -1.4058941084e-03 2.6817771541e+00 -4.6449742855e+00 2.6817771541e+00 4.6449742855e+00 
201700 4.6781386330e+00 -1.4052865512e-03 2.6818033662e+00 -4.6450196861e+00 2.6818033662e+00 4.6450196861e+00 
201800 4.6781385923e+00 -1.4046791485e-03 2.6818295666e+00 -4.6450650666e+00 2.6818295666e+00 4.6450650666e+00 
201900 4.6781385516e+00 -1.4040719002e-03 2.6818557555e+00 -4.6451104271e+00 2.6818557555e+00 4.6451104271e+00 
202000 4.6781385109e+00 -1.4034648064e-03 2.6818819328e+00 -4.6451557674e+00 2.6818819328e+00 4.6451557674e+00 
202100 4.6781384702e+00 -1.4028578671e-03 2.6819080985e+00 -4.6452010878e+00 2.6819080985e+00 4.6452010878e+00 
202200 4.6781384296e+00 -1.4022510821e-03 2.6819342526e+00 -4.6452463881e+00 2.6819342526e+00 4.6452463881e+00 
202300 4.6781383890e+00 -1.4016444515e-03 2.6819603952e+00 -4.6452916684e+00 2.6819603952e+00 4.6452916684e+00 
202400 4.6781383485e+00 -1.4010379753e-03 2.6819865262e+00 -4.6453369286e+00 2.6819865262e+00 4.6453369286e+00 
202500 4.6781383080e+00 -1.4004316534e-03 2.6820126457e+00 -4.6453821688e+00 2.6820126457e+00 4.6453821688e+00 
202600 4.6781382675e+00 -1.3998254859e-03 2.6820387535e+00 -4.6454273890e+00 2.6820387535e+00 4.6454273890e+00 
202700 4.6781382271e+00 -1.3992194727e-03 2.6820648499e+00 -4.6454725892e+00 2.6820648499e+00 4.6454725892e+00 
202800 4.6781381867e+00 -1.3986136138e-03 2.6820909347e+00 -4.6455177694e+00 2.6820909347e+00 4.6455177694e+00 
202900 4.6781381464e+00 -1.3980079092e-03 2.6821170079e+00 -4.6455629295e+00 2.6821170079e+00 4.6455629295e+00 
203000 4.6781381060e+00 -1.3974023589e-03 2.6821430696e+00 -4.6456080697e+00 2.6821430696e+00 4.6456080697e+00 
203100 4.6781380658e+00 -1.3967969629e-03 2.6821691197e+00 -4.6456531899e+00 2.6821691197e+00 4.6456531899e+00 
203200 4.6781380255e+00 -1.3961917211e-03 2.6821951584e+00 -4.6456982901e+00 2.6821951584e+00 4.6456982901e+00 
203300 4.6781379853e+00 -1.3955866336e-03 2.6822211854e+00 -4.6457433703e+00 2.6822211854e+00 4.6457433703e+00 
203400 4.6781379452e+00 -1.3949817003e-03 2.6822472010e+00 -4.6457884306e+00 2.6822472010e+00 4.6457884306e+00 
203500 4.6781379050e+00 -1.3943769213e-03 2.6822732050e+00 -4.6458334708e+00 2.6822732050e+00 4.6458334708e+00 
203600 4.6781378649e+00 -1.3937722964e-03 2.6822991975e+00 -4.6458784911e+00 2.6822991975e+00 4.6458784911e+00 
203700 4.6781378249e+00 -1.3931678258e-03 2.6823251785e+00 -4.6459234915e+00 2.6823251785e+00 4.6459234915e+00 
203800 4.6781377849e+00 -1.3925635094e-03 2.6823511479e+00 -4.6459684719e+00 2.6823511479e+00 4.6459684719e+00 
203900 4.6781377449e+00 -1.3919593472e-03 2.6823771058e+00 -4.6460134324e+00 2.6823771058e+00 4.6460134324e+00 
204000 4.6781377049e+00 -1.3913553391e-03 2.6824030523e+00 -4.6460583729e+00 2.6824030523e+00 4.6460583729e+00 
204100 4.6781376650e+00 -1.3907514853e-03 2.6824289872e+00 -4.6461032935e+00 2.6824289872e+00 4.6461032935e+00 
204200 4.6781376252e+00 -1.3901477856e-03 2.6824549106e+00 -4.6461481941e+00 2.6824549106e+00 4.6461481941e+00 
204300 4.6781375853e+00 -1.3895442401e-03 2.6824808225e+00 -4.6461930748e+00 2.6824808225e+00 4.6461930748e+00 
204400 4.6781375455e+00 -1.3889408488e-03 2.6825067229e+00 -4.6462379356e+00 2.6825067229e+00 4.6462379356e+00 
204500 4.6781375058e+00 -1.3883376116e-03 2.6825326118e+00 -4.6462827765e+00 2.6825326118e+00 4.6462827765e+00 
204600 4.6781374660e+00 -1.3877345286e-03 2.6825584892e+00 -4.6463275975e+00 2.6825584892e+00 4.6463275975e+00 
204700 4.6781374264e+00 -1.3871315998e-03 2.6825843551e+00 -4.6463723986e+00 2.6825843551e+00 4.6463723986e+00 
204800 4.6781373867e+00 -1.3865288251e-03 2.6826102095e+00 -4.6464171798e+00 2.6826102095e+00 4.6464171798e+00 
204900 4.6781373471e+00 -1.3859262046e-03 2.6826360525e+00 -4.6464619411e+00 2.6826360525e+00 4.6464619411e+00 
205000 4.6781373075e+00 -1.3853237382e-03 2.6826618839e+00 -4.6465066825e+00 2.6826618839e+00 4.6465066825e+00 
205100 4.6781372680e+00 -1.3847214260e-03 2.6826877039e+00 -4.6465514040e+00 2.6826877039e+00 4.6465514040e+00 
205200 4.6781372285e+00 -1.3841192680e-03 2.6827135124e+00 -4.6465961057e+00 2.6827135124e+00 4.6465961057e+00 
205300 4.6781371890e+00 -1.3835172641e-03 2.6827393095e+00 -4.6466407875e+00 2.6827393095e+00 4.6466407875e+00 
205400 4.6781371496e+00 -1.3829154144e-03 2.6827650951e+00 -4.6466854494e+00 2.6827650951e+00 4.6466854494e+00 
205500 4.6781371102e+00 -1.3823137188e-03 2.6827908692e+00 -4.6467300915e+00 2.6827908692e+00 4.6467300915e+00 
205600 4.6781370708e+00 -1.3817121774e-03 2.6828166318e+00 -4.6467747137e+00 2.6828166318e+00 4.6467747137e+00 
205700 4.6781370315e+00 -1.3811107902e-03 2.6828423830e+00 -4.6468193161e+00 2.6828423830e+00 4.6468193161e+00 
205800 4.6781369922e+00 -1.3805095571e-03 2.6828681227e+00 -4.6468638986e+00 2.6828681227e+00 4.6468638986e+00 
205900 4.6781369530e+00 -1.3799084783e-03 2.6828938510e+00 -4.6469084613e+00 2.6828938510e+00 4.6469084613e+00 
206000 4.6781369138e+00 -1.3793075536e-03 2.6829195678e+00 -4.6469530041e+00 2.6829195678e+00 4.6469530041e+00 
206100 4.6781368746e+00 -1.3787067831e-03 2.6829452732e+00 -4.6469975272e+00 2.6829452732e+00 4.6469975272e+00 
206200 4.6781368354e+00 -1.3781061668e-03 2.6829709672e+00 -4.6470420304e+00 2.6829709672e+00 4.6470420304e+00 
206300 4.6781367963e+00 -1.3775057046e-03 2.6829966497e+00 -4.6470865138e+00 2.6829966497e+00 4.6470865138e+00 
206400 4.6781367573e+00 -1.3769053967e-03 2.6830223208e+00 -4.6471309774e+00 2.6830223208e+00 4.6471309774e+00 
206500 4.6781367182e+00 -1.3763052430e-03 2.6830479804e+00 -4.6471754212e+00 2.6830479804e+00 4.6471754212e+00 
206600 4.6781366792e+00 -1.3757052436e-03 2.6830736286e+00 -4.6472198452e+00 2.6830736286e+00 4.6472198452e+00 
206700 4.6781366403e+00 -1.3751053983e-03 2.6830992654e+00 -4.6472642494e+00 2.6830992654e+00 4.6472642494e+00 
206800 4.6781366014e+00 -1.3745057073e-03 2.6831248907e+00 -4.6473086338e+00 2.6831248907e+00 4.6473086338e+00 
206900 4.6781365625e+00 -1.3739061706e-03 2.6831505047e+00 -4.6473529985e+00 2.6831505047e+00 4.6473529985e+00 
207000 4.6781365236e+00 -1.3733067881e-03 2.6831761072e+00 -4.6473973433e+00 2.6831761072e+00 4.6473973433e+00 
207100 4.6781364848e+00 -1.3727075599e-03 2.6832016983e+00 -4.6474416684e+00 2.6832016983e+00 4.6474416684e+00 
207200 4.6781364460e+00 -1.3721084859e-03 2.6832272780e+00 -4.6474859738e+00 2.6832272780e+00 4.6474859738e+00 
207300 4.6781364073e+00 -1.3715095663e-03 2.6832528463e+00 -4.6475302593e+00 2.6832528463e+00 4.6475302593e+00 
207400 4.6781363686e+00 -1.3709108009e-03 2.6832784032e+00 -4.6475745252e+00 2.6832784032e+00 4.6475745252e+00 
207500 4.6781363299e+00 -1.3703121899e-03 2.6833039487e+00 -4.6476187712e+00 2.6833039487e+00 4.6476187712e+00 
207600 4.6781362913e+00 -1.3697137332e-03 2.6833294828e+00 -4.6476629976e+00 2.6833294828e+00 4.6476629976e+00 
207700 4.6781362527e+00 -1.3691154308e-03 2.6833550054e+00 -4.6477072042e+00 2.6833550054e+00 4.6477072042e+00 
207800 4.6781362141e+00 -1.3685172828e-03 2.6833805168e+00 -4.6477513911e+00 2.6833805168e+00 4.6477513911e+00 
207900 4.6781361756e+00 -1.3679192892e-03 2.6834060167e+00 -4.6477955582e+00 2.6834060167e+00 4.6477955582e+00 
208000 4.6781361371e+00 -1.3673214499e-03 2.6834315052e+00 -4.6478397056e+00 2.6834315052e+00 4.6478397056e+00 
208100 4.6781360986e+00 -1.3667237651e-03 2.6834569823e+00 -4.6478838333e+00 2.6834569823e+00 4.6478838333e+00 
208200 4.6781360602e+00 -1.3661262347e-03 2.6834824481e+00 -4.6479279413e+00 2.6834824481e+00 4.6479279413e+00 
208300 4.6781360218e+00 -1.3655288587e-03 2.6835079025e+00 -4.6479720297e+00 2.6835079025e+00 4.6479720297e+00 
208400 4.6781359835e+00 -1.3649316371e-03 2.6835333455e+00 -4.6480160983e+00 2.6835333455e+00 4.6480160983e+00 
208500 4.6781359452e+00 -1.3643345700e-03 2.6835587772e+00 -4.6480601472e+00 2.6835587772e+00 4.6480601472e+00 
208600 4.6781359069e+00 -1.3637376574e-03 2.6835841975e+00 -4.6481041764e+00 2.6835841975e+00 4.6481041764e+00 
208700 4.6781358687e+00 -1.3631408993e-03 2.6836096064e+00 -4.6481481860e+00 2.6836096064e+00 4.6481481860e+00 
208800 4.6781358305e+00 -1.3625442958e-03 2.6836350040e+00 -4.6481921758e+00 2.6836350040e+00 4.6481921758e+00 
208900 4.6781357923e+00 -1.3619478467e-03 2.6836603902e+00 -4.6482361460e+00 2.6836603902e+00 4.6482361460e+00 
209000 4.6781357542e+00 -1.3613515522e-03 2.6836857650e+00 -4.6482800966e+00 2.6836857650e+00 4.6482800966e+00 
209100 4.6781357161e+00 -1.3607554123e-03 2.6837111285e+00 -4.6483240275e+00 2.6837111285e+00 4.6483240275e+00 
209200 4.6781356780e+00 -1.3601594270e-03 2.6837364807e+00 -4.6483679387e+00 2.6837364807e+00 4.6483679387e+00 
209300 4.6781356400e+00 -1.3595635963e-03 2.6837618215e+00 -4.6484118303e+00 2.6837618215e+00 4.6484118303e+00 
209400 4.6781356020e+00 -1.3589679203e-03 2.6837871510e+00 -4.6484557022e+00 2.6837871510e+00 4.6484557022e+00 
209500 4.6781355640e+00 -1.3583723989e-03 2.6838124691e+00 -4.6484995545e+00 2.6838124691e+00 4.6484995545e+00 
209600 4.6781355261e+00 -1.3577770322e-03 2.6838377759e+00 -4.6485433872e+00 2.6838377759e+00 4.6485433872e+00 
209700 4.6781354882e+00 -1.3571818201e-03 2.6838630714e+00 -4.6485872003e+00 2.6838630714e+00 4.6485872003e+00 
209800 4.6781354503e+00 -1.3565867629e-03 2.6838883556e+00 -4.6486309937e+00 2.6838883556e+00 4.6486309937e+00 
209900 4.6781354125e+00 -1.3559918603e-03 2.6839136284e+00 -4.6486747675e+00 2.6839136284e+00 4.6486747675e+00 
210000 4.6781353747e+00 -1.3553971126e-03 2.6839388899e+00 -4.6487185217e+00 2.6839388899e+00 4.6487185217e+00 
210100 4.6781353370e+00 -1.3548025196e-03 2.6839641401e+00 -4.6487622563e+00 2.6839641401e+00 4.6487622563e+00 
210200 4.6781352993e+00 -1.3542080814e-03 2.6839893790e+00 -4.6488059713e+00 2.6839893790e+00 4.6488059713e+00 
210300 4.6781352616e+00 -1.3536137981e-03 2.6840146065e+00 -4.6488496668e+00 2.6840146065e+00 4.6488496668e+00 
210400 4.6781352240e+00 -1.3530196697e-03 2.6840398228e+00 -4.6488933426e+00 2.6840398228e+00 4.6488933426e+00 
210500 4.6781351864e+00 -1.3524256961e-03 2.6840650277e+00 -4.6489369989e+00 2.6840650277e+00 4.6489369989e+00 
210600 4.6781351488e+00 -1.3518318775e-03 2.6840902214e+00 -4.6489806355e+00 2.6840902214e+00 4.6489806355e+00 
210700 4.6781351113e+00 -1.3512382138e-03 2.6841154037e+00 -4.6490242526e+00 2.6841154037e+00 4.6490242526e+00 
210800 4.6781350738e+00 -1.3506447051e-03 2.6841405748e+00 -4.6490678502e+00 2.6841405748e+00 4.6490678502e+00 
210900 4.6781350363e+00 -1.3500513513e-03 2.6841657345e+00 -4.6491114282e+00 2.6841657345e+00 4.6491114282e+00 
211000 4.6781349989e+00 -1.3494581526e-03 2.6841908830e+00 -4.6491549866e+00 2.6841908830e+00 4.6491549866e+00 
211100 4.6781349615e+00 -1.3488651090e-03 2.6842160202e+00 -4.6491985255e+00 2.6842160202e+00 4.6491985255e+00 
211200 4.6781349241e+00 -1.3482722204e-03 2.6842411461e+00 -4.6492420448e+00 2.6842411461e+00 4.6492420448e+00 
211300 4.6781348868e+00 -1.3476794870e-03 2.6842662607e+00 -4.6492855447e+00 2.6842662607e+00 4.6492855447e+00 
211400 4.6781348495e+00 -1.3470869086e-03 2.6842913641e+00 -4.6493290249e+00 2.6842913641e+00 4.6493290249e+00 
211500 4.6781348122e+00 -1.3464944855e-03 2.6843164562e+00 -4.6493724857e+00 2.6843164562e+00 4.6493724857e+00 
211600 4.6781347750e+00 -1.3459022175e-03 2.6843415370e+00 -4.6494159269e+00 2.6843415370e+00 4.6494159269e+00 
211700 4.6781347378e+00 -1.3453101048e-03 2.6843666065e+00 -4.6494593486e+00 2.6843666065e+00 4.6494593486e+00 
211800 4.6781347007e+00 -1.3447181473e-03 2.6843916648e+00 -4.6495027509e+00 2.6843916648e+00 4.6495027509e+00 
211900 4.6781346635e+00 -1.3441263450e-03 2.6844167118e+00 -4.6495461336e+00 2.6844167118e+00 4.6495461336e+00 
212000 4.6781346265e+00 -1.3435346981e-03 2.6844417476e+00 -4.6495894968e+00 2.6844417476e+00 4.6495894968e+00 
212100 4.6781345894e+00 -1.3429432066e-03 2.6844667721e+00 -4.6496328405e+00 2.6844667721e+00 4.6496328405e+00 
212200 4.6781345524e+00 -1.3423518704e-03 2.6844917854e+00 -4.6496761647e+00 2.6844917854e+00 4.6496761647e+00 
212300 4.6781345154e+00 -1.3417606896e-03 2.6845167874e+00 -4.6497194695e+00 2.6845167874e+00 4.6497194695e+00 
212400 4.6781344785e+00 -1.3411696643e-03 2.6845417781e+00 -4.6497627548e+00 2.6845417781e+00 4.6497627548e+00 
212500 4.6781344416e+00 -1.3405787944e-03 2.6845667577e+00 -4.6498060206e+00 2.6845667577e+00 4.6498060206e+00 
212600 4.6781344047e+00 -1.3399880800e-03 2.6845917260e+00 -4.6498492669e+00 2.6845917260e+00 4.6498492669e+00 
212700 4.6781343678e+00 -1.3393975212e-03 2.6846166830e+00 -4.6498924938e+00 2.6846166830e+00 4.6498924938e+00 
212800 4.6781343310e+00 -1.3388071179e-03 2.6846416288e+00 -4.6499357013e+00 2.6846416288e+00 4.6499357013e+00 
212900 4.6781342943e+00 -1.3382168703e-03 2.6846665634e+00 -4.6499788893e+00 2.6846665634e+00 4.6499788893e+00 
213000 4.6781342575e+00 -1.3376267782e-03 2.6846914868e+00 -4.6500220578e+00 2.6846914868e+00 4.6500220578e+00 
213100 4.6781342208e+00 -1.3370368419e-03 2.6847163990e+00 -4.6500652069e+00 2.6847163990e+00 4.6500652069e+00 
213200 4.6781341842e+00 -1.3364470612e-03 2.6847412999e+00 -4.6501083366e+00 2.6847412999e+00 4.6501083366e+00 
213300 4.6781341475e+00 -1.3358574363e-03 2.6847661896e+00 -4.6501514469e+00 2.6847661896e+00 4.6501514469e+00 
213400 4.6781341109e+00 -1.3352679671e-03 2.6847910681e+00 -4.6501945377e+00 2.6847910681e+00 4.6501945377e+00 
213500 4.6781340744e+00 -1.3346786537e-03 2.6848159354e+00 -4.6502376091e+00 2.6848159354e+00 4.6502376091e+00 
213600 4.6781340378e+00 -1.3340894962e-03 2.6848407915e+00 -4.6502806611e+00 2.6848407915e+00 4.6502806611e+00 
213700 4.6781340013e+00 -1.3335004946e-03 2.6848656364e+00 -4.6503236938e+00 2.6848656364e+00 4.6503236938e+00 
213800 4.6781339649e+00 -1.3329116489e-03 2.6848904701e+00 -4.6503667070e+00 2.6848904701e+00 4.6503667070e+00 
213900 4.6781339284e+00 -1.3323229591e-03 2.6849152926e+00 -4.6504097008e+00 2.6849152926e+00 4.6504097008e+00 
214000 4.6781338920e+00 -1.3317344253e-03 2.6849401039e+00 -4.6504526752e+00 2.6849401039e+00 4.6504526752e+00 
214100 4.6781338557e+00 -1.3311460475e-03 2.6849649040e+00 -4.6504956303e+00 2.6849649040e+00 4.6504956303e+00 
214200 4.6781338193e+00 -1.3305578258e-03 2.6849896929e+00 -4.6505385660e+00 2.6849896929e+00 4.6505385660e+00 
214300 4.6781337830e+00 -1.3299697602e-03 2.6850144707e+00 -4.6505814823e+00 2.6850144707e+00 4.6505814823e+00 
214400 4.6781337468e+00 -1.3293818507e-03 2.6850392373e+00 -4.6506243793e+00 2.6850392373e+00 4.6506243793e+00 
214500 4.6781337106e+00 -1.3287940974e-03 2.6850639927e+00 -4.6506672568e+00 2.6850639927e+00 4.6506672568e+00 
214600 4.6781336744e+00 -1.3282065003e-03 2.6850887369e+00 -4.6507101151e+00 2.6850887369e+00 4.6507101151e+00 
214700 4.6781336382e+00 -1.3276190595e-03 2.6851134699e+00 -4.6507529540e+00 2.6851134699e+00 4.6507529540e+00 
214800 4.6781336021e+00 -1.3270317749e-03 2.6851381918e+00 -4.6507957735e+00 2.6851381918e+00 4.6507957735e+00 
214900 4.6781335660e+00 -1.3264446467e-03 2.6851629025e+00 -4.6508385738e+00 2.6851629025e+00 4.6508385738e+00 
215000 4.6781335299e+00 -1.3258576748e-03 2.6851876021e+00 -4.6508813546e+00 2.6851876021e+00 4.6508813546e+00 
215100 4.6781334939e+00 -1.3252708593e-03 2.6852122905e+00 -4.6509241162e+00 2.6852122905e+00 4.6509241162e+00 
215200 4.6781334579e+00 -1.3246842003e-03 2.6852369677e+00 -4.6509668584e+00 2.6852369677e+00 4.6509668584e+00 
215300 4.6781334220e+00 -1.3240976977e-03 2.6852616338e+00 -4.6510095814e+00 2.6852616338e+00 4.6510095814e+00 
215400 4.6781333861e+00 -1.3235113517e-03 2.6852862888e+00 -4.6510522850e+00 2.6852862888e+00 4.6510522850e+00 
215500 4.6781333502e+00 -1.3229251623e-03 2.6853109326e+00 -4.6510949693e+00 2.6853109326e+00 4.6510949693e+00 
215600 4.6781333143e+00 -1.3223391294e-03 2.6853355652e+00 -4.6511376343e+00 2.6853355652e+00 4.6511376343e+00 
215700 4.6781332785e+00 -1.3217532532e-03 2.6853601868e+00 -4.6511802801e+00 2.6853601868e+00 4.6511802801e+00 
215800 4.6781332427e+00 -1.3211675337e-03 2.6853847971e+00 -4.6512229065e+00 2.6853847971e+00 4.6512229065e+00 
215900 4.6781332070e+00 -1.3205819709e-03 2.6854093964e+00 -4.6512655137e+00 2.6854093964e+00 4.6512655137e+00 
216000 4.6781331712e+00 -1.3199965648e-03 2.6854339845e+00 -4.6513081016e+00 2.6854339845e+00 4.6513081016e+00 
216100 4.6781331356e+00 -1.3194113156e-03 2.6854585615e+00 -4.6513506702e+00 2.6854585615e+00 4.6513506702e+00 
216200 4.6781330999e+00 -1.3188262232e-03 2.6854831274e+00 -4.6513932196e+00 2.6854831274e+00 4.6513932196e+00 
216300 4.6781330643e+00 -1.3182412878e-03 2.6855076822e+00 -4.6514357497e+00 2.6855076822e+00 4.6514357497e+00 
216400 4.6781330287e+00 -1.3176565092e-03 2.6855322258e+00 -4.6514782605e+00 2.6855322258e+00 4.6514782605e+00 
216500 4.6781329931e+00 -1.3170718877e-03 2.6855567584e+00 -4.6515207521e+00 2.6855567584e+00 4.6515207521e+00 
216600 4.6781329576e+00 -1.3164874231e-03 2.6855812798e+00 -4.6515632245e+00 2.6855812798e+00 4.6515632245e+00 
216700 4.6781329221e+00 -1.3159031156e-03 2.6856057901e+00 -4.6516056776e+00 2.6856057901e+00 4.6516056776e+00 
216800 4.6781328867e+00 -1.3153189653e-03 2.6856302894e+00 -4.6516481115e+00 2.6856302894e+00 4.6516481115e+00 
216900 4.6781328513e+00 -1.3147349720e-03 2.6856547775e+00 -4.6516905262e+00 2.6856547775e+00 4.6516905262e+00 
217000 4.6781328159e+00 -1.3141511360e-03 2.6856792545e+00 -4.6517329217e+00 2.6856792545e+00 4.6517329217e+00 
217100 4.6781327805e+00 -1.3135674572e-03 2.6857037205e+00 -4.6517752979e+00 2.6857037205e+00 4.6517752979e+00 
217200 4.6781327452e+00 -1.3129839357e-03 2.6857281753e+00 -4.6518176549e+00 2.6857281753e+00 4.6518176549e+00 
217300 4.6781327099e+00 -1.3124005715e-03 2.6857526191e+00 -4.6518599928e+00 2.6857526191e+00 4.6518599928e+00 
217400 4.6781326747e+00 -1.3118173647e-03 2.6857770517e+00 -4.6519023114e+00 2.6857770517e+00 4.6519023114e+00 
217500 4.6781326395e+00 -1.3112343153e-03 2.6858014733e+00 -4.6519446109e+00 2.6858014733e+00 4.6519446109e+00 
217600 4.6781326043e+00 -1.3106514234e-03 2.6858258839e+00 -4.6519868911e+00 2.6858258839e+00 4.6519868911e+00 
217700 4.6781325691e+00 -1.3100686890e-03 2.6858502833e+00 -4.6520291522e+00 2.6858502833e+00 4.6520291522e+00 
217800 4.6781325340e+00 -1.3094861121e-03 2.6858746717e+00 -4.6520713941e+00 2.6858746717e+00 4.6520713941e+00 
217900 4.6781324989e+00 -1.3089036928e-03 2.6858990490e+00 -4.6521136169e+00 2.6858990490e+00 4.6521136169e+00 
218000 4.6781324639e+00 -1.3083214312e-03 2.6859234152e+00 -4.6521558204e+00 2.6859234152e+00 4.6521558204e+00 
218100 4.6781324288e+00 -1.3077393272e-03 2.6859477704e+00 -4.6521980049e+00 2.6859477704e+00 4.6521980049e+00 
218200 4.6781323939e+00 -1.3071573810e-03 2.6859721146e+00 -4.6522401701e+00 2.6859721146e+00 4.6522401701e+00 
218300 4.6781323589e+00 -1.3065755925e-03 2.6859964476e+00 -4.6522823163e+00 2.6859964476e+00 4.6522823163e+00 
218400 4.6781323240e+00 -1.3059939619e-03 2.6860207697e+00 -4.6523244433e+00 2.6860207697e+00 4.6523244433e+00 
218500 4.6781322891e+00 -1.3054124892e-03 2.6860450806e+00 -4.6523665511e+00 2.6860450806e+00 4.6523665511e+00 
218600 4.6781322542e+00 -1.3048311743e-03 2.6860693806e+00 -4.6524086398e+00 2.6860693806e+00 4.6524086398e+00 
218700 4.6781322194e+00 -1.3042500175e-03 2.6860936695e+00 -4.6524507094e+00 2.6860936695e+00 4.6524507094e+00 
218800 4.6781321846e+00 -1.3036690186e-03 2.6861179473e+00 -4.6524927599e+00 2.6861179473e+00 4.6524927599e+00 
218900 4.6781321499e+00 -1.3030881778e-03 2.6861422142e+00 -4.6525347913e+00 2.6861422142e+00 4.6525347913e+00 
219000 4.6781321151e+00 -1.3025074951e-03 2.6861664700e+00 -4.6525768035e+00 2.6861664700e+00 4.6525768035e+00 
219100 4.6781320805e+00 -1.3019269706e-03 2.6861907147e+00 -4.6526187967e+00 2.6861907147e+00 4.6526187967e+00 
219200 4.6781320458e+00 -1.3013466043e-03 2.6862149485e+00 -4.6526607708e+00 2.6862149485e+00 4.6526607708e+00 
219300 4.6781320112e+00 -1.3007663962e-03 2.6862391712e+00 -4.6527027258e+00 2.6862391712e+00 4.6527027258e+00 
219400 4.6781319766e+00 -1.3001863464e-03 2.6862633829e+00 -4.6527446617e+00 2.6862633829e+00 4.6527446617e+00 
219500 4.6781319420e+00 -1.2996064549e-03 2.6862875836e+00 -4.6527865785e+00 2.6862875836e+00 4.6527865785e+00 
219600 4.6781319075e+00 -1.2990267219e-03 2.6863117732e+00 -4.6528284762e+00 2.6863117732e+00 4.6528284762e+00 
219700 4.6781318730e+00 -1.2984471473e-03 2.6863359519e+00 -4.6528703549e+00 2.6863359519e+00 4.6528703549e+00 
219800 4.6781318385e+00 -1.2978677311e-03 2.6863601196e+00 -4.6529122145e+00 2.6863601196e+00 4.6529122145e+00 
219900 4.6781318041e+00 -1.2972884735e-03 2.6863842762e+00 -4.6529540551e+00 2.6863842762e+00 4.6529540551e+00 
220000 4.6781317697e+00 -1.2967093745e-03 2.6864084219e+00 -4.6529958766e+00 2.6864084219e+00 4.6529958766e+00 
220100 4.6781317353e+00 -1.2961304342e-03 2.6864325565e+00 -4.6530376790e+00 2.6864325565e+00 4.6530376790e+00 
220200 4.6781317010e+00 -1.2955516525e-03 2.6864566802e+00 -4.6530794625e+00 2.6864566802e+00 4.6530794625e+00 
220300 4.6781316667e+00 -1.2949730296e-03 2.6864807929e+00 -4.6531212269e+00 2.6864807929e+00 4.6531212269e+00 
220400 4.6781316324e+00 -1.2943945654e-03 2.6865048946e+00 -4.6531629722e+00 2.6865048946e+00 4.6531629722e+00 
220500 4.6781315982e+00 -1.2938162601e-03 2.6865289853e+00 -4.6532046986e+00 2.6865289853e+00 4.6532046986e+00 
220600 4.6781315640e+00 -1.2932381136e-03 2.6865530650e+00 -4.6532464059e+00 2.6865530650e+00 4.6532464059e+00 
220700 4.6781315298e+00 -1.2926601261e-03 2.6865771338e+00 -4.6532880942e+00 2.6865771338e+00 4.6532880942e+00 
220800 4.6781314957e+00 -1.2920822976e-03 2.6866011916e+00 -4.6533297635e+00 2.6866011916e+00 4.6533297635e+00 
220900 4.6781314616e+00 -1.2915046281e-03 2.6866252384e+00 -4.6533714138e+00 2.6866252384e+00 4.6533714138e+00 
221000 4.6781314275e+00 -1.2909271176e-03 2.6866492743e+00 -4.6534130451e+00 2.6866492743e+00 4.6534130451e+00 
221100 4.6781313935e+00 -1.2903497663e-03 2.6866732992e+00 -4.6534546575e+00 2.6866732992e+00 4.6534546575e+00 
221200 4.6781313594e+00 -1.2897725742e-03 2.6866973131e+00 -4.6534962508e+00 2.6866973131e+00 4.6534962508e+00 
221300 4.6781313255e+00 -1.2891955414e-03 2.6867213161e+00 -4.6535378252e+00 2.6867213161e+00 4.6535378252e+00 
221400 4.6781312915e+00 -1.2886186678e-03 2.6867453081e+00 -4.6535793806e+00 2.6867453081e+00 4.6535793806e+00 
221500 4.6781312576e+00 -1.2880419535e-03 2.6867692892e+00 -4.6536209170e+00 2.6867692892e+00 4.6536209170e+00 
221600 4.6781312237e+00 -1.2874653986e-03 2.6867932593e+00 -4.6536624345e+00 2.6867932593e+00 4.6536624345e+00 
221700 4.6781311899e+00 -1.2868890032e-03 2.6868172185e+00 -4.6537039330e+00 2.6868172185e+00 4.6537039330e+00 
221800 4.6781311561e+00 -1.2863127673e-03 2.6868411667e+00 -4.6537454126e+00 2.6868411667e+00 4.6537454126e+00 
221900 4.6781311223e+00 -1.2857366908e-03 2.6868651040e+00 -4.6537868732e+00 2.6868651040e+00 4.6537868732e+00 
222000 4.6781310885e+00 -1.2851607740e-03 2.6868890304e+00 -4.6538283149e+00 2.6868890304e+00 4.6538283149e+00 
222100 4.6781310548e+00 -1.2845850168e-03 2.6869129458e+00 -4.6538697377e+00 2.6869129458e+00 4.6538697377e+00 
222200 4.6781310211e+00 -1.2840094194e-03 2.6869368503e+00 -4.6539111415e+00 2.6869368503e+00 4.6539111415e+00 
222300 4.6781309875e+00 -1.2834339816e-03 2.6869607439e+00 -4.6539525264e+00 2.6869607439e+00 4.6539525264e+00 
222400 4.6781309538e+00 -1.2828587037e-03 2.6869846266e+00 -4.6539938924e+00 2.6869846266e+00 4.6539938924e+00 
222500 4.6781309202e+00 -1.2822835856e-03 2.6870084983e+00 -4.6540352395e+00 2.6870084983e+00 4.6540352395e+00 
222600 4.6781308867e+00 -1.2817086274e-03 2.6870323592e+00 -4.6540765677e+00 2.6870323592e+00 4.6540765677e+00 
222700 4.6781308531e+00 -1.2811338291e-03 2.6870562091e+00 -4.6541178770e+00 2.6870562091e+00 4.6541178770e+00 
222800 4.6781308196e+00 -1.2805591909e-03 2.6870800481e+00 -4.6541591673e+00 2.6870800481e+00 4.6541591673e+00 
222900 4.6781307862e+00 -1.2799847127e-03 2.6871038762e+00 -4.6542004389e+00 2.6871038762e+00 4.6542004389e+00 
223000 4.6781307527e+00 -1.2794103946e-03 2.6871276935e+00 -4.6542416915e+00 2.6871276935e+00 4.6542416915e+00 
223100 4.6781307193e+00 -1.2788362367e-03 2.6871514998e+00 -4.6542829252e+00 2.6871514998e+00 4.6542829252e+00 
223200 4.6781306860e+00 -1.2782622389e-03 2.6871752952e+00 -4.6543241401e+00 2.6871752952e+00 4.6543241401e+00 
223300 4.6781306526e+00 -1.2776884015e-03 2.6871990797e+00 -4.6543653361e+00 2.6871990797e+00 4.6543653361e+00 
223400 4.6781306193e+00 -1.2771147244e-03 2.6872228534e+00 -4.6544065133e+00 2.6872228534e+00 4.6544065133e+00 
223500 4.6781305860e+00 -1.2765412076e-03 2.6872466161e+00 -4.6544476716e+00 2.6872466161e+00 4.6544476716e+00 
223600 4.6781305528e+00 -1.2759678513e-03 2.6872703680e+00 -4.6544888111e+00 2.6872703680e+00 4.6544888111e+00 
223700 4.6781305196e+00 -1.2753946554e-03 2.6872941090e+00 -4.6545299317e+00 2.6872941090e+00 4.6545299317e+00 
223800 4.6781304864e+00 -1.2748216201e-03 2.6873178391e+00 -4.6545710335e+00 2.6873178391e+00 4.6545710335e+00 
223900 4.6781304532e+00 -1.2742487453e-03 2.6873415584e+00 -4.6546121164e+00 2.6873415584e+00 4.6546121164e+00 
224000 4.6781304201e+00 -1.2736760312e-03 2.6873652668e+00 -4.6546531805e+00 2.6873652668e+00 4.6546531805e+00 
224100 4.6781303870e+00 -1.2731034778e-03 2.6873889643e+00 -4.6546942259e+00 2.6873889643e+00 4.6546942259e+00 
224200 4.6781303540e+00 -1.2725310851e-03 2.6874126510e+00 -4.6547352524e+00 2.6874126510e+00 4.6547352524e+00 
224300 4.6781303210e+00 -1.2719588532e-03 2.6874363268e+00 -4.6547762600e+00 2.6874363268e+00 4.6547762600e+00 
224400 4.6781302880e+00 -1.2713867822e-03 2.6874599917e+00 -4.6548172489e+00 2.6874599917e+00 4.6548172489e+00 
224500 4.6781302550e+00 -1.2708148720e-03 2.6874836458e+00 -4.6548582190e+00 2.6874836458e+00 4.6548582190e+00 
224600 4.6781302221e+00 -1.2702431228e-03 2.6875072890e+00 -4.6548991703e+00 2.6875072890e+00 4.6548991703e+00 
224700 4.6781301892e+00 -1.2696715346e-03 2.6875309214e+00 -4.6549401028e+00 2.6875309214e+00 4.6549401028e+00 
224800 4.6781301563e+00 -1.2691001075e-03 2.6875545430e+00 -4.6549810166e+00 2.6875545430e+00 4.6549810166e+00 
224900 4.6781301235e+00 -1.2685288415e-03 2.6875781537e+00 -4.6550219116e+00 2.6875781537e+00 4.6550219116e+00 
225000 4.6781300907e+00 -1.2679577367e-03 2.6876017536e+00 -4.6550627878e+00 2.6876017536e+00 4.6550627878e+00 
225100 4.6781300579e+00 -1.2673867931e-03 2.6876253427e+00 -4.6551036452e+00 2.6876253427e+00 4.6551036452e+00 
225200 4.6781300251e+00 -1.2668160108e-03 2.6876489209e+00 -4.6551444839e+00 2.6876489209e+00 4.6551444839e+00 
225300 4.6781299924e+00 -1.2662453898e-03 2.6876724883e+00 -4.6551853038e+00 2.6876724883e+00 4.6551853038e+00 
225400 4.6781299597e+00 -1.2656749302e-03 2.6876960449e+00 -4.6552261050e+00 2.6876960449e+00 4.6552261050e+00 
225500 4.6781299271e+00 -1.2651046320e-03 2.6877195906e+00 -4.6552668874e+00 2.6877195906e+00 4.6552668874e+00 
225600 4.6781298945e+00 -1.2645344953e-03 2.6877431256e+00 -4.6553076512e+00 2.6877431256e+00 4.6553076512e+00 
225700 4.6781298619e+00 -1.2639645202e-03 2.6877666497e+00 -4.6553483961e+00 2.6877666497e+00 4.6553483961e+00 
225800 4.6781298293e+00 -1.2633947066e-03 2.6877901630e+00 -4.6553891224e+00 2.6877901630e+00 4.6553891224e+00 
225900 4.6781297968e+00 -1.2628250548e-03 2.6878136655e+00 -4.6554298300e+00 2.6878136655e+00 4.6554298300e+00 
226000 4.6781297643e+00 -1.2622555646e-03 2.6878371572e+00 -4.6554705188e+00 2.6878371572e+00 4.6554705188e+00 
226100 4.6781297318e+00 -1.2616862362e-03 2.6878606381e+00 -4.6555111889e+00 2.6878606381e+00 4.6555111889e+00 
226200 4.6781296994e+00 -1.2611170696e-03 2.6878841083e+00 -4.6555518404e+00 2.6878841083e+00 4.6555518404e+00 
226300 4.6781296670e+00 -1.2605480649e-03 2.6879075676e+00 -4.6555924731e+00 2.6879075676e+00 4.6555924731e+00 
226400 4.6781296346e+00 -1.2599792221e-03 2.6879310161e+00 -4.6556330872e+00 2.6879310161e+00 4.6556330872e+00 
226500 4.6781296023e+00 -1.2594105413e-03 2.6879544539e+00 -4.6556736825e+00 2.6879544539e+00 4.6556736825e+00 
226600 4.6781295700e+00 -1.2588420226e-03 2.6879778808e+00 -4.6557142592e+00 2.6879778808e+00 4.6557142592e+00 
226700 4.6781295377e+00 -1.2582736659e-03 2.6880012970e+00 -4.6557548173e+00 2.6880012970e+00 4.6557548173e+00 
226800 4.6781295054e+00 -1.2577054714e-03 2.6880247024e+00 -4.6557953566e+00 2.6880247024e+00 4.6557953566e+00 
226900 4.6781294732e+00 -1.2571374391e-03 2.6880480971e+00 -4.6558358773e+00 2.6880480971e+00 4.6558358773e+00 
227000 4.6781294410e+00 -1.2565695690e-03 2.6880714809e+00 -4.6558763794e+00 2.6880714809e+00 4.6558763794e+00 
227100 4.6781294089e+00 -1.2560018613e-03 2.6880948540e+00 -4.6559168628e+00 2.6880948540e+00 4.6559168628e+00 
227200 4.6781293768e+00 -1.2554343159e-03 2.6881182164e+00 -4.6559573275e+00 2.6881182164e+00 4.6559573275e+00 
227300 4.6781293447e+00 -1.2548669329e-03 2.6881415680e+00 -4.6559977736e+00 2.6881415680e+00 4.6559977736e+00 
227400 4.6781293126e+00 -1.2542997124e-03 2.6881649088e+00 -4.6560382011e+00 2.6881649088e+00 4.6560382011e+00 
227500 4.6781292806e+00 -1.2537326545e-03 2.6881882389e+00 -4.6560786100e+00 2.6881882389e+00 4.6560786100e+00 
227600 4.6781292486e+00 -1.2531657591e-03 2.6882115582e+00 -4.6561190003e+00 2.6882115582e+00 4.6561190003e+00 
227700 4.6781292166e+00 -1.2525990264e-03 2.6882348667e+00 -4.6561593719e+00 2.6882348667e+00 4.6561593719e+00 
227800 4.6781291846e+00 -1.2520324563e-03 2.6882581646e+00 -4.6561997249e+00 2.6882581646e+00 4.6561997249e+00 
227900 4.6781291527e+00 -1.2514660491e-03 2.6882814517e+00 -4.6562400593e+00 2.6882814517e+00 4.6562400593e+00 
228000 4.6781291208e+00 -1.2508998046e-03 2.6883047280e+00 -4.6562803752e+00 2.6883047280e+00 4.6562803752e+00 
228100 4.6781290890e+00 -1.2503337230e-03 2.6883279936e+00 -4.6563206724e+00 2.6883279936e+00 4.6563206724e+00 
228200 4.6781290572e+00 -1.2497678043e-03 2.6883512485e+00 -4.6563609511e+00 2.6883512485e+00 4.6563609511e+00 
228300 4.6781290254e+00 -1.2492020485e-03 2.6883744927e+00 -4.6564012111e+00 2.6883744927e+00 4.6564012111e+00 
228400 4.6781289936e+00 -1.2486364558e-03 2.6883977261e+00 -4.6564414526e+00 2.6883977261e+00 4.6564414526e+00 
228500 4.6781289619e+00 -1.2480710262e-03 2.6884209489e+00 -4.6564816756e+00 2.6884209489e+00 4.6564816756e+00 
228600 4.6781289302e+00 -1.2475057597e-03 2.6884441609e+00 -4.6565218799e+00 2.6884441609e+00 4.6565218799e+00 
228700 4.6781288985e+00 -1.2469406564e-03 2.6884673622e+00 -4.6565620658e+00 2.6884673622e+00 4.6565620658e+00 
228800 4.6781288669e+00 -1.2463757163e-03 2.6884905527e+00 -4.6566022330e+00 2.6884905527e+00 4.6566022330e+00 
228900 4.6781288353e+00 -1.2458109396e-03 2.6885137326e+00 -4.6566423817e+00 2.6885137326e+00 4.6566423817e+00 
229000 4.6781288037e+00 -1.2452463262e-03 2.6885369018e+00 -4.6566825119e+00 2.6885369018e+00 4.6566825119e+00 
229100 4.6781287721e+00 -1.2446818762e-03 2.6885600603e+00 -4.6567226236e+00 2.6885600603e+00 4.6567226236e+00 
229200 4.6781287406e+00 -1.2441175897e-03 2.6885832080e+00 -4.6567627167e+00 2.6885832080e+00 4.6567627167e+00 
229300 4.6781287091e+00 -1.2435534667e-03 2.6886063451e+00 -4.6568027913e+00 2.6886063451e+00 4.6568027913e+00 
229400 4.6781286777e+00 -1.2429895072e-03 2.6886294715e+00 -4.6568428474e+00 2.6886294715e+00 4.6568428474e+00 
229500 4.6781286463e+00 -1.2424257114e-03 2.6886525872e+00 -4.6568828850e+00 2.6886525872e+00 4.6568828850e+00 
229600 4.6781286149e+00 -1.2418620793e-03 2.6886756922e+00 -4.6569229040e+00 2.6886756922e+00 4.6569229040e+00 
229700 4.6781285835e+00 -1.2412986110e-03 2.6886987866e+00 -4.6569629046e+00 2.6886987866e+00 4.6569629046e+00 
229800 4.6781285521e+00 -1.2407353064e-03 2.6887218702e+00 -4.6570028867e+00 2.6887218702e+00 4.6570028867e+00 
229900 4.6781285208e+00 -1.2401721657e-03 2.6887449432e+00 -4.6570428503e+00 2.6887449432e+00 4.6570428503e+00 
230000 4.6781284896e+00 -1.2396091889e-03 2.6887680056e+00 -4.6570827954e+00 2.6887680056e+00 4.6570827954e+00 
230100 4.6781284583e+00 -1.2390463761e-03 2.6887910572e+00 -4.6571227220e+00 2.6887910572e+00 4.6571227220e+00 
230200 4.6781284271e+00 -1.2384837272e-03 2.6888140982e+00 -4.6571626302e+00 2.6888140982e+00 4.6571626302e+00 
230300 4.6781283959e+00 -1.2379212425e-03 2.6888371285e+00 -4.6572025199e+00 2.6888371285e+00 4.6572025199e+00 
230400 4.6781283647e+00 -1.2373589219e-03 2.6888601482e+00 -4.6572423911e+00 2.6888601482e+00 4.6572423911e+00 
230500 4.6781283336e+00 -1.2367967655e-03 2.6888831572e+00 -4.6572822439e+00 2.6888831572e+00 4.6572822439e+00 
230600 4.6781283025e+00 -1.2362347733e-03 2.6889061556e+00 -4.6573220783e+00 2.6889061556e+00 4.6573220783e+00 
230700 4.6781282714e+00 -1.2356729454e-03 2.6889291433e+00 -4.6573618942e+00 2.6889291433e+00 4.6573618942e+00 
230800 4.6781282404e+00 -1.2351112818e-03 2.6889521204e+00 -4.6574016916e+00 2.6889521204e+00 4.6574016916e+00 
230900 4.6781282094e+00 -1.2345497827e-03 2.6889750868e+00 -4.6574414707e+00 2.6889750868e+00 4.6574414707e+00 
231000 4.6781281784e+00 -1.2339884480e-03 2.6889980426e+00 -4.6574812313e+00 2.6889980426e+00 4.6574812313e+00 
231100 4.6781281475e+00 -1.2334272779e-03 2.6890209878e+00 -4.6575209735e+00 2.6890209878e+00 4.6575209735e+00 
231200 4.6781281165e+00 -1.2328662723e-03 2.6890439223e+00 -4.6575606973e+00 2.6890439223e+00 4.6575606973e+00 
231300 4.6781280856e+00 -1.2323054313e-03 2.6890668462e+00 -4.6576004026e+00 2.6890668462e+00 4.6576004026e+00 
231400 4.6781280548e+00 -1.2317447550e-03 2.6890897595e+00 -4.6576400896e+00 2.6890897595e+00 4.6576400896e+00 
231500 4.6781280240e+00 -1.2311842435e-03 2.6891126622e+00 -4.6576797582e+00 2.6891126622e+00 4.6576797582e+00 
231600 4.6781279931e+00 -1.2306238967e-03 2.6891355542e+00 -4.6577194084e+00 2.6891355542e+00 4.6577194084e+00 
231700 4.6781279624e+00 -1.2300637148e-03 2.6891584357e+00 -4.6577590402e+00 2.6891584357e+00 4.6577590402e+00 
231800 4.6781279316e+00 -1.2295036978e-03 2.6891813065e+00 -4.6577986536e+00 2.6891813065e+00 4.6577986536e+00 
231900 4.6781279009e+00 -1.2289438457e-03 2.6892041667e+00 -4.6578382487e+00 2.6892041667e+00 4.6578382487e+00 
232000 4.6781278702e+00 -1.2283841587e-03 2.6892270163e+00 -4.6578778254e+00 2.6892270163e+00 4.6578778254e+00 
232100 4.6781278396e+00 -1.2278246367e-03 2.6892498554e+00 -4.6579173837e+00 2.6892498554e+00 4.6579173837e+00 
232200 4.6781278089e+00 -1.2272652799e-03 2.6892726838e+00 -4.6579569237e+00 2.6892726838e+00 4.6579569237e+00 
232300 4.6781277783e+00 -1.2267060882e-03 2.6892955016e+00 -4.6579964453e+00 2.6892955016e+00 4.6579964453e+00 
232400 4.6781277478e+00 -1.2261470618e-03 2.6893183088e+00 -4.6580359486e+00 2.6893183088e+00 4.6580359486e+00 
232500 4.6781277172e+00 -1.2255882006e-03 2.6893411055e+00 -4.6580754336e+00 2.6893411055e+00 4.6580754336e+00 
232600 4.6781276867e+00 -1.2250295048e-03 2.6893638915e+00 -4.6581149002e+00 2.6893638915e+00 4.6581149002e+00 
232700 4.6781276563e+00 -1.2244709744e-03 2.6893866670e+00 -4.6581543485e+00 2.6893866670e+00 4.6581543485e+00 
232800 4.6781276258e+00 -1.2239126094e-03 2.6894094319e+00 -4.6581937785e+00 2.6894094319e+00 4.6581937785e+00 
232900 4.6781275954e+00 -1.2233544099e-03 2.6894321863e+00 -4.6582331901e+00 2.6894321863e+00 4.6582331901e+00 
233000 4.6781275650e+00 -1.2227963760e-03 2.6894549300e+00 -4.6582725835e+00 2.6894549300e+00 4.6582725835e+00 
233100 4.6781275346e+00 -1.2222385078e-03 2.6894776632e+00 -4.6583119585e+00 2.6894776632e+00 4.6583119585e+00 
233200 4.6781275043e+00 -1.2216808051e-03 2.6895003858e+00 -4.6583513153e+00 2.6895003858e+00 4.6583513153e+00 
233300 4.6781274740e+00 -1.2211232683e-03 2.6895230979e+00 -4.6583906537e+00 2.6895230979e+00 4.6583906537e+00 
233400 4.6781274437e+00 -1.2205658972e-03 2.6895457994e+00 -4.6584299739e+00 2.6895457994e+00 4.6584299739e+00 
233500 4.6781274135e+00 -1.2200086919e-03 2.6895684904e+00 -4.6584692758e+00 2.6895684904e+00 4.6584692758e+00 
233600 4.6781273832e+00 -1.2194516525e-03 2.6895911708e+00 -4.6585085594e+00 2.6895911708e+00 4.6585085594e+00 
233700 4.6781273531e+00 -1.2188947790e-03 2.6896138407e+00 -4.6585478248e+00 2.6896138407e+00 4.6585478248e+00 
233800 4.6781273229e+00 -1.2183380716e-03 2.6896365000e+00 -4.6585870719e+00 2.6896365000e+00 4.6585870719e+00 
233900 4.6781272928e+00 -1.2177815302e-03 2.6896591488e+00 -4.6586263007e+00 2.6896591488e+00 4.6586263007e+00 
234000 4.6781272627e+00 -1.2172251549e-03 2.6896817870e+00 -4.6586655113e+00 2.6896817870e+00 4.6586655113e+00 
234100 4.6781272326e+00 -1.2166689458e-03 2.6897044147e+00 -4.6587047037e+00 2.6897044147e+00 4.6587047037e+00 
234200 4.6781272025e+00 -1.2161129029e-03 2.6897270319e+00 -4.6587438778e+00 2.6897270319e+00 4.6587438778e+00 
234300 4.6781271725e+00 -1.2155570263e-03 2.6897496386e+00 -4.6587830336e+00 2.6897496386e+00 4.6587830336e+00 
234400 4.6781271425e+00 -1.2150013160e-03 2.6897722347e+00 -4.6588221713e+00 2.6897722347e+00 4.6588221713e+00 
234500 4.6781271126e+00 -1.2144457720e-03 2.6897948203e+00 -4.6588612907e+00 2.6897948203e+00 4.6588612907e+00 
234600 4.6781270827e+00 -1.2138903945e-03 2.6898173954e+00 -4.6589003919e+00 2.6898173954e+00 4.6589003919e+00 
234700 4.6781270528e+00 -1.2133351835e-03 2.6898399600e+00 -4.6589394749e+00 2.6898399600e+00 4.6589394749e+00 
234800 4.6781270229e+00 -1.2127801390e-03 2.6898625141e+00 -4.6589785397e+00 2.6898625141e+00 4.6589785397e+00 
234900 4.6781269930e+00 -1.2122252612e-03 2.6898850576e+00 -4.6590175863e+00 2.6898850576e+00 4.6590175863e+00 
235000 4.6781269632e+00 -1.2116705499e-03 2.6899075907e+00 -4.6590566147e+00 2.6899075907e+00 4.6590566147e+00 
235100 4.6781269334e+00 -1.2111160054e-03 2.6899301133e+00 -4.6590956250e+00 2.6899301133e+00 4.6590956250e+00 
235200 4.6781269037e+00 -1.2105616276e-03 2.6899526253e+00 -4.6591346170e+00 2.6899526253e+00 4.6591346170e+00 
235300 4.6781268740e+00 -1.2100074167e-03 2.6899751269e+00 -4.6591735909e+00 2.6899751269e+00 4.6591735909e+00 
235400 4.6781268443e+00 -1.2094533726e-03 2.6899976180e+00 -4.6592125466e+00 2.6899976180e+00 4.6592125466e+00 
235500 4.6781268146e+00 -1.2088994954e-03 2.6900200986e+00 -4.6592514841e+00 2.6900200986e+00 4.6592514841e+00 
235600 4.6781267849e+00 -1.2083457852e-03 2.6900425687e+00 -4.6592904035e+00 2.6900425687e+00 4.6592904035e+00 
235700 4.6781267553e+00 -1.2077922421e-03 2.6900650283e+00 -4.6593293047e+00 2.6900650283e+00 4.6593293047e+00 
235800 4.6781267257e+00 -1.2072388660e-03 2.6900874775e+00 -4.6593681878e+00 2.6900874775e+00 4.6593681878e+00 
235900 4.6781266962e+00 -1.2066856570e-03 2.6901099162e+00 -4.6594070527e+00 2.6901099162e+00 4.6594070527e+00 
236000 4.6781266667e+00 -1.2061326152e-03 2.6901323444e+00 -4.6594458996e+00 2.6901323444e+00 4.6594458996e+00 
236100 4.6781266372e+00 -1.2055797407e-03 2.6901547621e+00 -4.6594847282e+00 2.6901547621e+00 4.6594847282e+00 
236200 4.6781266077e+00 -1.2050270335e-03 2.6901771694e+00 -4.6595235388e+00 2.6901771694e+00 4.6595235388e+00 
236300 4.6781265782e+00 -1.2044744936e-03 2.6901995662e+00 -4.6595623312e+00 2.6901995662e+00 4.6595623312e+00 
236400 4.6781265488e+00 -1.2039221211e-03 2.6902219526e+00 -4.6596011056e+00 2.6902219526e+00 4.6596011056e+00 
236500 4.6781265194e+00 -1.2033699161e-03 2.6902443285e+00 -4.6596398618e+00 2.6902443285e+00 4.6596398618e+00 
236600 4.6781264901e+00 -1.2028178786e-03 2.6902666940e+00 -4.6596785999e+00 2.6902666940e+00 4.6596785999e+00 
236700 4.6781264608e+00 -1.2022660086e-03 2.6902890490e+00 -4.6597173200e+00 2.6902890490e+00 4.6597173200e+00 
236800 4.6781264315e+00 -1.2017143062e-03 2.6903113936e+00 -4.6597560219e+00 2.6903113936e+00 4.6597560219e+00 
236900 4.6781264022e+00 -1.2011627716e-03 2.6903337278e+00 -4.6597947058e+00 2.6903337278e+00 4.6597947058e+00 
237000 4.6781263729e+00 -1.2006114046e-03 2.6903560515e+00 -4.6598333716e+00 2.6903560515e+00 4.6598333716e+00 
237100 4.6781263437e+00 -1.2000602054e-03 2.6903783647e+00 -4.6598720193e+00 2.6903783647e+00 4.6598720193e+00 
237200 4.6781263145e+00 -1.1995091741e-03 2.6904006676e+00 -4.6599106490e+00 2.6904006676e+00 4.6599106490e+00 
237300 4.6781262854e+00 -1.1989583106e-03 2.6904229600e+00 -4.6599492606e+00 2.6904229600e+00 4.6599492606e+00 
237400 4.6781262562e+00 -1.1984076150e-03 2.6904452420e+00 -4.6599878541e+00 2.6904452420e+00 4.6599878541e+00 
237500 4.6781262271e+00 -1.1978570874e-03 2.6904675136e+00 -4.6600264296e+00 2.6904675136e+00 4.6600264296e+00 
237600 4.6781261981e+00 -1.1973067279e-03 2.6904897747e+00 -4.6600649871e+00 2.6904897747e+00 4.6600649871e+00 
237700 4.6781261690e+00 -1.1967565365e-03 2.6905120255e+00 -4.6601035265e+00 2.6905120255e+00 4.6601035265e+00 
237800 4.6781261400e+00 -1.1962065132e-03 2.6905342658e+00 -4.6601420479e+00 2.6905342658e+00 4.6601420479e+00 
237900 4.6781261110e+00 -1.1956566581e-03 2.6905564958e+00 -4.6601805513e+00 2.6905564958e+00 4.6601805513e+00 
238000 4.6781260820e+00 -1.1951069712e-03 2.6905787153e+00 -4.6602190367e+00 2.6905787153e+00 4.6602190367e+00 
238100 4.6781260531e+00 -1.1945574526e-03 2.6906009244e+00 -4.6602575040e+00 2.6906009244e+00 4.6602575040e+00 
238200 4.6781260242e+00 -1.1940081024e-03 2.6906231232e+00 -4.6602959534e+00 2.6906231232e+00 4.6602959534e+00 
238300 4.6781259953e+00 -1.1934589206e-03 2.6906453115e+00 -4.6603343847e+00 2.6906453115e+00 4.6603343847e+00 
238400 4.6781259665e+00 -1.1929099073e-03 2.6906674895e+00 -4.6603727981e+00 2.6906674895e+00 4.6603727981e+00 
238500 4.6781259376e+00 -1.1923610624e-03 2.6906896571e+00 -4.6604111935e+00 2.6906896571e+00 4.6604111935e+00 
238600 4.6781259088e+00 -1.1918123862e-03 2.6907118143e+00 -4.6604495708e+00 2.6907118143e+00 4.6604495708e+00 
238700 4.6781258801e+00 -1.1912638785e-03 2.6907339611e+00 -4.6604879303e+00 2.6907339611e+00 4.6604879303e+00 
238800 4.6781258513e+00 -1.1907155395e-03 2.6907560975e+00 -4.6605262717e+00 2.6907560975e+00 4.6605262717e+00 
238900 4.6781258226e+00 -1.1901673692e-03 2.6907782236e+00 -4.6605645952e+00 2.6907782236e+00 4.6605645952e+00 
239000 4.6781257939e+00 -1.1896193676e-03 2.6908003393e+00 -4.6606029007e+00 2.6908003393e+00 4.6606029007e+00 
239100 4.6781257653e+00 -1.1890715349e-03 2.6908224446e+00 -4.6606411883e+00 2.6908224446e+00 4.6606411883e+00 
239200 4.6781257366e+00 -1.1885238711e-03 2.6908445396e+00 -4.6606794579e+00 2.6908445396e+00 4.6606794579e+00 
239300 4.6781257080e+00 -1.1879763762e-03 2.6908666242e+00 -4.6607177096e+00 2.6908666242e+00 4.6607177096e+00 
239400 4.6781256795e+00 -1.1874290502e-03 2.6908886985e+00 -4.6607559433e+00 2.6908886985e+00 4.6607559433e+00 
239500 4.6781256509e+00 -1.1868818933e-03 2.6909107624e+00 -4.6607941591e+00 2.6909107624e+00 4.6607941591e+00 
239600 4.6781256224e+00 -1.1863349055e-03 2.6909328160e+00 -4.6608323570e+00 2.6909328160e+00 4.6608323570e+00 
239700 4.6781255939e+00 -1.1857880868e-03 2.6909548592e+00 -4.6608705370e+00 2.6909548592e+00 4.6608705370e+00 
239800 4.6781255654e+00 -1.1852414372e-03 2.6909768921e+00 -4.6609086991e+00 2.6909768921e+00 4.6609086991e+00 
239900 4.6781255370e+00 -1.1846949569e-03 2.6909989146e+00 -4.6609468432e+00 2.6909989146e+00 4.6609468432e+00 
240000 4.6781255086e+00 -1.1841486459e-03 2.6910209268e+00 -4.6609849695e+00 2.6910209268e+00 4.6609849695e+00 
240100 4.6781254802e+00 -1.1836025042e-03 2.6910429287e+00 -4.6610230779e+00 2.6910429287e+00 4.6610230779e+00 
240200 4.6781254518e+00 -1.1830565318e-03 2.6910649203e+00 -4.6610611683e+00 2.6910649203e+00 4.6610611683e+00 
240300 4.6781254235e+00 -1.1825107289e-03 2.6910869015e+00 -4.6610992409e+00 2.6910869015e+00 4.6610992409e+00 
240400 4.6781253952e+00 -1.1819650955e-03 2.6911088724e+00 -4.6611372957e+00 2.6911088724e+00 4.6611372957e+00 
240500 4.6781253669e+00 -1.1814196317e-03 2.6911308330e+00 -4.6611753325e+00 2.6911308330e+00 4.6611753325e+00 
240600 4.6781253387e+00 -1.1808743374e-03 2.6911527833e+00 -4.6612133515e+00 2.6911527833e+00 4.6612133515e+00 
240700 4.6781253105e+00 -1.1803292127e-03 2.6911747232e+00 -4.6612513527e+00 2.6911747232e+00 4.6612513527e+00 
240800 4.6781252823e+00 -1.1797842577e-03 2.6911966529e+00 -4.6612893359e+00 2.6911966529e+00 4.6612893359e+00 
240900 4.6781252541e+00 -1.1792394725e-03 2.6912185722e+00 -4.6613273014e+00 2.6912185722e+00 4.6613273014e+00 
241000 4.6781252260e+00 -1.1786948571e-03 2.6912404813e+00 -4.6613652490e+00 2.6912404813e+00 4.6613652490e+00 
241100 4.6781251979e+00 -1.1781504114e-03 2.6912623800e+00 -4.6614031787e+00 2.6912623800e+00 4.6614031787e+00 
241200 4.6781251698e+00 -1.1776061357e-03 2.6912842685e+00 -4.6614410907e+00 2.6912842685e+00 4.6614410907e+00 
241300 4.6781251417e+00 -1.1770620299e-03 2.6913061467e+00 -4.6614789848e+00 2.6913061467e+00 4.6614789848e+00 
241400 4.6781251137e+00 -1.1765180941e-03 2.6913280146e+00 -4.6615168611e+00 2.6913280146e+00 4.6615168611e+00 
241500 4.6781250857e+00 -1.1759743283e-03 2.6913498722e+00 -4.6615547195e+00 2.6913498722e+00 4.6615547195e+00 
241600 4.6781250577e+00 -1.1754307326e-03 2.6913717195e+00 -4.6615925602e+00 2.6913717195e+00 4.6615925602e+00 
241700 4.6781250298e+00 -1.1748873070e-03 2.6913935565e+00 -4.6616303831e+00 2.6913935565e+00 4.6616303831e+00 
241800 4.6781250019e+00 -1.1743440517e-03 2.6914153833e+00 -4.6616681882e+00 2.6914153833e+00 4.6616681882e+00 
241900 4.6781249740e+00 -1.1738009665e-03 2.6914371998e+00 -4.6617059755e+00 2.6914371998e+00 4.6617059755e+00 
242000 4.6781249461e+00 -1.1732580516e-03 2.6914590061e+00 -4.6617437450e+00 2.6914590061e+00 4.6617437450e+00 
242100 4.6781249183e+00 -1.1727153071e-03 2.6914808020e+00 -4.6617814967e+00 2.6914808020e+00 4.6617814967e+00 
242200 4.6781248905e+00 -1.1721727329e-03 2.6915025878e+00 -4.6618192307e+00 2.6915025878e+00 4.6618192307e+00 
242300 4.6781248627e+00 -1.1716303292e-03 2.6915243632e+00 -4.6618569469e+00 2.6915243632e+00 4.6618569469e+00 
242400 4.6781248349e+00 -1.1710880960e-03 2.6915461284e+00 -4.6618946454e+00 2.6915461284e+00 4.6618946454e+00 
242500 4.6781248072e+00 -1.1705460332e-03 2.6915678834e+00 -4.6619323261e+00 2.6915678834e+00 4.6619323261e+00 
242600 4.6781247795e+00 -1.1700041411e-03 2.6915896281e+00 -4.6619699890e+00 2.6915896281e+00 4.6619699890e+00 
242700 4.6781247518e+00 -1.1694624195e-03 2.6916113626e+00 -4.6620076342e+00 2.6916113626e+00 4.6620076342e+00 
242800 4.6781247242e+00 -1.1689208687e-03 2.6916330868e+00 -4.6620452617e+00 2.6916330868e+00 4.6620452617e+00 
242900 4.6781246966e+00 -1.1683794886e-03 2.6916548008e+00 -4.6620828715e+00 2.6916548008e+00 4.6620828715e+00 
243000 4.6781246690e+00 -1.1678382792e-03 2.6916765046e+00 -4.6621204635e+00 2.6916765046e+00 4.6621204635e+00 
243100 4.6781246414e+00 -1.1672972406e-03 2.6916981981e+00 -4.6621580378e+00 2.6916981981e+00 4.6621580378e+00 
243200 4.6781246138e+00 -1.1667563730e-03 2.6917198815e+00 -4.6621955944e+00 2.6917198815e+00 4.6621955944e+00 
243300 4.6781245863e+00 -1.1662156762e-03 2.6917415545e+00 -4.6622331333e+00 2.6917415545e+00 4.6622331333e+00 
243400 4.6781245588e+00 -1.1656751504e-03 2.6917632174e+00 -4.6622706545e+00 2.6917632174e+00 4.6622706545e+00 
243500 4.6781245314e+00 -1.1651347956e-03 2.6917848701e+00 -4.6623081580e+00 2.6917848701e+00 4.6623081580e+00 
243600 4.6781245039e+00 -1.1645946119e-03 2.6918065125e+00 -4.6623456438e+00 2.6918065125e+00 4.6623456438e+00 
243700 4.6781244765e+00 -1.1640545992e-03 2.6918281448e+00 -4.6623831120e+00 2.6918281448e+00 4.6623831120e+00 
243800 4.6781244491e+00 -1.1635147578e-03 2.6918497668e+00 -4.6624205625e+00 2.6918497668e+00 4.6624205625e+00 
243900 4.6781244218e+00 -1.1629750875e-03 2.6918713786e+00 -4.6624579953e+00 2.6918713786e+00 4.6624579953e+00 
244000 4.6781243945e+00 -1.1624355884e-03 2.6918929803e+00 -4.6624954104e+00 2.6918929803e+00 4.6624954104e+00 
244100 4.6781243672e+00 -1.1618962607e-03 2.6919145717e+00 -4.6625328079e+00 2.6919145717e+00 4.6625328079e+00 
244200 4.6781243399e+00 -1.1613571043e-03 2.6919361530e+00 -4.6625701877e+00 2.6919361530e+00 4.6625701877e+00 
244300 4.6781243126e+00 -1.1608181193e-03 2.6919577240e+00 -4.6626075499e+00 2.6919577240e+00 4.6626075499e+00 
244400 4.6781242854e+00 -1.1602793057e-03 2.6919792849e+00 -4.6626448944e+00 2.6919792849e+00 4.6626448944e+00 
244500 4.6781242582e+00 -1.1597406637e-03 2.6920008356e+00 -4.6626822213e+00 2.6920008356e+00 4.6626822213e+00 
244600 4.6781242310e+00 -1.1592021931e-03 2.6920223762e+00 -4.6627195306e+00 2.6920223762e+00 4.6627195306e+00 
244700 4.6781242039e+00 -1.1586638941e-03 2.6920439065e+00 -4.6627568223e+00 2.6920439065e+00 4.6627568223e+00 
244800 4.6781241768e+00 -1.1581257668e-03 2.6920654267e+00 -4.6627940963e+00 2.6920654267e+00 4.6627940963e+00 
244900 4.6781241497e+00 -1.1575878111e-03 2.6920869367e+00 -4.6628313528e+00 2.6920869367e+00 4.6628313528e+00 
245000 4.6781241226e+00 -1.1570500272e-03 2.6921084366e+00 -4.6628685916e+00 2.6921084366e+00 4.6628685916e+00 
245100 4.6781240956e+00 -1.1565124150e-03 2.6921299262e+00 -4.6629058128e+00 2.6921299262e+00 4.6629058128e+00 
245200 4.6781240686e+00 -1.1559749746e-03 2.6921514058e+00 -4.6629430165e+00 2.6921514058e+00 4.6629430165e+00 
245300 4.6781240416e+00 -1.1554377060e-03 2.6921728752e+00 -4.6629802025e+00 2.6921728752e+00 4.6629802025e+00 
245400 4.6781240146e+00 -1.1549006094e-03 2.6921943344e+00 -4.6630173710e+00 2.6921943344e+00 4.6630173710e+00 
245500 4.6781239877e+00 -1.1543636847e-03 2.6922157835e+00 -4.6630545219e+00 2.6922157835e+00 4.6630545219e+00 
245600 4.6781239608e+00 -1.1538269320e-03 2.6922372224e+00 -4.6630916553e+00 2.6922372224e+00 4.6630916553e+00 
245700 4.6781239339e+00 -1.1532903514e-03 2.6922586512e+00 -4.6631287710e+00 2.6922586512e+00 4.6631287710e+00 
245800 4.6781239070e+00 -1.1527539428e-03 2.6922800699e+00 -4.6631658693e+00 2.6922800699e+00 4.6631658693e+00 
245900 4.6781238802e+00 -1.1522177064e-03 2.6923014784e+00 -4.6632029499e+00 2.6923014784e+00 4.6632029499e+00 
246000 4.6781238534e+00 -1.1516816421e-03 2.6923228768e+00 -4.6632400131e+00 2.6923228768e+00 4.6632400131e+00 
246100 4.6781238266e+00 -1.1511457501e-03 2.6923442651e+00 -4.6632770586e+00 2.6923442651e+00 4.6632770586e+00 
246200 4.6781237999e+00 -1.1506100303e-03 2.6923656433e+00 -4.6633140867e+00 2.6923656433e+00 4.6633140867e+00 
246300 4.6781237732e+00 -1.1500744829e-03 2.6923870113e+00 -4.6633510972e+00 2.6923870113e+00 4.6633510972e+00 
246400 4.6781237465e+00 -1.1495391078e-03 2.6924083692e+00 -4.6633880902e+00 2.6924083692e+00 4.6633880902e+00 
246500 4.6781237198e+00 -1.1490039051e-03 2.6924297171e+00 -4.6634250657e+00 2.6924297171e+00 4.6634250657e+00 
246600 4.6781236931e+00 -1.1484688748e-03 2.6924510548e+00 -4.6634620237e+00 2.6924510548e+00 4.6634620237e+00 
246700 4.6781236665e+00 -1.1479340171e-03 2.6924723824e+00 -4.6634989642e+00 2.6924723824e+00 4.6634989642e+00 
246800 4.6781236399e+00 -1.1473993319e-03 2.6924936999e+00 -4.6635358872e+00 2.6924936999e+00 4.6635358872e+00 
246900 4.6781236134e+00 -1.1468648192e-03 2.6925150073e+00 -4.6635727927e+00 2.6925150073e+00 4.6635727927e+00 
247000 4.6781235868e+00 -1.1463304792e-03 2.6925363046e+00 -4.6636096807e+00 2.6925363046e+00 4.6636096807e+00 
247100 4.6781235603e+00 -1.1457963119e-03 2.6925575918e+00 -4.6636465513e+00 2.6925575918e+00 4.6636465513e+00 
247200 4.6781235338e+00 -1.1452623172e-03 2.6925788689e+00 -4.6636834043e+00 2.6925788689e+00 4.6636834043e+00 
247300 4.6781235073e+00 -1.1447284954e-03 2.6926001360e+00 -4.6637202399e+00 2.6926001360e+00 4.6637202399e+00 
247400 4.6781234809e+00 -1.1441948463e-03 2.6926213929e+00 -4.6637570581e+00 2.6926213929e+00 4.6637570581e+00 
247500 4.6781234545e+00 -1.1436613701e-03 2.6926426398e+00 -4.6637938588e+00 2.6926426398e+00 4.6637938588e+00 
247600 4.6781234281e+00 -1.1431280667e-03 2.6926638766e+00 -4.6638306420e+00 2.6926638766e+00 4.6638306420e+00 
247700 4.6781234017e+00 -1.1425949363e-03 2.6926851034e+00 -4.6638674078e+00 2.6926851034e+00 4.6638674078e+00 
247800 4.6781233754e+00 -1.1420619789e-03 2.6927063200e+00 -4.6639041561e+00 2.6927063200e+00 4.6639041561e+00 
247900 4.6781233491e+00 -1.1415291945e-03 2.6927275266e+00 -4.6639408871e+00 2.6927275266e+00 4.6639408871e+00 
248000 4.6781233228e+00 -1.1409965831e-03 2.6927487232e+00 -4.6639776006e+00 2.6927487232e+00 4.6639776006e+00 
248100 4.6781232965e+00 -1.1404641449e-03 2.6927699097e+00 -4.6640142967e+00 2.6927699097e+00 4.6640142967e+00 
248200 4.6781232703e+00 -1.1399318798e-03 2.6927910861e+00 -4.6640509753e+00 2.6927910861e+00 4.6640509753e+00 
248300 4.6781232441e+00 -1.1393997879e-03 2.6928122525e+00 -4.6640876366e+00 2.6928122525e+00 4.6640876366e+00 
248400 4.6781232179e+00 -1.1388678692e-03 2.6928334089e+00 -4.6641242805e+00 2.6928334089e+00 4.6641242805e+00 
248500 4.6781231918e+00 -1.1383361239e-03 2.6928545552e+00 -4.6641609069e+00 2.6928545552e+00 4.6641609069e+00 
248600 4.6781231656e+00 -1.1378045518e-03 2.6928756914e+00 -4.6641975160e+00 2.6928756914e+00 4.6641975160e+00 
248700 4.6781231395e+00 -1.1372731531e-03 2.6928968176e+00 -4.6642341077e+00 2.6928968176e+00 4.6642341077e+00 
248800 4.6781231134e+00 -1.1367419278e-03 2.6929179338e+00 -4.6642706820e+00 2.6929179338e+00 4.6642706820e+00 
248900 4.6781230874e+00 -1.1362108760e-03 2.6929390400e+00 -4.6643072390e+00 2.6929390400e+00 4.6643072390e+00 
249000 4.6781230614e+00 -1.1356799976e-03 2.6929601361e+00 -4.6643437786e+00 2.6929601361e+00 4.6643437786e+00 
249100 4.6781230353e+00 -1.1351492928e-03 2.6929812223e+00 -4.6643803008e+00 2.6929812223e+00 4.6643803008e+00 
249200 4.6781230094e+00 -1.1346187615e-03 2.6930022984e+00 -4.6644168057e+00 2.6930022984e+00 4.6644168057e+00 
249300 4.6781229834e+00 -1.1340884039e-03 2.6930233644e+00 -4.6644532932e+00 2.6930233644e+00 4.6644532932e+00 
249400 4.6781229575e+00 -1.1335582199e-03 2.6930444205e+00 -4.6644897634e+00 2.6930444205e+00 4.6644897634e+00 
249500 4.6781229316e+00 -1.1330282097e-03 2.6930654666e+00 -4.6645262162e+00 2.6930654666e+00 4.6645262162e+00 
249600 4.6781229057e+00 -1.1324983731e-03 2.6930865026e+00 -4.6645626518e+00 2.6930865026e+00 4.6645626518e+00 
249700 4.6781228799e+00 -1.1319687104e-03 2.6931075287e+00 -4.6645990700e+00 2.6931075287e+00 4.6645990700e+00 
249800 4.6781228540e+00 -1.1314392214e-03 2.6931285448e+00 -4.6646354708e+00 2.6931285448e+00 4.6646354708e+00 
249900 4.6781228282e+00 -1.1309099064e-03 2.6931495508e+00 -4.6646718544e+00 2.6931495508e+00 4.6646718544e+00 
250000 4.6781228024e+00 -1.1303807652e-03 2.6931705469e+00 -4.6647082207e+00 2.6931705469e+00 4.6647082207e+00 
250100 4.6781227767e+00 -1.1298517980e-03 2.6931915330e+00 -4.6647445696e+00 2.6931915330e+00 4.6647445696e+00 
250200 4.6781227510e+00 -1.1293230048e-03 2.6932125091e+00 -4.6647809013e+00 2.6932125091e+00 4.6647809013e+00 
250300 4.6781227253e+00 -1.1287943856e-03 2.6932334752e+00 -4.6648172157e+00 2.6932334752e+00 4.6648172157e+00 
250400 4.6781226996e+00 -1.1282659405e-03 2.6932544314e+00 -4.6648535128e+00 2.6932544314e+00 4.6648535128e+00 
250500 4.6781226739e+00 -1.1277376695e-03 2.6932753775e+00 -4.6648897927e+00 2.6932753775e+00 4.6648897927e+00 
250600 4.6781226483e+00 -1.1272095726e-03 2.6932963137e+00 -4.6649260552e+00 2.6932963137e+00 4.6649260552e+00 
250700 4.6781226227e+00 -1.1266816499e-03 2.6933172400e+00 -4.6649623005e+00 2.6933172400e+00 4.6649623005e+00 
250800 4.6781225971e+00 -1.1261539015e-03 2.6933381562e+00 -4.6649985286e+00 2.6933381562e+00 4.6649985286e+00 
250900 4.6781225716e+00 -1.1256263273e-03 2.6933590625e+00 -4.6650347394e+00 2.6933590625e+00 4.6650347394e+00 
251000 4.6781225461e+00 -1.1250989275e-03 2.6933799589e+00 -4.6650709329e+00 2.6933799589e+00 4.6650709329e+00 
251100 4.6781225205e+00 -1.1245717019e-03 2.6934008453e+00 -4.6651071092e+00 2.6934008453e+00 4.6651071092e+00 
251200 4.6781224951e+00 -1.1240446508e-03 2.6934217218e+00 -4.6651432683e+00 2.6934217218e+00 4.6651432683e+00 
251300 4.6781224696e+00 -1.1235177741e-03 2.6934425883e+00 -4.6651794102e+00 2.6934425883e+00 4.6651794102e+00 
251400 4.6781224442e+00 -1.1229910719e-03 2.6934634448e+00 -4.6652155348e+00 2.6934634448e+00 4.6652155348e+00 
251500 4.6781224188e+00 -1.1224645442e-03 2.6934842915e+00 -4.6652516422e+00 2.6934842915e+00 4.6652516422e+00 
251600 4.6781223934e+00 -1.1219381910e-03 2.6935051282e+00 -4.6652877324e+00 2.6935051282e+00 4.6652877324e+00 
251700 4.6781223681e+00 -1.1214120125e-03 2.6935259549e+00 -4.6653238054e+00 2.6935259549e+00 4.6653238054e+00 
251800 4.6781223427e+00 -1.1208860085e-03 2.6935467717e+00 -4.6653598612e+00 2.6935467717e+00 4.6653598612e+00 
251900 4.6781223174e+00 -1.1203601792e-03 2.6935675786e+00 -4.6653958998e+00 2.6935675786e+00 4.6653958998e+00 
252000 4.6781222922e+00 -1.1198345246e-03 2.6935883756e+00 -4.6654319213e+00 2.6935883756e+00 4.6654319213e+00 
252100 4.6781222669e+00 -1.1193090448e-03 2.6936091627e+00 -4.6654679255e+00 2.6936091627e+00 4.6654679255e+00 
252200 4.6781222417e+00 -1.1187837397e-03 2.6936299398e+00 -4.6655039126e+00 2.6936299398e+00 4.6655039126e+00 
252300 4.6781222165e+00 -1.1182586095e-03 2.6936507071e+00 -4.6655398825e+00 2.6936507071e+00 4.6655398825e+00 
252400 4.6781221913e+00 -1.1177336541e-03 2.6936714644e+00 -4.6655758353e+00 2.6936714644e+00 4.6655758353e+00 
252500 4.6781221661e+00 -1.1172088736e-03 2.6936922118e+00 -4.6656117709e+00 2.6936922118e+00 4.6656117709e+00 
252600 4.6781221410e+00 -1.1166842680e-03 2.6937129494e+00 -4.6656476893e+00 2.6937129494e+00 4.6656476893e+00 
252700 4.6781221159e+00 -1.1161598374e-03 2.6937336770e+00 -4.6656835906e+00 2.6937336770e+00 4.6656835906e+00 
252800 4.6781220908e+00 -1.1156355819e-03 2.6937543947e+00 -4.6657194748e+00 2.6937543947e+00 4.6657194748e+00 
252900 4.6781220658e+00 -1.1151115013e-03 2.6937751026e+00 -4.6657553418e+00 2.6937751026e+00 4.6657553418e+00 
253000 4.6781220407e+00 -1.1145875959e-03 2.6937958005e+00 -4.6657911918e+00 2.6937958005e+00 4.6657911918e+00 
253100 4.6781220157e+00 -1.1140638656e-03 2.6938164886e+00 -4.6658270246e+00 2.6938164886e+00 4.6658270246e+00 
253200 4.6781219907e+00 -1.1135403104e-03 2.6938371668e+00 -4.6658628402e+00 2.6938371668e+00 4.6658628402e+00 
253300 4.6781219658e+00 -1.1130169304e-03 2.6938578351e+00 -4.6658986388e+00 2.6938578351e+00 4.6658986388e+00 
253400 4.6781219409e+00 -1.1124937257e-03 2.6938784936e+00 -4.6659344203e+00 2.6938784936e+00 4.6659344203e+00 
253500 4.6781219159e+00 -1.1119706962e-03 2.6938991422e+00 -4.6659701847e+00 2.6938991422e+00 4.6659701847e+00 
253600 4.6781218911e+00 -1.1114478420e-03 2.6939197809e+00 -4.6660059320e+00 2.6939197809e+00 4.6660059320e+00 
253700 4.6781218662e+00 -1.1109251632e-03 2.6939404097e+00 -4.6660416622e+00 2.6939404097e+00 4.6660416622e+00 
253800 4.6781218414e+00 -1.1104026598e-03 2.6939610287e+00 -4.6660773753e+00 2.6939610287e+00 4.6660773753e+00 
253900 4.6781218166e+00 -1.1098803317e-03 2.6939816378e+00 -4.6661130714e+00 2.6939816378e+00 4.6661130714e+00 
254000 4.6781217918e+00 -1.1093581792e-03 2.6940022371e+00 -4.6661487504e+00 2.6940022371e+00 4.6661487504e+00 
254100 4.6781217670e+00 -1.1088362021e-03 2.6940228266e+00 -4.6661844123e+00 2.6940228266e+00 4.6661844123e+00 
254200 4.6781217423e+00 -1.1083144005e-03 2.6940434061e+00 -4.6662200572e+00 2.6940434061e+00 4.6662200572e+00 
254300 4.6781217175e+00 -1.1077927745e-03 2.6940639759e+00 -4.6662556851e+00 2.6940639759e+00 4.6662556851e+00 
254400 4.6781216929e+00 -1.1072713241e-03 2.6940845358e+00 -4.6662912959e+00 2.6940845358e+00 4.6662912959e+00 
254500 4.6781216682e+00 -1.1067500494e-03 2.6941050859e+00 -4.6663268897e+00 2.6941050859e+00 4.6663268897e+00 
254600 4.6781216436e+00 -1.1062289503e-03 2.6941256261e+00 -4.6663624664e+00 2.6941256261e+00 4.6663624664e+00 
254700 4.6781216189e+00 -1.1057080269e-03 2.6941461565e+00 -4.6663980261e+00 2.6941461565e+00 4.6663980261e+00 
254800 4.6781215943e+00 -1.1051872792e-03 2.6941666771e+00 -4.6664335688e+00 2.6941666771e+00 4.6664335688e+00 
254900 4.6781215698e+00 -1.1046667073e-03 2.6941871879e+00 -4.6664690945e+00 2.6941871879e+00 4.6664690945e+00 
255000 4.6781215452e+00 -1.1041463113e-03 2.6942076888e+00 -4.6665046032e+00 2.6942076888e+00 4.6665046032e+00 
255100 4.6781215207e+00 -1.1036260910e-03 2.6942281800e+00 -4.6665400949e+00 2.6942281800e+00 4.6665400949e+00 
255200 4.6781214962e+00 -1.1031060467e-03 2.6942486613e+00 -4.6665755696e+00 2.6942486613e+00 4.6665755696e+00 
255300 4.6781214717e+00 -1.1025861783e-03 2.6942691328e+00 -4.6666110273e+00 2.6942691328e+00 4.6666110273e+00 
255400 4.6781214473e+00 -1.1020664858e-03 2.6942895946e+00 -4.6666464681e+00 2.6942895946e+00 4.6666464681e+00 
255500 4.6781214229e+00 -1.1015469693e-03 2.6943100465e+00 -4.6666818918e+00 2.6943100465e+00 4.6666818918e+00 
255600 4.6781213985e+00 -1.1010276288e-03 2.6943304886e+00 -4.6667172986e+00 2.6943304886e+00 4.6667172986e+00 
255700 4.6781213741e+00 -1.1005084643e-03 2.6943509209e+00 -4.6667526885e+00 2.6943509209e+00 4.6667526885e+00 
255800 4.6781213497e+00 -1.0999894760e-03 2.6943713435e+00 -4.6667880613e+00 2.6943713435e+00 4.6667880613e+00 
255900 4.6781213254e+00 -1.0994706638e-03 2.6943917562e+00 -4.6668234173e+00 2.6943917562e+00 4.6668234173e+00 
256000 4.6781213011e+00 -1.0989520277e-03 2.6944121592e+00 -4.6668587563e+00 2.6944121592e+00 4.6668587563e+00 
256100 4.6781212768e+00 -1.0984335678e-03 2.6944325524e+00 -4.6668940783e+00 2.6944325524e+00 4.6668940783e+00 
256200 4.6781212526e+00 -1.0979152841e-03 2.6944529358e+00 -4.6669293834e+00 2.6944529358e+00 4.6669293834e+00 
256300 4.6781212283e+00 -1.0973971767e-03 2.6944733095e+00 -4.6669646716e+00 2.6944733095e+00 4.6669646716e+00 
256400 4.6781212041e+00 -1.0968792456e-03 2.6944936733e+00 -4.6669999429e+00 2.6944936733e+00 4.6669999429e+00 
256500 4.6781211799e+00 -1.0963614908e-03 2.6945140275e+00 -4.6670351973e+00 2.6945140275e+00 4.6670351973e+00 
256600 4.6781211558e+00 -1.0958439123e-03 2.6945343718e+00 -4.6670704347e+00 2.6945343718e+00 4.6670704347e+00 
256700 4.6781211316e+00 -1.0953265102e-03 2.6945547064e+00 -4.6671056553e+00 2.6945547064e+00 4.6671056553e+00 
256800 4.6781211075e+00 -1.0948092846e-03 2.6945750312e+00 -4.6671408589e+00 2.6945750312e+00 4.6671408589e+00 
256900 4.6781210834e+00 -1.0942922354e-03 2.6945953463e+00 -4.6671760457e+00 2.6945953463e+00 4.6671760457e+00 
257000 4.6781210594e+00 -1.0937753627e-03 2.6946156517e+00 -4.6672112156e+00 2.6946156517e+00 4.6672112156e+00 
257100 4.6781210353e+00 -1.0932586665e-03 2.6946359473e+00 -4.6672463686e+00 2.6946359473e+00 4.6672463686e+00 
257200 4.6781210113e+00 -1.0927421469e-03 2.6946562331e+00 -4.6672815047e+00 2.6946562331e+00 4.6672815047e+00 
257300 4.6781209873e+00 -1.0922258038e-03 2.6946765092e+00 -4.6673166240e+00 2.6946765092e+00 4.6673166240e+00 
257400 4.6781209633e+00 -1.0917096374e-03 2.6946967756e+00 -4.6673517264e+00 2.6946967756e+00 4.6673517264e+00 
257500 4.6781209394e+00 -1.0911936476e-03 2.6947170323e+00 -4.6673868120e+00 2.6947170323e+00 4.6673868120e+00 
257600 4.6781209155e+00 -1.0906778344e-03 2.6947372792e+00 -4.6674218807e+00 2.6947372792e+00 4.6674218807e+00 
257700 4.6781208915e+00 -1.0901621980e-03 2.6947575164e+00 -4.6674569325e+00 2.6947575164e+00 4.6674569325e+00 
257800 4.6781208677e+00 -1.0896467384e-03 2.6947777439e+00 -4.6674919676e+00 2.6947777439e+00 4.6674919676e+00 
257900 4.6781208438e+00 -1.0891314555e-03 2.6947979617e+00 -4.6675269858e+00 2.6947979617e+00 4.6675269858e+00 
258000 4.6781208200e+00 -1.0886163494e-03 2.6948181698e+00 -4.6675619872e+00 2.6948181698e+00 4.6675619872e+00 
258100 4.6781207962e+00 -1.0881014201e-03 2.6948383681e+00 -4.6675969718e+00 2.6948383681e+00 4.6675969718e+00 
258200 4.6781207724e+00 -1.0875866677e-03 2.6948585568e+00 -4.6676319395e+00 2.6948585568e+00 4.6676319395e+00 
258300 4.6781207486e+00 -1.0870720922e-03 2.6948787357e+00 -4.6676668905e+00 2.6948787357e+00 4.6676668905e+00 
258400 4.6781207249e+00 -1.0865576937e-03 2.6948989049e+00 -4.6677018246e+00 2.6948989049e+00 4.6677018246e+00 
258500 4.6781207012e+00 -1.0860434721e-03 2.6949190645e+00 -4.6677367420e+00 2.6949190645e+00 4.6677367420e+00 
258600 4.6781206775e+00 -1.0855294274e-03 2.6949392144e+00 -4.6677716426e+00 2.6949392144e+00 4.6677716426e+00 
258700 4.6781206538e+00 -1.0850155598e-03 2.6949593545e+00 -4.6678065264e+00 2.6949593545e+00 4.6678065264e+00 
258800 4.6781206302e+00 -1.0845018693e-03 2.6949794850e+00 -4.6678413934e+00 2.6949794850e+00 4.6678413934e+00 
258900 4.6781206066e+00 -1.0839883558e-03 2.6949996058e+00 -4.6678762437e+00 2.6949996058e+00 4.6678762437e+00 
259000 4.6781205830e+00 -1.0834750195e-03 2.6950197170e+00 -4.6679110772e+00 2.6950197170e+00 4.6679110772e+00 
259100 4.6781205594e+00 -1.0829618603e-03 2.6950398184e+00 -4.6679458939e+00 2.6950398184e+00 4.6679458939e+00 
259200 4.6781205358e+00 -1.0824488782e-03 2.6950599102e+00 -4.6679806939e+00 2.6950599102e+00 4.6679806939e+00 
259300 4.6781205123e+00 -1.0819360734e-03 2.6950799923e+00 -4.6680154771e+00 2.6950799923e+00 4.6680154771e+00 
259400 4.6781204888e+00 -1.0814234458e-03 2.6951000648e+00 -4.6680502437e+00 2.6951000648e+00 4.6680502437e+00 
259500 4.6781204653e+00 -1.0809109954e-03 2.6951201276e+00 -4.6680849934e+00 2.6951201276e+00 4.6680849934e+00 
259600 4.6781204419e+00 -1.0803987223e-03 2.6951401807e+00 -4.6681197265e+00 2.6951401807e+00 4.6681197265e+00 
259700 4.6781204184e+00 -1.0798866266e-03 2.6951602242e+00 -4.6681544428e+00 2.6951602242e+00 4.6681544428e+00 
259800 4.6781203950e+00 -1.0793747082e-03 2.6951802580e+00 -4.6681891424e+00 2.6951802580e+00 4.6681891424e+00 
259900 4.6781203716e+00 -1.0788629672e-03 2.6952002822e+00 -4.6682238254e+00 2.6952002822e+00 4.6682238254e+00 
260000 4.6781203483e+00 -1.0783514035e-03 2.6952202968e+00 -4.6682584916e+00 2.6952202968e+00 4.6682584916e+00 
260100 4.6781203249e+00 -1.0778400174e-03 2.6952403017e+00 -4.6682931411e+00 2.6952403017e+00 4.6682931411e+00 
260200 4.6781203016e+00 -1.0773288086e-03 2.6952602969e+00 -4.6683277739e+00 2.6952602969e+00 4.6683277739e+00 
260300 4.6781202783e+00 -1.0768177774e-03 2.6952802826e+00 -4.6683623901e+00 2.6952802826e+00 4.6683623901e+00 
260400 4.6781202550e+00 -1.0763069237e-03 2.6953002586e+00 -4.6683969895e+00 2.6953002586e+00 4.6683969895e+00 
260500 4.6781202318e+00 -1.0757962475e-03 2.6953202250e+00 -4.6684315723e+00 2.6953202250e+00 4.6684315723e+00 
260600 4.6781202085e+00 -1.0752857489e-03 2.6953401818e+00 -4.6684661385e+00 2.6953401818e+00 4.6684661385e+00 
260700 4.6781201853e+00 -1.0747754279e-03 2.6953601289e+00 -4.6685006880e+00 2.6953601289e+00 4.6685006880e+00 
260800 4.6781201621e+00 -1.0742652845e-03 2.6953800664e+00 -4.6685352208e+00 2.6953800664e+00 4.6685352208e+00 
260900 4.6781201390e+00 -1.0737553188e-03 2.6953999944e+00 -4.6685697370e+00 2.6953999944e+00 4.6685697370e+00 
261000 4.6781201159e+00 -1.0732455308e-03 2.6954199127e+00 -4.6686042365e+00 2.6954199127e+00 4.6686042365e+00 
261100 4.6781200927e+00 -1.0727359205e-03 2.6954398214e+00 -4.6686387194e+00 2.6954398214e+00 4.6686387194e+00 
261200 4.6781200696e+00 -1.0722264879e-03 2.6954597205e+00 -4.6686731857e+00 2.6954597205e+00 4.6686731857e+00 
261300 4.6781200466e+00 -1.0717172331e-03 2.6954796100e+00 -4.6687076353e+00 2.6954796100e+00 4.6687076353e+00 
261400 4.6781200235e+00 -1.0712081561e-03 2.6954994899e+00 -4.6687420684e+00 2.6954994899e+00 4.6687420684e+00 
261500 4.6781200005e+00 -1.0706992569e-03 2.6955193603e+00 -4.6687764848e+00 2.6955193603e+00 4.6687764848e+00 
261600 4.6781199775e+00 -1.0701905356e-03 2.6955392210e+00 -4.6688108846e+00 2.6955392210e+00 4.6688108846e+00 
261700 4.6781199545e+00 -1.0696819921e-03 2.6955590722e+00 -4.6688452678e+00 2.6955590722e+00 4.6688452678e+00 
261800 4.6781199316e+00 -1.0691736266e-03 2.6955789138e+00 -4.6688796345e+00 2.6955789138e+00 4.6688796345e+00 
261900 4.6781199086e+00 -1.0686654389e-03 2.6955987458e+00 -4.6689139845e+00 2.6955987458e+00 4.6689139845e+00 
262000 4.6781198857e+00 -1.0681574293e-03 2.6956185682e+00 -4.6689483180e+00 2.6956185682e+00 4.6689483180e+00 
262100 4.6781198629e+00 -1.0676495976e-03 2.6956383811e+00 -4.6689826349e+00 2.6956383811e+00 4.6689826349e+00 
262200 4.6781198400e+00 -1.0671419439e-03 2.6956581844e+00 -4.6690169352e+00 2.6956581844e+00 4.6690169352e+00 
262300 4.6781198171e+00 -1.0666344682e-03 2.6956779781e+00 -4.6690512190e+00 2.6956779781e+00 4.6690512190e+00 
262400 4.6781197943e+00 -1.0661271706e-03 2.6956977623e+00 -4.6690854862e+00 2.6956977623e+00 4.6690854862e+00 
262500 4.6781197715e+00 -1.0656200511e-03 2.6957175369e+00 -4.6691197369e+00 2.6957175369e+00 4.6691197369e+00 
262600 4.6781197488e+00 -1.0651131096e-03 2.6957373020e+00 -4.6691539710e+00 2.6957373020e+00 4.6691539710e+00 
262700 4.6781197260e+00 -1.0646063464e-03 2.6957570576e+00 -4.6691881886e+00 2.6957570576e+00 4.6691881886e+00 
262800 4.6781197033e+00 -1.0640997612e-03 2.6957768035e+00 -4.6692223896e+00 2.6957768035e+00 4.6692223896e+00 
262900 4.6781196806e+00 -1.0635933543e-03 2.6957965400e+00 -4.6692565741e+00 2.6957965400e+00 4.6692565741e+00 
263000 4.6781196579e+00 -1.0630871256e-03 2.6958162669e+00 -4.6692907421e+00 2.6958162669e+00 4.6692907421e+00 
263100 4.6781196352e+00 -1.0625810751e-03 2.6958359843e+00 -4.6693248936e+00 2.6958359843e+00 4.6693248936e+00 
263200 4.6781196126e+00 -1.0620752028e-03 2.6958556921e+00 -4.6693590286e+00 2.6958556921e+00 4.6693590286e+00 
263300 4.6781195900e+00 -1.0615695089e-03 2.6958753904e+00 -4.6693931471e+00 2.6958753904e+00 4.6693931471e+00 
263400 4.6781195674e+00 -1.0610639932e-03 2.6958950792e+00 -4.6694272491e+00 2.6958950792e+00 4.6694272491e+00 
263500 4.6781195448e+00 -1.0605586559e-03 2.6959147585e+00 -4.6694613346e+00 2.6959147585e+00 4.6694613346e+00 
263600 4.6781195223e+00 -1.0600534969e-03 2.6959344283e+00 -4.6694954036e+00 2.6959344283e+00 4.6694954036e+00 
263700 4.6781194997e+00 -1.0595485164e-03 2.6959540885e+00 -4.6695294562e+00 2.6959540885e+00 4.6695294562e+00 
263800 4.6781194772e+00 -1.0590437142e-03 2.6959737393e+00 -4.6695634923e+00 2.6959737393e+00 4.6695634923e+00 
263900 4.6781194547e+00 -1.0585390904e-03 2.6959933805e+00 -4.6695975119e+00 2.6959933805e+00 4.6695975119e+00 
264000 4.6781194323e+00 -1.0580346451e-03 2.6960130122e+00 -4.6696315150e+00 2.6960130122e+00 4.6696315150e+00 
264100 4.6781194098e+00 -1.0575303783e-03 2.6960326345e+00 -4.6696655017e+00 2.6960326345e+00 4.6696655017e+00 
264200 4.6781193874e+00 -1.0570262900e-03 2.6960522472e+00 -4.6696994720e+00 2.6960522472e+00 4.6696994720e+00 
264300 4.6781193650e+00 -1.0565223802e-03 2.6960718504e+00 -4.6697334258e+00 2.6960718504e+00 4.6697334258e+00 
264400 4.6781193427e+00 -1.0560186489e-03 2.6960914442e+00 -4.6697673632e+00 2.6960914442e+00 4.6697673632e+00 
264500 4.6781193203e+00 -1.0555150963e-03 2.6961110285e+00 -4.6698012842e+00 2.6961110285e+00 4.6698012842e+00 
264600 4.6781192980e+00 -1.0550117222e-03 2.6961306033e+00 -4.6698351887e+00 2.6961306033e+00 4.6698351887e+00 
264700 4.6781192757e+00 -1.0545085267e-03 2.6961501686e+00 -4.6698690768e+00 2.6961501686e+00 4.6698690768e+00 
264800 4.6781192534e+00 -1.0540055098e-03 2.6961697244e+00 -4.6699029485e+00 2.6961697244e+00 4.6699029485e+00 
264900 4.6781192311e+00 -1.0535026716e-03 2.6961892708e+00 -4.6699368039e+00 2.6961892708e+00 4.6699368039e+00 
265000 4.6781192089e+00 -1.0530000121e-03 2.6962088077e+00 -4.6699706428e+00 2.6962088077e+00 4.6699706428e+00 
265100 4.6781191867e+00 -1.0524975313e-03 2.6962283352e+00 -4.6700044653e+00 2.6962283352e+00 4.6700044653e+00 
265200 4.6781191645e+00 -1.0519952292e-03 2.6962478531e+00 -4.6700382714e+00 2.6962478531e+00 4.6700382714e+00 
265300 4.6781191423e+00 -1.0514931059e-03 2.6962673617e+00 -4.6700720612e+00 2.6962673617e+00 4.6700720612e+00 
265400 4.6781191202e+00 -1.0509911613e-03 2.6962868607e+00 -4.6701058346e+00 2.6962868607e+00 4.6701058346e+00 
265500 4.6781190980e+00 -1.0504893956e-03 2.6963063504e+00 -4.6701395916e+00 2.6963063504e+00 4.6701395916e+00 
265600 4.6781190759e+00 -1.0499878086e-03 2.6963258305e+00 -4.6701733323e+00 2.6963258305e+00 4.6701733323e+00 
265700 4.6781190538e+00 -1.0494864005e-03 2.6963453013e+00 -4.6702070566e+00 2.6963453013e+00 4.6702070566e+00 
265800 4.6781190318e+00 -1.0489851712e-03 2.6963647626e+00 -4.6702407645e+00 2.6963647626e+00 4.6702407645e+00 
265900 4.6781190097e+00 -1.0484841208e-03 2.6963842144e+00 -4.6702744561e+00 2.6963842144e+00 4.6702744561e+00 
266000 4.6781189877e+00 -1.0479832493e-03 2.6964036569e+00 -4.6703081314e+00 2.6964036569e+00 4.6703081314e+00 
266100 4.6781189657e+00 -1.0474825567e-03 2.6964230899e+00 -4.6703417904e+00 2.6964230899e+00 4.6703417904e+00 
266200 4.6781189437e+00 -1.0469820431e-03 2.6964425135e+00 -4.6703754330e+00 2.6964425135e+00 4.6703754330e+00 
266300 4.6781189218e+00 -1.0464817084e-03 2.6964619276e+00 -4.6704090593e+00 2.6964619276e+00 4.6704090593e+00 
266400 4.6781188998e+00 -1.0459815527e-03 2.6964813324e+00 -4.6704426693e+00 2.6964813324e+00 4.6704426693e+00 
266500 4.6781188779e+00 -1.0454815760e-03 2.6965007277e+00 -4.6704762630e+00 2.6965007277e+00 4.6704762630e+00 
266600 4.6781188560e+00 -1.0449817784e-03 2.6965201136e+00 -4.6705098404e+00 2.6965201136e+00 4.6705098404e+00 
266700 4.6781188342e+00 -1.0444821597e-03 2.6965394901e+00 -4.6705434015e+00 2.6965394901e+00 4.6705434015e+00 
266800 4.6781188123e+00 -1.0439827202e-03 2.6965588572e+00 -4.6705769463e+00 2.6965588572e+00 4.6705769463e+00 
266900 4.6781187905e+00 -1.0434834597e-03 2.6965782149e+00 -4.6706104749e+00 2.6965782149e+00 4.6706104749e+00 
267000 4.6781187687e+00 -1.0429843783e-03 2.6965975632e+00 -4.6706439871e+00 2.6965975632e+00 4.6706439871e+00 
267100 4.6781187469e+00 -1.0424854760e-03 2.6966169022e+00 -4.6706774831e+00 2.6966169022e+00 4.6706774831e+00 
267200 4.6781187252e+00 -1.0419867529e-03 2.6966362317e+00 -4.6707109628e+00 2.6966362317e+00 4.6707109628e+00 
267300 4.6781187034e+00 -1.0414882090e-03 2.6966555518e+00 -4.6707444263e+00 2.6966555518e+00 4.6707444263e+00 
267400 4.6781186817e+00 -1.0409898442e-03 2.6966748626e+00 -4.6707778735e+00 2.6966748626e+00 4.6707778735e+00 
267500 4.6781186600e+00 -1.0404916586e-03 2.6966941640e+00 -4.6708113045e+00 2.6966941640e+00 4.6708113045e+00 
267600 4.6781186383e+00 -1.0399936522e-03 2.6967134560e+00 -4.6708447192e+00 2.6967134560e+00 4.6708447192e+00 
267700 4.6781186167e+00 -1.0394958251e-03 2.6967327386e+00 -4.6708781177e+00 2.6967327386e+00 4.6708781177e+00 
267800 4.6781185951e+00 -1.0389981772e-03 2.6967520119e+00 -4.6709115000e+00 2.6967520119e+00 4.6709115000e+00 
267900 4.6781185735e+00 -1.0385007086e-03 2.6967712758e+00 -4.6709448661e+00 2.6967712758e+00 4.6709448661e+00 
268000 4.6781185519e+00 -1.0380034193e-03 2.6967905303e+00 -4.6709782159e+00 2.6967905303e+00 4.6709782159e+00 
268100 4.6781185303e+00 -1.0375063093e-03 2.6968097755e+00 -4.6710115496e+00 2.6968097755e+00 4.6710115496e+00 
268200 4.6781185088e+00 -1.0370093787e-03 2.6968290114e+00 -4.6710448670e+00 2.6968290114e+00 4.6710448670e+00 
268300 4.6781184872e+00 -1.0365126274e-03 2.6968482378e+00 -4.6710781682e+00 2.6968482378e+00 4.6710781682e+00 
268400 4.6781184657e+00 -1.0360160554e-03 2.6968674550e+00 -4.6711114533e+00 2.6968674550e+00 4.6711114533e+00 
268500 4.6781184442e+00 -1.0355196629e-03 2.6968866628e+00 -4.6711447222e+00 2.6968866628e+00 4.6711447222e+00 
268600 4.6781184228e+00 -1.0350234497e-03 2.6969058612e+00 -4.6711779749e+00 2.6969058612e+00 4.6711779749e+00 
268700 4.6781184014e+00 -1.0345274160e-03 2.6969250503e+00 -4.6712112114e+00 2.6969250503e+00 4.6712112114e+00 
268800 4.6781183799e+00 -1.0340315617e-03 2.6969442301e+00 -4.6712444317e+00 2.6969442301e+00 4.6712444317e+00 
268900 4.6781183585e+00 -1.0335358868e-03 2.6969634006e+00 -4.6712776359e+00 2.6969634006e+00 4.6712776359e+00 
269000 4.6781183372e+00 -1.0330403914e-03 2.6969825617e+00 -4.6713108240e+00 2.6969825617e+00 4.6713108240e+00 
269100 4.6781183158e+00 -1.0325450755e-03 2.6970017135e+00 -4.6713439959e+00 2.6970017135e+00 4.6713439959e+00 
269200 4.6781182945e+00 -1.0320499392e-03 2.6970208560e+00 -4.6713771516e+00 2.6970208560e+00 4.6713771516e+00 
269300 4.6781182732e+00 -1.0315549823e-03 2.6970399891e+00 -4.6714102912e+00 2.6970399891e+00 4.6714102912e+00 
269400 4.6781182519e+00 -1.0310602050e-03 2.6970591130e+00 -4.6714434147e+00 2.6970591130e+00 4.6714434147e+00 
269500 4.6781182306e+00 -1.0305656072e-03 2.6970782276e+00 -4.6714765221e+00 2.6970782276e+00 4.6714765221e+00 
269600 4.6781182094e+00 -1.0300711890e-03 2.6970973328e+00 -4.6715096134e+00 2.6970973328e+00 4.6715096134e+00 
269700 4.6781181881e+00 -1.0295769504e-03 2.6971164287e+00 -4.6715426885e+00 2.6971164287e+00 4.6715426885e+00 
269800 4.6781181669e+00 -1.0290828914e-03 2.6971355154e+00 -4.6715757476e+00 2.6971355154e+00 4.6715757476e+00 
269900 4.6781181458e+00 -1.0285890120e-03 2.6971545927e+00 -4.6716087905e+00 2.6971545927e+00 4.6716087905e+00 
270000 4.6781181246e+00 -1.0280953123e-03 2.6971736608e+00 -4.6716418174e+00 2.6971736608e+00 4.6716418174e+00 
270100 4.6781181035e+00 -1.0276017922e-03 2.6971927196e+00 -4.6716748281e+00 2.6971927196e+00 4.6716748281e+00 
270200 4.6781180823e+00 -1.0271084518e-03 2.6972117691e+00 -4.6717078228e+00 2.6972117691e+00 4.6717078228e+00 
270300 4.6781180612e+00 -1.0266152910e-03 2.6972308093e+00 -4.6717408014e+00 2.6972308093e+00 4.6717408014e+00 
270400 4.6781180402e+00 -1.0261223100e-03 2.6972498402e+00 -4.6717737640e+00 2.6972498402e+00 4.6717737640e+00 
270500 4.6781180191e+00 -1.0256295087e-03 2.6972688619e+00 -4.6718067105e+00 2.6972688619e+00 4.6718067105e+00 
270600 4.6781179981e+00 -1.0251368871e-03 2.6972878743e+00 -4.6718396409e+00 2.6972878743e+00 4.6718396409e+00 
270700 4.6781179770e+00 -1.0246444453e-03 2.6973068774e+00 -4.6718725553e+00 2.6973068774e+00 4.6718725553e+00 
270800 4.6781179561e+00 -1.0241521832e-03 2.6973258713e+00 -4.6719054536e+00 2.6973258713e+00 4.6719054536e+00 
270900 4.6781179351e+00 -1.0236601009e-03 2.6973448559e+00 -4.6719383359e+00 2.6973448559e+00 4.6719383359e+00 
271000 4.6781179141e+00 -1.0231681984e-03 2.6973638312e+00 -4.6719712022e+00 2.6973638312e+00 4.6719712022e+00 
271100 4.6781178932e+00 -1.0226764756e-03 2.6973827973e+00 -4.6720040524e+00 2.6973827973e+00 4.6720040524e+00 
271200 4.6781178723e+00 -1.0221849328e-03 2.6974017542e+00 -4.6720368867e+00 2.6974017542e+00 4.6720368867e+00 
271300 4.6781178514e+00 -1.0216935697e-03 2.6974207018e+00 -4.6720697049e+00 2.6974207018e+00 4.6720697049e+00 
271400 4.6781178305e+00 -1.0212023865e-03 2.6974396401e+00 -4.6721025071e+00 2.6974396401e+00 4.6721025071e+00 
271500 4.6781178097e+00 -1.0207113831e-03 2.6974585693e+00 -4.6721352933e+00 2.6974585693e+00 4.6721352933e+00 
271600 4.6781177888e+00 -1.0202205597e-03 2.6974774892e+00 -4.6721680635e+00 2.6974774892e+00 4.6721680635e+00 
271700 4.6781177680e+00 -1.0197299161e-03 2.6974963998e+00 -4.6722008177e+00 2.6974963998e+00 4.6722008177e+00 
271800 4.6781177473e+00 -1.0192394524e-03 2.6975153013e+00 -4.6722335560e+00 2.6975153013e+00 4.6722335560e+00 
271900 4.6781177265e+00 -1.0187491687e-03 2.6975341935e+00 -4.6722662783e+00 2.6975341935e+00 4.6722662783e+00 
272000 4.6781177057e+00 -1.0182590648e-03 2.6975530765e+00 -4.6722989846e+00 2.6975530765e+00 4.6722989846e+00 
272100 4.6781176850e+00 -1.0177691410e-03 2.6975719502e+00 -4.6723316749e+00 2.6975719502e+00 4.6723316749e+00 
272200 4.6781176643e+00 -1.0172793970e-03 2.6975908148e+00 -4.6723643493e+00 2.6975908148e+00 4.6723643493e+00 
272300 4.6781176436e+00 -1.0167898331e-03 2.6976096702e+00 -4.6723970077e+00 2.6976096702e+00 4.6723970077e+00 
272400 4.6781176230e+00 -1.0163004491e-03 2.6976285163e+00 -4.6724296502e+00 2.6976285163e+00 4.6724296502e+00 
272500 4.6781176023e+00 -1.0158112451e-03 2.6976473533e+00 -4.6724622767e+00 2.6976473533e+00 4.6724622767e+00 
272600 4.6781175817e+00 -1.0153222212e-03 2.6976661810e+00 -4.6724948874e+00 2.6976661810e+00 4.6724948874e+00 
272700 4.6781175611e+00 -1.0148333772e-03 2.6976849996e+00 -4.6725274820e+00 2.6976849996e+00 4.6725274820e+00 
272800 4.6781175405e+00 -1.0143447133e-03 2.6977038089e+00 -4.6725600608e+00 2.6977038089e+00 4.6725600608e+00 
272900 4.6781175200e+00 -1.0138562294e-03 2.6977226091e+00 -4.6725926237e+00 2.6977226091e+00 4.6725926237e+00 
273000 4.6781174994e+00 -1.0133679256e-03 2.6977414001e+00 -4.6726251706e+00 2.6977414001e+00 4.6726251706e+00 
273100 4.6781174789e+00 -1.0128798019e-03 2.6977601819e+00 -4.6726577017e+00 2.6977601819e+00 4.6726577017e+00 
273200 4.6781174584e+00 -1.0123918583e-03 2.6977789545e+00 -4.6726902168e+00 2.6977789545e+00 4.6726902168e+00 
273300 4.6781174379e+00 -1.0119040947e-03 2.6977977180e+00 -4.6727227161e+00 2.6977977180e+00 4.6727227161e+00 
273400 4.6781174175e+00 -1.0114165113e-03 2.6978164722e+00 -4.6727551994e+00 2.6978164722e+00 4.6727551994e+00 
273500 4.6781173970e+00 -1.0109291079e-03 2.6978352174e+00 -4.6727876669e+00 2.6978352174e+00 4.6727876669e+00 
273600 4.6781173766e+00 -1.0104418847e-03 2.6978539533e+00 -4.6728201185e+00 2.6978539533e+00 4.6728201185e+00 
273700 4.6781173562e+00 -1.0099548417e-03 2.6978726801e+00 -4.6728525543e+00 2.6978726801e+00 4.6728525543e+00 
273800 4.6781173359e+00 -1.0094679788e-03 2.6978913977e+00 -4.6728849742e+00 2.6978913977e+00 4.6728849742e+00 
273900 4.6781173155e+00 -1.0089812960e-03 2.6979101062e+00 -4.6729173782e+00 2.6979101062e+00 4.6729173782e+00 
274000 4.6781172952e+00 -1.0084947935e-03 2.6979288056e+00 -4.6729497664e+00 2.6979288056e+00 4.6729497664e+00 
274100 4.6781172748e+00 -1.0080084711e-03 2.6979474958e+00 -4.6729821388e+00 2.6979474958e+00 4.6729821388e+00 
274200 4.6781172546e+00 -1.0075223289e-03 2.6979661768e+00 -4.6730144953e+00 2.6979661768e+00 4.6730144953e+00 
274300 4.6781172343e+00 -1.0070363669e-03 2.6979848487e+00 -4.6730468360e+00 2.6979848487e+00 4.6730468360e+00 
274400 4.6781172140e+00 -1.0065505852e-03 2.6980035115e+00 -4.6730791609e+00 2.6980035115e+00 4.6730791609e+00 
274500 4.6781171938e+00 -1.0060649836e-03 2.6980221651e+00 -4.6731114699e+00 2.6980221651e+00 4.6731114699e+00 
274600 4.6781171736e+00 -1.0055795623e-03 2.6980408096e+00 -4.6731437632e+00 2.6980408096e+00 4.6731437632e+00 
274700 4.6781171534e+00 -1.0050943213e-03 2.6980594450e+00 -4.6731760406e+00 2.6980594450e+00 4.6731760406e+00 
274800 4.6781171332e+00 -1.0046092605e-03 2.6980780713e+00 -4.6732083022e+00 2.6980780713e+00 4.6732083022e+00 
274900 4.6781171131e+00 -1.0041243800e-03 2.6980966884e+00 -4.6732405481e+00 2.6980966884e+00 4.6732405481e+00 
275000 4.6781170929e+00 -1.0036396797e-03 2.6981152965e+00 -4.6732727782e+00 2.6981152965e+00 4.6732727782e+00 
275100 4.6781170728e+00 -1.0031551598e-03 2.6981338954e+00 -4.6733049924e+00 2.6981338954e+00 4.6733049924e+00 
275200 4.6781170527e+00 -1.0026708201e-03 2.6981524852e+00 -4.6733371909e+00 2.6981524852e+00 4.6733371909e+00 
275300 4.6781170326e+00 -1.0021866607e-03 2.6981710659e+00 -4.6733693737e+00 2.6981710659e+00 4.6733693737e+00 
275400 4.6781170126e+00 -1.0017026817e-03 2.6981896375e+00 -4.6734015407e+00 2.6981896375e+00 4.6734015407e+00 
275500 4.6781169926e+00 -1.0012188830e-03 2.6982082001e+00 -4.6734336919e+00 2.6982082001e+00 4.6734336919e+00 
275600 4.6781169725e+00 -1.0007352646e-03 2.6982267535e+00 -4.6734658274e+00 2.6982267535e+00 4.6734658274e+00 
275700 4.6781169526e+00 -1.0002518266e-03 2.6982452978e+00 -4.6734979471e+00 2.6982452978e+00 4.6734979471e+00 
275800 4.6781169326e+00 -9.9976856890e-04 2.6982638331e+00 -4.6735300511e+00 2.6982638331e+00 4.6735300511e+00 
275900 4.6781169126e+00 -9.9928549157e-04 2.6982823592e+00 -4.6735621393e+00 2.6982823592e+00 4.6735621393e+00 
276000 4.6781168927e+00 -9.9880259462e-04 2.6983008763e+00 -4.6735942119e+00 2.6983008763e+00 4.6735942119e+00 
276100 4.6781168728e+00 -9.9831987804e-04 2.6983193843e+00 -4.6736262687e+00 2.6983193843e+00 4.6736262687e+00 
276200 4.6781168529e+00 -9.9783734185e-04 2.6983378833e+00 -4.6736583098e+00 2.6983378833e+00 4.6736583098e+00 
276300 4.6781168330e+00 -9.9735498605e-04 2.6983563731e+00 -4.6736903352e+00 2.6983563731e+00 4.6736903352e+00 
276400 4.6781168132e+00 -9.9687281065e-04 2.6983748539e+00 -4.6737223449e+00 2.6983748539e+00 4.6737223449e+00 
276500 4.6781167933e+00 -9.9639081566e-04 2.6983933257e+00 -4.6737543389e+00 2.6983933257e+00 4.6737543389e+00 
276600 4.6781167735e+00 -9.9590900109e-04 2.6984117884e+00 -4.6737863172e+00 2.6984117884e+00 4.6737863172e+00 
276700 4.6781167537e+00 -9.9542736694e-04 2.6984302420e+00 -4.6738182799e+00 2.6984302420e+00 4.6738182799e+00 
276800 4.6781167339e+00 -9.9494591323e-04 2.6984486866e+00 -4.6738502268e+00 2.6984486866e+00 4.6738502268e+00 
276900 4.6781167142e+00 -9.9446463996e-04 2.6984671221e+00 -4.6738821581e+00 2.6984671221e+00 4.6738821581e+00 
277000 4.6781166945e+00 -9.9398354713e-04 2.6984855486e+00 -4.6739140737e+00 2.6984855486e+00 4.6739140737e+00 
277100 4.6781166747e+00 -9.9350263476e-04 2.6985039661e+00 -4.6739459737e+00 2.6985039661e+00 4.6739459737e+00 
277200 4.6781166550e+00 -9.9302190285e-04 2.6985223745e+00 -4.6739778580e+00 2.6985223745e+00 4.6739778580e+00 
277300 4.6781166354e+00 -9.9254135141e-04 2.6985407739e+00 -4.6740097267e+00 2.6985407739e+00 4.6740097267e+00 
277400 4.6781166157e+00 -9.9206098045e-04 2.6985591642e+00 -4.6740415797e+00 2.6985591642e+00 4.6740415797e+00 
277500 4.6781165961e+00 -9.9158078996e-04 2.6985775456e+00 -4.6740734171e+00 2.6985775456e+00 4.6740734171e+00 
277600 4.6781165765e+00 -9.9110077997e-04 2.6985959179e+00 -4.6741052389e+00 2.6985959179e+00 4.6741052389e+00 
277700 4.6781165569e+00 -9.9062095047e-04 2.6986142812e+00 -4.6741370450e+00 2.6986142812e+00 4.6741370450e+00 
277800 4.6781165373e+00 -9.9014130147e-04 2.6986326354e+00 -4.6741688356e+00 2.6986326354e+00 4.6741688356e+00 
277900 4.6781165177e+00 -9.8966183299e-04 2.6986509807e+00 -4.6742006105e+00 2.6986509807e+00 4.6742006105e+00 
278000 4.6781164982e+00 -9.8918254501e-04 2.6986693170e+00 -4.6742323698e+00 2.6986693170e+00 4.6742323698e+00 
278100 4.6781164787e+00 -9.8870343756e-04 2.6986876442e+00 -4.6742641135e+00 2.6986876442e+00 4.6742641135e+00 
278200 4.6781164592e+00 -9.8822451063e-04 2.6987059625e+00 -4.6742958417e+00 2.6987059625e+00 4.6742958417e+00 
278300 4.6781164397e+00 -9.8774576423e-04 2.6987242717e+00 -4.6743275542e+00 2.6987242717e+00 4.6743275542e+00 
278400 4.6781164202e+00 -9.8726719837e-04 2.6987425720e+00 -4.6743592512e+00 2.6987425720e+00 4.6743592512e+00 
278500 4.6781164008e+00 -9.8678881306e-04 2.6987608632e+00 -4.6743909326e+00 2.6987608632e+00 4.6743909326e+00 
278600 4.6781163814e+00 -9.8631060829e-04 2.6987791455e+00 -4.6744225984e+00 2.6987791455e+00 4.6744225984e+00 
278700 4.6781163620e+00 -9.8583258408e-04 2.6987974188e+00 -4.6744542487e+00 2.6987974188e+00 4.6744542487e+00 
278800 4.6781163426e+00 -9.8535474042e-04 2.6988156831e+00 -4.6744858834e+00 2.6988156831e+00 4.6744858834e+00 
278900 4.6781163232e+00 -9.8487707733e-04 2.6988339385e+00 -4.6745175026e+00 2.6988339385e+00 4.6745175026e+00 
279000 4.6781163039e+00 -9.8439959481e-04 2.6988521848e+00 -4.6745491062e+00 2.6988521848e+00 4.6745491062e+00 
279100 4.6781162846e+00 -9.8392229286e-04 2.6988704222e+00 -4.6745806943e+00 2.6988704222e+00 4.6745806943e+00 
279200 4.6781162653e+00 -9.8344517149e-04 2.6988886506e+00 -4.6746122669e+00 2.6988886506e+00 4.6746122669e+00 
279300 4.6781162460e+00 -9.8296823071e-04 2.6989068701e+00 -4.6746438239e+00 2.6989068701e+00 4.6746438239e+00 
279400 4.6781162267e+00 -9.8249147051e-04 2.6989250806e+00 -4.6746753655e+00 2.6989250806e+00 4.6746753655e+00 
279500 4.6781162075e+00 -9.8201489090e-04 2.6989432822e+00 -4.6747068915e+00 2.6989432822e+00 4.6747068915e+00 
279600 4.6781161882e+00 -9.8153849189e-04 2.6989614748e+00 -4.6747384020e+00 2.6989614748e+00 4.6747384020e+00 
279700 4.6781161690e+00 -9.8106227347e-04 2.6989796584e+00 -4.6747698970e+00 2.6989796584e+00 4.6747698970e+00 
279800 4.6781161498e+00 -9.8058623567e-04 2.6989978331e+00 -4.6748013765e+00 2.6989978331e+00 4.6748013765e+00 
279900 4.6781161307e+00 -9.8011037847e-04 2.6990159989e+00 -4.6748328405e+00 2.6990159989e+00 4.6748328405e+00 
280000 4.6781161115e+00 -9.7963470188e-04 2.6990341557e+00 -4.6748642891e+00 2.6990341557e+00 4.6748642891e+00 
280100 4.6781160924e+00 -9.7915920591e-04 2.6990523036e+00 -4.6748957222e+00 2.6990523036e+00 4.6748957222e+00 
280200 4.6781160733e+00 -9.7868389055e-04 2.6990704426e+00 -4.6749271398e+00 2.6990704426e+00 4.6749271398e+00 
280300 4.6781160542e+00 -9.7820875582e-04 2.6990885726e+00 -4.6749585419e+00 2.6990885726e+00 4.6749585419e+00 
280400 4.6781160351e+00 -9.7773380171e-04 2.6991066937e+00 -4.6749899286e+00 2.6991066937e+00 4.6749899286e+00 
280500 4.6781160160e+00 -9.7725902824e-04 2.6991248059e+00 -4.6750212999e+00 2.6991248059e+00 4.6750212999e+00 
280600 4.6781159970e+00 -9.7678443539e-04 2.6991429092e+00 -4.6750526557e+00 2.6991429092e+00 4.6750526557e+00 
280700 4.6781159780e+00 -9.7631002318e-04 2.6991610036e+00 -4.6750839960e+00 2.6991610036e+00 4.6750839960e+00 
280800 4.6781159590e+00 -9.7583579161e-04 2.6991790890e+00 -4.6751153209e+00 2.6991790890e+00 4.6751153209e+00 
280900 4.6781159400e+00 -9.7536174067e-04 2.6991971656e+00 -4.6751466304e+00 2.6991971656e+00 4.6751466304e+00 
281000 4.6781159211e+00 -9.7488787038e-04 2.6992152332e+00 -4.6751779245e+00 2.6992152332e+00 4.6751779245e+00 
281100 4.6781159021e+00 -9.7441418074e-04 2.6992332920e+00 -4.6752092032e+00 2.6992332920e+00 4.6752092032e+00 
281200 4.6781158832e+00 -9.7394067174e-04 2.6992513418e+00 -4.6752404665e+00 2.6992513418e+00 4.6752404665e+00 
281300 4.6781158643e+00 -9.7346734339e-04 2.6992693828e+00 -4.6752717143e+00 2.6992693828e+00 4.6752717143e+00 
281400 4.6781158454e+00 -9.7299419570e-04 2.6992874149e+00 -4.6753029468e+00 2.6992874149e+00 4.6753029468e+00 
281500 4.6781158265e+00 -9.7252122866e-04 2.6993054381e+00 -4.6753341639e+00 2.6993054381e+00 4.6753341639e+00 
281600 4.6781158077e+00 -9.7204844227e-04 2.6993234524e+00 -4.6753653656e+00 2.6993234524e+00 4.6753653656e+00 
281700 4.6781157889e+00 -9.7157583654e-04 2.6993414578e+00 -4.6753965519e+00 2.6993414578e+00 4.6753965519e+00 
281800 4.6781157701e+00 -9.7110341147e-04 2.6993594543e+00 -4.6754277228e+00 2.6993594543e+00 4.6754277228e+00 
281900 4.6781157513e+00 -9.7063116706e-04 2.6993774420e+00 -4.6754588784e+00 2.6993774420e+00 4.6754588784e+00 
282000 4.6781157325e+00 -9.7015910332e-04 2.6993954208e+00 -4.6754900186e+00 2.6993954208e+00 4.6754900186e+00 
282100 4.6781157138e+00 -9.6968722023e-04 2.6994133908e+00 -4.6755211435e+00 2.6994133908e+00 4.6755211435e+00 
282200 4.6781156950e+00 -9.6921551782e-04 2.6994313519e+00 -4.6755522530e+00 2.6994313519e+00 4.6755522530e+00 
282300 4.6781156763e+00 -9.6874399606e-04 2.6994493041e+00 -4.6755833472e+00 2.6994493041e+00 4.6755833472e+00 
282400 4.6781156576e+00 -9.6827265498e-04 2.6994672475e+00 -4.6756144261e+00 2.6994672475e+00 4.6756144261e+00 
282500 4.6781156389e+00 -9.6780149456e-04 2.6994851820e+00 -4.6756454896e+00 2.6994851820e+00 4.6756454896e+00 
282600 4.6781156203e+00 -9.6733051481e-04 2.6995031077e+00 -4.6756765378e+00 2.6995031077e+00 4.6756765378e+00 
282700 4.6781156016e+00 -9.6685971573e-04 2.6995210246e+00 -4.6757075707e+00 2.6995210246e+00 4.6757075707e+00 
282800 4.6781155830e+00 -9.6638909732e-04 2.6995389326e+00 -4.6757385882e+00 2.6995389326e+00 4.6757385882e+00 
282900 4.6781155644e+00 -9.6591865958e-04 2.6995568318e+00 -4.6757695905e+00 2.6995568318e+00 4.6757695905e+00 
283000 4.6781155458e+00 -9.6544840251e-04 2.6995747221e+00 -4.6758005775e+00 2.6995747221e+00 4.6758005775e+00 
283100 4.6781155273e+00 -9.6497832611e-04 2.6995926036e+00 -4.6758315492e+00 2.6995926036e+00 4.6758315492e+00 
283200 4.6781155087e+00 -9.6450843037e-04 2.6996104763e+00 -4.6758625056e+00 2.6996104763e+00 4.6758625056e+00 
283300 4.6781154902e+00 -9.6403871531e-04 2.6996283402e+00 -4.6758934467e+00 2.6996283402e+00 4.6758934467e+00 
283400 4.6781154717e+00 -9.6356918092e-04 2.6996461952e+00 -4.6759243725e+00 2.6996461952e+00 4.6759243725e+00 
283500 4.6781154532e+00 -9.6309982720e-04 2.6996640414e+00 -4.6759552831e+00 2.6996640414e+00 4.6759552831e+00 
283600 4.6781154347e+00 -9.6263065415e-04 2.6996818789e+00 -4.6759861784e+00 2.6996818789e+00 4.6759861784e+00 
283700 4.6781154163e+00 -9.6216166177e-04 2.6996997075e+00 -4.6760170585e+00 2.6996997075e+00 4.6760170585e+00 
283800 4.6781153978e+00 -9.6169285006e-04 2.6997175273e+00 -4.6760479233e+00 2.6997175273e+00 4.6760479233e+00 
283900 4.6781153794e+00 -9.6122421901e-04 2.6997353383e+00 -4.6760787729e+00 2.6997353383e+00 4.6760787729e+00 
284000 4.6781153610e+00 -9.6075576863e-04 2.6997531405e+00 -4.6761096072e+00 2.6997531405e+00 4.6761096072e+00 
284100 4.6781153427e+00 -9.6028749892e-04 2.6997709339e+00 -4.6761404263e+00 2.6997709339e+00 4.6761404263e+00 
284200 4.6781153243e+00 -9.5981940987e-04 2.6997887186e+00 -4.6761712302e+00 2.6997887186e+00 4.6761712302e+00 
284300 4.6781153060e+00 -9.5935150148e-04 2.6998064944e+00 -4.6762020189e+00 2.6998064944e+00 4.6762020189e+00 
284400 4.6781152876e+00 -9.5888377376e-04 2.6998242615e+00 -4.6762327924e+00 2.6998242615e+00 4.6762327924e+00 
284500 4.6781152693e+00 -9.5841622669e-04 2.6998420197e+00 -4.6762635506e+00 2.6998420197e+00 4.6762635506e+00 
284600 4.6781152510e+00 -9.5794886029e-04 2.6998597692e+00 -4.6762942936e+00 2.6998597692e+00 4.6762942936e+00 
284700 4.6781152328e+00 -9.5748167454e-04 2.6998775100e+00 -4.6763250215e+00 2.6998775100e+00 4.6763250215e+00 
284800 4.6781152145e+00 -9.5701466945e-04 2.6998952419e+00 -4.6763557342e+00 2.6998952419e+00 4.6763557342e+00 
284900 4.6781151963e+00 -9.5654784501e-04 2.6999129651e+00 -4.6763864316e+00 2.6999129651e+00 4.6763864316e+00 
285000 4.6781151781e+00 -9.5608120123e-04 2.6999306796e+00 -4.6764171140e+00 2.6999306796e+00 4.6764171140e+00 
285100 4.6781151599e+00 -9.5561473809e-04 2.6999483853e+00 -4.6764477811e+00 2.6999483853e+00 4.6764477811e+00 
285200 4.6781151417e+00 -9.5514845560e-04 2.6999660822e+00 -4.6764784331e+00 2.6999660822e+00 4.6764784331e+00 
285300 4.6781151236e+00 -9.5468235376e-04 2.6999837704e+00 -4.6765090699e+00 2.6999837704e+00 4.6765090699e+00 
285400 4.6781151054e+00 -9.5421643256e-04 2.7000014498e+00 -4.6765396916e+00 2.7000014498e+00 4.6765396916e+00 
285500 4.6781150873e+00 -9.5375069200e-04 2.7000191205e+00 -4.6765702981e+00 2.7000191205e+00 4.6765702981e+00 
285600 4.6781150692e+00 -9.5328513207e-04 2.7000367824e+00 -4.6766008895e+00 2.7000367824e+00 4.6766008895e+00 
285700 4.6781150511e+00 -9.5281975279e-04 2.7000544356e+00 -4.6766314657e+00 2.7000544356e+00 4.6766314657e+00 
285800 4.6781150330e+00 -9.5235455413e-04 2.7000720801e+00 -4.6766620268e+00 2.7000720801e+00 4.6766620268e+00 
285900 4.6781150150e+00 -9.5188953610e-04 2.7000897159e+00 -4.6766925729e+00 2.7000897159e+00 4.6766925729e+00 
286000 4.6781149970e+00 -9.5142469870e-04 2.7001073429e+00 -4.6767231037e+00 2.7001073429e+00 4.6767231037e+00 
286100 4.6781149790e+00 -9.5096004192e-04 2.7001249612e+00 -4.6767536195e+00 2.7001249612e+00 4.6767536195e+00 
286200 4.6781149610e+00 -9.5049556577e-04 2.7001425707e+00 -4.6767841202e+00 2.7001425707e+00 4.6767841202e+00 
286300 4.6781149430e+00 -9.5003127022e-04 2.7001601716e+00 -4.6768146058e+00 2.7001601716e+00 4.6768146058e+00 
286400 4.6781149250e+00 -9.4956715529e-04 2.7001777637e+00 -4.6768450763e+00 2.7001777637e+00 4.6768450763e+00 
286500 4.6781149071e+00 -9.4910322097e-04 2.7001953472e+00 -4.6768755317e+00 2.7001953472e+00 4.6768755317e+00 
286600 4.6781148892e+00 -9.4863946725e-04 2.7002129219e+00 -4.6769059720e+00 2.7002129219e+00 4.6769059720e+00 
286700 4.6781148713e+00 -9.4817589414e-04 2.7002304879e+00 -4.6769363973e+00 2.7002304879e+00 4.6769363973e+00 
286800 4.6781148534e+00 -9.4771250162e-04 2.7002480453e+00 -4.6769668075e+00 2.7002480453e+00 4.6769668075e+00 
286900 4.6781148355e+00 -9.4724928970e-04 2.7002655939e+00 -4.6769972026e+00 2.7002655939e+00 4.6769972026e+00 
287000 4.6781148177e+00 -9.4678625836e-04 2.7002831339e+00 -4.6770275827e+00 2.7002831339e+00 4.6770275827e+00 
287100 4.6781147998e+00 -9.4632340761e-04 2.7003006651e+00 -4.6770579477e+00 2.7003006651e+00 4.6770579477e+00 
287200 4.6781147820e+00 -9.4586073744e-04 2.7003181877e+00 -4.6770882977e+00 2.7003181877e+00 4.6770882977e+00 
287300 4.6781147642e+00 -9.4539824784e-04 2.7003357016e+00 -4.6771186327e+00 2.7003357016e+00 4.6771186327e+00 
287400 4.6781147464e+00 -9.4493593882e-04 2.7003532068e+00 -4.6771489526e+00 2.7003532068e+00 4.6771489526e+00 
287500 4.6781147287e+00 -9.4447381036e-04 2.7003707034e+00 -4.6771792575e+00 2.7003707034e+00 4.6771792575e+00 
287600 4.6781147109e+00 -9.4401186246e-04 2.7003881912e+00 -4.6772095474e+00 2.7003881912e+00 4.6772095474e+00 
287700 4.6781146932e+00 -9.4355009512e-04 2.7004056704e+00 -4.6772398222e+00 2.7004056704e+00 4.6772398222e+00 
287800 4.6781146755e+00 -9.4308850834e-04 2.7004231410e+00 -4.6772700821e+00 2.7004231410e+00 4.6772700821e+00 
287900 4.6781146578e+00 -9.4262710209e-04 2.7004406029e+00 -4.6773003270e+00 2.7004406029e+00 4.6773003270e+00 
288000 4.6781146402e+00 -9.4216587639e-04 2.7004580561e+00 -4.6773305569e+00 2.7004580561e+00 4.6773305569e+00 
288100 4.6781146225e+00 -9.4170483123e-04 2.7004755007e+00 -4.6773607718e+00 2.7004755007e+00 4.6773607718e+00 
288200 4.6781146049e+00 -9.4124396659e-04 2.7004929366e+00 -4.6773909717e+00 2.7004929366e+00 4.6773909717e+00 
288300 4.6781145872e+00 -9.4078328248e-04 2.7005103639e+00 -4.6774211566e+00 2.7005103639e+00 4.6774211566e+00 
288400 4.6781145696e+00 -9.4032277889e-04 2.7005277825e+00 -4.6774513266e+00 2.7005277825e+00 4.6774513266e+00 
288500 4.6781145521e+00 -9.3986245581e-04 2.7005451925e+00 -4.6774814816e+00 2.7005451925e+00 4.6774814816e+00 
288600 4.6781145345e+00 -9.3940231324e-04 2.7005625939e+00 -4.6775116216e+00 2.7005625939e+00 4.6775116216e+00 
288700 4.6781145170e+00 -9.3894235117e-04 2.7005799866e+00 -4.6775417467e+00 2.7005799866e+00 4.6775417467e+00 
288800 4.6781144994e+00 -9.3848256960e-04 2.7005973707e+00 -4.6775718569e+00 2.7005973707e+00 4.6775718569e+00 
288900 4.6781144819e+00 -9.3802296851e-04 2.7006147462e+00 -4.6776019521e+00 2.7006147462e+00 4.6776019521e+00 
289000 4.6781144644e+00 -9.3756354791e-04 2.7006321131e+00 -4.6776320324e+00 2.7006321131e+00 4.6776320324e+00 
289100 4.6781144469e+00 -9.3710430778e-04 2.7006494713e+00 -4.6776620977e+00 2.7006494713e+00 4.6776620977e+00 
289200 4.6781144295e+00 -9.3664524812e-04 2.7006668209e+00 -4.6776921482e+00 2.7006668209e+00 4.6776921482e+00 
289300 4.6781144121e+00 -9.3618636893e-04 2.7006841620e+00 -4.6777221837e+00 2.7006841620e+00 4.6777221837e+00 
289400 4.6781143946e+00 -9.3572767019e-04 2.7007014944e+00 -4.6777522043e+00 2.7007014944e+00 4.6777522043e+00 
289500 4.6781143772e+00 -9.3526915190e-04 2.7007188182e+00 -4.6777822100e+00 2.7007188182e+00 4.6777822100e+00 
289600 4.6781143598e+00 -9.3481081405e-04 2.7007361334e+00 -4.6778122008e+00 2.7007361334e+00 4.6778122008e+00 
289700 4.6781143425e+00 -9.3435265664e-04 2.7007534400e+00 -4.6778421768e+00 2.7007534400e+00 4.6778421768e+00 
289800 4.6781143251e+00 -9.3389467965e-04 2.7007707380e+00 -4.6778721378e+00 2.7007707380e+00 4.6778721378e+00 
289900 4.6781143078e+00 -9.3343688309e-04 2.7007880274e+00 -4.6779020840e+00 2.7007880274e+00 4.6779020840e+00 
290000 4.6781142905e+00 -9.3297926694e-04 2.7008053083e+00 -4.6779320153e+00 2.7008053083e+00 4.6779320153e+00 
290100 4.6781142732e+00 -9.3252183119e-04 2.7008225805e+00 -4.6779619317e+00 2.7008225805e+00 4.6779619317e+00 
290200 4.6781142559e+00 -9.3206457585e-04 2.7008398442e+00 -4.6779918333e+00 2.7008398442e+00 4.6779918333e+00 
290300 4.6781142386e+00 -9.3160750089e-04 2.7008570993e+00 -4.6780217200e+00 2.7008570993e+00 4.6780217200e+00 
290400 4.6781142214e+00 -9.3115060632e-04 2.7008743459e+00 -4.6780515919e+00 2.7008743459e+00 4.6780515919e+00 
290500 4.6781142041e+00 -9.3069389212e-04 2.7008915838e+00 -4.6780814489e+00 2.7008915838e+00 4.6780814489e+00 
290600 4.6781141869e+00 -9.3023735828e-04 2.7009088132e+00 -4.6781112911e+00 2.7009088132e+00 4.6781112911e+00 
290700 4.6781141697e+00 -9.2978100481e-04 2.7009260341e+00 -4.6781411185e+00 2.7009260341e+00 4.6781411185e+00 
290800 4.6781141526e+00 -9.2932483169e-04 2.7009432464e+00 -4.6781709310e+00 2.7009432464e+00 4.6781709310e+00 
290900 4.6781141354e+00 -9.2886883890e-04 2.7009604501e+00 -4.6782007288e+00 2.7009604501e+00 4.6782007288e+00 
291000 4.6781141182e+00 -9.2841302646e-04 2.7009776453e+00 -4.6782305117e+00 2.7009776453e+00 4.6782305117e+00 
291100 4.6781141011e+00 -9.2795739433e-04 2.7009948319e+00 -4.6782602798e+00 2.7009948319e+00 4.6782602798e+00 
291200 4.6781140840e+00 -9.2750194253e-04 2.7010120100e+00 -4.6782900331e+00 2.7010120100e+00 4.6782900331e+00 
291300 4.6781140669e+00 -9.2704667103e-04 2.7010291795e+00 -4.6783197716e+00 2.7010291795e+00 4.6783197716e+00 
291400 4.6781140498e+00 -9.2659157982e-04 2.7010463405e+00 -4.6783494954e+00 2.7010463405e+00 4.6783494954e+00 
291500 4.6781140328e+00 -9.2613666891e-04 2.7010634930e+00 -4.6783792043e+00 2.7010634930e+00 4.6783792043e+00 
291600 4.6781140157e+00 -9.2568193828e-04 2.7010806369e+00 -4.6784088985e+00 2.7010806369e+00 4.6784088985e+00 
291700 4.6781139987e+00 -9.2522738792e-04 2.7010977724e+00 -4.6784385779e+00 2.7010977724e+00 4.6784385779e+00 
291800 4.6781139817e+00 -9.2477301783e-04 2.7011148993e+00 -4.6784682426e+00 2.7011148993e+00 4.6784682426e+00 
291900 4.6781139647e+00 -9.2431882798e-04 2.7011320176e+00 -4.6784978925e+00 2.7011320176e+00 4.6784978925e+00 
292000 4.6781139478e+00 -9.2386481838e-04 2.7011491275e+00 -4.6785275276e+00 2.7011491275e+00 4.6785275276e+00 
292100 4.6781139308e+00 -9.2341098902e-04 2.7011662288e+00 -4.6785571480e+00 2.7011662288e+00 4.6785571480e+00 
292200 4.6781139139e+00 -9.2295733987e-04 2.7011833217e+00 -4.6785867537e+00 2.7011833217e+00 4.6785867537e+00 
292300 4.6781138970e+00 -9.2250387094e-04 2.7012004060e+00 -4.6786163446e+00 2.7012004060e+00 4.6786163446e+00 
292400 4.6781138801e+00 -9.2205058222e-04 2.7012174818e+00 -4.6786459208e+00 2.7012174818e+00 4.6786459208e+00 
292500 4.6781138632e+00 -9.2159747369e-04 2.7012345492e+00 -4.6786754823e+00 2.7012345492e+00 4.6786754823e+00 
292600 4.6781138463e+00 -9.2114454535e-04 2.7012516080e+00 -4.6787050291e+00 2.7012516080e+00 4.6787050291e+00 
292700 4.6781138294e+00 -9.2069179718e-04 2.7012686584e+00 -4.6787345612e+00 2.7012686584e+00 4.6787345612e+00 
292800 4.6781138126e+00 -9.2023922917e-04 2.7012857002e+00 -4.6787640785e+00 2.7012857002e+00 4.6787640785e+00 
292900 4.6781137958e+00 -9.1978684132e-04 2.7013027336e+00 -4.6787935812e+00 2.7013027336e+00 4.6787935812e+00 
293000 4.6781137790e+00 -9.1933463361e-04 2.7013197585e+00 -4.6788230692e+00 2.7013197585e+00 4.6788230692e+00 
293100 4.6781137622e+00 -9.1888260603e-04 2.7013367749e+00 -4.6788525425e+00 2.7013367749e+00 4.6788525425e+00 
293200 4.6781137454e+00 -9.1843075857e-04 2.7013537828e+00 -4.6788820011e+00 2.7013537828e+00 4.6788820011e+00 
293300 4.6781137287e+00 -9.1797909123e-04 2.7013707823e+00 -4.6789114450e+00 2.7013707823e+00 4.6789114450e+00 
293400 4.6781137120e+00 -9.1752760399e-04 2.7013877733e+00 -4.6789408743e+00 2.7013877733e+00 4.6789408743e+00 
293500 4.6781136952e+00 -9.1707629683e-04 2.7014047559e+00 -4.6789702890e+00 2.7014047559e+00 4.6789702890e+00 
293600 4.6781136785e+00 -9.1662516975e-04 2.7014217299e+00 -4.6789996889e+00 2.7014217299e+00 4.6789996889e+00 
293700 4.6781136619e+00 -9.1617422274e-04 2.7014386956e+00 -4.6790290742e+00 2.7014386956e+00 4.6790290742e+00 
293800 4.6781136452e+00 -9.1572345579e-04 2.7014556527e+00 -4.6790584449e+00 2.7014556527e+00 4.6790584449e+00 
293900 4.6781136286e+00 -9.1527286888e-04 2.7014726015e+00 -4.6790878010e+00 2.7014726015e+00 4.6790878010e+00 
294000 4.6781136119e+00 -9.1482246200e-04 2.7014895417e+00 -4.6791171424e+00 2.7014895417e+00 4.6791171424e+00 
294100 4.6781135953e+00 -9.1437223514e-04 2.7015064736e+00 -4.6791464692e+00 2.7015064736e+00 4.6791464692e+00 
294200 4.6781135787e+00 -9.1392218830e-04 2.7015233970e+00 -4.6791757814e+00 2.7015233970e+00 4.6791757814e+00 
294300 4.6781135621e+00 -9.1347232145e-04 2.7015403119e+00 -4.6792050789e+00 2.7015403119e+00 4.6792050789e+00 
294400 4.6781135456e+00 -9.1302263458e-04 2.7015572184e+00 -4.6792343619e+00 2.7015572184e+00 4.6792343619e+00 
294500 4.6781135290e+00 -9.1257312769e-04 2.7015741165e+00 -4.6792636303e+00 2.7015741165e+00 4.6792636303e+00 
294600 4.6781135125e+00 -9.1212380077e-04 2.7015910062e+00 -4.6792928840e+00 2.7015910062e+00 4.6792928840e+00 
294700 4.6781134960e+00 -9.1167465379e-04 2.7016078875e+00 -4.6793221232e+00 2.7016078875e+00 4.6793221232e+00 
294800 4.6781134795e+00 -9.1122568674e-04 2.7016247603e+00 -4.6793513478e+00 2.7016247603e+00 4.6793513478e+00 
294900 4.6781134630e+00 -9.1077689963e-04 2.7016416247e+00 -4.6793805579e+00 2.7016416247e+00 4.6793805579e+00 
295000 4.6781134465e+00 -9.1032829242e-04 2.7016584807e+00 -4.6794097533e+00 2.7016584807e+00 4.6794097533e+00 
295100 4.6781134301e+00 -9.0987986512e-04 2.7016753283e+00 -4.6794389342e+00 2.7016753283e+00 4.6794389342e+00 
295200 4.6781134137e+00 -9.0943161770e-04 2.7016921675e+00 -4.6794681006e+00 2.7016921675e+00 4.6794681006e+00 
295300 4.6781133972e+00 -9.0898355016e-04 2.7017089983e+00 -4.6794972524e+00 2.7017089983e+00 4.6794972524e+00 
295400 4.6781133809e+00 -9.0853566248e-04 2.7017258207e+00 -4.6795263896e+00 2.7017258207e+00 4.6795263896e+00 
295500 4.6781133645e+00 -9.0808795464e-04 2.7017426347e+00 -4.6795555123e+00 2.7017426347e+00 4.6795555123e+00 
295600 4.6781133481e+00 -9.0764042665e-04 2.7017594403e+00 -4.6795846205e+00 2.7017594403e+00 4.6795846205e+00 
295700 4.6781133318e+00 -9.0719307847e-04 2.7017762376e+00 -4.6796137141e+00 2.7017762376e+00 4.6796137141e+00 
295800 4.6781133154e+00 -9.0674591011e-04 2.7017930264e+00 -4.6796427933e+00 2.7017930264e+00 4.6796427933e+00 
295900 4.6781132991e+00 -9.0629892154e-04 2.7018098069e+00 -4.6796718579e+00 2.7018098069e+00 4.6796718579e+00 
296000 4.6781132828e+00 -9.0585211275e-04 2.7018265790e+00 -4.6797009080e+00 2.7018265790e+00 4.6797009080e+00 
296100 4.6781132665e+00 -9.0540548373e-04 2.7018433427e+00 -4.6797299436e+00 2.7018433427e+00 4.6797299436e+00 
296200 4.6781132503e+00 -9.0495903446e-04 2.7018600980e+00 -4.6797589647e+00 2.7018600980e+00 4.6797589647e+00 
296300 4.6781132340e+00 -9.0451276494e-04 2.7018768450e+00 -4.6797879713e+00 2.7018768450e+00 4.6797879713e+00 
296400 4.6781132178e+00 -9.0406667515e-04 2.7018935836e+00 -4.6798169635e+00 2.7018935836e+00 4.6798169635e+00 
296500 4.6781132016e+00 -9.0362076506e-04 2.7019103139e+00 -4.6798459411e+00 2.7019103139e+00 4.6798459411e+00 
296600 4.6781131854e+00 -9.0317503468e-04 2.7019270358e+00 -4.6798749043e+00 2.7019270358e+00 4.6798749043e+00 
296700 4.6781131692e+00 -9.0272948399e-04 2.7019437493e+00 -4.6799038530e+00 2.7019437493e+00 4.6799038530e+00 
296800 4.6781131530e+00 -9.0228411296e-04 2.7019604545e+00 -4.6799327873e+00 2.7019604545e+00 4.6799327873e+00 
296900 4.6781131369e+00 -9.0183892159e-04 2.7019771514e+00 -4.6799617071e+00 2.7019771514e+00 4.6799617071e+00 
297000 4.6781131207e+00 -9.0139390986e-04 2.7019938399e+00 -4.6799906125e+00 2.7019938399e+00 4.6799906125e+00 
297100 4.6781131046e+00 -9.0094907777e-04 2.7020105201e+00 -4.6800195034e+00 2.7020105201e+00 4.6800195034e+00 
297200 4.6781130885e+00 -9.0050442528e-04 2.7020271919e+00 -4.6800483799e+00 2.7020271919e+00 4.6800483799e+00 
297300 4.6781130724e+00 -9.0005995240e-04 2.7020438555e+00 -4.6800772419e+00 2.7020438555e+00 4.6800772419e+00 
297400 4.6781130564e+00 -8.9961565909e-04 2.7020605106e+00 -4.6801060896e+00 2.7020605106e+00 4.6801060896e+00 
297500 4.6781130403e+00 -8.9917154536e-04 2.7020771575e+00 -4.6801349228e+00 2.7020771575e+00 4.6801349228e+00 
297600 4.6781130243e+00 -8.9872761118e-04 2.7020937960e+00 -4.6801637416e+00 2.7020937960e+00 4.6801637416e+00 
297700 4.6781130083e+00 -8.9828385654e-04 2.7021104263e+00 -4.6801925460e+00 2.7021104263e+00 4.6801925460e+00 
297800 4.6781129923e+00 -8.9784028143e-04 2.7021270482e+00 -4.6802213360e+00 2.7021270482e+00 4.6802213360e+00 
297900 4.6781129763e+00 -8.9739688582e-04 2.7021436618e+00 -4.6802501116e+00 2.7021436618e+00 4.6802501116e+00 
298000 4.6781129603e+00 -8.9695366970e-04 2.7021602671e+00 -4.6802788728e+00 2.7021602671e+00 4.6802788728e+00 
298100 4.6781129444e+00 -8.9651063307e-04 2.7021768641e+00 -4.6803076196e+00 2.7021768641e+00 4.6803076196e+00 
298200 4.6781129284e+00 -8.9606777589e-04 2.7021934528e+00 -4.6803363521e+00 2.7021934528e+00 4.6803363521e+00 
298300 4.6781129125e+00 -8.9562509816e-04 2.7022100332e+00 -4.6803650701e+00 2.7022100332e+00 4.6803650701e+00 
298400 4.6781128966e+00 -8.9518259987e-04 2.7022266053e+00 -4.6803937739e+00 2.7022266053e+00 4.6803937739e+00 
298500 4.6781128807e+00 -8.9474028099e-04 2.7022431691e+00 -4.6804224632e+00 2.7022431691e+00 4.6804224632e+00 
298600 4.6781128648e+00 -8.9429814150e-04 2.7022597246e+00 -4.6804511382e+00 2.7022597246e+00 4.6804511382e+00 
298700 4.6781128490e+00 -8.9385618140e-04 2.7022762718e+00 -4.6804797989e+00 2.7022762718e+00 4.6804797989e+00 
298800 4.6781128331e+00 -8.9341440067e-04 2.7022928108e+00 -4.6805084452e+00 2.7022928108e+00 4.6805084452e+00 
298900 4.6781128173e+00 -8.9297279929e-04 2.7023093415e+00 -4.6805370772e+00 2.7023093415e+00 4.6805370772e+00 
299000 4.6781128015e+00 -8.9253137724e-04 2.7023258639e+00 -4.6805656949e+00 2.7023258639e+00 4.6805656949e+00 
299100 4.6781127857e+00 -8.9209013451e-04 2.7023423781e+00 -4.6805942983e+00 2.7023423781e+00 4.6805942983e+00 
299200 4.6781127699e+00 -8.9164907108e-04 2.7023588839e+00 -4.6806228873e+00 2.7023588839e+00 4.6806228873e+00 
299300 4.6781127542e+00 -8.9120818694e-04 2.7023753816e+00 -4.6806514620e+00 2.7023753816e+00 4.6806514620e+00 
299400 4.6781127384e+00 -8.9076748207e-04 2.7023918709e+00 -4.6806800224e+00 2.7023918709e+00 4.6806800224e+00 
299500 4.6781127227e+00 -8.9032695645e-04 2.7024083520e+00 -4.6807085685e+00 2.7024083520e+00 4.6807085685e+00 
299600 4.6781127070e+00 -8.8988661006e-04 2.7024248249e+00 -4.6807371004e+00 2.7024248249e+00 4.6807371004e+00 
299700 4.6781126913e+00 -8.8944644289e-04 2.7024412895e+00 -4.6807656179e+00 2.7024412895e+00 4.6807656179e+00 
299800 4.6781126756e+00 -8.8900645492e-04 2.7024577459e+00 -4.6807941212e+00 2.7024577459e+00 4.6807941212e+00 
299900 4.6781126599e+00 -8.8856664614e-04 2.7024741940e+00 -4.6808226102e+00 2.7024741940e+00 4.6808226102e+00 
300000 4.6781126443e+00 -8.8812701652e-04 2.7024906339e+00 -4.6808510849e+00 2.7024906339e+00 4.6808510849e+00 
300100 4.6781126287e+00 -8.8768756605e-04 2.7025070656e+00 -4.6808795454e+00 2.7025070656e+00 4.6808795454e+00 
300200 4.6781126130e+00 -8.8724829472e-04 2.7025234890e+00 -4.6809079916e+00 2.7025234890e+00 4.6809079916e+00 
300300 4.6781125974e+00 -8.8680920250e-04 2.7025399042e+00 -4.6809364235e+00 2.7025399042e+00 4.6809364235e+00 
300400 4.6781125819e+00 -8.8637028937e-04 2.7025563112e+00 -4.6809648412e+00 2.7025563112e+00 4.6809648412e+00 
300500 4.6781125663e+00 -8.8593155533e-04 2.7025727099e+00 -4.6809932447e+00 2.7025727099e+00 4.6809932447e+00 
300600 4.6781125507e+00 -8.8549300034e-04 2.7025891005e+00 -4.6810216340e+00 2.7025891005e+00 4.6810216340e+00 
300700 4.6781125352e+00 -8.8505462440e-04 2.7026054828e+00 -4.6810500090e+00 2.7026054828e+00 4.6810500090e+00 
300800 4.6781125197e+00 -8.8461642749e-04 2.7026218569e+00 -4.6810783698e+00 2.7026218569e+00 4.6810783698e+00 
300900 4.6781125042e+00 -8.8417840958e-04 2.7026382228e+00 -4.6811067164e+00 2.7026382228e+00 4.6811067164e+00 
301000 4.6781124887e+00 -8.8374057066e-04 2.7026545805e+00 -4.6811350488e+00 2.7026545805e+00 4.6811350488e+00 
301100 4.6781124732e+00 -8.8330291072e-04 2.7026709300e+00 -4.6811633669e+00 2.7026709300e+00 4.6811633669e+00 
301200 4.6781124577e+00 -8.8286542973e-04 2.7026872713e+00 -4.6811916709e+00 2.7026872713e+00 4.6811916709e+00 
301300 4.6781124423e+00 -8.8242812767e-04 2.7027036045e+00 -4.6812199607e+00 2.7027036045e+00 4.6812199607e+00 
301400 4.6781124269e+00 -8.8199100453e-04 2.7027199294e+00 -4.6812482363e+00 2.7027199294e+00 4.6812482363e+00 
301500 4.6781124115e+00 -8.8155406029e-04 2.7027362461e+00 -4.6812764978e+00 2.7027362461e+00 4.6812764978e+00 
301600 4.6781123961e+00 -8.8111729492e-04 2.7027525547e+00 -4.6813047450e+00 2.7027525547e+00 4.6813047450e+00 
301700 4.6781123807e+00 -8.8068070842e-04 2.7027688551e+00 -4.6813329781e+00 2.7027688551e+00 4.6813329781e+00 
301800 4.6781123653e+00 -8.8024430076e-04 2.7027851473e+00 -4.6813611970e+00 2.7027851473e+00 4.6813611970e+00 
301900 4.6781123500e+00 -8.7980807192e-04 2.7028014313e+00 -4.6813894018e+00 2.7028014313e+00 4.6813894018e+00 
302000 4.6781123346e+00 -8.7937202189e-04 2.7028177072e+00 -4.6814175925e+00 2.7028177072e+00 4.6814175925e+00 
302100 4.6781123193e+00 -8.7893615064e-04 2.7028339749e+00 -4.6814457690e+00 2.7028339749e+00 4.6814457690e+00 
302200 4.6781123040e+00 -8.7850045815e-04 2.7028502345e+00 -4.6814739313e+00 2.7028502345e+00 4.6814739313e+00 
302300 4.6781122887e+00 -8.7806494441e-04 2.7028664858e+00 -4.6815020795e+00 2.7028664858e+00 4.6815020795e+00 
302400 4.6781122735e+00 -8.7762960940e-04 2.7028827291e+00 -4.6815302137e+00 2.7028827291e+00 4.6815302137e+00 
302500 4.6781122582e+00 -8.7719445310e-04 2.7028989642e+00 -4.6815583336e+00 2.7028989642e+00 4.6815583336e+00 
302600 4.6781122430e+00 -8.7675947548e-04 2.7029151911e+00 -4.6815864395e+00 2.7029151911e+00 4.6815864395e+00 
302700 4.6781122277e+00 -8.7632467654e-04 2.7029314099e+00 -4.6816145313e+00 2.7029314099e+00 4.6816145313e+00 
302800 4.6781122125e+00 -8.7589005624e-04 2.7029476205e+00 -4.6816426090e+00 2.7029476205e+00 4.6816426090e+00 
302900 4.6781121973e+00 -8.7545561457e-04 2.7029638230e+00 -4.6816706725e+00 2.7029638230e+00 4.6816706725e+00 
303000 4.6781121821e+00 -8.7502135151e-04 2.7029800174e+00 -4.6816987220e+00 2.7029800174e+00 4.6816987220e+00 
303100 4.6781121670e+00 -8.7458726704e-04 2.7029962037e+00 -4.6817267574e+00 2.7029962037e+00 4.6817267574e+00 
303200 4.6781121518e+00 -8.7415336114e-04 2.7030123818e+00 -4.6817547788e+00 2.7030123818e+00 4.6817547788e+00 
303300 4.6781121367e+00 -8.7371963378e-04 2.7030285518e+00 -4.6817827860e+00 2.7030285518e+00 4.6817827860e+00 
303400 4.6781121216e+00 -8.7328608496e-04 2.7030447137e+00 -4.6818107792e+00 2.7030447137e+00 4.6818107792e+00 
303500 4.6781121065e+00 -8.7285271464e-04 2.7030608674e+00 -4.6818387584e+00 2.7030608674e+00 4.6818387584e+00 
303600 4.6781120914e+00 -8.7241952281e-04 2.7030770131e+00 -4.6818667235e+00 2.7030770131e+00 4.6818667235e+00 
303700 4.6781120763e+00 -8.7198650945e-04 2.7030931506e+00 -4.6818946745e+00 2.7030931506e+00 4.6818946745e+00 
303800 4.6781120613e+00 -8.7155367454e-04 2.7031092801e+00 -4.6819226115e+00 2.7031092801e+00 4.6819226115e+00 
303900 4.6781120462e+00 -8.7112101805e-04 2.7031254014e+00 -4.6819505345e+00 2.7031254014e+00 4.6819505345e+00 
304000 4.6781120312e+00 -8.7068853997e-04 2.7031415146e+00 -4.6819784434e+00 2.7031415146e+00 4.6819784434e+00 
304100 4.6781120162e+00 -8.7025624028e-04 2.7031576198e+00 -4.6820063383e+00 2.7031576198e+00 4.6820063383e+00 
304200 4.6781120012e+00 -8.6982411894e-04 2.7031737168e+00 -4.6820342192e+00 2.7031737168e+00 4.6820342192e+00 
304300 4.6781119862e+00 -8.6939217596e-04 2.7031898058e+00 -4.6820620861e+00 2.7031898058e+00 4.6820620861e+00 
304400 4.6781119713e+00 -8.6896041129e-04 2.7032058867e+00 -4.6820899390e+00 2.7032058867e+00 4.6820899390e+00 
304500 4.6781119563e+00 -8.6852882492e-04 2.7032219595e+00 -4.6821177779e+00 2.7032219595e+00 4.6821177779e+00 
304600 4.6781119414e+00 -8.6809741684e-04 2.7032380242e+00 -4.6821456028e+00 2.7032380242e+00 4.6821456028e+00 
304700 4.6781119265e+00 -8.6766618701e-04 2.7032540808e+00 -4.6821734137e+00 2.7032540808e+00 4.6821734137e+00 
304800 4.6781119116e+00 -8.6723513542e-04 2.7032701294e+00 -4.6822012107e+00 2.7032701294e+00 4.6822012107e+00 
304900 4.6781118967e+00 -8.6680426204e-04 2.7032861699e+00 -4.6822289936e+00 2.7032861699e+00 4.6822289936e+00 
305000 4.6781118818e+00 -8.6637356686e-04 2.7033022023e+00 -4.6822567626e+00 2.7033022023e+00 4.6822567626e+00 
305100 4.6781118669e+00 -8.6594304985e-04 2.7033182267e+00 -4.6822845176e+00 2.7033182267e+00 4.6822845176e+00 
305200 4.6781118521e+00 -8.6551271099e-04 2.7033342430e+00 -4.6823122587e+00 2.7033342430e+00 4.6823122587e+00 
305300 4.6781118373e+00 -8.6508255026e-04 2.7033502513e+00 -4.6823399858e+00 2.7033502513e+00 4.6823399858e+00 
305400 4.6781118225e+00 -8.6465256763e-04 2.7033662515e+00 -4.6823676990e+00 2.7033662515e+00 4.6823676990e+00 
305500 4.6781118077e+00 -8.6422276309e-04 2.7033822436e+00 -4.6823953982e+00 2.7033822436e+00 4.6823953982e+00 
305600 4.6781117929e+00 -8.6379313662e-04 2.7033982277e+00 -4.6824230835e+00 2.7033982277e+00 4.6824230835e+00 
305700 4.6781117781e+00 -8.6336368818e-04 2.7034142038e+00 -4.6824507549e+00 2.7034142038e+00 4.6824507549e+00 
305800 4.6781117634e+00 -8.6293441776e-04 2.7034301719e+00 -4.6824784124e+00 2.7034301719e+00 4.6824784124e+00 
305900 4.6781117486e+00 -8.6250532534e-04 2.7034461319e+00 -4.6825060559e+00 2.7034461319e+00 4.6825060559e+00 
306000 4.6781117339e+00 -8.6207641089e-04 2.7034620838e+00 -4.6825336855e+00 2.7034620838e+00 4.6825336855e+00 
306100 4.6781117192e+00 -8.6164767439e-04 2.7034780278e+00 -4.6825613013e+00 2.7034780278e+00 4.6825613013e+00 
306200 4.6781117045e+00 -8.6121911582e-04 2.7034939637e+00 -4.6825889031e+00 2.7034939637e+00 4.6825889031e+00 
306300 4.6781116898e+00 -8.6079073516e-04 2.7035098916e+00 -4.6826164911e+00 2.7035098916e+00 4.6826164911e+00 
306400 4.6781116752e+00 -8.6036253238e-04 2.7035258115e+00 -4.6826440651e+00 2.7035258115e+00 4.6826440651e+00 
306500 4.6781116605e+00 -8.5993450746e-04 2.7035417234e+00 -4.6826716253e+00 2.7035417234e+00 4.6826716253e+00 
306600 4.6781116459e+00 -8.5950666038e-04 2.7035576273e+00 -4.6826991716e+00 2.7035576273e+00 4.6826991716e+00 
306700 4.6781116313e+00 -8.5907899111e-04 2.7035735231e+00 -4.6827267040e+00 2.7035735231e+00 4.6827267040e+00 
306800 4.6781116167e+00 -8.5865149964e-04 2.7035894110e+00 -4.6827542226e+00 2.7035894110e+00 4.6827542226e+00 
306900 4.6781116021e+00 -8.5822418593e-04 2.7036052908e+00 -4.6827817273e+00 2.7036052908e+00 4.6827817273e+00 
307000 4.6781115875e+00 -8.5779704996e-04 2.7036211627e+00 -4.6828092182e+00 2.7036211627e+00 4.6828092182e+00 
307100 4.6781115729e+00 -8.5737009172e-04 2.7036370266e+00 -4.6828366952e+00 2.7036370266e+00 4.6828366952e+00 
307200 4.6781115584e+00 -8.5694331118e-04 2.7036528824e+00 -4.6828641584e+00 2.7036528824e+00 4.6828641584e+00 
307300 4.6781115439e+00 -8.5651670831e-04 2.7036687303e+00 -4.6828916078e+00 2.7036687303e+00 4.6828916078e+00 
307400 4.6781115294e+00 -8.5609028310e-04 2.7036845703e+00 -4.6829190433e+00 2.7036845703e+00 4.6829190433e+00 
307500 4.6781115149e+00 -8.5566403551e-04 2.7037004022e+00 -4.6829464650e+00 2.7037004022e+00 4.6829464650e+00 
307600 4.6781115004e+00 -8.5523796552e-04 2.7037162261e+00 -4.6829738729e+00 2.7037162261e+00 4.6829738729e+00 
307700 4.6781114859e+00 -8.5481207312e-04 2.7037320421e+00 -4.6830012670e+00 2.7037320421e+00 4.6830012670e+00 
307800 4.6781114715e+00 -8.5438635827e-04 2.7037478502e+00 -4.6830286473e+00 2.7037478502e+00 4.6830286473e+00 
307900 4.6781114570e+00 -8.5396082096e-04 2.7037636502e+00 -4.6830560138e+00 2.7037636502e+00 4.6830560138e+00 
308000 4.6781114426e+00 -8.5353546115e-04 2.7037794423e+00 -4.6830833665e+00 2.7037794423e+00 4.6830833665e+00 
308100 4.6781114282e+00 -8.5311027883e-04 2.7037952264e+00 -4.6831107054e+00 2.7037952264e+00 4.6831107054e+00 
308200 4.6781114138e+00 -8.5268527396e-04 2.7038110026e+00 -4.6831380306e+00 2.7038110026e+00 4.6831380306e+00 
308300 4.6781113994e+00 -8.5226044654e-04 2.7038267708e+00 -4.6831653419e+00 2.7038267708e+00 4.6831653419e+00 
308400 4.6781113850e+00 -8.5183579652e-04 2.7038425311e+00 -4.6831926396e+00 2.7038425311e+00 4.6831926396e+00 
308500 4.6781113707e+00 -8.5141132389e-04 2.7038582834e+00 -4.6832199234e+00 2.7038582834e+00 4.6832199234e+00 
308600 4.6781113564e+00 -8.5098702863e-04 2.7038740278e+00 -4.6832471935e+00 2.7038740278e+00 4.6832471935e+00 
308700 4.6781113420e+00 -8.5056291070e-04 2.7038897643e+00 -4.6832744498e+00 2.7038897643e+00 4.6832744498e+00 
308800 4.6781113277e+00 -8.5013897009e-04 2.7039054928e+00 -4.6833016924e+00 2.7039054928e+00 4.6833016924e+00 
308900 4.6781113134e+00 -8.4971520676e-04 2.7039212134e+00 -4.6833289213e+00 2.7039212134e+00 4.6833289213e+00 
309000 4.6781112992e+00 -8.4929162070e-04 2.7039369261e+00 -4.6833561364e+00 2.7039369261e+00 4.6833561364e+00 
309100 4.6781112849e+00 -8.4886821188e-04 2.7039526308e+00 -4.6833833378e+00 2.7039526308e+00 4.6833833378e+00 
309200 4.6781112706e+00 -8.4844498027e-04 2.7039683276e+00 -4.6834105255e+00 2.7039683276e+00 4.6834105255e+00 
309300 4.6781112564e+00 -8.4802192586e-04 2.7039840165e+00 -4.6834376995e+00 2.7039840165e+00 4.6834376995e+00 
309400 4.6781112422e+00 -8.4759904860e-04 2.7039996975e+00 -4.6834648597e+00 2.7039996975e+00 4.6834648597e+00 
309500 4.6781112280e+00 -8.4717634849e-04 2.7040153706e+00 -4.6834920063e+00 2.7040153706e+00 4.6834920063e+00 
309600 4.6781112138e+00 -8.4675382548e-04 2.7040310358e+00 -4.6835191392e+00 2.7040310358e+00 4.6835191392e+00 
309700 4.6781111996e+00 -8.4633147957e-04 2.7040466930e+00 -4.6835462584e+00 2.7040466930e+00 4.6835462584e+00 
309800 4.6781111855e+00 -8.4590931072e-04 2.7040623424e+00 -4.6835733638e+00 2.7040623424e+00 4.6835733638e+00 
309900 4.6781111713e+00 -8.4548731890e-04 2.7040779839e+00 -4.6836004557e+00 2.7040779839e+00 4.6836004557e+00 
310000 4.6781111572e+00 -8.4506550410e-04 2.7040936174e+00 -4.6836275338e+00 2.7040936174e+00 4.6836275338e+00 
310100 4.6781111431e+00 -8.4464386628e-04 2.7041092431e+00 -4.6836545983e+00 2.7041092431e+00 4.6836545983e+00 
310200 4.6781111290e+00 -8.4422240542e-04 2.7041248609e+00 -4.6836816491e+00 2.7041248609e+00 4.6836816491e+00 
310300 4.6781111149e+00 -8.4380112150e-04 2.7041404708e+00 -4.6837086863e+00 2.7041404708e+00 4.6837086863e+00 
310400 4.6781111008e+00 -8.4338001449e-04 2.7041560729e+00 -4.6837357098e+00 2.7041560729e+00 4.6837357098e+00 
310500 4.6781110867e+00 -8.4295908436e-04 2.7041716670e+00 -4.6837627197e+00 2.7041716670e+00 4.6837627197e+00 
310600 4.6781110727e+00 -8.4253833108e-04 2.7041872533e+00 -4.6837897159e+00 2.7041872533e+00 4.6837897159e+00 
310700 4.6781110587e+00 -8.4211775464e-04 2.7042028317e+00 -4.6838166985e+00 2.7042028317e+00 4.6838166985e+00 
310800 4.6781110446e+00 -8.4169735499e-04 2.7042184023e+00 -4.6838436675e+00 2.7042184023e+00 4.6838436675e+00 
310900 4.6781110306e+00 -8.4127713213e-04 2.7042339650e+00 -4.6838706229e+00 2.7042339650e+00 4.6838706229e+00 
311000 4.6781110166e+00 -8.4085708602e-04 2.7042495198e+00 -4.6838975646e+00 2.7042495198e+00 4.6838975646e+00 
311100 4.6781110027e+00 -8.4043721663e-04 2.7042650668e+00 -4.6839244928e+00 2.7042650668e+00 4.6839244928e+00 
311200 4.6781109887e+00 -8.4001752395e-04 2.7042806059e+00 -4.6839514073e+00 2.7042806059e+00 4.6839514073e+00 
311300 4.6781109748e+00 -8.3959800793e-04 2.7042961372e+00 -4.6839783083e+00 2.7042961372e+00 4.6839783083e+00 
311400 4.6781109608e+00 -8.3917866856e-04 2.7043116606e+00 -4.6840051956e+00 2.7043116606e+00 4.6840051956e+00 
311500 4.6781109469e+00 -8.3875950581e-04 2.7043271762e+00 -4.6840320694e+00 2.7043271762e+00 4.6840320694e+00 
311600 4.6781109330e+00 -8.3834051965e-04 2.7043426839e+00 -4.6840589296e+00 2.7043426839e+00 4.6840589296e+00 
311700 4.6781109191e+00 -8.3792171005e-04 2.7043581838e+00 -4.6840857763e+00 2.7043581838e+00 4.6840857763e+00 
311800 4.6781109052e+00 -8.3750307700e-04 2.7043736759e+00 -4.6841126093e+00 2.7043736759e+00 4.6841126093e+00 
311900 4.6781108914e+00 -8.3708462045e-04 2.7043891602e+00 -4.6841394288e+00 2.7043891602e+00 4.6841394288e+00 
312000 4.6781108775e+00 -8.3666634039e-04 2.7044046366e+00 -4.6841662348e+00 2.7044046366e+00 4.6841662348e+00 
312100 4.6781108637e+00 -8.3624823678e-04 2.7044201052e+00 -4.6841930272e+00 2.7044201052e+00 4.6841930272e+00 
312200 4.6781108499e+00 -8.3583030961e-04 2.7044355660e+00 -4.6842198060e+00 2.7044355660e+00 4.6842198060e+00 
312300 4.6781108361e+00 -8.3541255883e-04 2.7044510189e+00 -4.6842465714e+00 2.7044510189e+00 4.6842465714e+00 
312400 4.6781108223e+00 -8.3499498444e-04 2.7044664641e+00 -4.6842733232e+00 2.7044664641e+00 4.6842733232e+00 
312500 4.6781108085e+00 -8.3457758638e-04 2.7044819014e+00 -4.6843000614e+00 2.7044819014e+00 4.6843000614e+00 
312600 4.6781107948e+00 -8.3416036465e-04 2.7044973310e+00 -4.6843267862e+00 2.7044973310e+00 4.6843267862e+00 
312700 4.6781107810e+00 -8.3374331921e-04 2.7045127527e+00 -4.6843534974e+00 2.7045127527e+00 4.6843534974e+00 
312800 4.6781107673e+00 -8.3332645004e-04 2.7045281667e+00 -4.6843801952e+00 2.7045281667e+00 4.6843801952e+00 
312900 4.6781107536e+00 -8.3290975710e-04 2.7045435728e+00 -4.6844068794e+00 2.7045435728e+00 4.6844068794e+00 
313000 4.6781107399e+00 -8.3249324037e-04 2.7045589712e+00 -4.6844335501e+00 2.7045589712e+00 4.6844335501e+00 
313100 4.6781107262e+00 -8.3207689982e-04 2.7045743617e+00 -4.6844602074e+00 2.7045743617e+00 4.6844602074e+00 
313200 4.6781107125e+00 -8.3166073543e-04 2.7045897445e+00 -4.6844868511e+00 2.7045897445e+00 4.6844868511e+00 
313300 4.6781106988e+00 -8.3124474716e-04 2.7046051195e+00 -4.6845134814e+00 2.7046051195e+00 4.6845134814e+00 
313400 4.6781106852e+00 -8.3082893499e-04 2.7046204867e+00 -4.6845400982e+00 2.7046204867e+00 4.6845400982e+00 
313500 4.6781106715e+00 -8.3041329888e-04 2.7046358462e+00 -4.6845667016e+00 2.7046358462e+00 4.6845667016e+00 
313600 4.6781106579e+00 -8.2999783882e-04 2.7046511979e+00 -4.6845932915e+00 2.7046511979e+00 4.6845932915e+00 
313700 4.6781106443e+00 -8.2958255477e-04 2.7046665418e+00 -4.6846198679e+00 2.7046665418e+00 4.6846198679e+00 
313800 4.6781106307e+00 -8.2916744670e-04 2.7046818779e+00 -4.6846464309e+00 2.7046818779e+00 4.6846464309e+00 
313900 4.6781106171e+00 -8.2875251459e-04 2.7046972063e+00 -4.6846729804e+00 2.7046972063e+00 4.6846729804e+00 
314000 4.6781106036e+00 -8.2833775840e-04 2.7047125270e+00 -4.6846995166e+00 2.7047125270e+00 4.6846995166e+00 
314100 4.6781105900e+00 -8.2792317811e-04 2.7047278398e+00 -4.6847260392e+00 2.7047278398e+00 4.6847260392e+00 
314200 4.6781105765e+00 -8.2750877370e-04 2.7047431450e+00 -4.6847525485e+00 2.7047431450e+00 4.6847525485e+00 
314300 4.6781105629e+00 -8.2709454512e-04 2.7047584423e+00 -4.6847790443e+00 2.7047584423e+00 4.6847790443e+00 
314400 4.6781105494e+00 -8.2668049235e-04 2.7047737320e+00 -4.6848055267e+00 2.7047737320e+00 4.6848055267e+00 
314500 4.6781105359e+00 -8.2626661537e-04 2.7047890139e+00 -4.6848319958e+00 2.7047890139e+00 4.6848319958e+00 
314600 4.6781105225e+00 -8.2585291414e-04 2.7048042880e+00 -4.6848584514e+00 2.7048042880e+00 4.6848584514e+00 
314700 4.6781105090e+00 -8.2543938864e-04 2.7048195544e+00 -4.6848848936e+00 2.7048195544e+00 4.6848848936e+00 
314800 4.6781104955e+00 -8.2502603883e-04 2.7048348131e+00 -4.6849113224e+00 2.7048348131e+00 4.6849113224e+00 
314900 4.6781104821e+00 -8.2461286469e-04 2.7048500641e+00 -4.6849377379e+00 2.7048500641e+00 4.6849377379e+00 
315000 4.6781104687e+00 -8.2419986618e-04 2.7048653073e+00 -4.6849641399e+00 2.7048653073e+00 4.6849641399e+00 
315100 4.6781104553e+00 -8.2378704328e-04 2.7048805429e+00 -4.6849905286e+00 2.7048805429e+00 4.6849905286e+00 
315200 4.6781104419e+00 -8.2337439597e-04 2.7048957707e+00 -4.6850169040e+00 2.7048957707e+00 4.6850169040e+00 
315300 4.6781104285e+00 -8.2296192420e-04 2.7049109908e+00 -4.6850432659e+00 2.7049109908e+00 4.6850432659e+00 
315400 4.6781104151e+00 -8.2254962795e-04 2.7049262031e+00 -4.6850696146e+00 2.7049262031e+00 4.6850696146e+00 
315500 4.6781104017e+00 -8.2213750719e-04 2.7049414078e+00 -4.6850959498e+00 2.7049414078e+00 4.6850959498e+00 
315600 4.6781103884e+00 -8.2172556189e-04 2.7049566048e+00 -4.6851222717e+00 2.7049566048e+00 4.6851222717e+00 
315700 4.6781103751e+00 -8.2131379202e-04 2.7049717940e+00 -4.6851485803e+00 2.7049717940e+00 4.6851485803e+00 
315800 4.6781103617e+00 -8.2090219755e-04 2.7049869756e+00 -4.6851748756e+00 2.7049869756e+00 4.6851748756e+00 
315900 4.6781103484e+00 -8.2049077846e-04 2.7050021495e+00 -4.6852011575e+00 2.7050021495e+00 4.6852011575e+00 
316000 4.6781103351e+00 -8.2007953470e-04 2.7050173157e+00 -4.6852274261e+00 2.7050173157e+00 4.6852274261e+00 
316100 4.6781103219e+00 -8.1966846625e-04 2.7050324742e+00 -4.6852536814e+00 2.7050324742e+00 4.6852536814e+00 
316200 4.6781103086e+00 -8.1925757309e-04 2.7050476250e+00 -4.6852799234e+00 2.7050476250e+00 4.6852799234e+00 
316300 4.6781102954e+00 -8.1884685518e-04 2.7050627682e+00 -4.6853061521e+00 2.7050627682e+00 4.6853061521e+00 
316400 4.6781102821e+00 -8.1843631248e-04 2.7050779036e+00 -4.6853323675e+00 2.7050779036e+00 4.6853323675e+00 
316500 4.6781102689e+00 -8.1802594498e-04 2.7050930314e+00 -4.6853585696e+00 2.7050930314e+00 4.6853585696e+00 
316600 4.6781102557e+00 -8.1761575264e-04 2.7051081515e+00 -4.6853847584e+00 2.7051081515e+00 4.6853847584e+00 
316700 4.6781102425e+00 -8.1720573542e-04 2.7051232640e+00 -4.6854109340e+00 2.7051232640e+00 4.6854109340e+00 
316800 4.6781102293e+00 -8.1679589331e-04 2.7051383688e+00 -4.6854370962e+00 2.7051383688e+00 4.6854370962e+00 
316900 4.6781102161e+00 -8.1638622626e-04 2.7051534659e+00 -4.6854632452e+00 2.7051534659e+00 4.6854632452e+00 
317000 4.6781102030e+00 -8.1597673425e-04 2.7051685554e+00 -4.6854893810e+00 2.7051685554e+00 4.6854893810e+00 
317100 4.6781101898e+00 -8.1556741725e-04 2.7051836372e+00 -4.6855155035e+00 2.7051836372e+00 4.6855155035e+00 
317200 4.6781101767e+00 -8.1515827523e-04 2.7051987114e+00 -4.6855416127e+00 2.7051987114e+00 4.6855416127e+00 
317300 4.6781101636e+00 -8.1474930815e-04 2.7052137779e+00 -4.6855677087e+00 2.7052137779e+00 4.6855677087e+00 
317400 4.6781101505e+00 -8.1434051598e-04 2.7052288368e+00 -4.6855937914e+00 2.7052288368e+00 4.6855937914e+00 
317500 4.6781101374e+00 -8.1393189870e-04 2.7052438880e+00 -4.6856198610e+00 2.7052438880e+00 4.6856198610e+00 
317600 4.6781101243e+00 -8.1352345627e-04 2.7052589317e+00 -4.6856459173e+00 2.7052589317e+00 4.6856459173e+00 
317700 4.6781101113e+00 -8.1311518866e-04 2.7052739676e+00 -4.6856719603e+00 2.7052739676e+00 4.6856719603e+00 
317800 4.6781100982e+00 -8.1270709584e-04 2.7052889960e+00 -4.6856979902e+00 2.7052889960e+00 4.6856979902e+00 
317900 4.6781100852e+00 -8.1229917778e-04 2.7053040167e+00 -4.6857240068e+00 2.7053040167e+00 4.6857240068e+00 
318000 4.6781100722e+00 -8.1189143445e-04 2.7053190298e+00 -4.6857500103e+00 2.7053190298e+00 4.6857500103e+00 
318100 4.6781100592e+00 -8.1148386581e-04 2.7053340353e+00 -4.6857760005e+00 2.7053340353e+00 4.6857760005e+00 
318200 4.6781100462e+00 -8.1107647184e-04 2.7053490331e+00 -4.6858019776e+00 2.7053490331e+00 4.6858019776e+00 
318300 4.6781100332e+00 -8.1066925251e-04 2.7053640234e+00 -4.6858279415e+00 2.7053640234e+00 4.6858279415e+00 
318400 4.6781100202e+00 -8.1026220777e-04 2.7053790060e+00 -4.6858538922e+00 2.7053790060e+00 4.6858538922e+00 
318500 4.6781100073e+00 -8.0985533761e-04 2.7053939811e+00 -4.6858798297e+00 2.7053939811e+00 4.6858798297e+00 
318600 4.6781099943e+00 -8.0944864198e-04 2.7054089485e+00 -4.6859057541e+00 2.7054089485e+00 4.6859057541e+00 
318700 4.6781099814e+00 -8.0904212086e-04 2.7054239083e+00 -4.6859316653e+00 2.7054239083e+00 4.6859316653e+00 
318800 4.6781099685e+00 -8.0863577422e-04 2.7054388606e+00 -4.6859575633e+00 2.7054388606e+00 4.6859575633e+00 
318900 4.6781099556e+00 -8.0822960201e-04 2.7054538052e+00 -4.6859834482e+00 2.7054538052e+00 4.6859834482e+00 
319000 4.6781099427e+00 -8.0782360422e-04 2.7054687423e+00 -4.6860093199e+00 2.7054687423e+00 4.6860093199e+00 
319100 4.6781099298e+00 -8.0741778081e-04 2.7054836718e+00 -4.6860351785e+00 2.7054836718e+00 4.6860351785e+00 
319200 4.6781099170e+00 -8.0701213175e-04 2.7054985936e+00 -4.6860610240e+00 2.7054985936e+00 4.6860610240e+00 
319300 4.6781099041e+00 -8.0660665700e-04 2.7055135079e+00 -4.6860868563e+00 2.7055135079e+00 4.6860868563e+00 
319400 4.6781098913e+00 -8.0620135653e-04 2.7055284147e+00 -4.6861126756e+00 2.7055284147e+00 4.6861126756e+00 
319500 4.6781098785e+00 -8.0579623031e-04 2.7055433138e+00 -4.6861384817e+00 2.7055433138e+00 4.6861384817e+00 
319600 4.6781098657e+00 -8.0539127832e-04 2.7055582054e+00 -4.6861642747e+00 2.7055582054e+00 4.6861642747e+00 
319700 4.6781098529e+00 -8.0498650050e-04 2.7055730895e+00 -4.6861900545e+00 2.7055730895e+00 4.6861900545e+00 
319800 4.6781098401e+00 -8.0458189684e-04 2.7055879659e+00 -4.6862158213e+00 2.7055879659e+00 4.6862158213e+00 
319900 4.6781098273e+00 -8.0417746730e-04 2.7056028348e+00 -4.6862415750e+00 2.7056028348e+00 4.6862415750e+00 
320000 4.6781098145e+00 -8.0377321185e-04 2.7056176962e+00 -4.6862673156e+00 2.7056176962e+00 4.6862673156e+00 
320100 4.6781098018e+00 -8.0336913046e-04 2.7056325500e+00 -4.6862930432e+00 2.7056325500e+00 4.6862930432e+00 
320200 4.6781097891e+00 -8.0296522308e-04 2.7056473962e+00 -4.6863187576e+00 2.7056473962e+00 4.6863187576e+00 
320300 4.6781097764e+00 -8.0256148970e-04 2.7056622349e+00 -4.6863444590e+00 2.7056622349e+00 4.6863444590e+00 
320400 4.6781097637e+00 -8.0215793027e-04 2.7056770661e+00 -4.6863701473e+00 2.7056770661e+00 4.6863701473e+00 
320500 4.6781097510e+00 -8.0175454477e-04 2.7056918897e+00 -4.6863958226e+00 2.7056918897e+00 4.6863958226e+00 
320600 4.6781097383e+00 -8.0135133316e-04 2.7057067058e+00 -4.6864214848e+00 2.7057067058e+00 4.6864214848e+00 
320700 4.6781097256e+00 -8.0094829541e-04 2.7057215144e+00 -4.6864471340e+00 2.7057215144e+00 4.6864471340e+00 
320800 4.6781097130e+00 -8.0054543148e-04 2.7057363154e+00 -4.6864727701e+00 2.7057363154e+00 4.6864727701e+00 
320900 4.6781097003e+00 -8.0014274135e-04 2.7057511089e+00 -4.6864983932e+00 2.7057511089e+00 4.6864983932e+00 
321000 4.6781096877e+00 -7.9974022497e-04 2.7057658949e+00 -4.6865240033e+00 2.7057658949e+00 4.6865240033e+00 
321100 4.6781096751e+00 -7.9933788232e-04 2.7057806733e+00 -4.6865496003e+00 2.7057806733e+00 4.6865496003e+00 
321200 4.6781096625e+00 -7.9893571336e-04 2.7057954443e+00 -4.6865751843e+00 2.7057954443e+00 4.6865751843e+00 
321300 4.6781096499e+00 -7.9853371806e-04 2.7058102077e+00 -4.6866007553e+00 2.7058102077e+00 4.6866007553e+00 
321400 4.6781096373e+00 -7.9813189638e-04 2.7058249636e+00 -4.6866263134e+00 2.7058249636e+00 4.6866263134e+00 
321500 4.6781096248e+00 -7.9773024829e-04 2.7058397120e+00 -4.6866518584e+00 2.7058397120e+00 4.6866518584e+00 
321600 4.6781096122e+00 -7.9732877377e-04 2.7058544529e+00 -4.6866773904e+00 2.7058544529e+00 4.6866773904e+00 
321700 4.6781095997e+00 -7.9692747277e-04 2.7058691864e+00 -4.6867029094e+00 2.7058691864e+00 4.6867029094e+00 
321800 4.6781095872e+00 -7.9652634525e-04 2.7058839123e+00 -4.6867284154e+00 2.7058839123e+00 4.6867284154e+00 
321900 4.6781095747e+00 -7.9612539120e-04 2.7058986307e+00 -4.6867539085e+00 2.7058986307e+00 4.6867539085e+00 
322000 4.6781095622e+00 -7.9572461057e-04 2.7059133416e+00 -4.6867793886e+00 2.7059133416e+00 4.6867793886e+00 
322100 4.6781095497e+00 -7.9532400333e-04 2.7059280451e+00 -4.6868048557e+00 2.7059280451e+00 4.6868048557e+00 
322200 4.6781095372e+00 -7.9492356944e-04 2.7059427411e+00 -4.6868303099e+00 2.7059427411e+00 4.6868303099e+00 
322300 4.6781095248e+00 -7.9452330887e-04 2.7059574295e+00 -4.6868557511e+00 2.7059574295e+00 4.6868557511e+00 
322400 4.6781095123e+00 -7.9412322159e-04 2.7059721106e+00 -4.6868811794e+00 2.7059721106e+00 4.6868811794e+00 
322500 4.6781094999e+00 -7.9372330757e-04 2.7059867841e+00 -4.6869065947e+00 2.7059867841e+00 4.6869065947e+00 
322600 4.6781094875e+00 -7.9332356676e-04 2.7060014502e+00 -4.6869319971e+00 2.7060014502e+00 4.6869319971e+00 
322700 4.6781094750e+00 -7.9292399913e-04 2.7060161088e+00 -4.6869573865e+00 2.7060161088e+00 4.6869573865e+00 
322800 4.6781094627e+00 -7.9252460466e-04 2.7060307599e+00 -4.6869827630e+00 2.7060307599e+00 4.6869827630e+00 
322900 4.6781094503e+00 -7.9212538330e-04 2.7060454036e+00 -4.6870081267e+00 2.7060454036e+00 4.6870081267e+00 
323000 4.6781094379e+00 -7.9172633503e-04 2.7060600398e+00 -4.6870334773e+00 2.7060600398e+00 4.6870334773e+00 
323100 4.6781094255e+00 -7.9132745980e-04 2.7060746686e+00 -4.6870588151e+00 2.7060746686e+00 4.6870588151e+00 
323200 4.6781094132e+00 -7.9092875758e-04 2.7060892900e+00 -4.6870841400e+00 2.7060892900e+00 4.6870841400e+00 
323300 4.6781094009e+00 -7.9053022834e-04 2.7061039038e+00 -4.6871094520e+00 2.7061039038e+00 4.6871094520e+00 
323400 4.6781093886e+00 -7.9013187204e-04 2.7061185103e+00 -4.6871347511e+00 2.7061185103e+00 4.6871347511e+00 
323500 4.6781093763e+00 -7.8973368866e-04 2.7061331093e+00 -4.6871600373e+00 2.7061331093e+00 4.6871600373e+00 
323600 4.6781093640e+00 -7.8933567814e-04 2.7061477008e+00 -4.6871853107e+00 2.7061477008e+00 4.6871853107e+00 
323700 4.6781093517e+00 -7.8893784046e-04 2.7061622850e+00 -4.6872105711e+00 2.7061622850e+00 4.6872105711e+00 
323800 4.6781093394e+00 -7.8854017559e-04 2.7061768617e+00 -4.6872358187e+00 2.7061768617e+00 4.6872358187e+00 
323900 4.6781093272e+00 -7.8814268349e-04 2.7061914310e+00 -4.6872610534e+00 2.7061914310e+00 4.6872610534e+00 
324000 4.6781093149e+00 -7.8774536412e-04 2.7062059928e+00 -4.6872862753e+00 2.7062059928e+00 4.6872862753e+00 
324100 4.6781093027e+00 -7.8734821745e-04 2.7062205473e+00 -4.6873114843e+00 2.7062205473e+00 4.6873114843e+00 
324200 4.6781092905e+00 -7.8695124344e-04 2.7062350943e+00 -4.6873366805e+00 2.7062350943e+00 4.6873366805e+00 
324300 4.6781092783e+00 -7.8655444206e-04 2.7062496339e+00 -4.6873618639e+00 2.7062496339e+00 4.6873618639e+00 
324400 4.6781092661e+00 -7.8615781327e-04 2.7062641661e+00 -4.6873870344e+00 2.7062641661e+00 4.6873870344e+00 
324500 4.6781092539e+00 -7.8576135704e-04 2.7062786909e+00 -4.6874121920e+00 2.7062786909e+00 4.6874121920e+00 
324600 4.6781092417e+00 -7.8536507333e-04 2.7062932083e+00 -4.6874373369e+00 2.7062932083e+00 4.6874373369e+00 
324700 4.6781092296e+00 -7.8496896211e-04 2.7063077183e+00 -4.6874624689e+00 2.7063077183e+00 4.6874624689e+00 
324800 4.6781092174e+00 -7.8457302334e-04 2.7063222208e+00 -4.6874875882e+00 2.7063222208e+00 4.6874875882e+00 
324900 4.6781092053e+00 -7.8417725698e-04 2.7063367161e+00 -4.6875126946e+00 2.7063367161e+00 4.6875126946e+00 
325000 4.6781091932e+00 -7.8378166301e-04 2.7063512039e+00 -4.6875377882e+00 2.7063512039e+00 4.6875377882e+00 
325100 4.6781091811e+00 -7.8338624138e-04 2.7063656843e+00 -4.6875628690e+00 2.7063656843e+00 4.6875628690e+00 
325200 4.6781091690e+00 -7.8299099206e-04 2.7063801573e+00 -4.6875879371e+00 2.7063801573e+00 4.6875879371e+00 
325300 4.6781091569e+00 -7.8259591501e-04 2.7063946230e+00 -4.6876129924e+00 2.7063946230e+00 4.6876129924e+00 
325400 4.6781091449e+00 -7.8220101020e-04 2.7064090813e+00 -4.6876380348e+00 2.7064090813e+00 4.6876380348e+00 
325500 4.6781091328e+00 -7.8180627759e-04 2.7064235322e+00 -4.6876630646e+00 2.7064235322e+00 4.6876630646e+00 
325600 4.6781091208e+00 -7.8141171715e-04 2.7064379757e+00 -4.6876880815e+00 2.7064379757e+00 4.6876880815e+00 
325700 4.6781091087e+00 -7.8101732883e-04 2.7064524119e+00 -4.6877130857e+00 2.7064524119e+00 4.6877130857e+00 
325800 4.6781090967e+00 -7.8062311261e-04 2.7064668407e+00 -4.6877380772e+00 2.7064668407e+00 4.6877380772e+00 
325900 4.6781090847e+00 -7.8022906844e-04 2.7064812622e+00 -4.6877630558e+00 2.7064812622e+00 4.6877630558e+00 
326000 4.6781090727e+00 -7.7983519630e-04 2.7064956763e+00 -4.6877880218e+00 2.7064956763e+00 4.6877880218e+00 
326100 4.6781090607e+00 -7.7944149614e-04 2.7065100830e+00 -4.6878129750e+00 2.7065100830e+00 4.6878129750e+00 
326200 4.6781090488e+00 -7.7904796793e-04 2.7065244824e+00 -4.6878379155e+00 2.7065244824e+00 4.6878379155e+00 
326300 4.6781090368e+00 -7.7865461163e-04 2.7065388745e+00 -4.6878628433e+00 2.7065388745e+00 4.6878628433e+00 
326400 4.6781090249e+00 -7.7826142720e-04 2.7065532592e+00 -4.6878877583e+00 2.7065532592e+00 4.6878877583e+00 
326500 4.6781090129e+00 -7.7786841462e-04 2.7065676365e+00 -4.6879126606e+00 2.7065676365e+00 4.6879126606e+00 
326600 4.6781090010e+00 -7.7747557384e-04 2.7065820066e+00 -4.6879375502e+00 2.7065820066e+00 4.6879375502e+00 
326700 4.6781089891e+00 -7.7708290482e-04 2.7065963693e+00 -4.6879624272e+00 2.7065963693e+00 4.6879624272e+00 
326800 4.6781089772e+00 -7.7669040753e-04 2.7066107246e+00 -4.6879872914e+00 2.7066107246e+00 4.6879872914e+00 
326900 4.6781089653e+00 -7.7629808194e-04 2.7066250727e+00 -4.6880121429e+00 2.7066250727e+00 4.6880121429e+00 
327000 4.6781089535e+00 -7.7590592800e-04 2.7066394134e+00 -4.6880369818e+00 2.7066394134e+00 4.6880369818e+00 
327100 4.6781089416e+00 -7.7551394568e-04 2.7066537468e+00 -4.6880618079e+00 2.7066537468e+00 4.6880618079e+00 
327200 4.6781089298e+00 -7.7512213494e-04 2.7066680729e+00 -4.6880866214e+00 2.7066680729e+00 4.6880866214e+00 
327300 4.6781089179e+00 -7.7473049575e-04 2.7066823916e+00 -4.6881114223e+00 2.7066823916e+00 4.6881114223e+00 
327400 4.6781089061e+00 -7.7433902807e-04 2.7066967031e+00 -4.6881362104e+00 2.7066967031e+00 4.6881362104e+00 
327500 4.6781088943e+00 -7.7394773186e-04 2.7067110072e+00 -4.6881609859e+00 2.7067110072e+00 4.6881609859e+00 
327600 4.6781088825e+00 -7.7355660708e-04 2.7067253041e+00 -4.6881857488e+00 2.7067253041e+00 4.6881857488e+00 
327700 4.6781088707e+00 -7.7316565370e-04 2.7067395936e+00 -4.6882104990e+00 2.7067395936e+00 4.6882104990e+00 
327800 4.6781088590e+00 -7.7277487168e-04 2.7067538759e+00 -4.6882352366e+00 2.7067538759e+00 4.6882352366e+00 
327900 4.6781088472e+00 -7.7238426099e-04 2.7067681508e+00 -4.6882599615e+00 2.7067681508e+00 4.6882599615e+00 
328000 4.6781088354e+00 -7.7199382158e-04 2.7067824185e+00 -4.6882846738e+00 2.7067824185e+00 4.6882846738e+00 
328100 4.6781088237e+00 -7.7160355342e-04 2.7067966788e+00 -4.6883093735e+00 2.7067966788e+00 4.6883093735e+00 
328200 4.6781088120e+00 -7.7121345646e-04 2.7068109319e+00 -4.6883340606e+00 2.7068109319e+00 4.6883340606e+00 
328300 4.6781088003e+00 -7.7082353069e-04 2.7068251777e+00 -4.6883587350e+00 2.7068251777e+00 4.6883587350e+00 
328400 4.6781087886e+00 -7.7043377604e-04 2.7068394163e+00 -4.6883833969e+00 2.7068394163e+00 4.6883833969e+00 
328500 4.6781087769e+00 -7.7004419250e-04 2.7068536475e+00 -4.6884080462e+00 2.7068536475e+00 4.6884080462e+00 
328600 4.6781087652e+00 -7.6965478002e-04 2.7068678715e+00 -4.6884326828e+00 2.7068678715e+00 4.6884326828e+00 
328700 4.6781087536e+00 -7.6926553856e-04 2.7068820882e+00 -4.6884573069e+00 2.7068820882e+00 4.6884573069e+00 
328800 4.6781087419e+00 -7.6887646809e-04 2.7068962977e+00 -4.6884819184e+00 2.7068962977e+00 4.6884819184e+00 
328900 4.6781087303e+00 -7.6848756856e-04 2.7069104999e+00 -4.6885065173e+00 2.7069104999e+00 4.6885065173e+00 
329000 4.6781087186e+00 -7.6809883995e-04 2.7069246948e+00 -4.6885311036e+00 2.7069246948e+00 4.6885311036e+00 
329100 4.6781087070e+00 -7.6771028220e-04 2.7069388825e+00 -4.6885556774e+00 2.7069388825e+00 4.6885556774e+00 
329200 4.6781086954e+00 -7.6732189529e-04 2.7069530629e+00 -4.6885802386e+00 2.7069530629e+00 4.6885802386e+00 
329300 4.6781086838e+00 -7.6693367918e-04 2.7069672361e+00 -4.6886047873e+00 2.7069672361e+00 4.6886047873e+00 
329400 4.6781086723e+00 -7.6654563382e-04 2.7069814020e+00 -4.6886293234e+00 2.7069814020e+00 4.6886293234e+00 
329500 4.6781086607e+00 -7.6615775919e-04 2.7069955607e+00 -4.6886538470e+00 2.7069955607e+00 4.6886538470e+00 
329600 4.6781086491e+00 -7.6577005524e-04 2.7070097122e+00 -4.6886783580e+00 2.7070097122e+00 4.6886783580e+00 
329700 4.6781086376e+00 -7.6538252193e-04 2.7070238564e+00 -4.6887028565e+00 2.7070238564e+00 4.6887028565e+00 
329800 4.6781086261e+00 -7.6499515922e-04 2.7070379934e+00 -4.6887273425e+00 2.7070379934e+00 4.6887273425e+00 
329900 4.6781086145e+00 -7.6460796709e-04 2.7070521231e+00 -4.6887518160e+00 2.7070521231e+00 4.6887518160e+00 
330000 4.6781086030e+00 -7.6422094548e-04 2.7070662457e+00 -4.6887762769e+00 2.7070662457e+00 4.6887762769e+00 
330100 4.6781085915e+00 -7.6383409437e-04 2.7070803610e+00 -4.6888007254e+00 2.7070803610e+00 4.6888007254e+00 
330200 4.6781085801e+00 -7.6344741370e-04 2.7070944691e+00 -4.6888251613e+00 2.7070944691e+00 4.6888251613e+00 
330300 4.6781085686e+00 -7.6306090345e-04 2.7071085699e+00 -4.6888495847e+00 2.7071085699e+00 4.6888495847e+00 
330400 4.6781085571e+00 -7.6267456358e-04 2.7071226636e+00 -4.6888739957e+00 2.7071226636e+00 4.6888739957e+00 
330500 4.6781085457e+00 -7.6228839404e-04 2.7071367500e+00 -4.6888983941e+00 2.7071367500e+00 4.6888983941e+00 
330600 4.6781085342e+00 -7.6190239480e-04 2.7071508293e+00 -4.6889227801e+00 2.7071508293e+00 4.6889227801e+00 
330700 4.6781085228e+00 -7.6151656582e-04 2.7071649013e+00 -4.6889471536e+00 2.7071649013e+00 4.6889471536e+00 
330800 4.6781085114e+00 -7.6113090706e-04 2.7071789662e+00 -4.6889715146e+00 2.7071789662e+00 4.6889715146e+00 
330900 4.6781085000e+00 -7.6074541848e-04 2.7071930238e+00 -4.6889958632e+00 2.7071930238e+00 4.6889958632e+00 
331000 4.6781084886e+00 -7.6036010004e-04 2.7072070743e+00 -4.6890201993e+00 2.7072070743e+00 4.6890201993e+00 
331100 4.6781084772e+00 -7.5997495171e-04 2.7072211176e+00 -4.6890445230e+00 2.7072211176e+00 4.6890445230e+00 
331200 4.6781084659e+00 -7.5958997345e-04 2.7072351537e+00 -4.6890688342e+00 2.7072351537e+00 4.6890688342e+00 
331300 4.6781084545e+00 -7.5920516521e-04 2.7072491826e+00 -4.6890931329e+00 2.7072491826e+00 4.6890931329e+00 
331400 4.6781084432e+00 -7.5882052695e-04 2.7072632043e+00 -4.6891174193e+00 2.7072632043e+00 4.6891174193e+00 
331500 4.6781084318e+00 -7.5843605865e-04 2.7072772188e+00 -4.6891416932e+00 2.7072772188e+00 4.6891416932e+00 
331600 4.6781084205e+00 -7.5805176025e-04 2.7072912262e+00 -4.6891659546e+00 2.7072912262e+00 4.6891659546e+00 
331700 4.6781084092e+00 -7.5766763173e-04 2.7073052264e+00 -4.6891902037e+00 2.7073052264e+00 4.6891902037e+00 
331800 4.6781083979e+00 -7.5728367303e-04 2.7073192194e+00 -4.6892144403e+00 2.7073192194e+00 4.6892144403e+00 
331900 4.6781083866e+00 -7.5689988413e-04 2.7073332053e+00 -4.6892386646e+00 2.7073332053e+00 4.6892386646e+00 
332000 4.6781083754e+00 -7.5651626498e-04 2.7073471840e+00 -4.6892628764e+00 2.7073471840e+00 4.6892628764e+00 
332100 4.6781083641e+00 -7.5613281554e-04 2.7073611556e+00 -4.6892870759e+00 2.7073611556e+00 4.6892870759e+00 
332200 4.6781083529e+00 -7.5574953577e-04 2.7073751200e+00 -4.6893112629e+00 2.7073751200e+00 4.6893112629e+00 
332300 4.6781083416e+00 -7.5536642564e-04 2.7073890772e+00 -4.6893354376e+00 2.7073890772e+00 4.6893354376e+00 
332400 4.6781083304e+00 -7.5498348510e-04 2.7074030273e+00 -4.6893595999e+00 2.7074030273e+00 4.6893595999e+00 
332500 4.6781083192e+00 -7.5460071411e-04 2.7074169703e+00 -4.6893837498e+00 2.7074169703e+00 4.6893837498e+00 
332600 4.6781083080e+00 -7.5421811264e-04 2.7074309061e+00 -4.6894078873e+00 2.7074309061e+00 4.6894078873e+00 
332700 4.6781082968e+00 -7.5383568065e-04 2.7074448348e+00 -4.6894320125e+00 2.7074448348e+00 4.6894320125e+00 
332800 4.6781082856e+00 -7.5345341809e-04 2.7074587563e+00 -4.6894561253e+00 2.7074587563e+00 4.6894561253e+00 
332900 4.6781082744e+00 -7.5307132493e-04 2.7074726707e+00 -4.6894802258e+00 2.7074726707e+00 4.6894802258e+00 
333000 4.6781082633e+00 -7.5268940112e-04 2.7074865780e+00 -4.6895043139e+00 2.7074865780e+00 4.6895043139e+00 
333100 4.6781082521e+00 -7.5230764663e-04 2.7075004782e+00 -4.6895283897e+00 2.7075004782e+00 4.6895283897e+00 
333200 4.6781082410e+00 -7.5192606142e-04 2.7075143712e+00 -4.6895524532e+00 2.7075143712e+00 4.6895524532e+00 
333300 4.6781082299e+00 -7.5154464544e-04 2.7075282571e+00 -4.6895765043e+00 2.7075282571e+00 4.6895765043e+00 
333400 4.6781082188e+00 -7.5116339866e-04 2.7075421359e+00 -4.6896005431e+00 2.7075421359e+00 4.6896005431e+00 
333500 4.6781082077e+00 -7.5078232103e-04 2.7075560076e+00 -4.6896245696e+00 2.7075560076e+00 4.6896245696e+00 
333600 4.6781081966e+00 -7.5040141252e-04 2.7075698722e+00 -4.6896485837e+00 2.7075698722e+00 4.6896485837e+00 
333700 4.6781081855e+00 -7.5002067309e-04 2.7075837297e+00 -4.6896725856e+00 2.7075837297e+00 4.6896725856e+00 
333800 4.6781081744e+00 -7.4964010269e-04 2.7075975801e+00 -4.6896965752e+00 2.7075975801e+00 4.6896965752e+00 
333900 4.6781081634e+00 -7.4925970129e-04 2.7076114234e+00 -4.6897205524e+00 2.7076114234e+00 4.6897205524e+00 
334000 4.6781081524e+00 -7.4887946884e-04 2.7076252596e+00 -4.6897445174e+00 2.7076252596e+00 4.6897445174e+00 
334100 4.6781081413e+00 -7.4849940531e-04 2.7076390887e+00 -4.6897684701e+00 2.7076390887e+00 4.6897684701e+00 
334200 4.6781081303e+00 -7.4811951065e-04 2.7076529107e+00 -4.6897924105e+00 2.7076529107e+00 4.6897924105e+00 
334300 4.6781081193e+00 -7.4773978483e-04 2.7076667256e+00 -4.6898163387e+00 2.7076667256e+00 4.6898163387e+00 
334400 4.6781081083e+00 -7.4736022780e-04 2.7076805334e+00 -4.6898402545e+00 2.7076805334e+00 4.6898402545e+00 
334500 4.6781080973e+00 -7.4698083952e-04 2.7076943342e+00 -4.6898641582e+00 2.7076943342e+00 4.6898641582e+00 
334600 4.6781080863e+00 -7.4660161996e-04 2.7077081279e+00 -4.6898880495e+00 2.7077081279e+00 4.6898880495e+00 
334700 4.6781080754e+00 -7.4622256906e-04 2.7077219145e+00 -4.6899119286e+00 2.7077219145e+00 4.6899119286e+00 
334800 4.6781080644e+00 -7.4584368680e-04 2.7077356940e+00 -4.6899357955e+00 2.7077356940e+00 4.6899357955e+00 
334900 4.6781080535e+00 -7.4546497313e-04 2.7077494665e+00 -4.6899596501e+00 2.7077494665e+00 4.6899596501e+00 
335000 4.6781080426e+00 -7.4508642801e-04 2.7077632319e+00 -4.6899834925e+00 2.7077632319e+00 4.6899834925e+00 
335100 4.6781080316e+00 -7.4470805140e-04 2.7077769902e+00 -4.6900073227e+00 2.7077769902e+00 4.6900073227e+00 
335200 4.6781080207e+00 -7.4432984326e-04 2.7077907415e+00 -4.6900311406e+00 2.7077907415e+00 4.6900311406e+00 
335300 4.6781080098e+00 -7.4395180354e-04 2.7078044858e+00 -4.6900549463e+00 2.7078044858e+00 4.6900549463e+00 
335400 4.6781079990e+00 -7.4357393221e-04 2.7078182230e+00 -4.6900787398e+00 2.7078182230e+00 4.6900787398e+00 
335500 4.6781079881e+00 -7.4319622922e-04 2.7078319531e+00 -4.6901025211e+00 2.7078319531e+00 4.6901025211e+00 
335600 4.6781079772e+00 -7.4281869454e-04 2.7078456762e+00 -4.6901262902e+00 2.7078456762e+00 4.6901262902e+00 
335700 4.6781079664e+00 -7.4244132813e-04 2.7078593923e+00 -4.6901500471e+00 2.7078593923e+00 4.6901500471e+00 
335800 4.6781079555e+00 -7.4206412993e-04 2.7078731013e+00 -4.6901737919e+00 2.7078731013e+00 4.6901737919e+00 
335900 4.6781079447e+00 -7.4168709992e-04 2.7078868033e+00 -4.6901975244e+00 2.7078868033e+00 4.6901975244e+00 
336000 4.6781079339e+00 -7.4131023804e-04 2.7079004982e+00 -4.6902212447e+00 2.7079004982e+00 4.6902212447e+00 
336100 4.6781079231e+00 -7.4093354427e-04 2.7079141861e+00 -4.6902449529e+00 2.7079141861e+00 4.6902449529e+00 
336200 4.6781079123e+00 -7.4055701855e-04 2.7079278670e+00 -4.6902686489e+00 2.7079278670e+00 4.6902686489e+00 
336300 4.6781079015e+00 -7.4018066084e-04 2.7079415409e+00 -4.6902923328e+00 2.7079415409e+00 4.6902923328e+00 
336400 4.6781078908e+00 -7.3980447112e-04 2.7079552078e+00 -4.6903160045e+00 2.7079552078e+00 4.6903160045e+00 
336500 4.6781078800e+00 -7.3942844932e-04 2.7079688676e+00 -4.6903396641e+00 2.7079688676e+00 4.6903396641e+00 
336600 4.6781078693e+00 -7.3905259542e-04 2.7079825205e+00 -4.6903633115e+00 2.7079825205e+00 4.6903633115e+00 
336700 4.6781078585e+00 -7.3867690937e-04 2.7079961663e+00 -4.6903869467e+00 2.7079961663e+00 4.6903869467e+00 
336800 4.6781078478e+00 -7.3830139112e-04 2.7080098051e+00 -4.6904105699e+00 2.7080098051e+00 4.6904105699e+00 
336900 4.6781078371e+00 -7.3792604064e-04 2.7080234369e+00 -4.6904341809e+00 2.7080234369e+00 4.6904341809e+00 
337000 4.6781078264e+00 -7.3755085789e-04 2.7080370618e+00 -4.6904577797e+00 2.7080370618e+00 4.6904577797e+00 
337100 4.6781078157e+00 -7.3717584282e-04 2.7080506796e+00 -4.6904813665e+00 2.7080506796e+00 4.6904813665e+00 
337200 4.6781078050e+00 -7.3680099540e-04 2.7080642904e+00 -4.6905049412e+00 2.7080642904e+00 4.6905049412e+00 
337300 4.6781077943e+00 -7.3642631557e-04 2.7080778943e+00 -4.6905285037e+00 2.7080778943e+00 4.6905285037e+00 
337400 4.6781077837e+00 -7.3605180330e-04 2.7080914911e+00 -4.6905520541e+00 2.7080914911e+00 4.6905520541e+00 
337500 4.6781077730e+00 -7.3567745855e-04 2.7081050810e+00 -4.6905755925e+00 2.7081050810e+00 4.6905755925e+00 
337600 4.6781077624e+00 -7.3530328127e-04 2.7081186639e+00 -4.6905991188e+00 2.7081186639e+00 4.6905991188e+00 
337700 4.6781077518e+00 -7.3492927143e-04 2.7081322398e+00 -4.6906226329e+00 2.7081322398e+00 4.6906226329e+00 
337800 4.6781077411e+00 -7.3455542897e-04 2.7081458087e+00 -4.6906461350e+00 2.7081458087e+00 4.6906461350e+00 
337900 4.6781077305e+00 -7.3418175387e-04 2.7081593707e+00 -4.6906696251e+00 2.7081593707e+00 4.6906696251e+00 
338000 4.6781077199e+00 -7.3380824607e-04 2.7081729257e+00 -4.6906931030e+00 2.7081729257e+00 4.6906931030e+00 
338100 4.6781077094e+00 -7.3343490554e-04 2.7081864738e+00 -4.6907165689e+00 2.7081864738e+00 4.6907165689e+00 
338200 4.6781076988e+00 -7.3306173222e-04 2.7082000148e+00 -4.6907400228e+00 2.7082000148e+00 4.6907400228e+00 
338300 4.6781076882e+00 -7.3268872609e-04 2.7082135490e+00 -4.6907634646e+00 2.7082135490e+00 4.6907634646e+00 
338400 4.6781076777e+00 -7.3231588710e-04 2.7082270761e+00 -4.6907868943e+00 2.7082270761e+00 4.6907868943e+00 
338500 4.6781076671e+00 -7.3194321520e-04 2.7082405964e+00 -4.6908103120e+00 2.7082405964e+00 4.6908103120e+00 
338600 4.6781076566e+00 -7.3157071035e-04 2.7082541096e+00 -4.6908337177e+00 2.7082541096e+00 4.6908337177e+00 
338700 4.6781076461e+00 -7.3119837252e-04 2.7082676160e+00 -4.6908571113e+00 2.7082676160e+00 4.6908571113e+00 
338800 4.6781076356e+00 -7.3082620165e-04 2.7082811153e+00 -4.6908804930e+00 2.7082811153e+00 4.6908804930e+00 
338900 4.6781076251e+00 -7.3045419771e-04 2.7082946078e+00 -4.6909038626e+00 2.7082946078e+00 4.6909038626e+00 
339000 4.6781076146e+00 -7.3008236066e-04 2.7083080933e+00 -4.6909272202e+00 2.7083080933e+00 4.6909272202e+00 
339100 4.6781076041e+00 -7.2971069044e-04 2.7083215719e+00 -4.6909505657e+00 2.7083215719e+00 4.6909505657e+00 
339200 4.6781075937e+00 -7.2933918702e-04 2.7083350435e+00 -4.6909738993e+00 2.7083350435e+00 4.6909738993e+00 
339300 4.6781075832e+00 -7.2896785036e-04 2.7083485083e+00 -4.6909972209e+00 2.7083485083e+00 4.6909972209e+00 
339400 4.6781075728e+00 -7.2859668042e-04 2.7083619661e+00 -4.6910205305e+00 2.7083619661e+00 4.6910205305e+00 
339500 4.6781075624e+00 -7.2822567714e-04 2.7083754170e+00 -4.6910438281e+00 2.7083754170e+00 4.6910438281e+00 
339600 4.6781075519e+00 -7.2785484049e-04 2.7083888609e+00 -4.6910671138e+00 2.7083888609e+00 4.6910671138e+00 
339700 4.6781075415e+00 -7.2748417042e-04 2.7084022980e+00 -4.6910903874e+00 2.7084022980e+00 4.6910903874e+00 
339800 4.6781075311e+00 -7.2711366690e-04 2.7084157281e+00 -4.6911136491e+00 2.7084157281e+00 4.6911136491e+00 
339900 4.6781075207e+00 -7.2674332987e-04 2.7084291514e+00 -4.6911368989e+00 2.7084291514e+00 4.6911368989e+00 
340000 4.6781075104e+00 -7.2637315931e-04 2.7084425677e+00 -4.6911601366e+00 2.7084425677e+00 4.6911601366e+00 
340100 4.6781075000e+00 -7.2600315515e-04 2.7084559771e+00 -4.6911833625e+00 2.7084559771e+00 4.6911833625e+00 
340200 4.6781074896e+00 -7.2563331737e-04 2.7084693797e+00 -4.6912065763e+00 2.7084693797e+00 4.6912065763e+00 
340300 4.6781074793e+00 -7.2526364591e-04 2.7084827753e+00 -4.6912297783e+00 2.7084827753e+00 4.6912297783e+00 
340400 4.6781074690e+00 -7.2489414074e-04 2.7084961641e+00 -4.6912529683e+00 2.7084961641e+00 4.6912529683e+00 
340500 4.6781074586e+00 -7.2452480181e-04 2.7085095459e+00 -4.6912761464e+00 2.7085095459e+00 4.6912761464e+00 
340600 4.6781074483e+00 -7.2415562908e-04 2.7085229209e+00 -4.6912993125e+00 2.7085229209e+00 4.6912993125e+00 
340700 4.6781074380e+00 -7.2378662250e-04 2.7085362890e+00 -4.6913224667e+00 2.7085362890e+00 4.6913224667e+00 
340800 4.6781074277e+00 -7.2341778203e-04 2.7085496502e+00 -4.6913456091e+00 2.7085496502e+00 4.6913456091e+00 
340900 4.6781074175e+00 -7.2304910763e-04 2.7085630046e+00 -4.6913687395e+00 2.7085630046e+00 4.6913687395e+00 
341000 4.6781074072e+00 -7.2268059926e-04 2.7085763521e+00 -4.6913918580e+00 2.7085763521e+00 4.6913918580e+00 
341100 4.6781073969e+00 -7.2231225687e-04 2.7085896927e+00 -4.6914149646e+00 2.7085896927e+00 4.6914149646e+00 
341200 4.6781073867e+00 -7.2194408042e-04 2.7086030264e+00 -4.6914380593e+00 2.7086030264e+00 4.6914380593e+00 
341300 4.6781073765e+00 -7.2157606986e-04 2.7086163533e+00 -4.6914611422e+00 2.7086163533e+00 4.6914611422e+00 
341400 4.6781073662e+00 -7.2120822515e-04 2.7086296733e+00 -4.6914842131e+00 2.7086296733e+00 4.6914842131e+00 
341500 4.6781073560e+00 -7.2084054625e-04 2.7086429865e+00 -4.6915072722e+00 2.7086429865e+00 4.6915072722e+00 
341600 4.6781073458e+00 -7.2047303312e-04 2.7086562928e+00 -4.6915303194e+00 2.7086562928e+00 4.6915303194e+00 
341700 4.6781073356e+00 -7.2010568571e-04 2.7086695923e+00 -4.6915533548e+00 2.7086695923e+00 4.6915533548e+00 
341800 4.6781073254e+00 -7.1973850397e-04 2.7086828849e+00 -4.6915763782e+00 2.7086828849e+00 4.6915763782e+00 
341900 4.6781073153e+00 -7.1937148787e-04 2.7086961707e+00 -4.6915993899e+00 2.7086961707e+00 4.6915993899e+00 
342000 4.6781073051e+00 -7.1900463735e-04 2.7087094496e+00 -4.6916223897e+00 2.7087094496e+00 4.6916223897e+00 
342100 4.6781072949e+00 -7.1863795239e-04 2.7087227217e+00 -4.6916453776e+00 2.7087227217e+00 4.6916453776e+00 
342200 4.6781072848e+00 -7.1827143292e-04 2.7087359870e+00 -4.6916683537e+00 2.7087359870e+00 4.6916683537e+00 
342300 4.6781072747e+00 -7.1790507892e-04 2.7087492454e+00 -4.6916913180e+00 2.7087492454e+00 4.6916913180e+00 
342400 4.6781072645e+00 -7.1753889033e-04 2.7087624970e+00 -4.6917142705e+00 2.7087624970e+00 4.6917142705e+00 
342500 4.6781072544e+00 -7.1717286711e-04 2.7087757418e+00 -4.6917372111e+00 2.7087757418e+00 4.6917372111e+00 
342600 4.6781072443e+00 -7.1680700922e-04 2.7087889798e+00 -4.6917601399e+00 2.7087889798e+00 4.6917601399e+00 
342700 4.6781072342e+00 -7.1644131661e-04 2.7088022109e+00 -4.6917830570e+00 2.7088022109e+00 4.6917830570e+00 
342800 4.6781072242e+00 -7.1607578924e-04 2.7088154352e+00 -4.6918059622e+00 2.7088154352e+00 4.6918059622e+00 
342900 4.6781072141e+00 -7.1571042706e-04 2.7088286528e+00 -4.6918288556e+00 2.7088286528e+00 4.6918288556e+00 
343000 4.6781072040e+00 -7.1534523004e-04 2.7088418635e+00 -4.6918517372e+00 2.7088418635e+00 4.6918517372e+00 
343100 4.6781071940e+00 -7.1498019812e-04 2.7088550674e+00 -4.6918746070e+00 2.7088550674e+00 4.6918746070e+00 
343200 4.6781071840e+00 -7.1461533126e-04 2.7088682645e+00 -4.6918974651e+00 2.7088682645e+00 4.6918974651e+00 
343300 4.6781071739e+00 -7.1425062943e-04 2.7088814548e+00 -4.6919203114e+00 2.7088814548e+00 4.6919203114e+00 
343400 4.6781071639e+00 -7.1388609256e-04 2.7088946383e+00 -4.6919431459e+00 2.7088946383e+00 4.6919431459e+00 
343500 4.6781071539e+00 -7.1352172063e-04 2.7089078150e+00 -4.6919659686e+00 2.7089078150e+00 4.6919659686e+00 
343600 4.6781071439e+00 -7.1315751358e-04 2.7089209849e+00 -4.6919887796e+00 2.7089209849e+00 4.6919887796e+00 
343700 4.6781071339e+00 -7.1279347138e-04 2.7089341481e+00 -4.6920115788e+00 2.7089341481e+00 4.6920115788e+00 
343800 4.6781071240e+00 -7.1242959397e-04 2.7089473044e+00 -4.6920343663e+00 2.7089473044e+00 4.6920343663e+00 
343900 4.6781071140e+00 -7.1206588132e-04 2.7089604540e+00 -4.6920571420e+00 2.7089604540e+00 4.6920571420e+00 
344000 4.6781071040e+00 -7.1170233337e-04 2.7089735968e+00 -4.6920799060e+00 2.7089735968e+00 4.6920799060e+00 
344100 4.6781070941e+00 -7.1133895008e-04 2.7089867328e+00 -4.6921026583e+00 2.7089867328e+00 4.6921026583e+00 
344200 4.6781070842e+00 -7.1097573142e-04 2.7089998621e+00 -4.6921253988e+00 2.7089998621e+00 4.6921253988e+00 
344300 4.6781070742e+00 -7.1061267733e-04 2.7090129846e+00 -4.6921481276e+00 2.7090129846e+00 4.6921481276e+00 
344400 4.6781070643e+00 -7.1024978777e-04 2.7090261003e+00 -4.6921708447e+00 2.7090261003e+00 4.6921708447e+00 
344500 4.6781070544e+00 -7.0988706270e-04 2.7090392093e+00 -4.6921935501e+00 2.7090392093e+00 4.6921935501e+00 
344600 4.6781070445e+00 -7.0952450206e-04 2.7090523115e+00 -4.6922162438e+00 2.7090523115e+00 4.6922162438e+00 
344700 4.6781070346e+00 -7.0916210582e-04 2.7090654069e+00 -4.6922389258e+00 2.7090654069e+00 4.6922389258e+00 
344800 4.6781070248e+00 -7.0879987394e-04 2.7090784956e+00 -4.6922615961e+00 2.7090784956e+00 4.6922615961e+00 
344900 4.6781070149e+00 -7.0843780636e-04 2.7090915776e+00 -4.6922842547e+00 2.7090915776e+00 4.6922842547e+00 
345000 4.6781070051e+00 -7.0807590304e-04 2.7091046528e+00 -4.6923069016e+00 2.7091046528e+00 4.6923069016e+00 
345100 4.6781069952e+00 -7.0771416394e-04 2.7091177212e+00 -4.6923295368e+00 2.7091177212e+00 4.6923295368e+00 
345200 4.6781069854e+00 -7.0735258901e-04 2.7091307829e+00 -4.6923521604e+00 2.7091307829e+00 4.6923521604e+00 
345300 4.6781069756e+00 -7.0699117821e-04 2.7091438379e+00 -4.6923747723e+00 2.7091438379e+00 4.6923747723e+00 
345400 4.6781069658e+00 -7.0662993149e-04 2.7091568862e+00 -4.6923973725e+00 2.7091568862e+00 4.6923973725e+00 
345500 4.6781069560e+00 -7.0626884881e-04 2.7091699277e+00 -4.6924199611e+00 2.7091699277e+00 4.6924199611e+00 
345600 4.6781069462e+00 -7.0590793012e-04 2.7091829625e+00 -4.6924425380e+00 2.7091829625e+00 4.6924425380e+00 
345700 4.6781069364e+00 -7.0554717538e-04 2.7091959906e+00 -4.6924651033e+00 2.7091959906e+00 4.6924651033e+00 
345800 4.6781069266e+00 -7.0518658454e-04 2.7092090119e+00 -4.6924876569e+00 2.7092090119e+00 4.6924876569e+00 
345900 4.6781069169e+00 -7.0482615755e-04 2.7092220265e+00 -4.6925101989e+00 2.7092220265e+00 4.6925101989e+00 
346000 4.6781069071e+00 -7.0446589438e-04 2.7092350344e+00 -4.6925327293e+00 2.7092350344e+00 4.6925327293e+00 
346100 4.6781068974e+00 -7.0410579498e-04 2.7092480357e+00 -4.6925552481e+00 2.7092480357e+00 4.6925552481e+00 
346200 4.6781068876e+00 -7.0374585929e-04 2.7092610302e+00 -4.6925777552e+00 2.7092610302e+00 4.6925777552e+00 
346300 4.6781068779e+00 -7.0338608729e-04 2.7092740179e+00 -4.6926002507e+00 2.7092740179e+00 4.6926002507e+00 
346400 4.6781068682e+00 -7.0302647891e-04 2.7092869990e+00 -4.6926227346e+00 2.7092869990e+00 4.6926227346e+00 
346500 4.6781068585e+00 -7.0266703412e-04 2.7092999734e+00 -4.6926452069e+00 2.7092999734e+00 4.6926452069e+00 
346600 4.6781068488e+00 -7.0230775287e-04 2.7093129411e+00 -4.6926676676e+00 2.7093129411e+00 4.6926676676e+00 
346700 4.6781068392e+00 -7.0194863511e-04 2.7093259021e+00 -4.6926901168e+00 2.7093259021e+00 4.6926901168e+00 
346800 4.6781068295e+00 -7.0158968081e-04 2.7093388564e+00 -4.6927125543e+00 2.7093388564e+00 4.6927125543e+00 
346900 4.6781068198e+00 -7.0123088991e-04 2.7093518041e+00 -4.6927349802e+00 2.7093518041e+00 4.6927349802e+00 
347000 4.6781068102e+00 -7.0087226236e-04 2.7093647450e+00 -4.6927573946e+00 2.7093647450e+00 4.6927573946e+00 
347100 4.6781068005e+00 -7.0051379813e-04 2.7093776793e+00 -4.6927797974e+00 2.7093776793e+00 4.6927797974e+00 
347200 4.6781067909e+00 -7.0015549717e-04 2.7093906069e+00 -4.6928021886e+00 2.7093906069e+00 4.6928021886e+00 
347300 4.6781067813e+00 -6.9979735943e-04 2.7094035278e+00 -4.6928245683e+00 2.7094035278e+00 4.6928245683e+00 
347400 4.6781067717e+00 -6.9943938486e-04 2.7094164420e+00 -4.6928469365e+00 2.7094164420e+00 4.6928469365e+00 
347500 4.6781067621e+00 -6.9908157343e-04 2.7094293496e+00 -4.6928692930e+00 2.7094293496e+00 4.6928692930e+00 
347600 4.6781067525e+00 -6.9872392508e-04 2.7094422505e+00 -4.6928916381e+00 2.7094422505e+00 4.6928916381e+00 
347700 4.6781067429e+00 -6.9836643977e-04 2.7094551448e+00 -4.6929139716e+00 2.7094551448e+00 4.6929139716e+00 
347800 4.6781067334e+00 -6.9800911745e-04 2.7094680324e+00 -4.6929362935e+00 2.7094680324e+00 4.6929362935e+00 
347900 4.6781067238e+00 -6.9765195808e-04 2.7094809133e+00 -4.6929586040e+00 2.7094809133e+00 4.6929586040e+00 
348000 4.6781067142e+00 -6.9729496162e-04 2.7094937876e+00 -4.6929809029e+00 2.7094937876e+00 4.6929809029e+00 
348100 4.6781067047e+00 -6.9693812800e-04 2.7095066552e+00 -4.6930031903e+00 2.7095066552e+00 4.6930031903e+00 
348200 4.6781066952e+00 -6.9658145720e-04 2.7095195162e+00 -4.6930254661e+00 2.7095195162e+00 4.6930254661e+00 
348300 4.6781066857e+00 -6.9622494917e-04 2.7095323705e+00 -4.6930477305e+00 2.7095323705e+00 4.6930477305e+00 
348400 4.6781066762e+00 -6.9586860385e-04 2.7095452182e+00 -4.6930699834e+00 2.7095452182e+00 4.6930699834e+00 
348500 4.6781066667e+00 -6.9551242120e-04 2.7095580593e+00 -4.6930922248e+00 2.7095580593e+00 4.6930922248e+00 
348600 4.6781066572e+00 -6.9515640118e-04 2.7095708938e+00 -4.6931144547e+00 2.7095708938e+00 4.6931144547e+00 
348700 4.6781066477e+00 -6.9480054374e-04 2.7095837216e+00 -4.6931366731e+00 2.7095837216e+00 4.6931366731e+00 
348800 4.6781066382e+00 -6.9444484883e-04 2.7095965427e+00 -4.6931588800e+00 2.7095965427e+00 4.6931588800e+00 
348900 4.6781066288e+00 -6.9408931641e-04 2.7096093573e+00 -4.6931810755e+00 2.7096093573e+00 4.6931810755e+00 
349000 4.6781066193e+00 -6.9373394644e-04 2.7096221652e+00 -4.6932032595e+00 2.7096221652e+00 4.6932032595e+00 
349100 4.6781066099e+00 -6.9337873885e-04 2.7096349665e+00 -4.6932254320e+00 2.7096349665e+00 4.6932254320e+00 
349200 4.6781066004e+00 -6.9302369362e-04 2.7096477612e+00 -4.6932475931e+00 2.7096477612e+00 4.6932475931e+00 
349300 4.6781065910e+00 -6.9266881069e-04 2.7096605493e+00 -4.6932697427e+00 2.7096605493e+00 4.6932697427e+00 
349400 4.6781065816e+00 -6.9231409002e-04 2.7096733308e+00 -4.6932918809e+00 2.7096733308e+00 4.6932918809e+00 
349500 4.6781065722e+00 -6.9195953156e-04 2.7096861057e+00 -4.6933140076e+00 2.7096861057e+00 4.6933140076e+00 
349600 4.6781065628e+00 -6.9160513526e-04 2.7096988739e+00 -4.6933361229e+00 2.7096988739e+00 4.6933361229e+00 
349700 4.6781065534e+00 -6.9125090108e-04 2.7097116356e+00 -4.6933582267e+00 2.7097116356e+00 4.6933582267e+00 
349800 4.6781065441e+00 -6.9089682898e-04 2.7097243907e+00 -4.6933803192e+00 2.7097243907e+00 4.6933803192e+00 
349900 4.6781065347e+00 -6.9054291889e-04 2.7097371392e+00 -4.6934024002e+00 2.7097371392e+00 4.6934024002e+00 
350000 4.6781065254e+00 -6.9018917079e-04 2.7097498811e+00 -4.6934244698e+00 2.7097498811e+00 4.6934244698e+00 
350100 4.6781065160e+00 -6.8983558462e-04 2.7097626164e+00 -4.6934465280e+00 2.7097626164e+00 4.6934465280e+00 
350200 4.6781065067e+00 -6.8948216033e-04 2.7097753451e+00 -4.6934685748e+00 2.7097753451e+00 4.6934685748e+00 
350300 4.6781064974e+00 -6.8912889789e-04 2.7097880672e+00 -4.6934906102e+00 2.7097880672e+00 4.6934906102e+00 
350400 4.6781064880e+00 -6.8877579723e-04 2.7098007828e+00 -4.6935126342e+00 2.7098007828e+00 4.6935126342e+00 
350500 4.6781064787e+00 -6.8842285832e-04 2.7098134918e+00 -4.6935346468e+00 2.7098134918e+00 4.6935346468e+00 
350600 4.6781064694e+00 -6.8807008111e-04 2.7098261942e+00 -4.6935566480e+00 2.7098261942e+00 4.6935566480e+00 
350700 4.6781064602e+00 -6.8771746556e-04 2.7098388900e+00 -4.6935786378e+00 2.7098388900e+00 4.6935786378e+00 
350800 4.6781064509e+00 -6.8736501161e-04 2.7098515793e+00 -4.6936006163e+00 2.7098515793e+00 4.6936006163e+00 
350900 4.6781064416e+00 -6.8701271921e-04 2.7098642620e+00 -4.6936225834e+00 2.7098642620e+00 4.6936225834e+00 
351000 4.6781064324e+00 -6.8666058833e-04 2.7098769382e+00 -4.6936445392e+00 2.7098769382e+00 4.6936445392e+00 
351100 4.6781064231e+00 -6.8630861892e-04 2.7098896078e+00 -4.6936664836e+00 2.7098896078e+00 4.6936664836e+00 
351200 4.6781064139e+00 -6.8595681093e-04 2.7099022708e+00 -4.6936884166e+00 2.7099022708e+00 4.6936884166e+00 
351300 4.6781064047e+00 -6.8560516430e-04 2.7099149273e+00 -4.6937103383e+00 2.7099149273e+00 4.6937103383e+00 
351400 4.6781063954e+00 -6.8525367901e-04 2.7099275773e+00 -4.6937322486e+00 2.7099275773e+00 4.6937322486e+00 
351500 4.6781063862e+00 -6.8490235499e-04 2.7099402207e+00 -4.6937541477e+00 2.7099402207e+00 4.6937541477e+00 
351600 4.6781063770e+00 -6.8455119220e-04 2.7099528575e+00 -4.6937760354e+00 2.7099528575e+00 4.6937760354e+00 
351700 4.6781063679e+00 -6.8420019059e-04 2.7099654879e+00 -4.6937979117e+00 2.7099654879e+00 4.6937979117e+00 
351800 4.6781063587e+00 -6.8384935013e-04 2.7099781116e+00 -4.6938197768e+00 2.7099781116e+00 4.6938197768e+00 
351900 4.6781063495e+00 -6.8349867075e-04 2.7099907289e+00 -4.6938416305e+00 2.7099907289e+00 4.6938416305e+00 
352000 4.6781063404e+00 -6.8314815241e-04 2.7100033396e+00 -4.6938634729e+00 2.7100033396e+00 4.6938634729e+00 
352100 4.6781063312e+00 -6.8279779508e-04 2.7100159438e+00 -4.6938853040e+00 2.7100159438e+00 4.6938853040e+00 
352200 4.6781063221e+00 -6.8244759869e-04 2.7100285415e+00 -4.6939071239e+00 2.7100285415e+00 4.6939071239e+00 
352300 4.6781063129e+00 -6.8209756320e-04 2.7100411327e+00 -4.6939289324e+00 2.7100411327e+00 4.6939289324e+00 
352400 4.6781063038e+00 -6.8174768857e-04 2.7100537173e+00 -4.6939507296e+00 2.7100537173e+00 4.6939507296e+00 
352500 4.6781062947e+00 -6.8139797474e-04 2.7100662955e+00 -4.6939725156e+00 2.7100662955e+00 4.6939725156e+00 
352600 4.6781062856e+00 -6.8104842168e-04 2.7100788671e+00 -4.6939942903e+00 2.7100788671e+00 4.6939942903e+00 
352700 4.6781062765e+00 -6.8069902933e-04 2.7100914322e+00 -4.6940160537e+00 2.7100914322e+00 4.6940160537e+00 
352800 4.6781062674e+00 -6.8034979764e-04 2.7101039908e+00 -4.6940378059e+00 2.7101039908e+00 4.6940378059e+00 
352900 4.6781062584e+00 -6.8000072658e-04 2.7101165429e+00 -4.6940595467e+00 2.7101165429e+00 4.6940595467e+00 
353000 4.6781062493e+00 -6.7965181608e-04 2.7101290885e+00 -4.6940812764e+00 2.7101290885e+00 4.6940812764e+00 
353100 4.6781062402e+00 -6.7930306611e-04 2.7101416276e+00 -4.6941029948e+00 2.7101416276e+00 4.6941029948e+00 
353200 4.6781062312e+00 -6.7895447661e-04 2.7101541602e+00 -4.6941247019e+00 2.7101541602e+00 4.6941247019e+00 
353300 4.6781062222e+00 -6.7860604754e-04 2.7101666864e+00 -4.6941463978e+00 2.7101666864e+00 4.6941463978e+00 
353400 4.6781062131e+00 -6.7825777885e-04 2.7101792060e+00 -4.6941680825e+00 2.7101792060e+00 4.6941680825e+00 
353500 4.6781062041e+00 -6.7790967050e-04 2.7101917192e+00 -4.6941897559e+00 2.7101917192e+00 4.6941897559e+00 
353600 4.6781061951e+00 -6.7756172244e-04 2.7102042259e+00 -4.6942114181e+00 2.7102042259e+00 4.6942114181e+00 
353700 4.6781061861e+00 -6.7721393461e-04 2.7102167261e+00 -4.6942330691e+00 2.7102167261e+00 4.6942330691e+00 
353800 4.6781061771e+00 -6.7686630697e-04 2.7102292198e+00 -4.6942547089e+00 2.7102292198e+00 4.6942547089e+00 
353900 4.6781061681e+00 -6.7651883948e-04 2.7102417071e+00 -4.6942763374e+00 2.7102417071e+00 4.6942763374e+00 
354000 4.6781061592e+00 -6.7617153208e-04 2.7102541879e+00 -4.6942979548e+00 2.7102541879e+00 4.6942979548e+00 
354100 4.6781061502e+00 -6.7582438474e-04 2.7102666622e+00 -4.6943195610e+00 2.7102666622e+00 4.6943195610e+00 
354200 4.6781061413e+00 -6.7547739739e-04 2.7102791301e+00 -4.6943411560e+00 2.7102791301e+00 4.6943411560e+00 
354300 4.6781061323e+00 -6.7513056999e-04 2.7102915915e+00 -4.6943627398e+00 2.7102915915e+00 4.6943627398e+00 
354400 4.6781061234e+00 -6.7478390250e-04 2.7103040464e+00 -4.6943843124e+00 2.7103040464e+00 4.6943843124e+00 
354500 4.6781061145e+00 -6.7443739487e-04 2.7103164949e+00 -4.6944058738e+00 2.7103164949e+00 4.6944058738e+00 
354600 4.6781061055e+00 -6.7409104705e-04 2.7103289370e+00 -4.6944274241e+00 2.7103289370e+00 4.6944274241e+00 
354700 4.6781060966e+00 -6.7374485899e-04 2.7103413726e+00 -4.6944489632e+00 2.7103413726e+00 4.6944489632e+00 
354800 4.6781060877e+00 -6.7339883065e-04 2.7103538017e+00 -4.6944704911e+00 2.7103538017e+00 4.6944704911e+00 
354900 4.6781060789e+00 -6.7305296197e-04 2.7103662245e+00 -4.6944920079e+00 2.7103662245e+00 4.6944920079e+00 
355000 4.6781060700e+00 -6.7270725291e-04 2.7103786407e+00 -4.6945135135e+00 2.7103786407e+00 4.6945135135e+00 
355100 4.6781060611e+00 -6.7236170342e-04 2.7103910506e+00 -4.6945350080e+00 2.7103910506e+00 4.6945350080e+00 
355200 4.6781060523e+00 -6.7201631345e-04 2.7104034540e+00 -4.6945564914e+00 2.7104034540e+00 4.6945564914e+00 
355300 4.6781060434e+00 -6.7167108295e-04 2.7104158510e+00 -4.6945779636e+00 2.7104158510e+00 4.6945779636e+00 
355400 4.6781060346e+00 -6.7132601189e-04 2.7104282416e+00 -4.6945994247e+00 2.7104282416e+00 4.6945994247e+00 
355500 4.6781060257e+00 -6.7098110020e-04 2.7104406257e+00 -4.6946208746e+00 2.7104406257e+00 4.6946208746e+00 
355600 4.6781060169e+00 -6.7063634784e-04 2.7104530034e+00 -4.6946423135e+00 2.7104530034e+00 4.6946423135e+00 
355700 4.6781060081e+00 -6.7029175477e-04 2.7104653747e+00 -4.6946637412e+00 2.7104653747e+00 4.6946637412e+00 
355800 4.6781059993e+00 -6.6994732092e-04 2.7104777396e+00 -4.6946851578e+00 2.7104777396e+00 4.6946851578e+00 
355900 4.6781059905e+00 -6.6960304627e-04 2.7104900981e+00 -4.6947065633e+00 2.7104900981e+00 4.6947065633e+00 
356000 4.6781059817e+00 -6.6925893075e-04 2.7105024502e+00 -4.6947279578e+00 2.7105024502e+00 4.6947279578e+00 
356100 4.6781059729e+00 -6.6891497432e-04 2.7105147959e+00 -4.6947493411e+00 2.7105147959e+00 4.6947493411e+00 
356200 4.6781059642e+00 -6.6857117694e-04 2.7105271351e+00 -4.6947707133e+00 2.7105271351e+00 4.6947707133e+00 
356300 4.6781059554e+00 -6.6822753855e-04 2.7105394680e+00 -4.6947920745e+00 2.7105394680e+00 4.6947920745e+00 
356400 4.6781059467e+00 -6.6788405910e-04 2.7105517945e+00 -4.6948134246e+00 2.7105517945e+00 4.6948134246e+00 
356500 4.6781059379e+00 -6.6754073855e-04 2.7105641146e+00 -4.6948347636e+00 2.7105641146e+00 4.6948347636e+00 
356600 4.6781059292e+00 -6.6719757685e-04 2.7105764283e+00 -4.6948560915e+00 2.7105764283e+00 4.6948560915e+00 
356700 4.6781059205e+00 -6.6685457395e-04 2.7105887356e+00 -4.6948774084e+00 2.7105887356e+00 4.6948774084e+00 
356800 4.6781059118e+00 -6.6651172980e-04 2.7106010365e+00 -4.6948987142e+00 2.7106010365e+00 4.6948987142e+00 
356900 4.6781059031e+00 -6.6616904435e-04 2.7106133310e+00 -4.6949200090e+00 2.7106133310e+00 4.6949200090e+00 
357000 4.6781058944e+00 -6.6582651756e-04 2.7106256192e+00 -4.6949412928e+00 2.7106256192e+00 4.6949412928e+00 
357100 4.6781058857e+00 -6.6548414937e-04 2.7106379010e+00 -4.6949625655e+00 2.7106379010e+00 4.6949625655e+00 
357200 4.6781058770e+00 -6.6514193975e-04 2.7106501764e+00 -4.6949838271e+00 2.7106501764e+00 4.6949838271e+00 
357300 4.6781058684e+00 -6.6479988863e-04 2.7106624455e+00 -4.6950050777e+00 2.7106624455e+00 4.6950050777e+00 
357400 4.6781058597e+00 -6.6445799598e-04 2.7106747082e+00 -4.6950263174e+00 2.7106747082e+00 4.6950263174e+00 
357500 4.6781058511e+00 -6.6411626173e-04 2.7106869645e+00 -4.6950475459e+00 2.7106869645e+00 4.6950475459e+00 
357600 4.6781058424e+00 -6.6377468586e-04 2.7106992145e+00 -4.6950687635e+00 2.7106992145e+00 4.6950687635e+00 
357700 4.6781058338e+00 -6.6343326829e-04 2.7107114581e+00 -4.6950899701e+00 2.7107114581e+00 4.6950899701e+00 
357800 4.6781058252e+00 -6.6309200900e-04 2.7107236954e+00 -4.6951111656e+00 2.7107236954e+00 4.6951111656e+00 
357900 4.6781058165e+00 -6.6275090792e-04 2.7107359263e+00 -4.6951323502e+00 2.7107359263e+00 4.6951323502e+00 
358000 4.6781058079e+00 -6.6240996501e-04 2.7107481508e+00 -4.6951535238e+00 2.7107481508e+00 4.6951535238e+00 
358100 4.6781057994e+00 -6.6206918023e-04 2.7107603691e+00 -4.6951746864e+00 2.7107603691e+00 4.6951746864e+00 
358200 4.6781057908e+00 -6.6172855351e-04 2.7107725809e+00 -4.6951958380e+00 2.7107725809e+00 4.6951958380e+00 
358300 4.6781057822e+00 -6.6138808482e-04 2.7107847865e+00 -4.6952169786e+00 2.7107847865e+00 4.6952169786e+00 
358400 4.6781057736e+00 -6.6104777410e-04 2.7107969857e+00 -4.6952381082e+00 2.7107969857e+00 4.6952381082e+00 
358500 4.6781057651e+00 -6.6070762131e-04 2.7108091786e+00 -4.6952592269e+00 2.7108091786e+00 4.6952592269e+00 
358600 4.6781057565e+00 -6.6036762640e-04 2.7108213651e+00 -4.6952803346e+00 2.7108213651e+00 4.6952803346e+00 
358700 4.6781057480e+00 -6.6002778932e-04 2.7108335453e+00 -4.6953014314e+00 2.7108335453e+00 4.6953014314e+00 
358800 4.6781057394e+00 -6.5968811001e-04 2.7108457192e+00 -4.6953225172e+00 2.7108457192e+00 4.6953225172e+00 
358900 4.6781057309e+00 -6.5934858844e-04 2.7108578868e+00 -4.6953435921e+00 2.7108578868e+00 4.6953435921e+00 
359000 4.6781057224e+00 -6.5900922455e-04 2.7108700481e+00 -4.6953646560e+00 2.7108700481e+00 4.6953646560e+00 
359100 4.6781057139e+00 -6.5867001829e-04 2.7108822030e+00 -4.6953857090e+00 2.7108822030e+00 4.6953857090e+00 
359200 4.6781057054e+00 -6.5833096961e-04 2.7108943517e+00 -4.6954067510e+00 2.7108943517e+00 4.6954067510e+00 
359300 4.6781056969e+00 -6.5799207847e-04 2.7109064940e+00 -4.6954277822e+00 2.7109064940e+00 4.6954277822e+00 
359400 4.6781056884e+00 -6.5765334482e-04 2.7109186300e+00 -4.6954488024e+00 2.7109186300e+00 4.6954488024e+00 
359500 4.6781056800e+00 -6.5731476860e-04 2.7109307597e+00 -4.6954698117e+00 2.7109307597e+00 4.6954698117e+00 
359600 4.6781056715e+00 -6.5697634977e-04 2.7109428832e+00 -4.6954908101e+00 2.7109428832e+00 4.6954908101e+00 
359700 4.6781056631e+00 -6.5663808828e-04 2.7109550003e+00 -4.6955117975e+00 2.7109550003e+00 4.6955117975e+00 
359800 4.6781056546e+00 -6.5629998409e-04 2.7109671111e+00 -4.6955327741e+00 2.7109671111e+00 4.6955327741e+00 
359900 4.6781056462e+00 -6.5596203713e-04 2.7109792157e+00 -4.6955537398e+00 2.7109792157e+00 4.6955537398e+00 
360000 4.6781056378e+00 -6.5562424736e-04 2.7109913139e+00 -4.6955746946e+00 2.7109913139e+00 4.6955746946e+00 
360100 4.6781056293e+00 -6.5528661473e-04 2.7110034059e+00 -4.6955956385e+00 2.7110034059e+00 4.6955956385e+00 
360200 4.6781056209e+00 -6.5494913920e-04 2.7110154916e+00 -4.6956165716e+00 2.7110154916e+00 4.6956165716e+00 
360300 4.6781056125e+00 -6.5461182072e-04 2.7110275710e+00 -4.6956374937e+00 2.7110275710e+00 4.6956374937e+00 
360400 4.6781056041e+00 -6.5427465922e-04 2.7110396442e+00 -4.6956584050e+00 2.7110396442e+00 4.6956584050e+00 
360500 4.6781055958e+00 -6.5393765468e-04 2.7110517110e+00 -4.6956793054e+00 2.7110517110e+00 4.6956793054e+00 
360600 4.6781055874e+00 -6.5360080703e-04 2.7110637716e+00 -4.6957001950e+00 2.7110637716e+00 4.6957001950e+00 
360700 4.6781055790e+00 -6.5326411623e-04 2.7110758260e+00 -4.6957210737e+00 2.7110758260e+00 4.6957210737e+00 
360800 4.6781055707e+00 -6.5292758222e-04 2.7110878740e+00 -4.6957419416e+00 2.7110878740e+00 4.6957419416e+00 
360900 4.6781055623e+00 -6.5259120497e-04 2.7110999158e+00 -4.6957627986e+00 2.7110999158e+00 4.6957627986e+00 
361000 4.6781055540e+00 -6.5225498441e-04 2.7111119514e+00 -4.6957836448e+00 2.7111119514e+00 4.6957836448e+00 
361100 4.6781055457e+00 -6.5191892051e-04 2.7111239807e+00 -4.6958044802e+00 2.7111239807e+00 4.6958044802e+00 
361200 4.6781055373e+00 -6.5158301320e-04 2.7111360037e+00 -4.6958253047e+00 2.7111360037e+00 4.6958253047e+00 
361300 4.6781055290e+00 -6.5124726245e-04 2.7111480205e+00 -4.6958461184e+00 2.7111480205e+00 4.6958461184e+00 
361400 4.6781055207e+00 -6.5091166819e-04 2.7111600311e+00 -4.6958669213e+00 2.7111600311e+00 4.6958669213e+00 
361500 4.6781055124e+00 -6.5057623039e-04 2.7111720354e+00 -4.6958877134e+00 2.7111720354e+00 4.6958877134e+00 
361600 4.6781055042e+00 -6.5024094900e-04 2.7111840335e+00 -4.6959084946e+00 2.7111840335e+00 4.6959084946e+00 
361700 4.6781054959e+00 -6.4990582395e-04 2.7111960253e+00 -4.6959292651e+00 2.7111960253e+00 4.6959292651e+00 
361800 4.6781054876e+00 -6.4957085521e-04 2.7112080109e+00 -4.6959500248e+00 2.7112080109e+00 4.6959500248e+00 
361900 4.6781054793e+00 -6.4923604272e-04 2.7112199903e+00 -4.6959707736e+00 2.7112199903e+00 4.6959707736e+00 
362000 4.6781054711e+00 -6.4890138644e-04 2.7112319634e+00 -4.6959915117e+00 2.7112319634e+00 4.6959915117e+00 
362100 4.6781054629e+00 -6.4856688632e-04 2.7112439303e+00 -4.6960122390e+00 2.7112439303e+00 4.6960122390e+00 
362200 4.6781054546e+00 -6.4823254230e-04 2.7112558910e+00 -4.6960329556e+00 2.7112558910e+00 4.6960329556e+00 
362300 4.6781054464e+00 -6.4789835433e-04 2.7112678455e+00 -4.6960536613e+00 2.7112678455e+00 4.6960536613e+00 
362400 4.6781054382e+00 -6.4756432237e-04 2.7112797938e+00 -4.6960743563e+00 2.7112797938e+00 4.6960743563e+00 
362500 4.6781054300e+00 -6.4723044637e-04 2.7112917358e+00 -4.6960950406e+00 2.7112917358e+00 4.6960950406e+00 
362600 4.6781054218e+00 -6.4689672628e-04 2.7113036717e+00 -4.6961157141e+00 2.7113036717e+00 4.6961157141e+00 
362700 4.6781054136e+00 -6.4656316204e-04 2.7113156013e+00 -4.6961363768e+00 2.7113156013e+00 4.6961363768e+00 
362800 4.6781054054e+00 -6.4622975361e-04 2.7113275247e+00 -4.6961570288e+00 2.7113275247e+00 4.6961570288e+00 
362900 4.6781053972e+00 -6.4589650094e-04 2.7113394420e+00 -4.6961776700e+00 2.7113394420e+00 4.6961776700e+00 
363000 4.6781053891e+00 -6.4556340398e-04 2.7113513530e+00 -4.6961983005e+00 2.7113513530e+00 4.6961983005e+00 
363100 4.6781053809e+00 -6.4523046267e-04 2.7113632578e+00 -4.6962189203e+00 2.7113632578e+00 4.6962189203e+00 
363200 4.6781053728e+00 -6.4489767698e-04 2.7113751565e+00 -4.6962395294e+00 2.7113751565e+00 4.6962395294e+00 
363300 4.6781053646e+00 -6.4456504684e-04 2.7113870489e+00 -4.6962601277e+00 2.7113870489e+00 4.6962601277e+00 
363400 4.6781053565e+00 -6.4423257221e-04 2.7113989352e+00 -4.6962807153e+00 2.7113989352e+00 4.6962807153e+00 
363500 4.6781053484e+00 -6.4390025304e-04 2.7114108153e+00 -4.6963012923e+00 2.7114108153e+00 4.6963012923e+00 
363600 4.6781053403e+00 -6.4356808928e-04 2.7114226892e+00 -4.6963218585e+00 2.7114226892e+00 4.6963218585e+00 
363700 4.6781053322e+00 -6.4323608088e-04 2.7114345569e+00 -4.6963424140e+00 2.7114345569e+00 4.6963424140e+00 
363800 4.6781053241e+00 -6.4290422778e-04 2.7114464185e+00 -4.6963629588e+00 2.7114464185e+00 4.6963629588e+00 
363900 4.6781053160e+00 -6.4257252995e-04 2.7114582738e+00 -4.6963834929e+00 2.7114582738e+00 4.6963834929e+00 
364000 4.6781053079e+00 -6.4224098733e-04 2.7114701231e+00 -4.6964040163e+00 2.7114701231e+00 4.6964040163e+00 
364100 4.6781052998e+00 -6.4190959986e-04 2.7114819661e+00 -4.6964245291e+00 2.7114819661e+00 4.6964245291e+00 
364200 4.6781052918e+00 -6.4157836751e-04 2.7114938030e+00 -4.6964450312e+00 2.7114938030e+00 4.6964450312e+00 
364300 4.6781052837e+00 -6.4124729021e-04 2.7115056337e+00 -4.6964655226e+00 2.7115056337e+00 4.6964655226e+00 
364400 4.6781052757e+00 -6.4091636792e-04 2.7115174583e+00 -4.6964860034e+00 2.7115174583e+00 4.6964860034e+00 
364500 4.6781052676e+00 -6.4058560060e-04 2.7115292767e+00 -4.6965064735e+00 2.7115292767e+00 4.6965064735e+00 
364600 4.6781052596e+00 -6.4025498818e-04 2.7115410890e+00 -4.6965269329e+00 2.7115410890e+00 4.6965269329e+00 
364700 4.6781052516e+00 -6.3992453062e-04 2.7115528951e+00 -4.6965473817e+00 2.7115528951e+00 4.6965473817e+00 
364800 4.6781052436e+00 -6.3959422787e-04 2.7115646951e+00 -4.6965678199e+00 2.7115646951e+00 4.6965678199e+00 
364900 4.6781052355e+00 -6.3926407988e-04 2.7115764889e+00 -4.6965882474e+00 2.7115764889e+00 4.6965882474e+00 
365000 4.6781052276e+00 -6.3893408660e-04 2.7115882766e+00 -4.6966086643e+00 2.7115882766e+00 4.6966086643e+00 
365100 4.6781052196e+00 -6.3860424798e-04 2.7116000581e+00 -4.6966290705e+00 2.7116000581e+00 4.6966290705e+00 
365200 4.6781052116e+00 -6.3827456396e-04 2.7116118336e+00 -4.6966494661e+00 2.7116118336e+00 4.6966494661e+00 
365300 4.6781052036e+00 -6.3794503451e-04 2.7116236029e+00 -4.6966698512e+00 2.7116236029e+00 4.6966698512e+00 
365400 4.6781051957e+00 -6.3761565956e-04 2.7116353660e+00 -4.6966902255e+00 2.7116353660e+00 4.6966902255e+00 
365500 4.6781051877e+00 -6.3728643907e-04 2.7116471231e+00 -4.6967105893e+00 2.7116471231e+00 4.6967105893e+00 
365600 4.6781051798e+00 -6.3695737298e-04 2.7116588740e+00 -4.6967309425e+00 2.7116588740e+00 4.6967309425e+00 
365700 4.6781051718e+00 -6.3662846126e-04 2.7116706188e+00 -4.6967512851e+00 2.7116706188e+00 4.6967512851e+00 
365800 4.6781051639e+00 -6.3629970384e-04 2.7116823575e+00 -4.6967716171e+00 2.7116823575e+00 4.6967716171e+00 
365900 4.6781051560e+00 -6.3597110067e-04 2.7116940900e+00 -4.6967919385e+00 2.7116940900e+00 4.6967919385e+00 
366000 4.6781051481e+00 -6.3564265172e-04 2.7117058165e+00 -4.6968122494e+00 2.7117058165e+00 4.6968122494e+00 
366100 4.6781051402e+00 -6.3531435692e-04 2.7117175369e+00 -4.6968325496e+00 2.7117175369e+00 4.6968325496e+00 
366200 4.6781051323e+00 -6.3498621622e-04 2.7117292511e+00 -4.6968528393e+00 2.7117292511e+00 4.6968528393e+00 
366300 4.6781051244e+00 -6.3465822958e-04 2.7117409593e+00 -4.6968731184e+00 2.7117409593e+00 4.6968731184e+00 
366400 4.6781051165e+00 -6.3433039694e-04 2.7117526613e+00 -4.6968933869e+00 2.7117526613e+00 4.6968933869e+00 
366500 4.6781051086e+00 -6.3400271826e-04 2.7117643573e+00 -4.6969136449e+00 2.7117643573e+00 4.6969136449e+00 
366600 4.6781051008e+00 -6.3367519348e-04 2.7117760471e+00 -4.6969338924e+00 2.7117760471e+00 4.6969338924e+00 
366700 4.6781050929e+00 -6.3334782256e-04 2.7117877309e+00 -4.6969541293e+00 2.7117877309e+00 4.6969541293e+00 
366800 4.6781050851e+00 -6.3302060544e-04 2.7117994086e+00 -4.6969743556e+00 2.7117994086e+00 4.6969743556e+00 
366900 4.6781050772e+00 -6.3269354207e-04 2.7118110802e+00 -4.6969945714e+00 2.7118110802e+00 4.6969945714e+00 
367000 4.6781050694e+00 -6.3236663240e-04 2.7118227457e+00 -4.6970147767e+00 2.7118227457e+00 4.6970147767e+00 
367100 4.6781050616e+00 -6.3203987639e-04 2.7118344052e+00 -4.6970349715e+00 2.7118344052e+00 4.6970349715e+00 
367200 4.6781050538e+00 -6.3171327397e-04 2.7118460585e+00 -4.6970551557e+00 2.7118460585e+00 4.6970551557e+00 
367300 4.6781050459e+00 -6.3138682511e-04 2.7118577058e+00 -4.6970753294e+00 2.7118577058e+00 4.6970753294e+00 
367400 4.6781050381e+00 -6.3106052974e-04 2.7118693471e+00 -4.6970954926e+00 2.7118693471e+00 4.6970954926e+00 
367500 4.6781050304e+00 -6.3073438783e-04 2.7118809822e+00 -4.6971156453e+00 2.7118809822e+00 4.6971156453e+00 
367600 4.6781050226e+00 -6.3040839931e-04 2.7118926113e+00 -4.6971357875e+00 2.7118926113e+00 4.6971357875e+00 
367700 4.6781050148e+00 -6.3008256414e-04 2.7119042344e+00 -4.6971559192e+00 2.7119042344e+00 4.6971559192e+00 
367800 4.6781050070e+00 -6.2975688227e-04 2.7119158514e+00 -4.6971760404e+00 2.7119158514e+00 4.6971760404e+00 
367900 4.6781049993e+00 -6.2943135364e-04 2.7119274623e+00 -4.6971961511e+00 2.7119274623e+00 4.6971961511e+00 
368000 4.6781049915e+00 -6.2910597821e-04 2.7119390672e+00 -4.6972162514e+00 2.7119390672e+00 4.6972162514e+00 
368100 4.6781049838e+00 -6.2878075592e-04 2.7119506660e+00 -4.6972363412e+00 2.7119506660e+00 4.6972363412e+00 
368200 4.6781049761e+00 -6.2845568673e-04 2.7119622588e+00 -4.6972564204e+00 2.7119622588e+00 4.6972564204e+00 
368300 4.6781049683e+00 -6.2813077059e-04 2.7119738455e+00 -4.6972764893e+00 2.7119738455e+00 4.6972764893e+00 
368400 4.6781049606e+00 -6.2780600743e-04 2.7119854262e+00 -4.6972965476e+00 2.7119854262e+00 4.6972965476e+00 
368500 4.6781049529e+00 -6.2748139722e-04 2.7119970009e+00 -4.6973165955e+00 2.7119970009e+00 4.6973165955e+00 
368600 4.6781049452e+00 -6.2715693990e-04 2.7120085695e+00 -4.6973366330e+00 2.7120085695e+00 4.6973366330e+00 
368700 4.6781049375e+00 -6.2683263542e-04 2.7120201321e+00 -4.6973566600e+00 2.7120201321e+00 4.6973566600e+00 
368800 4.6781049298e+00 -6.2650848373e-04 2.7120316887e+00 -4.6973766766e+00 2.7120316887e+00 4.6973766766e+00 
368900 4.6781049222e+00 -6.2618448478e-04 2.7120432393e+00 -4.6973966827e+00 2.7120432393e+00 4.6973966827e+00 
369000 4.6781049145e+00 -6.2586063851e-04 2.7120547838e+00 -4.6974166784e+00 2.7120547838e+00 4.6974166784e+00 
369100 4.6781049068e+00 -6.2553694489e-04 2.7120663223e+00 -4.6974366637e+00 2.7120663223e+00 4.6974366637e+00 
369200 4.6781048992e+00 -6.2521340384e-04 2.7120778548e+00 -4.6974566385e+00 2.7120778548e+00 4.6974566385e+00 
369300 4.6781048915e+00 -6.2489001534e-04 2.7120893812e+00 -4.6974766030e+00 2.7120893812e+00 4.6974766030e+00 
369400 4.6781048839e+00 -6.2456677932e-04 2.7121009017e+00 -4.6974965570e+00 2.7121009017e+00 4.6974965570e+00 
369500 4.6781048763e+00 -6.2424369573e-04 2.7121124162e+00 -4.6975165006e+00 2.7121124162e+00 4.6975165006e+00 
369600 4.6781048687e+00 -6.2392076453e-04 2.7121239246e+00 -4.6975364338e+00 2.7121239246e+00 4.6975364338e+00 
369700 4.6781048611e+00 -6.2359798565e-04 2.7121354271e+00 -4.6975563567e+00 2.7121354271e+00 4.6975563567e+00 
369800 4.6781048535e+00 -6.2327535906e-04 2.7121469235e+00 -4.6975762691e+00 2.7121469235e+00 4.6975762691e+00 
369900 4.6781048459e+00 -6.2295288470e-04 2.7121584139e+00 -4.6975961711e+00 2.7121584139e+00 4.6975961711e+00 
370000 4.6781048383e+00 -6.2263056252e-04 2.7121698984e+00 -4.6976160628e+00 2.7121698984e+00 4.6976160628e+00 
370100 4.6781048307e+00 -6.2230839246e-04 2.7121813769e+00 -4.6976359441e+00 2.7121813769e+00 4.6976359441e+00 
370200 4.6781048231e+00 -6.2198637448e-04 2.7121928493e+00 -4.6976558150e+00 2.7121928493e+00 4.6976558150e+00 
370300 4.6781048156e+00 -6.2166450853e-04 2.7122043158e+00 -4.6976756755e+00 2.7122043158e+00 4.6976756755e+00 
370400 4.6781048080e+00 -6.2134279455e-04 2.7122157764e+00 -4.6976955257e+00 2.7122157764e+00 4.6976955257e+00 
370500 4.6781048005e+00 -6.2102123249e-04 2.7122272309e+00 -4.6977153656e+00 2.7122272309e+00 4.6977153656e+00 
370600 4.6781047929e+00 -6.2069982231e-04 2.7122386794e+00 -4.6977351950e+00 2.7122386794e+00 4.6977351950e+00 
370700 4.6781047854e+00 -6.2037856394e-04 2.7122501220e+00 -4.6977550142e+00 2.7122501220e+00 4.6977550142e+00 
370800 4.6781047779e+00 -6.2005745735e-04 2.7122615586e+00 -4.6977748230e+00 2.7122615586e+00 4.6977748230e+00 
370900 4.6781047703e+00 -6.1973650248e-04 2.7122729893e+00 -4.6977946214e+00 2.7122729893e+00 4.6977946214e+00 
371000 4.6781047628e+00 -6.1941569927e-04 2.7122844140e+00 -4.6978144095e+00 2.7122844140e+00 4.6978144095e+00 
371100 4.6781047553e+00 -6.1909504768e-04 2.7122958327e+00 -4.6978341873e+00 2.7122958327e+00 4.6978341873e+00 
371200 4.6781047478e+00 -6.1877454766e-04 2.7123072454e+00 -4.6978539548e+00 2.7123072454e+00 4.6978539548e+00 
371300 4.6781047404e+00 -6.1845419915e-04 2.7123186522e+00 -4.6978737120e+00 2.7123186522e+00 4.6978737120e+00 
371400 4.6781047329e+00 -6.1813400210e-04 2.7123300531e+00 -4.6978934588e+00 2.7123300531e+00 4.6978934588e+00 
371500 4.6781047254e+00 -6.1781395647e-04 2.7123414480e+00 -4.6979131954e+00 2.7123414480e+00 4.6979131954e+00 
371600 4.6781047179e+00 -6.1749406219e-04 2.7123528369e+00 -4.6979329216e+00 2.7123528369e+00 4.6979329216e+00 
371700 4.6781047105e+00 -6.1717431923e-04 2.7123642199e+00 -4.6979526375e+00 2.7123642199e+00 4.6979526375e+00 
371800 4.6781047030e+00 -6.1685472752e-04 2.7123755970e+00 -4.6979723432e+00 2.7123755970e+00 4.6979723432e+00 
371900 4.6781046956e+00 -6.1653528702e-04 2.7123869681e+00 -4.6979920386e+00 2.7123869681e+00 4.6979920386e+00 
372000 4.6781046882e+00 -6.1621599768e-04 2.7123983333e+00 -4.6980117236e+00 2.7123983333e+00 4.6980117236e+00 
372100 4.6781046808e+00 -6.1589685944e-04 2.7124096926e+00 -4.6980313985e+00 2.7124096926e+00 4.6980313985e+00 
372200 4.6781046733e+00 -6.1557787225e-04 2.7124210459e+00 -4.6980510630e+00 2.7124210459e+00 4.6980510630e+00 
372300 4.6781046659e+00 -6.1525903606e-04 2.7124323933e+00 -4.6980707172e+00 2.7124323933e+00 4.6980707172e+00 
372400 4.6781046585e+00 -6.1494035082e-04 2.7124437347e+00 -4.6980903613e+00 2.7124437347e+00 4.6980903613e+00 
372500 4.6781046511e+00 -6.1462181649e-04 2.7124550703e+00 -4.6981099950e+00 2.7124550703e+00 4.6981099950e+00 
372600 4.6781046438e+00 -6.1430343299e-04 2.7124663999e+00 -4.6981296185e+00 2.7124663999e+00 4.6981296185e+00 
372700 4.6781046364e+00 -6.1398520030e-04 2.7124777236e+00 -4.6981492317e+00 2.7124777236e+00 4.6981492317e+00 
372800 4.6781046290e+00 -6.1366711835e-04 2.7124890414e+00 -4.6981688347e+00 2.7124890414e+00 4.6981688347e+00 
372900 4.6781046217e+00 -6.1334918709e-04 2.7125003533e+00 -4.6981884275e+00 2.7125003533e+00 4.6981884275e+00 
373000 4.6781046143e+00 -6.1303140648e-04 2.7125116593e+00 -4.6982080101e+00 2.7125116593e+00 4.6982080101e+00 
373100 4.6781046070e+00 -6.1271377645e-04 2.7125229594e+00 -4.6982275824e+00 2.7125229594e+00 4.6982275824e+00 
373200 4.6781045996e+00 -6.1239629696e-04 2.7125342536e+00 -4.6982471444e+00 2.7125342536e+00 4.6982471444e+00 
373300 4.6781045923e+00 -6.1207896796e-04 2.7125455418e+00 -4.6982666963e+00 2.7125455418e+00 4.6982666963e+00 
373400 4.6781045850e+00 -6.1176178940e-04 2.7125568242e+00 -4.6982862380e+00 2.7125568242e+00 4.6982862380e+00 
373500 4.6781045777e+00 -6.1144476122e-04 2.7125681007e+00 -4.6983057694e+00 2.7125681007e+00 4.6983057694e+00 
373600 4.6781045704e+00 -6.1112788337e-04 2.7125793713e+00 -4.6983252907e+00 2.7125793713e+00 4.6983252907e+00 
373700 4.6781045631e+00 -6.1081115581e-04 2.7125906360e+00 -4.6983448017e+00 2.7125906360e+00 4.6983448017e+00 
373800 4.6781045558e+00 -6.1049457847e-04 2.7126018948e+00 -4.6983643026e+00 2.7126018948e+00 4.6983643026e+00 
373900 4.6781045485e+00 -6.1017815131e-04 2.7126131478e+00 -4.6983837932e+00 2.7126131478e+00 4.6983837932e+00 
374000 4.6781045412e+00 -6.0986187428e-04 2.7126243948e+00 -4.6984032737e+00 2.7126243948e+00 4.6984032737e+00 
374100 4.6781045339e+00 -6.0954574732e-04 2.7126356360e+00 -4.6984227440e+00 2.7126356360e+00 4.6984227440e+00 
374200 4.6781045267e+00 -6.0922977039e-04 2.7126468713e+00 -4.6984422041e+00 2.7126468713e+00 4.6984422041e+00 
374300 4.6781045194e+00 -6.0891394342e-04 2.7126581008e+00 -4.6984616541e+00 2.7126581008e+00 4.6984616541e+00 
374400 4.6781045122e+00 -6.0859826638e-04 2.7126693244e+00 -4.6984810939e+00 2.7126693244e+00 4.6984810939e+00 
374500 4.6781045050e+00 -6.0828273921e-04 2.7126805421e+00 -4.6985005236e+00 2.7126805421e+00 4.6985005236e+00 
374600 4.6781044977e+00 -6.0796736185e-04 2.7126917539e+00 -4.6985199430e+00 2.7126917539e+00 4.6985199430e+00 
374700 4.6781044905e+00 -6.0765213426e-04 2.7127029599e+00 -4.6985393524e+00 2.7127029599e+00 4.6985393524e+00 
374800 4.6781044833e+00 -6.0733705638e-04 2.7127141600e+00 -4.6985587516e+00 2.7127141600e+00 4.6985587516e+00 
374900 4.6781044761e+00 -6.0702212817e-04 2.7127253543e+00 -4.6985781406e+00 2.7127253543e+00 4.6985781406e+00 
375000 4.6781044689e+00 -6.0670734956e-04 2.7127365427e+00 -4.6985975196e+00 2.7127365427e+00 4.6985975196e+00 
375100 4.6781044617e+00 -6.0639272051e-04 2.7127477253e+00 -4.6986168883e+00 2.7127477253e+00 4.6986168883e+00 
375200 4.6781044545e+00 -6.0607824097e-04 2.7127589020e+00 -4.6986362470e+00 2.7127589020e+00 4.6986362470e+00 
375300 4.6781044473e+00 -6.0576391088e-04 2.7127700729e+00 -4.6986555956e+00 2.7127700729e+00 4.6986555956e+00 
375400 4.6781044402e+00 -6.0544973020e-04 2.7127812380e+00 -4.6986749340e+00 2.7127812380e+00 4.6986749340e+00 
375500 4.6781044330e+00 -6.0513569887e-04 2.7127923972e+00 -4.6986942623e+00 2.7127923972e+00 4.6986942623e+00 
375600 4.6781044258e+00 -6.0482181683e-04 2.7128035506e+00 -4.6987135806e+00 2.7128035506e+00 4.6987135806e+00 
375700 4.6781044187e+00 -6.0450808405e-04 2.7128146981e+00 -4.6987328887e+00 2.7128146981e+00 4.6987328887e+00 
375800 4.6781044116e+00 -6.0419450046e-04 2.7128258398e+00 -4.6987521867e+00 2.7128258398e+00 4.6987521867e+00 
375900 4.6781044044e+00 -6.0388106602e-04 2.7128369757e+00 -4.6987714746e+00 2.7128369757e+00 4.6987714746e+00 
376000 4.6781043973e+00 -6.0356778066e-04 2.7128481058e+00 -4.6987907525e+00 2.7128481058e+00 4.6987907525e+00 
376100 4.6781043902e+00 -6.0325464435e-04 2.7128592301e+00 -4.6988100203e+00 2.7128592301e+00 4.6988100203e+00 
376200 4.6781043831e+00 -6.0294165703e-04 2.7128703485e+00 -4.6988292780e+00 2.7128703485e+00 4.6988292780e+00 
376300 4.6781043760e+00 -6.0262881864e-04 2.7128814611e+00 -4.6988485256e+00 2.7128814611e+00 4.6988485256e+00 
376400 4.6781043689e+00 -6.0231612914e-04 2.7128925679e+00 -4.6988677631e+00 2.7128925679e+00 4.6988677631e+00 
376500 4.6781043618e+00 -6.0200358847e-04 2.7129036689e+00 -4.6988869906e+00 2.7129036689e+00 4.6988869906e+00 
376600 4.6781043547e+00 -6.0169119659e-04 2.7129147641e+00 -4.6989062081e+00 2.7129147641e+00 4.6989062081e+00 
376700 4.6781043476e+00 -6.0137895343e-04 2.7129258535e+00 -4.6989254155e+00 2.7129258535e+00 4.6989254155e+00 
376800 4.6781043406e+00 -6.0106685895e-04 2.7129369371e+00 -4.6989446128e+00 2.7129369371e+00 4.6989446128e+00 
376900 4.6781043335e+00 -6.0075491310e-04 2.7129480149e+00 -4.6989638001e+00 2.7129480149e+00 4.6989638001e+00 
377000 4.6781043265e+00 -6.0044311582e-04 2.7129590869e+00 -4.6989829774e+00 2.7129590869e+00 4.6989829774e+00 
377100 4.6781043194e+00 -6.0013146706e-04 2.7129701531e+00 -4.6990021446e+00 2.7129701531e+00 4.6990021446e+00 
377200 4.6781043124e+00 -5.9981996677e-04 2.7129812136e+00 -4.6990213019e+00 2.7129812136e+00 4.6990213019e+00 
377300 4.6781043054e+00 -5.9950861490e-04 2.7129922682e+00 -4.6990404490e+00 2.7129922682e+00 4.6990404490e+00 
377400 4.6781042983e+00 -5.9919741139e-04 2.7130033170e+00 -4.6990595862e+00 2.7130033170e+00 4.6990595862e+00 
377500 4.6781042913e+00 -5.9888635620e-04 2.7130143601e+00 -4.6990787134e+00 2.7130143601e+00 4.6990787134e+00 
377600 4.6781042843e+00 -5.9857544927e-04 2.7130253974e+00 -4.6990978305e+00 2.7130253974e+00 4.6990978305e+00 
377700 4.6781042773e+00 -5.9826469055e-04 2.7130364289e+00 -4.6991169377e+00 2.7130364289e+00 4.6991169377e+00 
377800 4.6781042703e+00 -5.9795407999e-04 2.7130474547e+00 -4.6991360348e+00 2.7130474547e+00 4.6991360348e+00 
377900 4.6781042634e+00 -5.9764361753e-04 2.7130584747e+00 -4.6991551220e+00 2.7130584747e+00 4.6991551220e+00 
378000 4.6781042564e+00 -5.9733330313e-04 2.7130694889e+00 -4.6991741992e+00 2.7130694889e+00 4.6991741992e+00 
378100 4.6781042494e+00 -5.9702313673e-04 2.7130804973e+00 -4.6991932664e+00 2.7130804973e+00 4.6991932664e+00 
378200 4.6781042424e+00 -5.9671311828e-04 2.7130915000e+00 -4.6992123236e+00 2.7130915000e+00 4.6992123236e+00 
378300 4.6781042355e+00 -5.9640324772e-04 2.7131024969e+00 -4.6992313708e+00 2.7131024969e+00 4.6992313708e+00 
378400 4.6781042285e+00 -5.9609352501e-04 2.7131134881e+00 -4.6992504081e+00 2.7131134881e+00 4.6992504081e+00 
378500 4.6781042216e+00 -5.9578395010e-04 2.7131244735e+00 -4.6992694354e+00 2.7131244735e+00 4.6992694354e+00 
378600 4.6781042147e+00 -5.9547452292e-04 2.7131354532e+00 -4.6992884528e+00 2.7131354532e+00 4.6992884528e+00 
378700 4.6781042078e+00 -5.9516524344e-04 2.7131464271e+00 -4.6993074602e+00 2.7131464271e+00 4.6993074602e+00 
378800 4.6781042008e+00 -5.9485611159e-04 2.7131573953e+00 -4.6993264576e+00 2.7131573953e+00 4.6993264576e+00 
378900 4.6781041939e+00 -5.9454712733e-04 2.7131683577e+00 -4.6993454451e+00 2.7131683577e+00 4.6993454451e+00 
379000 4.6781041870e+00 -5.9423829060e-04 2.7131793145e+00 -4.6993644227e+00 2.7131793145e+00 4.6993644227e+00 
379100 4.6781041801e+00 -5.9392960135e-04 2.7131902654e+00 -4.6993833903e+00 2.7131902654e+00 4.6993833903e+00 
379200 4.6781041732e+00 -5.9362105953e-04 2.7132012106e+00 -4.6994023480e+00 2.7132012106e+00 4.6994023480e+00 
379300 4.6781041664e+00 -5.9331266508e-04 2.7132121502e+00 -4.6994212958e+00 2.7132121502e+00 4.6994212958e+00 
379400 4.6781041595e+00 -5.9300441796e-04 2.7132230839e+00 -4.6994402336e+00 2.7132230839e+00 4.6994402336e+00 
379500 4.6781041526e+00 -5.9269631811e-04 2.7132340120e+00 -4.6994591616e+00 2.7132340120e+00 4.6994591616e+00 
379600 4.6781041458e+00 -5.9238836548e-04 2.7132449343e+00 -4.6994780796e+00 2.7132449343e+00 4.6994780796e+00 
379700 4.6781041389e+00 -5.9208056002e-04 2.7132558509e+00 -4.6994969877e+00 2.7132558509e+00 4.6994969877e+00 
379800 4.6781041321e+00 -5.9177290167e-04 2.7132667618e+00 -4.6995158859e+00 2.7132667618e+00 4.6995158859e+00 
379900 4.6781041252e+00 -5.9146539039e-04 2.7132776670e+00 -4.6995347743e+00 2.7132776670e+00 4.6995347743e+00 
380000 4.6781041184e+00 -5.9115802612e-04 2.7132885665e+00 -4.6995536527e+00 2.7132885665e+00 4.6995536527e+00 
380100 4.6781041116e+00 -5.9085080880e-04 2.7132994602e+00 -4.6995725213e+00 2.7132994602e+00 4.6995725213e+00 
380200 4.6781041048e+00 -5.9054373840e-04 2.7133103483e+00 -4.6995913799e+00 2.7133103483e+00 4.6995913799e+00 
380300 4.6781040979e+00 -5.9023681484e-04 2.7133212306e+00 -4.6996102287e+00 2.7133212306e+00 4.6996102287e+00 
380400 4.6781040911e+00 -5.8993003809e-04 2.7133321073e+00 -4.6996290676e+00 2.7133321073e+00 4.6996290676e+00 
380500 4.6781040843e+00 -5.8962340809e-04 2.7133429783e+00 -4.6996478967e+00 2.7133429783e+00 4.6996478967e+00 
380600 4.6781040776e+00 -5.8931692478e-04 2.7133538435e+00 -4.6996667159e+00 2.7133538435e+00 4.6996667159e+00 
380700 4.6781040708e+00 -5.8901058812e-04 2.7133647031e+00 -4.6996855252e+00 2.7133647031e+00 4.6996855252e+00 
380800 4.6781040640e+00 -5.8870439806e-04 2.7133755570e+00 -4.6997043247e+00 2.7133755570e+00 4.6997043247e+00 
380900 4.6781040572e+00 -5.8839835453e-04 2.7133864052e+00 -4.6997231143e+00 2.7133864052e+00 4.6997231143e+00 
381000 4.6781040505e+00 -5.8809245749e-04 2.7133972477e+00 -4.6997418941e+00 2.7133972477e+00 4.6997418941e+00 
381100 4.6781040437e+00 -5.8778670688e-04 2.7134080845e+00 -4.6997606641e+00 2.7134080845e+00 4.6997606641e+00 
381200 4.6781040370e+00 -5.8748110266e-04 2.7134189157e+00 -4.6997794242e+00 2.7134189157e+00 4.6997794242e+00 
381300 4.6781040302e+00 -5.8717564477e-04 2.7134297412e+00 -4.6997981745e+00 2.7134297412e+00 4.6997981745e+00 
381400 4.6781040235e+00 -5.8687033316e-04 2.7134405610e+00 -4.6998169149e+00 2.7134405610e+00 4.6998169149e+00 
381500 4.6781040168e+00 -5.8656516778e-04 2.7134513751e+00 -4.6998356456e+00 2.7134513751e+00 4.6998356456e+00 
381600 4.6781040101e+00 -5.8626014857e-04 2.7134621836e+00 -4.6998543664e+00 2.7134621836e+00 4.6998543664e+00 
381700 4.6781040034e+00 -5.8595527548e-04 2.7134729864e+00 -4.6998730774e+00 2.7134729864e+00 4.6998730774e+00 
381800 4.6781039967e+00 -5.8565054845e-04 2.7134837836e+00 -4.6998917787e+00 2.7134837836e+00 4.6998917787e+00 
381900 4.6781039900e+00 -5.8534596745e-04 2.7134945751e+00 -4.6999104701e+00 2.7134945751e+00 4.6999104701e+00 
382000 4.6781039833e+00 -5.8504153241e-04 2.7135053609e+00 -4.6999291517e+00 2.7135053609e+00 4.6999291517e+00 
382100 4.6781039766e+00 -5.8473724328e-04 2.7135161411e+00 -4.6999478235e+00 2.7135161411e+00 4.6999478235e+00 
382200 4.6781039699e+00 -5.8443310001e-04 2.7135269156e+00 -4.6999664856e+00 2.7135269156e+00 4.6999664856e+00 
382300 4.6781039633e+00 -5.8412910255e-04 2.7135376845e+00 -4.6999851379e+00 2.7135376845e+00 4.6999851379e+00 
382400 4.6781039566e+00 -5.8382525084e-04 2.7135484478e+00 -4.7000037803e+00 2.7135484478e+00 4.7000037803e+00 
382500 4.6781039499e+00 -5.8352154484e-04 2.7135592054e+00 -4.7000224131e+00 2.7135592054e+00 4.7000224131e+00 
382600 4.6781039433e+00 -5.8321798448e-04 2.7135699573e+00 -4.7000410360e+00 2.7135699573e+00 4.7000410360e+00 
382700 4.6781039367e+00 -5.8291456972e-04 2.7135807037e+00 -4.7000596492e+00 2.7135807037e+00 4.7000596492e+00 
382800 4.6781039300e+00 -5.8261130051e-04 2.7135914444e+00 -4.7000782526e+00 2.7135914444e+00 4.7000782526e+00 
382900 4.6781039234e+00 -5.8230817678e-04 2.7136021794e+00 -4.7000968463e+00 2.7136021794e+00 4.7000968463e+00 
383000 4.6781039168e+00 -5.8200519850e-04 2.7136129089e+00 -4.7001154302e+00 2.7136129089e+00 4.7001154302e+00 
383100 4.6781039102e+00 -5.8170236561e-04 2.7136236327e+00 -4.7001340044e+00 2.7136236327e+00 4.7001340044e+00 
383200 4.6781039036e+00 -5.8139967804e-04 2.7136343509e+00 -4.7001525689e+00 2.7136343509e+00 4.7001525689e+00 
383300 4.6781038970e+00 -5.8109713577e-04 2.7136450635e+00 -4.7001711236e+00 2.7136450635e+00 4.7001711236e+00 
383400 4.6781038904e+00 -5.8079473872e-04 2.7136557704e+00 -4.7001896686e+00 2.7136557704e+00 4.7001896686e+00 
383500 4.6781038838e+00 -5.8049248684e-04 2.7136664717e+00 -4.7002082039e+00 2.7136664717e+00 4.7002082039e+00 
383600 4.6781038772e+00 -5.8019038010e-04 2.7136771675e+00 -4.7002267294e+00 2.7136771675e+00 4.7002267294e+00 
383700 4.6781038706e+00 -5.7988841842e-04 2.7136878576e+00 -4.7002452452e+00 2.7136878576e+00 4.7002452452e+00 
383800 4.6781038641e+00 -5.7958660176e-04 2.7136985421e+00 -4.7002637514e+00 2.7136985421e+00 4.7002637514e+00 
383900 4.6781038575e+00 -5.7928493007e-04 2.7137092210e+00 -4.7002822478e+00 2.7137092210e+00 4.7002822478e+00 
384000 4.6781038510e+00 -5.7898340330e-04 2.7137198943e+00 -4.7003007345e+00 2.7137198943e+00 4.7003007345e+00 
384100 4.6781038444e+00 -5.7868202138e-04 2.7137305621e+00 -4.7003192115e+00 2.7137305621e+00 4.7003192115e+00 
384200 4.6781038379e+00 -5.7838078428e-04 2.7137412242e+00 -4.7003376789e+00 2.7137412242e+00 4.7003376789e+00 
384300 4.6781038314e+00 -5.7807969193e-04 2.7137518807e+00 -4.7003561365e+00 2.7137518807e+00 4.7003561365e+00 
384400 4.6781038249e+00 -5.7777874429e-04 2.7137625316e+00 -4.7003745845e+00 2.7137625316e+00 4.7003745845e+00 
384500 4.6781038183e+00 -5.7747794129e-04 2.7137731770e+00 -4.7003930228e+00 2.7137731770e+00 4.7003930228e+00 
384600 4.6781038118e+00 -5.7717728290e-04 2.7137838168e+00 -4.7004114514e+00 2.7137838168e+00 4.7004114514e+00 
384700 4.6781038053e+00 -5.7687676905e-04 2.7137944509e+00 -4.7004298703e+00 2.7137944509e+00 4.7004298703e+00 
384800 4.6781037988e+00 -5.7657639970e-04 2.7138050796e+00 -4.7004482796e+00 2.7138050796e+00 4.7004482796e+00 
384900 4.6781037923e+00 -5.7627617478e-04 2.7138157026e+00 -4.7004666793e+00 2.7138157026e+00 4.7004666793e+00 
385000 4.6781037859e+00 -5.7597609426e-04 2.7138263200e+00 -4.7004850692e+00 2.7138263200e+00 4.7004850692e+00 
385100 4.6781037794e+00 -5.7567615807e-04 2.7138369319e+00 -4.7005034496e+00 2.7138369319e+00 4.7005034496e+00 
385200 4.6781037729e+00 -5.7537636616e-04 2.7138475383e+00 -4.7005218203e+00 2.7138475383e+00 4.7005218203e+00 
385300 4.6781037665e+00 -5.7507671848e-04 2.7138581390e+00 -4.7005401813e+00 2.7138581390e+00 4.7005401813e+00 
385400 4.6781037600e+00 -5.7477721498e-04 2.7138687342e+00 -4.7005585327e+00 2.7138687342e+00 4.7005585327e+00 
385500 4.6781037536e+00 -5.7447785561e-04 2.7138793238e+00 -4.7005768745e+00 2.7138793238e+00 4.7005768745e+00 
385600 4.6781037471e+00 -5.7417864031e-04 2.7138899079e+00 -4.7005952067e+00 2.7138899079e+00 4.7005952067e+00 
385700 4.6781037407e+00 -5.7387956902e-04 2.7139004864e+00 -4.7006135292e+00 2.7139004864e+00 4.7006135292e+00 
385800 4.6781037343e+00 -5.7358064171e-04 2.7139110594e+00 -4.7006318421e+00 2.7139110594e+00 4.7006318421e+00 
385900 4.6781037279e+00 -5.7328185831e-04 2.7139216268e+00 -4.7006501454e+00 2.7139216268e+00 4.7006501454e+00 
386000 4.6781037214e+00 -5.7298321877e-04 2.7139321887e+00 -4.7006684392e+00 2.7139321887e+00 4.7006684392e+00 
386100 4.6781037150e+00 -5.7268472304e-04 2.7139427451e+00 -4.7006867233e+00 2.7139427451e+00 4.7006867233e+00 
386200 4.6781037086e+00 -5.7238637106e-04 2.7139532959e+00 -4.7007049978e+00 2.7139532959e+00 4.7007049978e+00 
386300 4.6781037022e+00 -5.7208816279e-04 2.7139638411e+00 -4.7007232627e+00 2.7139638411e+00 4.7007232627e+00 
386400 4.6781036959e+00 -5.7179009817e-04 2.7139743808e+00 -4.7007415180e+00 2.7139743808e+00 4.7007415180e+00 
386500 4.6781036895e+00 -5.7149217714e-04 2.7139849150e+00 -4.7007597638e+00 2.7139849150e+00 4.7007597638e+00 
386600 4.6781036831e+00 -5.7119439967e-04 2.7139954437e+00 -4.7007780000e+00 2.7139954437e+00 4.7007780000e+00 
386700 4.6781036767e+00 -5.7089676568e-04 2.7140059668e+00 -4.7007962266e+00 2.7140059668e+00 4.7007962266e+00 
386800 4.6781036704e+00 -5.7059927513e-04 2.7140164844e+00 -4.7008144436e+00 2.7140164844e+00 4.7008144436e+00 
386900 4.6781036640e+00 -5.7030192798e-04 2.7140269965e+00 -4.7008326511e+00 2.7140269965e+00 4.7008326511e+00 
387000 4.6781036577e+00 -5.7000472415e-04 2.7140375031e+00 -4.7008508490e+00 2.7140375031e+00 4.7008508490e+00 
387100 4.6781036513e+00 -5.6970766361e-04 2.7140480041e+00 -4.7008690374e+00 2.7140480041e+00 4.7008690374e+00 
387200 4.6781036450e+00 -5.6941074629e-04 2.7140584997e+00 -4.7008872162e+00 2.7140584997e+00 4.7008872162e+00 
387300 4.6781036387e+00 -5.6911397215e-04 2.7140689897e+00 -4.7009053854e+00 2.7140689897e+00 4.7009053854e+00 
387400 4.6781036324e+00 -5.6881734114e-04 2.7140794742e+00 -4.7009235452e+00 2.7140794742e+00 4.7009235452e+00 
387500 4.6781036261e+00 -5.6852085319e-04 2.7140899533e+00 -4.7009416953e+00 2.7140899533e+00 4.7009416953e+00 
387600 4.6781036198e+00 -5.6822450826e-04 2.7141004268e+00 -4.7009598360e+00 2.7141004268e+00 4.7009598360e+00 
387700 4.6781036135e+00 -5.6792830630e-04 2.7141108948e+00 -4.7009779671e+00 2.7141108948e+00 4.7009779671e+00 
387800 4.6781036072e+00 -5.6763224724e-04 2.7141213573e+00 -4.7009960887e+00 2.7141213573e+00 4.7009960887e+00 
387900 4.6781036009e+00 -5.6733633105e-04 2.7141318143e+00 -4.7010142008e+00 2.7141318143e+00 4.7010142008e+00 
388000 4.6781035946e+00 -5.6704055766e-04 2.7141422659e+00 -4.7010323034e+00 2.7141422659e+00 4.7010323034e+00 
388100 4.6781035883e+00 -5.6674492703e-04 2.7141527119e+00 -4.7010503965e+00 2.7141527119e+00 4.7010503965e+00 
388200 4.6781035821e+00 -5.6644943910e-04 2.7141631525e+00 -4.7010684801e+00 2.7141631525e+00 4.7010684801e+00 
388300 4.6781035758e+00 -5.6615409381e-04 2.7141735875e+00 -4.7010865542e+00 2.7141735875e+00 4.7010865542e+00 
388400 4.6781035696e+00 -5.6585889112e-04 2.7141840171e+00 -4.7011046187e+00 2.7141840171e+00 4.7011046187e+00 
388500 4.6781035633e+00 -5.6556383098e-04 2.7141944412e+00 -4.7011226738e+00 2.7141944412e+00 4.7011226738e+00 
388600 4.6781035571e+00 -5.6526891332e-04 2.7142048599e+00 -4.7011407194e+00 2.7142048599e+00 4.7011407194e+00 
388700 4.6781035508e+00 -5.6497413809e-04 2.7142152730e+00 -4.7011587556e+00 2.7142152730e+00 4.7011587556e+00 
388800 4.6781035446e+00 -5.6467950526e-04 2.7142256807e+00 -4.7011767822e+00 2.7142256807e+00 4.7011767822e+00 
388900 4.6781035384e+00 -5.6438501475e-04 2.7142360830e+00 -4.7011947994e+00 2.7142360830e+00 4.7011947994e+00 
389000 4.6781035322e+00 -5.6409066652e-04 2.7142464797e+00 -4.7012128071e+00 2.7142464797e+00 4.7012128071e+00 
389100 4.6781035260e+00 -5.6379646051e-04 2.7142568710e+00 -4.7012308054e+00 2.7142568710e+00 4.7012308054e+00 
389200 4.6781035198e+00 -5.6350239668e-04 2.7142672569e+00 -4.7012487942e+00 2.7142672569e+00 4.7012487942e+00 
389300 4.6781035136e+00 -5.6320847496e-04 2.7142776372e+00 -4.7012667736e+00 2.7142776372e+00 4.7012667736e+00 
389400 4.6781035074e+00 -5.6291469532e-04 2.7142880122e+00 -4.7012847435e+00 2.7142880122e+00 4.7012847435e+00 
389500 4.6781035012e+00 -5.6262105768e-04 2.7142983817e+00 -4.7013027039e+00 2.7142983817e+00 4.7013027039e+00 
389600 4.6781034950e+00 -5.6232756201e-04 2.7143087457e+00 -4.7013206550e+00 2.7143087457e+00 4.7013206550e+00 
389700 4.6781034889e+00 -5.6203420824e-04 2.7143191043e+00 -4.7013385966e+00 2.7143191043e+00 4.7013385966e+00 
389800 4.6781034827e+00 -5.6174099633e-04 2.7143294574e+00 -4.7013565287e+00 2.7143294574e+00 4.7013565287e+00 
389900 4.6781034766e+00 -5.6144792622e-04 2.7143398051e+00 -4.7013744515e+00 2.7143398051e+00 4.7013744515e+00 
390000 4.6781034704e+00 -5.6115499786e-04 2.7143501474e+00 -4.7013923648e+00 2.7143501474e+00 4.7013923648e+00 
390100 4.6781034643e+00 -5.6086221120e-04 2.7143604842e+00 -4.7014102687e+00 2.7143604842e+00 4.7014102687e+00 
390200 4.6781034581e+00 -5.6056956617e-04 2.7143708156e+00 -4.7014281632e+00 2.7143708156e+00 4.7014281632e+00 
390300 4.6781034520e+00 -5.6027706274e-04 2.7143811416e+00 -4.7014460483e+00 2.7143811416e+00 4.7014460483e+00 
390400 4.6781034459e+00 -5.5998470085e-04 2.7143914621e+00 -4.7014639240e+00 2.7143914621e+00 4.7014639240e+00 
390500 4.6781034398e+00 -5.5969248044e-04 2.7144017772e+00 -4.7014817903e+00 2.7144017772e+00 4.7014817903e+00 
390600 4.6781034337e+00 -5.5940040146e-04 2.7144120869e+00 -4.7014996472e+00 2.7144120869e+00 4.7014996472e+00 
390700 4.6781034276e+00 -5.5910846386e-04 2.7144223912e+00 -4.7015174947e+00 2.7144223912e+00 4.7015174947e+00 
390800 4.6781034215e+00 -5.5881666759e-04 2.7144326900e+00 -4.7015353328e+00 2.7144326900e+00 4.7015353328e+00 
390900 4.6781034154e+00 -5.5852501258e-04 2.7144429835e+00 -4.7015531616e+00 2.7144429835e+00 4.7015531616e+00 
391000 4.6781034093e+00 -5.5823349880e-04 2.7144532715e+00 -4.7015709810e+00 2.7144532715e+00 4.7015709810e+00 
391100 4.6781034032e+00 -5.5794212619e-04 2.7144635541e+00 -4.7015887910e+00 2.7144635541e+00 4.7015887910e+00 
391200 4.6781033971e+00 -5.5765089468e-04 2.7144738313e+00 -4.7016065917e+00 2.7144738313e+00 4.7016065917e+00 
391300 4.6781033911e+00 -5.5735980424e-04 2.7144841031e+00 -4.7016243830e+00 2.7144841031e+00 4.7016243830e+00 
391400 4.6781033850e+00 -5.5706885481e-04 2.7144943695e+00 -4.7016421649e+00 2.7144943695e+00 4.7016421649e+00 
391500 4.6781033790e+00 -5.5677804633e-04 2.7145046306e+00 -4.7016599375e+00 2.7145046306e+00 4.7016599375e+00 
391600 4.6781033729e+00 -5.5648737875e-04 2.7145148862e+00 -4.7016777008e+00 2.7145148862e+00 4.7016777008e+00 
391700 4.6781033669e+00 -5.5619685203e-04 2.7145251364e+00 -4.7016954547e+00 2.7145251364e+00 4.7016954547e+00 
391800 4.6781033609e+00 -5.5590646609e-04 2.7145353812e+00 -4.7017131992e+00 2.7145353812e+00 4.7017131992e+00 
391900 4.6781033548e+00 -5.5561622090e-04 2.7145456207e+00 -4.7017309345e+00 2.7145456207e+00 4.7017309345e+00 
392000 4.6781033488e+00 -5.5532611640e-04 2.7145558547e+00 -4.7017486604e+00 2.7145558547e+00 4.7017486604e+00 
392100 4.6781033428e+00 -5.5503615254e-04 2.7145660834e+00 -4.7017663770e+00 2.7145660834e+00 4.7017663770e+00 
392200 4.6781033368e+00 -5.5474632926e-04 2.7145763067e+00 -4.7017840843e+00 2.7145763067e+00 4.7017840843e+00 
392300 4.6781033308e+00 -5.5445664652e-04 2.7145865247e+00 -4.7018017822e+00 2.7145865247e+00 4.7018017822e+00 
392400 4.6781033248e+00 -5.5416710425e-04 2.7145967372e+00 -4.7018194709e+00 2.7145967372e+00 4.7018194709e+00 
392500 4.6781033188e+00 -5.5387770240e-04 2.7146069444e+00 -4.7018371502e+00 2.7146069444e+00 4.7018371502e+00 
392600 4.6781033128e+00 -5.5358844093e-04 2.7146171462e+00 -4.7018548203e+00 2.7146171462e+00 4.7018548203e+00 
392700 4.6781033069e+00 -5.5329931978e-04 2.7146273426e+00 -4.7018724811e+00 2.7146273426e+00 4.7018724811e+00 
392800 4.6781033009e+00 -5.5301033889e-04 2.7146375337e+00 -4.7018901325e+00 2.7146375337e+00 4.7018901325e+00 
392900 4.6781032949e+00 -5.5272149822e-04 2.7146477194e+00 -4.7019077747e+00 2.7146477194e+00 4.7019077747e+00 
393000 4.6781032890e+00 -5.5243279770e-04 2.7146578998e+00 -4.7019254076e+00 2.7146578998e+00 4.7019254076e+00 
393100 4.6781032830e+00 -5.5214423729e-04 2.7146680748e+00 -4.7019430312e+00 2.7146680748e+00 4.7019430312e+00 
393200 4.6781032771e+00 -5.5185581694e-04 2.7146782444e+00 -4.7019606456e+00 2.7146782444e+00 4.7019606456e+00 
393300 4.6781032711e+00 -5.5156753659e-04 2.7146884087e+00 -4.7019782507e+00 2.7146884087e+00 4.7019782507e+00 
393400 4.6781032652e+00 -5.5127939618e-04 2.7146985677e+00 -4.7019958465e+00 2.7146985677e+00 4.7019958465e+00 
393500 4.6781032593e+00 -5.5099139567e-04 2.7147087213e+00 -4.7020134331e+00 2.7147087213e+00 4.7020134331e+00 
393600 4.6781032534e+00 -5.5070353500e-04 2.7147188696e+00 -4.7020310104e+00 2.7147188696e+00 4.7020310104e+00 
393700 4.6781032475e+00 -5.5041581412e-04 2.7147290125e+00 -4.7020485784e+00 2.7147290125e+00 4.7020485784e+00 
393800 4.6781032416e+00 -5.5012823298e-04 2.7147391501e+00 -4.7020661373e+00 2.7147391501e+00 4.7020661373e+00 
393900 4.6781032357e+00 -5.4984079152e-04 2.7147492823e+00 -4.7020836868e+00 2.7147492823e+00 4.7020836868e+00 
394000 4.6781032298e+00 -5.4955348968e-04 2.7147594093e+00 -4.7021012272e+00 2.7147594093e+00 4.7021012272e+00 
394100 4.6781032239e+00 -5.4926632743e-04 2.7147695309e+00 -4.7021187583e+00 2.7147695309e+00 4.7021187583e+00 
394200 4.6781032180e+00 -5.4897930470e-04 2.7147796471e+00 -4.7021362802e+00 2.7147796471e+00 4.7021362802e+00 
394300 4.6781032121e+00 -5.4869242144e-04 2.7147897581e+00 -4.7021537929e+00 2.7147897581e+00 4.7021537929e+00 
394400 4.6781032063e+00 -5.4840567759e-04 2.7147998637e+00 -4.7021712963e+00 2.7147998637e+00 4.7021712963e+00 
394500 4.6781032004e+00 -5.4811907311e-04 2.7148099640e+00 -4.7021887905e+00 2.7148099640e+00 4.7021887905e+00 
394600 4.6781031945e+00 -5.4783260795e-04 2.7148200590e+00 -4.7022062756e+00 2.7148200590e+00 4.7022062756e+00 
394700 4.6781031887e+00 -5.4754628204e-04 2.7148301487e+00 -4.7022237514e+00 2.7148301487e+00 4.7022237514e+00 
394800 4.6781031828e+00 -5.4726009533e-04 2.7148402330e+00 -4.7022412180e+00 2.7148402330e+00 4.7022412180e+00 
394900 4.6781031770e+00 -5.4697404778e-04 2.7148503121e+00 -4.7022586755e+00 2.7148503121e+00 4.7022586755e+00 
395000 4.6781031712e+00 -5.4668813932e-04 2.7148603858e+00 -4.7022761237e+00 2.7148603858e+00 4.7022761237e+00 
395100 4.6781031653e+00 -5.4640236992e-04 2.7148704543e+00 -4.7022935628e+00 2.7148704543e+00 4.7022935628e+00 
395200 4.6781031595e+00 -5.4611673950e-04 2.7148805174e+00 -4.7023109926e+00 2.7148805174e+00 4.7023109926e+00 
395300 4.6781031537e+00 -5.4583124803e-04 2.7148905753e+00 -4.7023284133e+00 2.7148905753e+00 4.7023284133e+00 
395400 4.6781031479e+00 -5.4554589544e-04 2.7149006278e+00 -4.7023458249e+00 2.7149006278e+00 4.7023458249e+00 
395500 4.6781031421e+00 -5.4526068169e-04 2.7149106751e+00 -4.7023632272e+00 2.7149106751e+00 4.7023632272e+00 
395600 4.6781031363e+00 -5.4497560671e-04 2.7149207170e+00 -4.7023806204e+00 2.7149207170e+00 4.7023806204e+00 
395700 4.6781031305e+00 -5.4469067047e-04 2.7149307537e+00 -4.7023980045e+00 2.7149307537e+00 4.7023980045e+00 
395800 4.6781031247e+00 -5.4440587290e-04 2.7149407851e+00 -4.7024153794e+00 2.7149407851e+00 4.7024153794e+00 
395900 4.6781031190e+00 -5.4412121395e-04 2.7149508112e+00 -4.7024327451e+00 2.7149508112e+00 4.7024327451e+00 
396000 4.6781031132e+00 -5.4383669357e-04 2.7149608321e+00 -4.7024501017e+00 2.7149608321e+00 4.7024501017e+00 
396100 4.6781031074e+00 -5.4355231170e-04 2.7149708476e+00 -4.7024674492e+00 2.7149708476e+00 4.7024674492e+00 
396200 4.6781031017e+00 -5.4326806830e-04 2.7149808579e+00 -4.7024847875e+00 2.7149808579e+00 4.7024847875e+00 
396300 4.6781030959e+00 -5.4298396330e-04 2.7149908629e+00 -4.7025021167e+00 2.7149908629e+00 4.7025021167e+00 
396400 4.6781030902e+00 -5.4269999666e-04 2.7150008627e+00 -4.7025194368e+00 2.7150008627e+00 4.7025194368e+00 
396500 4.6781030844e+00 -5.4241616833e-04 2.7150108572e+00 -4.7025367477e+00 2.7150108572e+00 4.7025367477e+00 
396600 4.6781030787e+00 -5.4213247824e-04 2.7150208464e+00 -4.7025540495e+00 2.7150208464e+00 4.7025540495e+00 
396700 4.6781030730e+00 -5.4184892635e-04 2.7150308303e+00 -4.7025713422e+00 2.7150308303e+00 4.7025713422e+00 
396800 4.6781030673e+00 -5.4156551261e-04 2.7150408090e+00 -4.7025886258e+00 2.7150408090e+00 4.7025886258e+00 
396900 4.6781030615e+00 -5.4128223695e-04 2.7150507825e+00 -4.7026059003e+00 2.7150507825e+00 4.7026059003e+00 
397000 4.6781030558e+00 -5.4099909933e-04 2.7150607506e+00 -4.7026231657e+00 2.7150607506e+00 4.7026231657e+00 
397100 4.6781030501e+00 -5.4071609970e-04 2.7150707136e+00 -4.7026404221e+00 2.7150707136e+00 4.7026404221e+00 
397200 4.6781030444e+00 -5.4043323800e-04 2.7150806713e+00 -4.7026576693e+00 2.7150806713e+00 4.7026576693e+00 
397300 4.6781030387e+00 -5.4015051418e-04 2.7150906237e+00 -4.7026749074e+00 2.7150906237e+00 4.7026749074e+00 
397400 4.6781030331e+00 -5.3986792818e-04 2.7151005709e+00 -4.7026921365e+00 2.7151005709e+00 4.7026921365e+00 
397500 4.6781030274e+00 -5.3958547995e-04 2.7151105129e+00 -4.7027093564e+00 2.7151105129e+00 4.7027093564e+00 
397600 4.6781030217e+00 -5.3930316944e-04 2.7151204496e+00 -4.7027265673e+00 2.7151204496e+00 4.7027265673e+00 
397700 4.6781030160e+00 -5.3902099660e-04 2.7151303811e+00 -4.7027437692e+00 2.7151303811e+00 4.7027437692e+00 
397800 4.6781030104e+00 -5.3873896137e-04 2.7151403073e+00 -4.7027609619e+00 2.7151403073e+00 4.7027609619e+00 
397900 4.6781030047e+00 -5.3845706370e-04 2.7151502283e+00 -4.7027781457e+00 2.7151502283e+00 4.7027781457e+00 
398000 4.6781029991e+00 -5.3817530354e-04 2.7151601441e+00 -4.7027953203e+00 2.7151601441e+00 4.7027953203e+00 
398100 4.6781029934e+00 -5.3789368083e-04 2.7151700547e+00 -4.7028124859e+00 2.7151700547e+00 4.7028124859e+00 
398200 4.6781029878e+00 -5.3761219552e-04 2.7151799600e+00 -4.7028296425e+00 2.7151799600e+00 4.7028296425e+00 
398300 4.6781029822e+00 -5.3733084756e-04 2.7151898602e+00 -4.7028467900e+00 2.7151898602e+00 4.7028467900e+00 
398400 4.6781029765e+00 -5.3704963689e-04 2.7151997551e+00 -4.7028639285e+00 2.7151997551e+00 4.7028639285e+00 
398500 4.6781029709e+00 -5.3676856346e-04 2.7152096448e+00 -4.7028810579e+00 2.7152096448e+00 4.7028810579e+00 
398600 4.6781029653e+00 -5.3648762722e-04 2.7152195293e+00 -4.7028981784e+00 2.7152195293e+00 4.7028981784e+00 
398700 4.6781029597e+00 -5.3620682812e-04 2.7152294085e+00 -4.7029152898e+00 2.7152294085e+00 4.7029152898e+00 
398800 4.6781029541e+00 -5.3592616610e-04 2.7152392826e+00 -4.7029323922e+00 2.7152392826e+00 4.7029323922e+00 
398900 4.6781029485e+00 -5.3564564110e-04 2.7152491515e+00 -4.7029494855e+00 2.7152491515e+00 4.7029494855e+00 
399000 4.6781029429e+00 -5.3536525308e-04 2.7152590151e+00 -4.7029665699e+00 2.7152590151e+00 4.7029665699e+00 
399100 4.6781029373e+00 -5.3508500199e-04 2.7152688736e+00 -4.7029836453e+00 2.7152688736e+00 4.7029836453e+00 
399200 4.6781029317e+00 -5.3480488776e-04 2.7152787268e+00 -4.7030007116e+00 2.7152787268e+00 4.7030007116e+00 
399300 4.6781029262e+00 -5.3452491035e-04 2.7152885749e+00 -4.7030177690e+00 2.7152885749e+00 4.7030177690e+00 
399400 4.6781029206e+00 -5.3424506970e-04 2.7152984178e+00 -4.7030348173e+00 2.7152984178e+00 4.7030348173e+00 
399500 4.6781029150e+00 -5.3396536576e-04 2.7153082555e+00 -4.7030518567e+00 2.7153082555e+00 4.7030518567e+00 
399600 4.6781029095e+00 -5.3368579848e-04 2.7153180880e+00 -4.7030688871e+00 2.7153180880e+00 4.7030688871e+00 
399700 4.6781029039e+00 -5.3340636780e-04 2.7153279153e+00 -4.7030859085e+00 2.7153279153e+00 4.7030859085e+00 
399800 4.6781028984e+00 -5.3312707367e-04 2.7153377375e+00 -4.7031029210e+00 2.7153377375e+00 4.7031029210e+00 
399900 4.6781028929e+00 -5.3284791604e-04 2.7153475544e+00 -4.7031199245e+00 2.7153475544e+00 4.7031199245e+00 
400000 4.6781028873e+00 -5.3256889485e-04 2.7153573662e+00 -4.7031369190e+00 2.7153573662e+00 4.7031369190e+00 
400100 4.6781028818e+00 -5.3229001006e-04 2.7153671728e+00 -4.7031539045e+00 2.7153671728e+00 4.7031539045e+00 
400200 4.6781028763e+00 -5.3201126160e-04 2.7153769743e+00 -4.7031708811e+00 2.7153769743e+00 4.7031708811e+00 
400300 4.6781028708e+00 -5.3173264943e-04 2.7153867705e+00 -4.7031878488e+00 2.7153867705e+00 4.7031878488e+00 
400400 4.6781028653e+00 -5.3145417349e-04 2.7153965617e+00 -4.7032048075e+00 2.7153965617e+00 4.7032048075e+00 
400500 4.6781028598e+00 -5.3117583373e-04 2.7154063476e+00 -4.7032217572e+00 2.7154063476e+00 4.7032217572e+00 
400600 4.6781028543e+00 -5.3089763010e-04 2.7154161284e+00 -4.7032386981e+00 2.7154161284e+00 4.7032386981e+00 
400700 4.6781028488e+00 -5.3061956253e-04 2.7154259040e+00 -4.7032556299e+00 2.7154259040e+00 4.7032556299e+00 
400800 4.6781028433e+00 -5.3034163099e-04 2.7154356745e+00 -4.7032725529e+00 2.7154356745e+00 4.7032725529e+00 
400900 4.6781028378e+00 -5.3006383541e-04 2.7154454398e+00 -4.7032894669e+00 2.7154454398e+00 4.7032894669e+00 
401000 4.6781028323e+00 -5.2978617575e-04 2.7154552000e+00 -4.7033063720e+00 2.7154552000e+00 4.7033063720e+00 
401100 4.6781028269e+00 -5.2950865194e-04 2.7154649550e+00 -4.7033232682e+00 2.7154649550e+00 4.7033232682e+00 
401200 4.6781028214e+00 -5.2923126395e-04 2.7154747049e+00 -4.7033401555e+00 2.7154747049e+00 4.7033401555e+00 
401300 4.6781028160e+00 -5.2895401170e-04 2.7154844496e+00 -4.7033570339e+00 2.7154844496e+00 4.7033570339e+00 
401400 4.6781028105e+00 -5.2867689516e-04 2.7154941892e+00 -4.7033739034e+00 2.7154941892e+00 4.7033739034e+00 
401500 4.6781028051e+00 -5.2839991427e-04 2.7155039237e+00 -4.7033907639e+00 2.7155039237e+00 4.7033907639e+00 
401600 4.6781027996e+00 -5.2812306897e-04 2.7155136530e+00 -4.7034076156e+00 2.7155136530e+00 4.7034076156e+00 
401700 4.6781027942e+00 -5.2784635921e-04 2.7155233772e+00 -4.7034244584e+00 2.7155233772e+00 4.7034244584e+00 
401800 4.6781027888e+00 -5.2756978494e-04 2.7155330962e+00 -4.7034412923e+00 2.7155330962e+00 4.7034412923e+00 
401900 4.6781027834e+00 -5.2729334611e-04 2.7155428102e+00 -4.7034581173e+00 2.7155428102e+00 4.7034581173e+00 
402000 4.6781027779e+00 -5.2701704265e-04 2.7155525190e+00 -4.7034749335e+00 2.7155525190e+00 4.7034749335e+00 
402100 4.6781027725e+00 -5.2674087453e-04 2.7155622227e+00 -4.7034917408e+00 2.7155622227e+00 4.7034917408e+00 
402200 4.6781027671e+00 -5.2646484168e-04 2.7155719212e+00 -4.7035085392e+00 2.7155719212e+00 4.7035085392e+00 
402300 4.6781027617e+00 -5.2618894406e-04 2.7155816147e+00 -4.7035253287e+00 2.7155816147e+00 4.7035253287e+00 
402400 4.6781027563e+00 -5.2591318160e-04 2.7155913030e+00 -4.7035421094e+00 2.7155913030e+00 4.7035421094e+00 
402500 4.6781027509e+00 -5.2563755427e-04 2.7156009862e+00 -4.7035588812e+00 2.7156009862e+00 4.7035588812e+00 
402600 4.6781027456e+00 -5.2536206199e-04 2.7156106643e+00 -4.7035756442e+00 2.7156106643e+00 4.7035756442e+00 
402700 4.6781027402e+00 -5.2508670473e-04 2.7156203373e+00 -4.7035923984e+00 2.7156203373e+00 4.7035923984e+00 
402800 4.6781027348e+00 -5.2481148242e-04 2.7156300052e+00 -4.7036091436e+00 2.7156300052e+00 4.7036091436e+00 
402900 4.6781027295e+00 -5.2453639502e-04 2.7156396680e+00 -4.7036258801e+00 2.7156396680e+00 4.7036258801e+00 
403000 4.6781027241e+00 -5.2426144247e-04 2.7156493257e+00 -4.7036426077e+00 2.7156493257e+00 4.7036426077e+00 
403100 4.6781027187e+00 -5.2398662471e-04 2.7156589784e+00 -4.7036593265e+00 2.7156589784e+00 4.7036593265e+00 
403200 4.6781027134e+00 -5.2371194171e-04 2.7156686259e+00 -4.7036760365e+00 2.7156686259e+00 4.7036760365e+00 
403300 4.6781027081e+00 -5.2343739339e-04 2.7156782683e+00 -4.7036927377e+00 2.7156782683e+00 4.7036927377e+00 
403400 4.6781027027e+00 -5.2316297971e-04 2.7156879056e+00 -4.7037094300e+00 2.7156879056e+00 4.7037094300e+00 
403500 4.6781026974e+00 -5.2288870062e-04 2.7156975379e+00 -4.7037261136e+00 2.7156975379e+00 4.7037261136e+00 
403600 4.6781026921e+00 -5.2261455606e-04 2.7157071650e+00 -4.7037427883e+00 2.7157071650e+00 4.7037427883e+00 
403700 4.6781026868e+00 -5.2234054598e-04 2.7157167871e+00 -4.7037594542e+00 2.7157167871e+00 4.7037594542e+00 
403800 4.6781026814e+00 -5.2206667033e-04 2.7157264041e+00 -4.7037761113e+00 2.7157264041e+00 4.7037761113e+00 
403900 4.6781026761e+00 -5.2179292905e-04 2.7157360160e+00 -4.7037927597e+00 2.7157360160e+00 4.7037927597e+00 
404000 4.6781026708e+00 -5.2151932209e-04 2.7157456229e+00 -4.7038093992e+00 2.7157456229e+00 4.7038093992e+00 
404100 4.6781026655e+00 -5.2124584940e-04 2.7157552246e+00 -4.7038260300e+00 2.7157552246e+00 4.7038260300e+00 
404200 4.6781026602e+00 -5.2097251093e-04 2.7157648213e+00 -4.7038426520e+00 2.7157648213e+00 4.7038426520e+00 
404300 4.6781026550e+00 -5.2069930661e-04 2.7157744130e+00 -4.7038592652e+00 2.7157744130e+00 4.7038592652e+00 
404400 4.6781026497e+00 -5.2042623640e-04 2.7157839996e+00 -4.7038758696e+00 2.7157839996e+00 4.7038758696e+00 
404500 4.6781026444e+00 -5.2015330025e-04 2.7157935811e+00 -4.7038924653e+00 2.7157935811e+00 4.7038924653e+00 
404600 4.6781026391e+00 -5.1988049810e-04 2.7158031575e+00 -4.7039090522e+00 2.7158031575e+00 4.7039090522e+00 
404700 4.6781026339e+00 -5.1960782990e-04 2.7158127289e+00 -4.7039256303e+00 2.7158127289e+00 4.7039256303e+00 
404800 4.6781026286e+00 -5.1933529559e-04 2.7158222953e+00 -4.7039421997e+00 2.7158222953e+00 4.7039421997e+00 
404900 4.6781026234e+00 -5.1906289513e-04 2.7158318566e+00 -4.7039587604e+00 2.7158318566e+00 4.7039587604e+00 
405000 4.6781026181e+00 -5.1879062846e-04 2.7158414128e+00 -4.7039753123e+00 2.7158414128e+00 4.7039753123e+00 
405100 4.6781026129e+00 -5.1851849552e-04 2.7158509640e+00 -4.7039918555e+00 2.7158509640e+00 4.7039918555e+00 
405200 4.6781026077e+00 -5.1824649627e-04 2.7158605102e+00 -4.7040083899e+00 2.7158605102e+00 4.7040083899e+00 
405300 4.6781026024e+00 -5.1797463064e-04 2.7158700513e+00 -4.7040249156e+00 2.7158700513e+00 4.7040249156e+00 
405400 4.6781025972e+00 -5.1770289860e-04 2.7158795874e+00 -4.7040414326e+00 2.7158795874e+00 4.7040414326e+00 
405500 4.6781025920e+00 -5.1743130008e-04 2.7158891184e+00 -4.7040579408e+00 2.7158891184e+00 4.7040579408e+00 
405600 4.6781025868e+00 -5.1715983503e-04 2.7158986444e+00 -4.7040744403e+00 2.7158986444e+00 4.7040744403e+00 
405700 4.6781025816e+00 -5.1688850340e-04 2.7159081654e+00 -4.7040909312e+00 2.7159081654e+00 4.7040909312e+00 
405800 4.6781025764e+00 -5.1661730513e-04 2.7159176813e+00 -4.7041074133e+00 2.7159176813e+00 4.7041074133e+00 
405900 4.6781025712e+00 -5.1634624018e-04 2.7159271923e+00 -4.7041238867e+00 2.7159271923e+00 4.7041238867e+00 
406000 4.6781025660e+00 -5.1607530848e-04 2.7159366982e+00 -4.7041403514e+00 2.7159366982e+00 4.7041403514e+00 
406100 4.6781025608e+00 -5.1580450999e-04 2.7159461990e+00 -4.7041568074e+00 2.7159461990e+00 4.7041568074e+00 
406200 4.6781025556e+00 -5.1553384466e-04 2.7159556949e+00 -4.7041732547e+00 2.7159556949e+00 4.7041732547e+00 
406300 4.6781025504e+00 -5.1526331242e-04 2.7159651857e+00 -4.7041896933e+00 2.7159651857e+00 4.7041896933e+00 
406400 4.6781025453e+00 -5.1499291324e-04 2.7159746716e+00 -4.7042061232e+00 2.7159746716e+00 4.7042061232e+00 
406500 4.6781025401e+00 -5.1472264704e-04 2.7159841524e+00 -4.7042225445e+00 2.7159841524e+00 4.7042225445e+00 
406600 4.6781025349e+00 -5.1445251379e-04 2.7159936282e+00 -4.7042389571e+00 2.7159936282e+00 4.7042389571e+00 
406700 4.6781025298e+00 -5.1418251343e-04 2.7160030990e+00 -4.7042553610e+00 2.7160030990e+00 4.7042553610e+00 
406800 4.6781025246e+00 -5.1391264590e-04 2.7160125648e+00 -4.7042717562e+00 2.7160125648e+00 4.7042717562e+00 
406900 4.6781025195e+00 -5.1364291115e-04 2.7160220256e+00 -4.7042881428e+00 2.7160220256e+00 4.7042881428e+00 
407000 4.6781025144e+00 -5.1337330913e-04 2.7160314814e+00 -4.7043045207e+00 2.7160314814e+00 4.7043045207e+00 
407100 4.6781025092e+00 -5.1310383979e-04 2.7160409322e+00 -4.7043208900e+00 2.7160409322e+00 4.7043208900e+00 
407200 4.6781025041e+00 -5.1283450307e-04 2.7160503780e+00 -4.7043372506e+00 2.7160503780e+00 4.7043372506e+00 
407300 4.6781024990e+00 -5.1256529892e-04 2.7160598188e+00 -4.7043536026e+00 2.7160598188e+00 4.7043536026e+00 
407400 4.6781024939e+00 -5.1229622729e-04 2.7160692547e+00 -4.7043699459e+00 2.7160692547e+00 4.7043699459e+00 
407500 4.6781024888e+00 -5.1202728812e-04 2.7160786855e+00 -4.7043862806e+00 2.7160786855e+00 4.7043862806e+00 
407600 4.6781024837e+00 -5.1175848136e-04 2.7160881114e+00 -4.7044026067e+00 2.7160881114e+00 4.7044026067e+00 
407700 4.6781024786e+00 -5.1148980696e-04 2.7160975322e+00 -4.7044189242e+00 2.7160975322e+00 4.7044189242e+00 
407800 4.6781024735e+00 -5.1122126486e-04 2.7161069481e+00 -4.7044352330e+00 2.7161069481e+00 4.7044352330e+00 
407900 4.6781024684e+00 -5.1095285502e-04 2.7161163591e+00 -4.7044515332e+00 2.7161163591e+00 4.7044515332e+00 
408000 4.6781024633e+00 -5.1068457738e-04 2.7161257650e+00 -4.7044678248e+00 2.7161257650e+00 4.7044678248e+00 
408100 4.6781024582e+00 -5.1041643188e-04 2.7161351660e+00 -4.7044841077e+00 2.7161351660e+00 4.7044841077e+00 
408200 4.6781024532e+00 -5.1014841847e-04 2.7161445620e+00 -4.7045003821e+00 2.7161445620e+00 4.7045003821e+00 
408300 4.6781024481e+00 -5.0988053711e-04 2.7161539531e+00 -4.7045166479e+00 2.7161539531e+00 4.7045166479e+00 
408400 4.6781024430e+00 -5.0961278773e-04 2.7161633391e+00 -4.7045329050e+00 2.7161633391e+00 4.7045329050e+00 
408500 4.6781024380e+00 -5.0934517029e-04 2.7161727203e+00 -4.7045491536e+00 2.7161727203e+00 4.7045491536e+00 
408600 4.6781024329e+00 -5.0907768472e-04 2.7161820964e+00 -4.7045653936e+00 2.7161820964e+00 4.7045653936e+00 
408700 4.6781024279e+00 -5.0881033099e-04 2.7161914676e+00 -4.7045816250e+00 2.7161914676e+00 4.7045816250e+00 
408800 4.6781024229e+00 -5.0854310903e-04 2.7162008339e+00 -4.7045978478e+00 2.7162008339e+00 4.7045978478e+00 
408900 4.6781024178e+00 -5.0827601879e-04 2.7162101952e+00 -4.7046140621e+00 2.7162101952e+00 4.7046140621e+00 
409000 4.6781024128e+00 -5.0800906023e-04 2.7162195515e+00 -4.7046302678e+00 2.7162195515e+00 4.7046302678e+00 
409100 4.6781024078e+00 -5.0774223327e-04 2.7162289029e+00 -4.7046464649e+00 2.7162289029e+00 4.7046464649e+00 
409200 4.6781024028e+00 -5.0747553789e-04 2.7162382494e+00 -4.7046626534e+00 2.7162382494e+00 4.7046626534e+00 
409300 4.6781023977e+00 -5.0720897401e-04 2.7162475909e+00 -4.7046788334e+00 2.7162475909e+00 4.7046788334e+00 
409400 4.6781023927e+00 -5.0694254159e-04 2.7162569275e+00 -4.7046950048e+00 2.7162569275e+00 4.7046950048e+00 
409500 4.6781023877e+00 -5.0667624057e-04 2.7162662591e+00 -4.7047111677e+00 2.7162662591e+00 4.7047111677e+00 
409600 4.6781023827e+00 -5.0641007091e-04 2.7162755858e+00 -4.7047273220e+00 2.7162755858e+00 4.7047273220e+00 
409700 4.6781023777e+00 -5.0614403254e-04 2.7162849076e+00 -4.7047434678e+00 2.7162849076e+00 4.7047434678e+00 
409800 4.6781023728e+00 -5.0587812543e-04 2.7162942245e+00 -4.7047596051e+00 2.7162942245e+00 4.7047596051e+00 
409900 4.6781023678e+00 -5.0561234950e-04 2.7163035364e+00 -4.7047757338e+00 2.7163035364e+00 4.7047757338e+00 
410000 4.6781023628e+00 -5.0534670471e-04 2.7163128434e+00 -4.7047918540e+00 2.7163128434e+00 4.7047918540e+00 
410100 4.6781023578e+00 -5.0508119101e-04 2.7163221455e+00 -4.7048079657e+00 2.7163221455e+00 4.7048079657e+00 
410200 4.6781023529e+00 -5.0481580835e-04 2.7163314426e+00 -4.7048240688e+00 2.7163314426e+00 4.7048240688e+00 
410300 4.6781023479e+00 -5.0455055666e-04 2.7163407349e+00 -4.7048401635e+00 2.7163407349e+00 4.7048401635e+00 
410400 4.6781023430e+00 -5.0428543591e-04 2.7163500222e+00 -4.7048562496e+00 2.7163500222e+00 4.7048562496e+00 
410500 4.6781023380e+00 -5.0402044603e-04 2.7163593046e+00 -4.7048723272e+00 2.7163593046e+00 4.7048723272e+00 
410600 4.6781023331e+00 -5.0375558697e-04 2.7163685821e+00 -4.7048883963e+00 2.7163685821e+00 4.7048883963e+00 
410700 4.6781023281e+00 -5.0349085868e-04 2.7163778547e+00 -4.7049044569e+00 2.7163778547e+00 4.7049044569e+00 
410800 4.6781023232e+00 -5.0322626111e-04 2.7163871224e+00 -4.7049205090e+00 2.7163871224e+00 4.7049205090e+00 
410900 4.6781023183e+00 -5.0296179420e-04 2.7163963852e+00 -4.7049365526e+00 2.7163963852e+00 4.7049365526e+00 
411000 4.6781023133e+00 -5.0269745790e-04 2.7164056431e+00 -4.7049525878e+00 2.7164056431e+00 4.7049525878e+00 
411100 4.6781023084e+00 -5.0243325216e-04 2.7164148961e+00 -4.7049686144e+00 2.7164148961e+00 4.7049686144e+00 
411200 4.6781023035e+00 -5.0216917693e-04 2.7164241442e+00 -4.7049846326e+00 2.7164241442e+00 4.7049846326e+00 
411300 4.6781022986e+00 -5.0190523215e-04 2.7164333874e+00 -4.7050006423e+00 2.7164333874e+00 4.7050006423e+00 
411400 4.6781022937e+00 -5.0164141777e-04 2.7164426257e+00 -4.7050166436e+00 2.7164426257e+00 4.7050166436e+00 
411500 4.6781022888e+00 -5.0137773373e-04 2.7164518591e+00 -4.7050326363e+00 2.7164518591e+00 4.7050326363e+00 
411600 4.6781022839e+00 -5.0111417999e-04 2.7164610877e+00 -4.7050486206e+00 2.7164610877e+00 4.7050486206e+00 
411700 4.6781022790e+00 -5.0085075649e-04 2.7164703113e+00 -4.7050645965e+00 2.7164703113e+00 4.7050645965e+00 
411800 4.6781022742e+00 -5.0058746318e-04 2.7164795301e+00 -4.7050805639e+00 2.7164795301e+00 4.7050805639e+00 
411900 4.6781022693e+00 -5.0032430000e-04 2.7164887440e+00 -4.7050965229e+00 2.7164887440e+00 4.7050965229e+00 
412000 4.6781022644e+00 -5.0006126691e-04 2.7164979531e+00 -4.7051124734e+00 2.7164979531e+00 4.7051124734e+00 
412100 4.6781022595e+00 -4.9979836384e-04 2.7165071572e+00 -4.7051284154e+00 2.7165071572e+00 4.7051284154e+00 
412200 4.6781022547e+00 -4.9953559075e-04 2.7165163565e+00 -4.7051443491e+00 2.7165163565e+00 4.7051443491e+00 
412300 4.6781022498e+00 -4.9927294759e-04 2.7165255509e+00 -4.7051602743e+00 2.7165255509e+00 4.7051602743e+00 
412400 4.6781022450e+00 -4.9901043429e-04 2.7165347405e+00 -4.7051761911e+00 2.7165347405e+00 4.7051761911e+00 
412500 4.6781022401e+00 -4.9874805082e-04 2.7165439252e+00 -4.7051920994e+00 2.7165439252e+00 4.7051920994e+00 
412600 4.6781022353e+00 -4.9848579711e-04 2.7165531050e+00 -4.7052079993e+00 2.7165531050e+00 4.7052079993e+00 
412700 4.6781022305e+00 -4.9822367311e-04 2.7165622800e+00 -4.7052238909e+00 2.7165622800e+00 4.7052238909e+00 
412800 4.6781022256e+00 -4.9796167877e-04 2.7165714501e+00 -4.7052397740e+00 2.7165714501e+00 4.7052397740e+00 
412900 4.6781022208e+00 -4.9769981404e-04 2.7165806154e+00 -4.7052556487e+00 2.7165806154e+00 4.7052556487e+00 
413000 4.6781022160e+00 -4.9743807886e-04 2.7165897758e+00 -4.7052715150e+00 2.7165897758e+00 4.7052715150e+00 
413100 4.6781022112e+00 -4.9717647319e-04 2.7165989314e+00 -4.7052873729e+00 2.7165989314e+00 4.7052873729e+00 
413200 4.6781022064e+00 -4.9691499696e-04 2.7166080821e+00 -4.7053032224e+00 2.7166080821e+00 4.7053032224e+00 
413300 4.6781022016e+00 -4.9665365013e-04 2.7166172279e+00 -4.7053190635e+00 2.7166172279e+00 4.7053190635e+00 
413400 4.6781021968e+00 -4.9639243264e-04 2.7166263690e+00 -4.7053348963e+00 2.7166263690e+00 4.7053348963e+00 
413500 4.6781021920e+00 -4.9613134444e-04 2.7166355052e+00 -4.7053507206e+00 2.7166355052e+00 4.7053507206e+00 
413600 4.6781021872e+00 -4.9587038548e-04 2.7166446365e+00 -4.7053665366e+00 2.7166446365e+00 4.7053665366e+00 
413700 4.6781021824e+00 -4.9560955571e-04 2.7166537631e+00 -4.7053823442e+00 2.7166537631e+00 4.7053823442e+00 
413800 4.6781021776e+00 -4.9534885506e-04 2.7166628848e+00 -4.7053981435e+00 2.7166628848e+00 4.7053981435e+00 
413900 4.6781021728e+00 -4.9508828350e-04 2.7166720016e+00 -4.7054139343e+00 2.7166720016e+00 4.7054139343e+00 
414000 4.6781021681e+00 -4.9482784096e-04 2.7166811137e+00 -4.7054297169e+00 2.7166811137e+00 4.7054297169e+00 
414100 4.6781021633e+00 -4.9456752739e-04 2.7166902209e+00 -4.7054454910e+00 2.7166902209e+00 4.7054454910e+00 
414200 4.6781021586e+00 -4.9430734275e-04 2.7166993233e+00 -4.7054612568e+00 2.7166993233e+00 4.7054612568e+00 
414300 4.6781021538e+00 -4.9404728698e-04 2.7167084209e+00 -4.7054770143e+00 2.7167084209e+00 4.7054770143e+00 
414400 4.6781021491e+00 -4.9378736002e-04 2.7167175136e+00 -4.7054927634e+00 2.7167175136e+00 4.7054927634e+00 
414500 4.6781021443e+00 -4.9352756182e-04 2.7167266016e+00 -4.7055085042e+00 2.7167266016e+00 4.7055085042e+00 
414600 4.6781021396e+00 -4.9326789233e-04 2.7167356847e+00 -4.7055242367e+00 2.7167356847e+00 4.7055242367e+00 
414700 4.6781021348e+00 -4.9300835150e-04 2.7167447630e+00 -4.7055399608e+00 2.7167447630e+00 4.7055399608e+00 
414800 4.6781021301e+00 -4.9274893928e-04 2.7167538366e+00 -4.7055556766e+00 2.7167538366e+00 4.7055556766e+00 
414900 4.6781021254e+00 -4.9248965561e-04 2.7167629053e+00 -4.7055713840e+00 2.7167629053e+00 4.7055713840e+00 
415000 4.6781021207e+00 -4.9223050043e-04 2.7167719692e+00 -4.7055870832e+00 2.7167719692e+00 4.7055870832e+00 
415100 4.6781021160e+00 -4.9197147371e-04 2.7167810283e+00 -4.7056027740e+00 2.7167810283e+00 4.7056027740e+00 
415200 4.6781021113e+00 -4.9171257537e-04 2.7167900826e+00 -4.7056184566e+00 2.7167900826e+00 4.7056184566e+00 
415300 4.6781021065e+00 -4.9145380538e-04 2.7167991321e+00 -4.7056341308e+00 2.7167991321e+00 4.7056341308e+00 
415400 4.6781021019e+00 -4.9119516368e-04 2.7168081768e+00 -4.7056497967e+00 2.7168081768e+00 4.7056497967e+00 
415500 4.6781020972e+00 -4.9093665021e-04 2.7168172168e+00 -4.7056654543e+00 2.7168172168e+00 4.7056654543e+00 
415600 4.6781020925e+00 -4.9067826493e-04 2.7168262519e+00 -4.7056811037e+00 2.7168262519e+00 4.7056811037e+00 
415700 4.6781020878e+00 -4.9042000777e-04 2.7168352823e+00 -4.7056967447e+00 2.7168352823e+00 4.7056967447e+00 
415800 4.6781020831e+00 -4.9016187870e-04 2.7168443079e+00 -4.7057123775e+00 2.7168443079e+00 4.7057123775e+00 
415900 4.6781020784e+00 -4.8990387764e-04 2.7168533287e+00 -4.7057280020e+00 2.7168533287e+00 4.7057280020e+00 
416000 4.6781020738e+00 -4.8964600457e-04 2.7168623447e+00 -4.7057436182e+00 2.7168623447e+00 4.7057436182e+00 
416100 4.6781020691e+00 -4.8938825941e-04 2.7168713559e+00 -4.7057592261e+00 2.7168713559e+00 4.7057592261e+00 
416200 4.6781020644e+00 -4.8913064212e-04 2.7168803624e+00 -4.7057748258e+00 2.7168803624e+00 4.7057748258e+00 
416300 4.6781020598e+00 -4.8887315264e-04 2.7168893641e+00 -4.7057904172e+00 2.7168893641e+00 4.7057904172e+00 
416400 4.6781020551e+00 -4.8861579092e-04 2.7168983610e+00 -4.7058060003e+00 2.7168983610e+00 4.7058060003e+00 
416500 4.6781020505e+00 -4.8835855692e-04 2.7169073532e+00 -4.7058215752e+00 2.7169073532e+00 4.7058215752e+00 
416600 4.6781020459e+00 -4.8810145057e-04 2.7169163406e+00 -4.7058371419e+00 2.7169163406e+00 4.7058371419e+00 
416700 4.6781020412e+00 -4.8784447183e-04 2.7169253233e+00 -4.7058527002e+00 2.7169253233e+00 4.7058527002e+00 
416800 4.6781020366e+00 -4.8758762063e-04 2.7169343011e+00 -4.7058682504e+00 2.7169343011e+00 4.7058682504e+00 
416900 4.6781020320e+00 -4.8733089694e-04 2.7169432743e+00 -4.7058837923e+00 2.7169432743e+00 4.7058837923e+00 
417000 4.6781020274e+00 -4.8707430069e-04 2.7169522426e+00 -4.7058993260e+00 2.7169522426e+00 4.7058993260e+00 
417100 4.6781020227e+00 -4.8681783184e-04 2.7169612063e+00 -4.7059148514e+00 2.7169612063e+00 4.7059148514e+00 
417200 4.6781020181e+00 -4.8656149033e-04 2.7169701651e+00 -4.7059303686e+00 2.7169701651e+00 4.7059303686e+00 
417300 4.6781020135e+00 -4.8630527610e-04 2.7169791193e+00 -4.7059458776e+00 2.7169791193e+00 4.7059458776e+00 
417400 4.6781020089e+00 -4.8604918911e-04 2.7169880686e+00 -4.7059613784e+00 2.7169880686e+00 4.7059613784e+00 
417500 4.6781020043e+00 -4.8579322931e-04 2.7169970133e+00 -4.7059768710e+00 2.7169970133e+00 4.7059768710e+00 
417600 4.6781019998e+00 -4.8553739664e-04 2.7170059532e+00 -4.7059923553e+00 2.7170059532e+00 4.7059923553e+00 
417700 4.6781019952e+00 -4.8528169104e-04 2.7170148883e+00 -4.7060078315e+00 2.7170148883e+00 4.7060078315e+00 
417800 4.6781019906e+00 -4.8502611247e-04 2.7170238188e+00 -4.7060232995e+00 2.7170238188e+00 4.7060232995e+00 
417900 4.6781019860e+00 -4.8477066088e-04 2.7170327444e+00 -4.7060387592e+00 2.7170327444e+00 4.7060387592e+00 
418000 4.6781019814e+00 -4.8451533620e-04 2.7170416654e+00 -4.7060542108e+00 2.7170416654e+00 4.7060542108e+00 
418100 4.6781019769e+00 -4.8426013840e-04 2.7170505816e+00 -4.7060696541e+00 2.7170505816e+00 4.7060696541e+00 
418200 4.6781019723e+00 -4.8400506740e-04 2.7170594931e+00 -4.7060850893e+00 2.7170594931e+00 4.7060850893e+00 
418300 4.6781019678e+00 -4.8375012318e-04 2.7170683999e+00 -4.7061005163e+00 2.7170683999e+00 4.7061005163e+00 
418400 4.6781019632e+00 -4.8349530566e-04 2.7170773020e+00 -4.7061159352e+00 2.7170773020e+00 4.7061159352e+00 
418500 4.6781019587e+00 -4.8324061480e-04 2.7170861993e+00 -4.7061313458e+00 2.7170861993e+00 4.7061313458e+00 
418600 4.6781019541e+00 -4.8298605055e-04 2.7170950920e+00 -4.7061467483e+00 2.7170950920e+00 4.7061467483e+00 
418700 4.6781019496e+00 -4.8273161285e-04 2.7171039799e+00 -4.7061621426e+00 2.7171039799e+00 4.7061621426e+00 
418800 4.6781019451e+00 -4.8247730165e-04 2.7171128631e+00 -4.7061775288e+00 2.7171128631e+00 4.7061775288e+00 
418900 4.6781019405e+00 -4.8222311690e-04 2.7171217416e+00 -4.7061929068e+00 2.7171217416e+00 4.7061929068e+00 
419000 4.6781019360e+00 -4.8196905854e-04 2.7171306154e+00 -4.7062082766e+00 2.7171306154e+00 4.7062082766e+00 
419100 4.6781019315e+00 -4.8171512653e-04 2.7171394845e+00 -4.7062236384e+00 2.7171394845e+00 4.7062236384e+00 
419200 4.6781019270e+00 -4.8146132081e-04 2.7171483489e+00 -4.7062389919e+00 2.7171483489e+00 4.7062389919e+00 
419300 4.6781019225e+00 -4.8120764133e-04 2.7171572085e+00 -4.7062543373e+00 2.7171572085e+00 4.7062543373e+00 
419400 4.6781019180e+00 -4.8095408803e-04 2.7171660635e+00 -4.7062696746e+00 2.7171660635e+00 4.7062696746e+00 
419500 4.6781019135e+00 -4.8070066087e-04 2.7171749138e+00 -4.7062850038e+00 2.7171749138e+00 4.7062850038e+00 
419600 4.6781019090e+00 -4.8044735979e-04 2.7171837594e+00 -4.7063003248e+00 2.7171837594e+00 4.7063003248e+00 
419700 4.6781019045e+00 -4.8019418474e-04 2.7171926003e+00 -4.7063156377e+00 2.7171926003e+00 4.7063156377e+00 
419800 4.6781019000e+00 -4.7994113566e-04 2.7172014366e+00 -4.7063309425e+00 2.7172014366e+00 4.7063309425e+00 
419900 4.6781018955e+00 -4.7968821251e-04 2.7172102681e+00 -4.7063462392e+00 2.7172102681e+00 4.7063462392e+00 
420000 4.6781018911e+00 -4.7943541522e-04 2.7172190950e+00 -4.7063615278e+00 2.7172190950e+00 4.7063615278e+00 
420100 4.6781018866e+00 -4.7918274376e-04 2.7172279171e+00 -4.7063768082e+00 2.7172279171e+00 4.7063768082e+00 
420200 4.6781018821e+00 -4.7893019807e-04 2.7172367346e+00 -4.7063920806e+00 2.7172367346e+00 4.7063920806e+00 
420300 4.6781018777e+00 -4.7867777809e-04 2.7172455475e+00 -4.7064073448e+00 2.7172455475e+00 4.7064073448e+00 
420400 4.6781018732e+00 -4.7842548377e-04 2.7172543556e+00 -4.7064226010e+00 2.7172543556e+00 4.7064226010e+00 
420500 4.6781018688e+00 -4.7817331506e-04 2.7172631591e+00 -4.7064378491e+00 2.7172631591e+00 4.7064378491e+00 
420600 4.6781018643e+00 -4.7792127190e-04 2.7172719579e+00 -4.7064530890e+00 2.7172719579e+00 4.7064530890e+00 
420700 4.6781018599e+00 -4.7766935426e-04 2.7172807520e+00 -4.7064683209e+00 2.7172807520e+00 4.7064683209e+00 
420800 4.6781018554e+00 -4.7741756206e-04 2.7172895415e+00 -4.7064835448e+00 2.7172895415e+00 4.7064835448e+00 
420900 4.6781018510e+00 -4.7716589526e-04 2.7172983263e+00 -4.7064987605e+00 2.7172983263e+00 4.7064987605e+00 
421000 4.6781018466e+00 -4.7691435382e-04 2.7173071065e+00 -4.7065139682e+00 2.7173071065e+00 4.7065139682e+00 
421100 4.6781018422e+00 -4.7666293766e-04 2.7173158820e+00 -4.7065291678e+00 2.7173158820e+00 4.7065291678e+00 
421200 4.6781018377e+00 -4.7641164676e-04 2.7173246528e+00 -4.7065443594e+00 2.7173246528e+00 4.7065443594e+00 
421300 4.6781018333e+00 -4.7616048104e-04 2.7173334190e+00 -4.7065595428e+00 2.7173334190e+00 4.7065595428e+00 
421400 4.6781018289e+00 -4.7590944046e-04 2.7173421806e+00 -4.7065747183e+00 2.7173421806e+00 4.7065747183e+00 
421500 4.6781018245e+00 -4.7565852496e-04 2.7173509375e+00 -4.7065898857e+00 2.7173509375e+00 4.7065898857e+00 
421600 4.6781018201e+00 -4.7540773450e-04 2.7173596897e+00 -4.7066050450e+00 2.7173596897e+00 4.7066050450e+00 
421700 4.6781018157e+00 -4.7515706902e-04 2.7173684373e+00 -4.7066201963e+00 2.7173684373e+00 4.7066201963e+00 
421800 4.6781018113e+00 -4.7490652848e-04 2.7173771803e+00 -4.7066353396e+00 2.7173771803e+00 4.7066353396e+00 
421900 4.6781018070e+00 -4.7465611280e-04 2.7173859186e+00 -4.7066504748e+00 2.7173859186e+00 4.7066504748e+00 
422000 4.6781018026e+00 -4.7440582196e-04 2.7173946523e+00 -4.7066656020e+00 2.7173946523e+00 4.7066656020e+00 
422100 4.6781017982e+00 -4.7415565588e-04 2.7174033814e+00 -4.7066807212e+00 2.7174033814e+00 4.7066807212e+00 
422200 4.6781017938e+00 -4.7390561453e-04 2.7174121058e+00 -4.7066958324e+00 2.7174121058e+00 4.7066958324e+00 
422300 4.6781017895e+00 -4.7365569784e-04 2.7174208256e+00 -4.7067109355e+00 2.7174208256e+00 4.7067109355e+00 
422400 4.6781017851e+00 -4.7340590577e-04 2.7174295408e+00 -4.7067260306e+00 2.7174295408e+00 4.7067260306e+00 
422500 4.6781017808e+00 -4.7315623826e-04 2.7174382513e+00 -4.7067411177e+00 2.7174382513e+00 4.7067411177e+00 
422600 4.6781017764e+00 -4.7290669527e-04 2.7174469573e+00 -4.7067561969e+00 2.7174469573e+00 4.7067561969e+00 
422700 4.6781017721e+00 -4.7265727673e-04 2.7174556586e+00 -4.7067712680e+00 2.7174556586e+00 4.7067712680e+00 
422800 4.6781017677e+00 -4.7240798260e-04 2.7174643553e+00 -4.7067863311e+00 2.7174643553e+00 4.7067863311e+00 
422900 4.6781017634e+00 -4.7215881282e-04 2.7174730473e+00 -4.7068013862e+00 2.7174730473e+00 4.7068013862e+00 
423000 4.6781017590e+00 -4.7190976735e-04 2.7174817348e+00 -4.7068164333e+00 2.7174817348e+00 4.7068164333e+00 
423100 4.6781017547e+00 -4.7166084613e-04 2.7174904177e+00 -4.7068314725e+00 2.7174904177e+00 4.7068314725e+00 
423200 4.6781017504e+00 -4.7141204910e-04 2.7174990959e+00 -4.7068465036e+00 2.7174990959e+00 4.7068465036e+00 
423300 4.6781017461e+00 -4.7116337623e-04 2.7175077696e+00 -4.7068615268e+00 2.7175077696e+00 4.7068615268e+00 
423400 4.6781017418e+00 -4.7091482744e-04 2.7175164386e+00 -4.7068765420e+00 2.7175164386e+00 4.7068765420e+00 
423500 4.6781017374e+00 -4.7066640270e-04 2.7175251030e+00 -4.7068915493e+00 2.7175251030e+00 4.7068915493e+00 
423600 4.6781017331e+00 -4.7041810194e-04 2.7175337629e+00 -4.7069065486e+00 2.7175337629e+00 4.7069065486e+00 
423700 4.6781017288e+00 -4.7016992513e-04 2.7175424181e+00 -4.7069215399e+00 2.7175424181e+00 4.7069215399e+00 
423800 4.6781017245e+00 -4.6992187219e-04 2.7175510688e+00 -4.7069365233e+00 2.7175510688e+00 4.7069365233e+00 
423900 4.6781017202e+00 -4.6967394310e-04 2.7175597148e+00 -4.7069514987e+00 2.7175597148e+00 4.7069514987e+00 
424000 4.6781017160e+00 -4.6942613778e-04 2.7175683563e+00 -4.7069664661e+00 2.7175683563e+00 4.7069664661e+00 
424100 4.6781017117e+00 -4.6917845619e-04 2.7175769932e+00 -4.7069814257e+00 2.7175769932e+00 4.7069814257e+00 
424200 4.6781017074e+00 -4.6893089828e-04 2.7175856255e+00 -4.7069963772e+00 2.7175856255e+00 4.7069963772e+00 
424300 4.6781017031e+00 -4.6868346399e-04 2.7175942532e+00 -4.7070113209e+00 2.7175942532e+00 4.7070113209e+00 
424400 4.6781016989e+00 -4.6843615327e-04 2.7176028763e+00 -4.7070262566e+00 2.7176028763e+00 4.7070262566e+00 
424500 4.6781016946e+00 -4.6818896608e-04 2.7176114949e+00 -4.7070411844e+00 2.7176114949e+00 4.7070411844e+00 
424600 4.6781016903e+00 -4.6794190235e-04 2.7176201089e+00 -4.7070561042e+00 2.7176201089e+00 4.7070561042e+00 
424700 4.6781016861e+00 -4.6769496204e-04 2.7176287183e+00 -4.7070710162e+00 2.7176287183e+00 4.7070710162e+00 
424800 4.6781016818e+00 -4.6744814510e-04 2.7176373231e+00 -4.7070859202e+00 2.7176373231e+00 4.7070859202e+00 
424900 4.6781016776e+00 -4.6720145146e-04 2.7176459234e+00 -4.7071008163e+00 2.7176459234e+00 4.7071008163e+00 
425000 4.6781016733e+00 -4.6695488109e-04 2.7176545191e+00 -4.7071157045e+00 2.7176545191e+00 4.7071157045e+00 
425100 4.6781016691e+00 -4.6670843392e-04 2.7176631102e+00 -4.7071305848e+00 2.7176631102e+00 4.7071305848e+00 
425200 4.6781016649e+00 -4.6646210991e-04 2.7176716968e+00 -4.7071454572e+00 2.7176716968e+00 4.7071454572e+00 
425300 4.6781016606e+00 -4.6621590900e-04 2.7176802788e+00 -4.7071603217e+00 2.7176802788e+00 4.7071603217e+00 
425400 4.6781016564e+00 -4.6596983115e-04 2.7176888563e+00 -4.7071751783e+00 2.7176888563e+00 4.7071751783e+00 
425500 4.6781016522e+00 -4.6572387630e-04 2.7176974292e+00 -4.7071900270e+00 2.7176974292e+00 4.7071900270e+00 
425600 4.6781016480e+00 -4.6547804439e-04 2.7177059976e+00 -4.7072048678e+00 2.7177059976e+00 4.7072048678e+00 
425700 4.6781016438e+00 -4.6523233538e-04 2.7177145614e+00 -4.7072197008e+00 2.7177145614e+00 4.7072197008e+00 
425800 4.6781016396e+00 -4.6498674921e-04 2.7177231206e+00 -4.7072345259e+00 2.7177231206e+00 4.7072345259e+00 
425900 4.6781016354e+00 -4.6474128584e-04 2.7177316754e+00 -4.7072493431e+00 2.7177316754e+00 4.7072493431e+00 
426000 4.6781016312e+00 -4.6449594520e-04 2.7177402255e+00 -4.7072641524e+00 2.7177402255e+00 4.7072641524e+00 
426100 4.6781016270e+00 -4.6425072726e-04 2.7177487712e+00 -4.7072789539e+00 2.7177487712e+00 4.7072789539e+00 
426200 4.6781016228e+00 -4.6400563195e-04 2.7177573123e+00 -4.7072937475e+00 2.7177573123e+00 4.7072937475e+00 
426300 4.6781016186e+00 -4.6376065922e-04 2.7177658488e+00 -4.7073085332e+00 2.7177658488e+00 4.7073085332e+00 
426400 4.6781016144e+00 -4.6351580903e-04 2.7177743808e+00 -4.7073233111e+00 2.7177743808e+00 4.7073233111e+00 
426500 4.6781016102e+00 -4.6327108131e-04 2.7177829083e+00 -4.7073380812e+00 2.7177829083e+00 4.7073380812e+00 
426600 4.6781016061e+00 -4.6302647603e-04 2.7177914313e+00 -4.7073528434e+00 2.7177914313e+00 4.7073528434e+00 
426700 4.6781016019e+00 -4.6278199312e-04 2.7177999497e+00 -4.7073675978e+00 2.7177999497e+00 4.7073675978e+00 
426800 4.6781015978e+00 -4.6253763254e-04 2.7178084637e+00 -4.7073823443e+00 2.7178084637e+00 4.7073823443e+00 
426900 4.6781015936e+00 -4.6229339423e-04 2.7178169730e+00 -4.7073970830e+00 2.7178169730e+00 4.7073970830e+00 
427000 4.6781015894e+00 -4.6204927814e-04 2.7178254779e+00 -4.7074118139e+00 2.7178254779e+00 4.7074118139e+00 
427100 4.6781015853e+00 -4.6180528421e-04 2.7178339783e+00 -4.7074265369e+00 2.7178339783e+00 4.7074265369e+00 
427200 4.6781015812e+00 -4.6156141241e-04 2.7178424741e+00 -4.7074412521e+00 2.7178424741e+00 4.7074412521e+00 
427300 4.6781015770e+00 -4.6131766267e-04 2.7178509654e+00 -4.7074559595e+00 2.7178509654e+00 4.7074559595e+00 
427400 4.6781015729e+00 -4.6107403494e-04 2.7178594522e+00 -4.7074706591e+00 2.7178594522e+00 4.7074706591e+00 
427500 4.6781015687e+00 -4.6083052918e-04 2.7178679345e+00 -4.7074853509e+00 2.7178679345e+00 4.7074853509e+00 
427600 4.6781015646e+00 -4.6058714532e-04 2.7178764123e+00 -4.7075000349e+00 2.7178764123e+00 4.7075000349e+00 
427700 4.6781015605e+00 -4.6034388333e-04 2.7178848856e+00 -4.7075147111e+00 2.7178848856e+00 4.7075147111e+00 
427800 4.6781015564e+00 -4.6010074314e-04 2.7178933544e+00 -4.7075293794e+00 2.7178933544e+00 4.7075293794e+00 
427900 4.6781015523e+00 -4.5985772470e-04 2.7179018187e+00 -4.7075440400e+00 2.7179018187e+00 4.7075440400e+00 
428000 4.6781015482e+00 -4.5961482797e-04 2.7179102785e+00 -4.7075586928e+00 2.7179102785e+00 4.7075586928e+00 
428100 4.6781015441e+00 -4.5937205288e-04 2.7179187338e+00 -4.7075733378e+00 2.7179187338e+00 4.7075733378e+00 
428200 4.6781015400e+00 -4.5912939940e-04 2.7179271846e+00 -4.7075879751e+00 2.7179271846e+00 4.7075879751e+00 
428300 4.6781015359e+00 -4.5888686746e-04 2.7179356310e+00 -4.7076026045e+00 2.7179356310e+00 4.7076026045e+00 
428400 4.6781015318e+00 -4.5864445702e-04 2.7179440728e+00 -4.7076172262e+00 2.7179440728e+00 4.7076172262e+00 
428500 4.6781015277e+00 -4.5840216802e-04 2.7179525101e+00 -4.7076318401e+00 2.7179525101e+00 4.7076318401e+00 
428600 4.6781015236e+00 -4.5816000041e-04 2.7179609430e+00 -4.7076464463e+00 2.7179609430e+00 4.7076464463e+00 
428700 4.6781015195e+00 -4.5791795414e-04 2.7179693714e+00 -4.7076610446e+00 2.7179693714e+00 4.7076610446e+00 
428800 4.6781015154e+00 -4.5767602916e-04 2.7179777953e+00 -4.7076756353e+00 2.7179777953e+00 4.7076756353e+00 
428900 4.6781015114e+00 -4.5743422542e-04 2.7179862147e+00 -4.7076902181e+00 2.7179862147e+00 4.7076902181e+00 
429000 4.6781015073e+00 -4.5719254286e-04 2.7179946297e+00 -4.7077047933e+00 2.7179946297e+00 4.7077047933e+00 
429100 4.6781015033e+00 -4.5695098144e-04 2.7180030401e+00 -4.7077193607e+00 2.7180030401e+00 4.7077193607e+00 
429200 4.6781014992e+00 -4.5670954110e-04 2.7180114462e+00 -4.7077339203e+00 2.7180114462e+00 4.7077339203e+00 
429300 4.6781014951e+00 -4.5646822178e-04 2.7180198477e+00 -4.7077484722e+00 2.7180198477e+00 4.7077484722e+00 
429400 4.6781014911e+00 -4.5622702345e-04 2.7180282448e+00 -4.7077630164e+00 2.7180282448e+00 4.7077630164e+00 
429500 4.6781014871e+00 -4.5598594604e-04 2.7180366374e+00 -4.7077775528e+00 2.7180366374e+00 4.7077775528e+00 
429600 4.6781014830e+00 -4.5574498951e-04 2.7180450255e+00 -4.7077920815e+00 2.7180450255e+00 4.7077920815e+00 
429700 4.6781014790e+00 -4.5550415380e-04 2.7180534092e+00 -4.7078066025e+00 2.7180534092e+00 4.7078066025e+00 
429800 4.6781014749e+00 -4.5526343886e-04 2.7180617885e+00 -4.7078211157e+00 2.7180617885e+00 4.7078211157e+00 
429900 4.6781014709e+00 -4.5502284464e-04 2.7180701633e+00 -4.7078356213e+00 2.7180701633e+00 4.7078356213e+00 
430000 4.6781014669e+00 -4.5478237109e-04 2.7180785336e+00 -4.7078501191e+00 2.7180785336e+00 4.7078501191e+00 
430100 4.6781014629e+00 -4.5454201815e-04 2.7180868995e+00 -4.7078646093e+00 2.7180868995e+00 4.7078646093e+00 
430200 4.6781014589e+00 -4.5430178578e-04 2.7180952609e+00 -4.7078790917e+00 2.7180952609e+00 4.7078790917e+00 
430300 4.6781014549e+00 -4.5406167392e-04 2.7181036179e+00 -4.7078935665e+00 2.7181036179e+00 4.7078935665e+00 
430400 4.6781014509e+00 -4.5382168253e-04 2.7181119705e+00 -4.7079080335e+00 2.7181119705e+00 4.7079080335e+00 
430500 4.6781014469e+00 -4.5358181155e-04 2.7181203186e+00 -4.7079224928e+00 2.7181203186e+00 4.7079224928e+00 
430600 4.6781014429e+00 -4.5334206092e-04 2.7181286622e+00 -4.7079369445e+00 2.7181286622e+00 4.7079369445e+00 
430700 4.6781014389e+00 -4.5310243060e-04 2.7181370015e+00 -4.7079513885e+00 2.7181370015e+00 4.7079513885e+00 
430800 4.6781014349e+00 -4.5286292054e-04 2.7181453363e+00 -4.7079658248e+00 2.7181453363e+00 4.7079658248e+00 
430900 4.6781014309e+00 -4.5262353068e-04 2.7181536666e+00 -4.7079802534e+00 2.7181536666e+00 4.7079802534e+00 
431000 4.6781014269e+00 -4.5238426097e-04 2.7181619926e+00 -4.7079946744e+00 2.7181619926e+00 4.7079946744e+00 
431100 4.6781014229e+00 -4.5214511136e-04 2.7181703141e+00 -4.7080090876e+00 2.7181703141e+00 4.7080090876e+00 
431200 4.6781014190e+00 -4.5190608181e-04 2.7181786312e+00 -4.7080234933e+00 2.7181786312e+00 4.7080234933e+00 
431300 4.6781014150e+00 -4.5166717225e-04 2.7181869439e+00 -4.7080378912e+00 2.7181869439e+00 4.7080378912e+00 
431400 4.6781014110e+00 -4.5142838264e-04 2.7181952521e+00 -4.7080522815e+00 2.7181952521e+00 4.7080522815e+00 
431500 4.6781014071e+00 -4.5118971292e-04 2.7182035559e+00 -4.7080666642e+00 2.7182035559e+00 4.7080666642e+00 
431600 4.6781014031e+00 -4.5095116304e-04 2.7182118553e+00 -4.7080810392e+00 2.7182118553e+00 4.7080810392e+00 
431700 4.6781013992e+00 -4.5071273296e-04 2.7182201503e+00 -4.7080954066e+00 2.7182201503e+00 4.7080954066e+00 
431800 4.6781013952e+00 -4.5047442262e-04 2.7182284409e+00 -4.7081097663e+00 2.7182284409e+00 4.7081097663e+00 
431900 4.6781013913e+00 -4.5023623197e-04 2.7182367271e+00 -4.7081241184e+00 2.7182367271e+00 4.7081241184e+00 
432000 4.6781013874e+00 -4.4999816095e-04 2.7182450089e+00 -4.7081384628e+00 2.7182450089e+00 4.7081384628e+00 
432100 4.6781013834e+00 -4.4976020952e-04 2.7182532863e+00 -4.7081527997e+00 2.7182532863e+00 4.7081527997e+00 
432200 4.6781013795e+00 -4.4952237763e-04 2.7182615592e+00 -4.7081671289e+00 2.7182615592e+00 4.7081671289e+00 
432300 4.6781013756e+00 -4.4928466522e-04 2.7182698278e+00 -4.7081814504e+00 2.7182698278e+00 4.7081814504e+00 
432400 4.6781013716e+00 -4.4904707224e-04 2.7182780920e+00 -4.7081957644e+00 2.7182780920e+00 4.7081957644e+00 
432500 4.6781013677e+00 -4.4880959864e-04 2.7182863517e+00 -4.7082100707e+00 2.7182863517e+00 4.7082100707e+00 
432600 4.6781013638e+00 -4.4857224437e-04 2.7182946071e+00 -4.7082243695e+00 2.7182946071e+00 4.7082243695e+00 
432700 4.6781013599e+00 -4.4833500938e-04 2.7183028581e+00 -4.7082386606e+00 2.7183028581e+00 4.7082386606e+00 
432800 4.6781013560e+00 -4.4809789361e-04 2.7183111047e+00 -4.7082529442e+00 2.7183111047e+00 4.7082529442e+00 
432900 4.6781013521e+00 -4.4786089702e-04 2.7183193469e+00 -4.7082672201e+00 2.7183193469e+00 4.7082672201e+00 
433000 4.6781013482e+00 -4.4762401955e-04 2.7183275848e+00 -4.7082814884e+00 2.7183275848e+00 4.7082814884e+00 
433100 4.6781013443e+00 -4.4738726116e-04 2.7183358182e+00 -4.7082957492e+00 2.7183358182e+00 4.7082957492e+00 
433200 4.6781013404e+00 -4.4715062178e-04 2.7183440473e+00 -4.7083100024e+00 2.7183440473e+00 4.7083100024e+00 
433300 4.6781013366e+00 -4.4691410138e-04 2.7183522720e+00 -4.7083242479e+00 2.7183522720e+00 4.7083242479e+00 
433400 4.6781013327e+00 -4.4667769989e-04 2.7183604923e+00 -4.7083384859e+00 2.7183604923e+00 4.7083384859e+00 
433500 4.6781013288e+00 -4.4644141727e-04 2.7183687082e+00 -4.7083527164e+00 2.7183687082e+00 4.7083527164e+00 
433600 4.6781013249e+00 -4.4620525347e-04 2.7183769198e+00 -4.7083669392e+00 2.7183769198e+00 4.7083669392e+00 
433700 4.6781013211e+00 -4.4596920843e-04 2.7183851270e+00 -4.7083811545e+00 2.7183851270e+00 4.7083811545e+00 
433800 4.6781013172e+00 -4.4573328210e-04 2.7183933299e+00 -4.7083953623e+00 2.7183933299e+00 4.7083953623e+00 
433900 4.6781013133e+00 -4.4549747444e-04 2.7184015283e+00 -4.7084095624e+00 2.7184015283e+00 4.7084095624e+00 
434000 4.6781013095e+00 -4.4526178539e-04 2.7184097224e+00 -4.7084237550e+00 2.7184097224e+00 4.7084237550e+00 
434100 4.6781013056e+00 -4.4502621489e-04 2.7184179122e+00 -4.7084379401e+00 2.7184179122e+00 4.7084379401e+00 
434200 4.6781013018e+00 -4.4479076291e-04 2.7184260976e+00 -4.7084521176e+00 2.7184260976e+00 4.7084521176e+00 
434300 4.6781012979e+00 -4.4455542938e-04 2.7184342786e+00 -4.7084662876e+00 2.7184342786e+00 4.7084662876e+00 
434400 4.6781012941e+00 -4.4432021425e-04 2.7184424553e+00 -4.7084804500e+00 2.7184424553e+00 4.7084804500e+00 
434500 4.6781012903e+00 -4.4408511748e-04 2.7184506276e+00 -4.7084946049e+00 2.7184506276e+00 4.7084946049e+00 
434600 4.6781012864e+00 -4.4385013902e-04 2.7184587956e+00 -4.7085087523e+00 2.7184587956e+00 4.7085087523e+00 
434700 4.6781012826e+00 -4.4361527881e-04 2.7184669593e+00 -4.7085228921e+00 2.7184669593e+00 4.7085228921e+00 
434800 4.6781012788e+00 -4.4338053679e-04 2.7184751186e+00 -4.7085370245e+00 2.7184751186e+00 4.7085370245e+00 
434900 4.6781012750e+00 -4.4314591293e-04 2.7184832735e+00 -4.7085511493e+00 2.7184832735e+00 4.7085511493e+00 
435000 4.6781012712e+00 -4.4291140717e-04 2.7184914241e+00 -4.7085652665e+00 2.7184914241e+00 4.7085652665e+00 
435100 4.6781012674e+00 -4.4267701945e-04 2.7184995704e+00 -4.7085793763e+00 2.7184995704e+00 4.7085793763e+00 
435200 4.6781012636e+00 -4.4244274973e-04 2.7185077123e+00 -4.7085934786e+00 2.7185077123e+00 4.7085934786e+00 
435300 4.6781012598e+00 -4.4220859796e-04 2.7185158500e+00 -4.7086075733e+00 2.7185158500e+00 4.7086075733e+00 
435400 4.6781012560e+00 -4.4197456408e-04 2.7185239832e+00 -4.7086216605e+00 2.7185239832e+00 4.7086216605e+00 
435500 4.6781012522e+00 -4.4174064804e-04 2.7185321122e+00 -4.7086357403e+00 2.7185321122e+00 4.7086357403e+00 
435600 4.6781012484e+00 -4.4150684979e-04 2.7185402368e+00 -4.7086498126e+00 2.7185402368e+00 4.7086498126e+00 
435700 4.6781012446e+00 -4.4127316929e-04 2.7185483571e+00 -4.7086638773e+00 2.7185483571e+00 4.7086638773e+00 
435800 4.6781012408e+00 -4.4103960647e-04 2.7185564731e+00 -4.7086779346e+00 2.7185564731e+00 4.7086779346e+00 
435900 4.6781012370e+00 -4.4080616130e-04 2.7185645847e+00 -4.7086919844e+00 2.7185645847e+00 4.7086919844e+00 
436000 4.6781012333e+00 -4.4057283371e-04 2.7185726921e+00 -4.7087060267e+00 2.7185726921e+00 4.7087060267e+00 
436100 4.6781012295e+00 -4.4033962366e-04 2.7185807951e+00 -4.7087200616e+00 2.7185807951e+00 4.7087200616e+00 
436200 4.6781012257e+00 -4.4010653109e-04 2.7185888938e+00 -4.7087340889e+00 2.7185888938e+00 4.7087340889e+00 
436300 4.6781012220e+00 -4.3987355596e-04 2.7185969882e+00 -4.7087481088e+00 2.7185969882e+00 4.7087481088e+00 
436400 4.6781012182e+00 -4.3964069821e-04 2.7186050783e+00 -4.7087621213e+00 2.7186050783e+00 4.7087621213e+00 
436500 4.6781012145e+00 -4.3940795779e-04 2.7186131641e+00 -4.7087761263e+00 2.7186131641e+00 4.7087761263e+00 
436600 4.6781012107e+00 -4.3917533466e-04 2.7186212455e+00 -4.7087901238e+00 2.7186212455e+00 4.7087901238e+00 
436700 4.6781012070e+00 -4.3894282875e-04 2.7186293227e+00 -4.7088041139e+00 2.7186293227e+00 4.7088041139e+00 
436800 4.6781012032e+00 -4.3871044003e-04 2.7186373956e+00 -4.7088180965e+00 2.7186373956e+00 4.7088180965e+00 
436900 4.6781011995e+00 -4.3847816843e-04 2.7186454642e+00 -4.7088320717e+00 2.7186454642e+00 4.7088320717e+00 
437000 4.6781011958e+00 -4.3824601392e-04 2.7186535284e+00 -4.7088460394e+00 2.7186535284e+00 4.7088460394e+00 
437100 4.6781011920e+00 -4.3801397643e-04 2.7186615884e+00 -4.7088599997e+00 2.7186615884e+00 4.7088599997e+00 
437200 4.6781011883e+00 -4.3778205591e-04 2.7186696441e+00 -4.7088739526e+00 2.7186696441e+00 4.7088739526e+00 
437300 4.6781011846e+00 -4.3755025232e-04 2.7186776955e+00 -4.7088878981e+00 2.7186776955e+00 4.7088878981e+00 
437400 4.6781011809e+00 -4.3731856560e-04 2.7186857426e+00 -4.7089018361e+00 2.7186857426e+00 4.7089018361e+00 
437500 4.6781011771e+00 -4.3708699571e-04 2.7186937855e+00 -4.7089157667e+00 2.7186937855e+00 4.7089157667e+00 
437600 4.6781011734e+00 -4.3685554259e-04 2.7187018240e+00 -4.7089296899e+00 2.7187018240e+00 4.7089296899e+00 
437700 4.6781011697e+00 -4.3662420619e-04 2.7187098583e+00 -4.7089436056e+00 2.7187098583e+00 4.7089436056e+00 
437800 4.6781011660e+00 -4.3639298646e-04 2.7187178883e+00 -4.7089575140e+00 2.7187178883e+00 4.7089575140e+00 
437900 4.6781011623e+00 -4.3616188335e-04 2.7187259140e+00 -4.7089714149e+00 2.7187259140e+00 4.7089714149e+00 
438000 4.6781011586e+00 -4.3593089681e-04 2.7187339355e+00 -4.7089853085e+00 2.7187339355e+00 4.7089853085e+00 
438100 4.6781011550e+00 -4.3570002678e-04 2.7187419526e+00 -4.7089991946e+00 2.7187419526e+00 4.7089991946e+00 
438200 4.6781011513e+00 -4.3546927323e-04 2.7187499655e+00 -4.7090130734e+00 2.7187499655e+00 4.7090130734e+00 
438300 4.6781011476e+00 -4.3523863608e-04 2.7187579742e+00 -4.7090269447e+00 2.7187579742e+00 4.7090269447e+00 
438400 4.6781011439e+00 -4.3500811531e-04 2.7187659785e+00 -4.7090408087e+00 2.7187659785e+00 4.7090408087e+00 
438500 4.6781011402e+00 -4.3477771085e-04 2.7187739786e+00 -4.7090546653e+00 2.7187739786e+00 4.7090546653e+00 
438600 4.6781011366e+00 -4.3454742265e-04 2.7187819745e+00 -4.7090685145e+00 2.7187819745e+00 4.7090685145e+00 
438700 4.6781011329e+00 -4.3431725067e-04 2.7187899661e+00 -4.7090823563e+00 2.7187899661e+00 4.7090823563e+00 
438800 4.6781011292e+00 -4.3408719485e-04 2.7187979534e+00 -4.7090961908e+00 2.7187979534e+00 4.7090961908e+00 
438900 4.6781011256e+00 -4.3385725514e-04 2.7188059365e+00 -4.7091100179e+00 2.7188059365e+00 4.7091100179e+00 
439000 4.6781011219e+00 -4.3362743149e-04 2.7188139153e+00 -4.7091238376e+00 2.7188139153e+00 4.7091238376e+00 
439100 4.6781011183e+00 -4.3339772385e-04 2.7188218899e+00 -4.7091376500e+00 2.7188218899e+00 4.7091376500e+00 
439200 4.6781011146e+00 -4.3316813217e-04 2.7188298602e+00 -4.7091514550e+00 2.7188298602e+00 4.7091514550e+00 
439300 4.6781011110e+00 -4.3293865640e-04 2.7188378263e+00 -4.7091652527e+00 2.7188378263e+00 4.7091652527e+00 
439400 4.6781011074e+00 -4.3270929649e-04 2.7188457881e+00 -4.7091790430e+00 2.7188457881e+00 4.7091790430e+00 
439500 4.6781011037e+00 -4.3248005238e-04 2.7188537457e+00 -4.7091928259e+00 2.7188537457e+00 4.7091928259e+00 
439600 4.6781011001e+00 -4.3225092403e-04 2.7188616991e+00 -4.7092066015e+00 2.7188616991e+00 4.7092066015e+00 
439700 4.6781010965e+00 -4.3202191139e-04 2.7188696482e+00 -4.7092203698e+00 2.7188696482e+00 4.7092203698e+00 
439800 4.6781010928e+00 -4.3179301440e-04 2.7188775931e+00 -4.7092341308e+00 2.7188775931e+00 4.7092341308e+00 
439900 4.6781010892e+00 -4.3156423302e-04 2.7188855337e+00 -4.7092478844e+00 2.7188855337e+00 4.7092478844e+00 
440000 4.6781010856e+00 -4.3133556719e-04 2.7188934701e+00 -4.7092616307e+00 2.7188934701e+00 4.7092616307e+00 
440100 4.6781010820e+00 -4.3110701686e-04 2.7189014023e+00 -4.7092753696e+00 2.7189014023e+00 4.7092753696e+00 
440200 4.6781010784e+00 -4.3087858199e-04 2.7189093303e+00 -4.7092891013e+00 2.7189093303e+00 4.7092891013e+00 
440300 4.6781010748e+00 -4.3065026252e-04 2.7189172541e+00 -4.7093028256e+00 2.7189172541e+00 4.7093028256e+00 
440400 4.6781010712e+00 -4.3042205840e-04 2.7189251736e+00 -4.7093165426e+00 2.7189251736e+00 4.7093165426e+00 
440500 4.6781010676e+00 -4.3019396958e-04 2.7189330889e+00 -4.7093302523e+00 2.7189330889e+00 4.7093302523e+00 
440600 4.6781010640e+00 -4.2996599601e-04 2.7189410000e+00 -4.7093439547e+00 2.7189410000e+00 4.7093439547e+00 
440700 4.6781010604e+00 -4.2973813764e-04 2.7189489068e+00 -4.7093576498e+00 2.7189489068e+00 4.7093576498e+00 
440800 4.6781010568e+00 -4.2951039442e-04 2.7189568095e+00 -4.7093713376e+00 2.7189568095e+00 4.7093713376e+00 
440900 4.6781010532e+00 -4.2928276630e-04 2.7189647079e+00 -4.7093850181e+00 2.7189647079e+00 4.7093850181e+00 
441000 4.6781010497e+00 -4.2905525323e-04 2.7189726022e+00 -4.7093986913e+00 2.7189726022e+00 4.7093986913e+00 
441100 4.6781010461e+00 -4.2882785516e-04 2.7189804922e+00 -4.7094123573e+00 2.7189804922e+00 4.7094123573e+00 
441200 4.6781010425e+00 -4.2860057203e-04 2.7189883780e+00 -4.7094260159e+00 2.7189883780e+00 4.7094260159e+00 
441300 4.6781010390e+00 -4.2837340380e-04 2.7189962596e+00 -4.7094396673e+00 2.7189962596e+00 4.7094396673e+00 
441400 4.6781010354e+00 -4.2814635041e-04 2.7190041371e+00 -4.7094533114e+00 2.7190041371e+00 4.7094533114e+00 
441500 4.6781010318e+00 -4.2791941183e-04 2.7190120103e+00 -4.7094669482e+00 2.7190120103e+00 4.7094669482e+00 
441600 4.6781010283e+00 -4.2769258798e-04 2.7190198793e+00 -4.7094805778e+00 2.7190198793e+00 4.7094805778e+00 
441700 4.6781010247e+00 -4.2746587883e-04 2.7190277441e+00 -4.7094942001e+00 2.7190277441e+00 4.7094942001e+00 
441800 4.6781010212e+00 -4.2723928433e-04 2.7190356048e+00 -4.7095078151e+00 2.7190356048e+00 4.7095078151e+00 
441900 4.6781010176e+00 -4.2701280442e-04 2.7190434612e+00 -4.7095214229e+00 2.7190434612e+00 4.7095214229e+00 
442000 4.6781010141e+00 -4.2678643905e-04 2.7190513135e+00 -4.7095350234e+00 2.7190513135e+00 4.7095350234e+00 
442100 4.6781010106e+00 -4.2656018818e-04 2.7190591616e+00 -4.7095486167e+00 2.7190591616e+00 4.7095486167e+00 
442200 4.6781010070e+00 -4.2633405175e-04 2.7190670055e+00 -4.7095622027e+00 2.7190670055e+00 4.7095622027e+00 
442300 4.6781010035e+00 -4.2610802971e-04 2.7190748452e+00 -4.7095757815e+00 2.7190748452e+00 4.7095757815e+00 
442400 4.6781010000e+00 -4.2588212201e-04 2.7190826807e+00 -4.7095893530e+00 2.7190826807e+00 4.7095893530e+00 
442500 4.6781009965e+00 -4.2565632861e-04 2.7190905121e+00 -4.7096029173e+00 2.7190905121e+00 4.7096029173e+00 
442600 4.6781009930e+00 -4.2543064944e-04 2.7190983393e+00 -4.7096164744e+00 2.7190983393e+00 4.7096164744e+00 
442700 4.6781009894e+00 -4.2520508447e-04 2.7191061623e+00 -4.7096300243e+00 2.7191061623e+00 4.7096300243e+00 
442800 4.6781009859e+00 -4.2497963364e-04 2.7191139811e+00 -4.7096435669e+00 2.7191139811e+00 4.7096435669e+00 
442900 4.6781009824e+00 -4.2475429690e-04 2.7191217958e+00 -4.7096571023e+00 2.7191217958e+00 4.7096571023e+00 
443000 4.6781009789e+00 -4.2452907420e-04 2.7191296063e+00 -4.7096706305e+00 2.7191296063e+00 4.7096706305e+00 
443100 4.6781009754e+00 -4.2430396548e-04 2.7191374127e+00 -4.7096841515e+00 2.7191374127e+00 4.7096841515e+00 
443200 4.6781009719e+00 -4.2407897071e-04 2.7191452149e+00 -4.7096976653e+00 2.7191452149e+00 4.7096976653e+00 
443300 4.6781009684e+00 -4.2385408983e-04 2.7191530129e+00 -4.7097111719e+00 2.7191530129e+00 4.7097111719e+00 
443400 4.6781009650e+00 -4.2362932278e-04 2.7191608067e+00 -4.7097246712e+00 2.7191608067e+00 4.7097246712e+00 
443500 4.6781009615e+00 -4.2340466953e-04 2.7191685965e+00 -4.7097381634e+00 2.7191685965e+00 4.7097381634e+00 
443600 4.6781009580e+00 -4.2318013001e-04 2.7191763820e+00 -4.7097516484e+00 2.7191763820e+00 4.7097516484e+00 
443700 4.6781009545e+00 -4.2295570418e-04 2.7191841634e+00 -4.7097651262e+00 2.7191841634e+00 4.7097651262e+00 
443800 4.6781009510e+00 -4.2273139199e-04 2.7191919407e+00 -4.7097785968e+00 2.7191919407e+00 4.7097785968e+00 
443900 4.6781009476e+00 -4.2250719339e-04 2.7191997138e+00 -4.7097920602e+00 2.7191997138e+00 4.7097920602e+00 
444000 4.6781009441e+00 -4.2228310832e-04 2.7192074828e+00 -4.7098055164e+00 2.7192074828e+00 4.7098055164e+00 
444100 4.6781009407e+00 -4.2205913675e-04 2.7192152476e+00 -4.7098189655e+00 2.7192152476e+00 4.7098189655e+00 
444200 4.6781009372e+00 -4.2183527861e-04 2.7192230083e+00 -4.7098324074e+00 2.7192230083e+00 4.7098324074e+00 
444300 4.6781009337e+00 -4.2161153385e-04 2.7192307648e+00 -4.7098458421e+00 2.7192307648e+00 4.7098458421e+00 
444400 4.6781009303e+00 -4.2138790244e-04 2.7192385172e+00 -4.7098592697e+00 2.7192385172e+00 4.7098592697e+00 
444500 4.6781009269e+00 -4.2116438431e-04 2.7192462655e+00 -4.7098726901e+00 2.7192462655e+00 4.7098726901e+00 
444600 4.6781009234e+00 -4.2094097941e-04 2.7192540096e+00 -4.7098861034e+00 2.7192540096e+00 4.7098861034e+00 
444700 4.6781009200e+00 -4.2071768771e-04 2.7192617496e+00 -4.7098995095e+00 2.7192617496e+00 4.7098995095e+00 
444800 4.6781009165e+00 -4.2049450914e-04 2.7192694855e+00 -4.7099129084e+00 2.7192694855e+00 4.7099129084e+00 
444900 4.6781009131e+00 -4.2027144365e-04 2.7192772173e+00 -4.7099263002e+00 2.7192772173e+00 4.7099263002e+00 
445000 4.6781009097e+00 -4.2004849121e-04 2.7192849449e+00 -4.7099396849e+00 2.7192849449e+00 4.7099396849e+00 
445100 4.6781009063e+00 -4.1982565175e-04 2.7192926684e+00 -4.7099530624e+00 2.7192926684e+00 4.7099530624e+00 
445200 4.6781009028e+00 -4.1960292522e-04 2.7193003878e+00 -4.7099664328e+00 2.7193003878e+00 4.7099664328e+00 
445300 4.6781008994e+00 -4.1938031158e-04 2.7193081031e+00 -4.7099797960e+00 2.7193081031e+00 4.7099797960e+00 
445400 4.6781008960e+00 -4.1915781078e-04 2.7193158143e+00 -4.7099931521e+00 2.7193158143e+00 4.7099931521e+00 
445500 4.6781008926e+00 -4.1893542277e-04 2.7193235213e+00 -4.7100065011e+00 2.7193235213e+00 4.7100065011e+00 
445600 4.6781008892e+00 -4.1871314749e-04 2.7193312243e+00 -4.7100198430e+00 2.7193312243e+00 4.7100198430e+00 
445700 4.6781008858e+00 -4.1849098489e-04 2.7193389231e+00 -4.7100331778e+00 2.7193389231e+00 4.7100331778e+00 
445800 4.6781008824e+00 -4.1826893494e-04 2.7193466178e+00 -4.7100465054e+00 2.7193466178e+00 4.7100465054e+00 
445900 4.6781008790e+00 -4.1804699756e-04 2.7193543084e+00 -4.7100598260e+00 2.7193543084e+00 4.7100598260e+00 
446000 4.6781008756e+00 -4.1782517273e-04 2.7193619949e+00 -4.7100731394e+00 2.7193619949e+00 4.7100731394e+00 
446100 4.6781008722e+00 -4.1760346038e-04 2.7193696774e+00 -4.7100864457e+00 2.7193696774e+00 4.7100864457e+00 
446200 4.6781008688e+00 -4.1738186047e-04 2.7193773557e+00 -4.7100997450e+00 2.7193773557e+00 4.7100997450e+00 
446300 4.6781008655e+00 -4.1716037294e-04 2.7193850299e+00 -4.7101130371e+00 2.7193850299e+00 4.7101130371e+00 
446400 4.6781008621e+00 -4.1693899776e-04 2.7193927000e+00 -4.7101263222e+00 2.7193927000e+00 4.7101263222e+00 
446500 4.6781008587e+00 -4.1671773485e-04 2.7194003661e+00 -4.7101396001e+00 2.7194003661e+00 4.7101396001e+00 
446600 4.6781008553e+00 -4.1649658419e-04 2.7194080280e+00 -4.7101528710e+00 2.7194080280e+00 4.7101528710e+00 
446700 4.6781008520e+00 -4.1627554571e-04 2.7194156859e+00 -4.7101661348e+00 2.7194156859e+00 4.7101661348e+00 
446800 4.6781008486e+00 -4.1605461937e-04 2.7194233396e+00 -4.7101793915e+00 2.7194233396e+00 4.7101793915e+00 
446900 4.6781008453e+00 -4.1583380511e-04 2.7194309893e+00 -4.7101926412e+00 2.7194309893e+00 4.7101926412e+00 
447000 4.6781008419e+00 -4.1561310290e-04 2.7194386349e+00 -4.7102058838e+00 2.7194386349e+00 4.7102058838e+00 
447100 4.6781008386e+00 -4.1539251267e-04 2.7194462764e+00 -4.7102191193e+00 2.7194462764e+00 4.7102191193e+00 
447200 4.6781008352e+00 -4.1517203438e-04 2.7194539139e+00 -4.7102323477e+00 2.7194539139e+00 4.7102323477e+00 
447300 4.6781008319e+00 -4.1495166797e-04 2.7194615473e+00 -4.7102455691e+00 2.7194615473e+00 4.7102455691e+00 
447400 4.6781008285e+00 -4.1473141341e-04 2.7194691766e+00 -4.7102587834e+00 2.7194691766e+00 4.7102587834e+00 
447500 4.6781008252e+00 -4.1451127063e-04 2.7194768018e+00 -4.7102719907e+00 2.7194768018e+00 4.7102719907e+00 
447600 4.6781008218e+00 -4.1429123959e-04 2.7194844230e+00 -4.7102851910e+00 2.7194844230e+00 4.7102851910e+00 
447700 4.6781008185e+00 -4.1407132024e-04 2.7194920401e+00 -4.7102983842e+00 2.7194920401e+00 4.7102983842e+00 
447800 4.6781008152e+00 -4.1385151253e-04 2.7194996531e+00 -4.7103115703e+00 2.7194996531e+00 4.7103115703e+00 
447900 4.6781008119e+00 -4.1363181641e-04 2.7195072621e+00 -4.7103247494e+00 2.7195072621e+00 4.7103247494e+00 
448000 4.6781008086e+00 -4.1341223183e-04 2.7195148670e+00 -4.7103379215e+00 2.7195148670e+00 4.7103379215e+00 
448100 4.6781008052e+00 -4.1319275874e-04 2.7195224678e+00 -4.7103510866e+00 2.7195224678e+00 4.7103510866e+00 
448200 4.6781008019e+00 -4.1297339709e-04 2.7195300646e+00 -4.7103642446e+00 2.7195300646e+00 4.7103642446e+00 
448300 4.6781007986e+00 -4.1275414683e-04 2.7195376573e+00 -4.7103773956e+00 2.7195376573e+00 4.7103773956e+00 
448400 4.6781007953e+00 -4.1253500791e-04 2.7195452460e+00 -4.7103905396e+00 2.7195452460e+00 4.7103905396e+00 
448500 4.6781007920e+00 -4.1231598028e-04 2.7195528307e+00 -4.7104036766e+00 2.7195528307e+00 4.7104036766e+00 
448600 4.6781007887e+00 -4.1209706390e-04 2.7195604113e+00 -4.7104168066e+00 2.7195604113e+00 4.7104168066e+00 
448700 4.6781007854e+00 -4.1187825870e-04 2.7195679878e+00 -4.7104299295e+00 2.7195679878e+00 4.7104299295e+00 
448800 4.6781007821e+00 -4.1165956465e-04 2.7195755603e+00 -4.7104430455e+00 2.7195755603e+00 4.7104430455e+00 
448900 4.6781007788e+00 -4.1144098169e-04 2.7195831288e+00 -4.7104561544e+00 2.7195831288e+00 4.7104561544e+00 
449000 4.6781007756e+00 -4.1122250977e-04 2.7195906932e+00 -4.7104692564e+00 2.7195906932e+00 4.7104692564e+00 
449100 4.6781007723e+00 -4.1100414885e-04 2.7195982535e+00 -4.7104823513e+00 2.7195982535e+00 4.7104823513e+00 
449200 4.6781007690e+00 -4.1078589887e-04 2.7196058099e+00 -4.7104954393e+00 2.7196058099e+00 4.7104954393e+00 
449300 4.6781007657e+00 -4.1056775979e-04 2.7196133622e+00 -4.7105085203e+00 2.7196133622e+00 4.7105085203e+00 
449400 4.6781007625e+00 -4.1034973155e-04 2.7196209105e+00 -4.7105215943e+00 2.7196209105e+00 4.7105215943e+00 
449500 4.6781007592e+00 -4.1013181411e-04 2.7196284547e+00 -4.7105346613e+00 2.7196284547e+00 4.7105346613e+00 
449600 4.6781007559e+00 -4.0991400741e-04 2.7196359949e+00 -4.7105477213e+00 2.7196359949e+00 4.7105477213e+00 
449700 4.6781007527e+00 -4.0969631141e-04 2.7196435311e+00 -4.7105607744e+00 2.7196435311e+00 4.7105607744e+00 
449800 4.6781007494e+00 -4.0947872605e-04 2.7196510633e+00 -4.7105738205e+00 2.7196510633e+00 4.7105738205e+00 
449900 4.6781007462e+00 -4.0926125129e-04 2.7196585915e+00 -4.7105868597e+00 2.7196585915e+00 4.7105868597e+00 
450000 4.6781007429e+00 -4.0904388708e-04 2.7196661156e+00 -4.7105998918e+00 2.7196661156e+00 4.7105998918e+00 
450100 4.6781007397e+00 -4.0882663337e-04 2.7196736357e+00 -4.7106129171e+00 2.7196736357e+00 4.7106129171e+00 
450200 4.6781007364e+00 -4.0860949011e-04 2.7196811518e+00 -4.7106259353e+00 2.7196811518e+00 4.7106259353e+00 
450300 4.6781007332e+00 -4.0839245725e-04 2.7196886639e+00 -4.7106389467e+00 2.7196886639e+00 4.7106389467e+00 
450400 4.6781007299e+00 -4.0817553474e-04 2.7196961720e+00 -4.7106519510e+00 2.7196961720e+00 4.7106519510e+00 
450500 4.6781007267e+00 -4.0795872252e-04 2.7197036761e+00 -4.7106649485e+00 2.7197036761e+00 4.7106649485e+00 
450600 4.6781007235e+00 -4.0774202056e-04 2.7197111761e+00 -4.7106779389e+00 2.7197111761e+00 4.7106779389e+00 
450700 4.6781007203e+00 -4.0752542881e-04 2.7197186722e+00 -4.7106909225e+00 2.7197186722e+00 4.7106909225e+00 
450800 4.6781007170e+00 -4.0730894720e-04 2.7197261642e+00 -4.7107038991e+00 2.7197261642e+00 4.7107038991e+00 
450900 4.6781007138e+00 -4.0709257570e-04 2.7197336523e+00 -4.7107168688e+00 2.7197336523e+00 4.7107168688e+00 
451000 4.6781007106e+00 -4.0687631425e-04 2.7197411363e+00 -4.7107298316e+00 2.7197411363e+00 4.7107298316e+00 
451100 4.6781007074e+00 -4.0666016280e-04 2.7197486164e+00 -4.7107427874e+00 2.7197486164e+00 4.7107427874e+00 
451200 4.6781007042e+00 -4.0644412131e-04 2.7197560925e+00 -4.7107557363e+00 2.7197560925e+00 4.7107557363e+00 
451300 4.6781007010e+00 -4.0622818973e-04 2.7197635645e+00 -4.7107686783e+00 2.7197635645e+00 4.7107686783e+00 
451400 4.6781006978e+00 -4.0601236800e-04 2.7197710326e+00 -4.7107816134e+00 2.7197710326e+00 4.7107816134e+00 
451500 4.6781006946e+00 -4.0579665608e-04 2.7197784967e+00 -4.7107945416e+00 2.7197784967e+00 4.7107945416e+00 
451600 4.6781006914e+00 -4.0558105392e-04 2.7197859568e+00 -4.7108074629e+00 2.7197859568e+00 4.7108074629e+00 
451700 4.6781006882e+00 -4.0536556147e-04 2.7197934129e+00 -4.7108203773e+00 2.7197934129e+00 4.7108203773e+00 
451800 4.6781006850e+00 -4.0515017868e-04 2.7198008651e+00 -4.7108332848e+00 2.7198008651e+00 4.7108332848e+00 
451900 4.6781006818e+00 -4.0493490549e-04 2.7198083132e+00 -4.7108461854e+00 2.7198083132e+00 4.7108461854e+00 
452000 4.6781006787e+00 -4.0471974187e-04 2.7198157574e+00 -4.7108590791e+00 2.7198157574e+00 4.7108590791e+00 
452100 4.6781006755e+00 -4.0450468776e-04 2.7198231976e+00 -4.7108719659e+00 2.7198231976e+00 4.7108719659e+00 
452200 4.6781006723e+00 -4.0428974312e-04 2.7198306339e+00 -4.7108848459e+00 2.7198306339e+00 4.7108848459e+00 
452300 4.6781006691e+00 -4.0407490788e-04 2.7198380661e+00 -4.7108977189e+00 2.7198380661e+00 4.7108977189e+00 
452400 4.6781006660e+00 -4.0386018201e-04 2.7198454944e+00 -4.7109105851e+00 2.7198454944e+00 4.7109105851e+00 
452500 4.6781006628e+00 -4.0364556546e-04 2.7198529188e+00 -4.7109234444e+00 2.7198529188e+00 4.7109234444e+00 
452600 4.6781006596e+00 -4.0343105817e-04 2.7198603391e+00 -4.7109362968e+00 2.7198603391e+00 4.7109362968e+00 
452700 4.6781006565e+00 -4.0321666010e-04 2.7198677555e+00 -4.7109491424e+00 2.7198677555e+00 4.7109491424e+00 
452800 4.6781006533e+00 -4.0300237119e-04 2.7198751679e+00 -4.7109619811e+00 2.7198751679e+00 4.7109619811e+00 
452900 4.6781006502e+00 -4.0278819141e-04 2.7198825764e+00 -4.7109748130e+00 2.7198825764e+00 4.7109748130e+00 
453000 4.6781006470e+00 -4.0257412069e-04 2.7198899809e+00 -4.7109876380e+00 2.7198899809e+00 4.7109876380e+00 
453100 4.6781006439e+00 -4.0236015900e-04 2.7198973815e+00 -4.7110004561e+00 2.7198973815e+00 4.7110004561e+00 
453200 4.6781006408e+00 -4.0214630627e-04 2.7199047781e+00 -4.7110132674e+00 2.7199047781e+00 4.7110132674e+00 
453300 4.6781006376e+00 -4.0193256247e-04 2.7199121708e+00 -4.7110260719e+00 2.7199121708e+00 4.7110260719e+00 
453400 4.6781006345e+00 -4.0171892754e-04 2.7199195595e+00 -4.7110388695e+00 2.7199195595e+00 4.7110388695e+00 
453500 4.6781006314e+00 -4.0150540144e-04 2.7199269442e+00 -4.7110516603e+00 2.7199269442e+00 4.7110516603e+00 
453600 4.6781006282e+00 -4.0129198411e-04 2.7199343251e+00 -4.7110644442e+00 2.7199343251e+00 4.7110644442e+00 
453700 4.6781006251e+00 -4.0107867551e-04 2.7199417019e+00 -4.7110772214e+00 2.7199417019e+00 4.7110772214e+00 
453800 4.6781006220e+00 -4.0086547558e-04 2.7199490749e+00 -4.7110899916e+00 2.7199490749e+00 4.7110899916e+00 
453900 4.6781006189e+00 -4.0065238428e-04 2.7199564438e+00 -4.7111027551e+00 2.7199564438e+00 4.7111027551e+00 
454000 4.6781006158e+00 -4.0043940156e-04 2.7199638089e+00 -4.7111155118e+00 2.7199638089e+00 4.7111155118e+00 
454100 4.6781006127e+00 -4.0022652738e-04 2.7199711700e+00 -4.7111282616e+00 2.7199711700e+00 4.7111282616e+00 
454200 4.6781006096e+00 -4.0001376167e-04 2.7199785272e+00 -4.7111410046e+00 2.7199785272e+00 4.7111410046e+00 
454300 4.6781006064e+00 -3.9980110440e-04 2.7199858805e+00 -4.7111537408e+00 2.7199858805e+00 4.7111537408e+00 
454400 4.6781006033e+00 -3.9958855550e-04 2.7199932298e+00 -4.7111664702e+00 2.7199932298e+00 4.7111664702e+00 
454500 4.6781006003e+00 -3.9937611495e-04 2.7200005752e+00 -4.7111791928e+00 2.7200005752e+00 4.7111791928e+00 
454600 4.6781005972e+00 -3.9916378268e-04 2.7200079167e+00 -4.7111919087e+00 2.7200079167e+00 4.7111919087e+00 
454700 4.6781005941e+00 -3.9895155864e-04 2.7200152542e+00 -4.7112046177e+00 2.7200152542e+00 4.7112046177e+00 
454800 4.6781005910e+00 -3.9873944280e-04 2.7200225878e+00 -4.7112173199e+00 2.7200225878e+00 4.7112173199e+00 
454900 4.6781005879e+00 -3.9852743509e-04 2.7200299176e+00 -4.7112300153e+00 2.7200299176e+00 4.7112300153e+00 
455000 4.6781005848e+00 -3.9831553548e-04 2.7200372434e+00 -4.7112427040e+00 2.7200372434e+00 4.7112427040e+00 
455100 4.6781005817e+00 -3.9810374390e-04 2.7200445652e+00 -4.7112553858e+00 2.7200445652e+00 4.7112553858e+00 
455200 4.6781005787e+00 -3.9789206032e-04 2.7200518832e+00 -4.7112680609e+00 2.7200518832e+00 4.7112680609e+00 
455300 4.6781005756e+00 -3.9768048468e-04 2.7200591973e+00 -4.7112807292e+00 2.7200591973e+00 4.7112807292e+00 
455400 4.6781005725e+00 -3.9746901694e-04 2.7200665074e+00 -4.7112933908e+00 2.7200665074e+00 4.7112933908e+00 
455500 4.6781005695e+00 -3.9725765704e-04 2.7200738136e+00 -4.7113060456e+00 2.7200738136e+00 4.7113060456e+00 
455600 4.6781005664e+00 -3.9704640494e-04 2.7200811160e+00 -4.7113186936e+00 2.7200811160e+00 4.7113186936e+00 
455700 4.6781005634e+00 -3.9683526059e-04 2.7200884144e+00 -4.7113313348e+00 2.7200884144e+00 4.7113313348e+00 
455800 4.6781005603e+00 -3.9662422394e-04 2.7200957089e+00 -4.7113439693e+00 2.7200957089e+00 4.7113439693e+00 
455900 4.6781005573e+00 -3.9641329494e-04 2.7201029996e+00 -4.7113565971e+00 2.7201029996e+00 4.7113565971e+00 
456000 4.6781005542e+00 -3.9620247354e-04 2.7201102863e+00 -4.7113692181e+00 2.7201102863e+00 4.7113692181e+00 
456100 4.6781005512e+00 -3.9599175970e-04 2.7201175692e+00 -4.7113818323e+00 2.7201175692e+00 4.7113818323e+00 
456200 4.6781005481e+00 -3.9578115336e-04 2.7201248481e+00 -4.7113944398e+00 2.7201248481e+00 4.7113944398e+00 
456300 4.6781005451e+00 -3.9557065448e-04 2.7201321232e+00 -4.7114070406e+00 2.7201321232e+00 4.7114070406e+00 
456400 4.6781005421e+00 -3.9536026301e-04 2.7201393943e+00 -4.7114196347e+00 2.7201393943e+00 4.7114196347e+00 
456500 4.6781005390e+00 -3.9514997889e-04 2.7201466616e+00 -4.7114322220e+00 2.7201466616e+00 4.7114322220e+00 
456600 4.6781005360e+00 -3.9493980209e-04 2.7201539250e+00 -4.7114448025e+00 2.7201539250e+00 4.7114448025e+00 
456700 4.6781005330e+00 -3.9472973255e-04 2.7201611845e+00 -4.7114573764e+00 2.7201611845e+00 4.7114573764e+00 
456800 4.6781005299e+00 -3.9451977022e-04 2.7201684402e+00 -4.7114699435e+00 2.7201684402e+00 4.7114699435e+00 
456900 4.6781005269e+00 -3.9430991506e-04 2.7201756919e+00 -4.7114825039e+00 2.7201756919e+00 4.7114825039e+00 
457000 4.6781005239e+00 -3.9410016701e-04 2.7201829398e+00 -4.7114950576e+00 2.7201829398e+00 4.7114950576e+00 
457100 4.6781005209e+00 -3.9389052603e-04 2.7201901838e+00 -4.7115076046e+00 2.7201901838e+00 4.7115076046e+00 
457200 4.6781005179e+00 -3.9368099207e-04 2.7201974239e+00 -4.7115201449e+00 2.7201974239e+00 4.7115201449e+00 
457300 4.6781005149e+00 -3.9347156508e-04 2.7202046602e+00 -4.7115326784e+00 2.7202046602e+00 4.7115326784e+00 
457400 4.6781005119e+00 -3.9326224501e-04 2.7202118926e+00 -4.7115452053e+00 2.7202118926e+00 4.7115452053e+00 
457500 4.6781005089e+00 -3.9305303182e-04 2.7202191211e+00 -4.7115577255e+00 2.7202191211e+00 4.7115577255e+00 
457600 4.6781005059e+00 -3.9284392545e-04 2.7202263458e+00 -4.7115702390e+00 2.7202263458e+00 4.7115702390e+00 
457700 4.6781005029e+00 -3.9263492585e-04 2.7202335666e+00 -4.7115827458e+00 2.7202335666e+00 4.7115827458e+00 
457800 4.6781004999e+00 -3.9242603299e-04 2.7202407835e+00 -4.7115952459e+00 2.7202407835e+00 4.7115952459e+00 
457900 4.6781004969e+00 -3.9221724680e-04 2.7202479966e+00 -4.7116077393e+00 2.7202479966e+00 4.7116077393e+00 
458000 4.6781004940e+00 -3.9200856725e-04 2.7202552058e+00 -4.7116202260e+00 2.7202552058e+00 4.7116202260e+00 
458100 4.6781004910e+00 -3.9179999428e-04 2.7202624112e+00 -4.7116327061e+00 2.7202624112e+00 4.7116327061e+00 
458200 4.6781004880e+00 -3.9159152784e-04 2.7202696127e+00 -4.7116451795e+00 2.7202696127e+00 4.7116451795e+00 
458300 4.6781004850e+00 -3.9138316789e-04 2.7202768104e+00 -4.7116576462e+00 2.7202768104e+00 4.7116576462e+00 
458400 4.6781004821e+00 -3.9117491438e-04 2.7202840042e+00 -4.7116701062e+00 2.7202840042e+00 4.7116701062e+00 
458500 4.6781004791e+00 -3.9096676725e-04 2.7202911941e+00 -4.7116825596e+00 2.7202911941e+00 4.7116825596e+00 
458600 4.6781004761e+00 -3.9075872647e-04 2.7202983803e+00 -4.7116950064e+00 2.7202983803e+00 4.7116950064e+00 
458700 4.6781004732e+00 -3.9055079198e-04 2.7203055625e+00 -4.7117074464e+00 2.7203055625e+00 4.7117074464e+00 
458800 4.6781004702e+00 -3.9034296373e-04 2.7203127410e+00 -4.7117198798e+00 2.7203127410e+00 4.7117198798e+00 
458900 4.6781004673e+00 -3.9013524168e-04 2.7203199156e+00 -4.7117323066e+00 2.7203199156e+00 4.7117323066e+00 
459000 4.6781004643e+00 -3.8992762578e-04 2.7203270863e+00 -4.7117447267e+00 2.7203270863e+00 4.7117447267e+00 
459100 4.6781004614e+00 -3.8972011597e-04 2.7203342533e+00 -4.7117571402e+00 2.7203342533e+00 4.7117571402e+00 
459200 4.6781004584e+00 -3.8951271222e-04 2.7203414164e+00 -4.7117695471e+00 2.7203414164e+00 4.7117695471e+00 
459300 4.6781004555e+00 -3.8930541447e-04 2.7203485756e+00 -4.7117819473e+00 2.7203485756e+00 4.7117819473e+00 
459400 4.6781004525e+00 -3.8909822267e-04 2.7203557311e+00 -4.7117943409e+00 2.7203557311e+00 4.7117943409e+00 
459500 4.6781004496e+00 -3.8889113678e-04 2.7203628827e+00 -4.7118067278e+00 2.7203628827e+00 4.7118067278e+00 
459600 4.6781004467e+00 -3.8868415674e-04 2.7203700305e+00 -4.7118191081e+00 2.7203700305e+00 4.7118191081e+00 
459700 4.6781004437e+00 -3.8847728252e-04 2.7203771744e+00 -4.7118314818e+00 2.7203771744e+00 4.7118314818e+00 
459800 4.6781004408e+00 -3.8827051406e-04 2.7203843146e+00 -4.7118438489e+00 2.7203843146e+00 4.7118438489e+00 
459900 4.6781004379e+00 -3.8806385131e-04 2.7203914509e+00 -4.7118562094e+00 2.7203914509e+00 4.7118562094e+00 
460000 4.6781004350e+00 -3.8785729422e-04 2.7203985834e+00 -4.7118685633e+00 2.7203985834e+00 4.7118685633e+00 
460100 4.6781004321e+00 -3.8765084276e-04 2.7204057121e+00 -4.7118809105e+00 2.7204057121e+00 4.7118809105e+00 
460200 4.6781004291e+00 -3.8744449686e-04 2.7204128369e+00 -4.7118932511e+00 2.7204128369e+00 4.7118932511e+00 
460300 4.6781004262e+00 -3.8723825648e-04 2.7204199580e+00 -4.7119055852e+00 2.7204199580e+00 4.7119055852e+00 
460400 4.6781004233e+00 -3.8703212158e-04 2.7204270753e+00 -4.7119179126e+00 2.7204270753e+00 4.7119179126e+00 
460500 4.6781004204e+00 -3.8682609210e-04 2.7204341887e+00 -4.7119302335e+00 2.7204341887e+00 4.7119302335e+00 
460600 4.6781004175e+00 -3.8662016799e-04 2.7204412984e+00 -4.7119425478e+00 2.7204412984e+00 4.7119425478e+00 
460700 4.6781004146e+00 -3.8641434921e-04 2.7204484042e+00 -4.7119548554e+00 2.7204484042e+00 4.7119548554e+00 
460800 4.6781004117e+00 -3.8620863572e-04 2.7204555062e+00 -4.7119671565e+00 2.7204555062e+00 4.7119671565e+00 
460900 4.6781004088e+00 -3.8600302745e-04 2.7204626045e+00 -4.7119794510e+00 2.7204626045e+00 4.7119794510e+00 
461000 4.6781004060e+00 -3.8579752437e-04 2.7204696989e+00 -4.7119917390e+00 2.7204696989e+00 4.7119917390e+00 
461100 4.6781004031e+00 -3.8559212643e-04 2.7204767896e+00 -4.7120040203e+00 2.7204767896e+00 4.7120040203e+00 
461200 4.6781004002e+00 -3.8538683357e-04 2.7204838764e+00 -4.7120162951e+00 2.7204838764e+00 4.7120162951e+00 
461300 4.6781003973e+00 -3.8518164576e-04 2.7204909595e+00 -4.7120285633e+00 2.7204909595e+00 4.7120285633e+00 
461400 4.6781003944e+00 -3.8497656293e-04 2.7204980387e+00 -4.7120408250e+00 2.7204980387e+00 4.7120408250e+00 
461500 4.6781003916e+00 -3.8477158505e-04 2.7205051142e+00 -4.7120530801e+00 2.7205051142e+00 4.7120530801e+00 
461600 4.6781003887e+00 -3.8456671207e-04 2.7205121859e+00 -4.7120653286e+00 2.7205121859e+00 4.7120653286e+00 
461700 4.6781003858e+00 -3.8436194393e-04 2.7205192538e+00 -4.7120775706e+00 2.7205192538e+00 4.7120775706e+00 
461800 4.6781003830e+00 -3.8415728060e-04 2.7205263180e+00 -4.7120898060e+00 2.7205263180e+00 4.7120898060e+00 
461900 4.6781003801e+00 -3.8395272201e-04 2.7205333783e+00 -4.7121020349e+00 2.7205333783e+00 4.7121020349e+00 
462000 4.6781003772e+00 -3.8374826813e-04 2.7205404349e+00 -4.7121142573e+00 2.7205404349e+00 4.7121142573e+00 
462100 4.6781003744e+00 -3.8354391891e-04 2.7205474877e+00 -4.7121264731e+00 2.7205474877e+00 4.7121264731e+00 
462200 4.6781003715e+00 -3.8333967430e-04 2.7205545367e+00 -4.7121386823e+00 2.7205545367e+00 4.7121386823e+00 
462300 4.6781003687e+00 -3.8313553424e-04 2.7205615820e+00 -4.7121508851e+00 2.7205615820e+00 4.7121508851e+00 
462400 4.6781003658e+00 -3.8293149870e-04 2.7205686234e+00 -4.7121630813e+00 2.7205686234e+00 4.7121630813e+00 
462500 4.6781003630e+00 -3.8272756763e-04 2.7205756612e+00 -4.7121752709e+00 2.7205756612e+00 4.7121752709e+00 
462600 4.6781003602e+00 -3.8252374097e-04 2.7205826951e+00 -4.7121874541e+00 2.7205826951e+00 4.7121874541e+00 
462700 4.6781003573e+00 -3.8232001868e-04 2.7205897253e+00 -4.7121996307e+00 2.7205897253e+00 4.7121996307e+00 
462800 4.6781003545e+00 -3.8211640071e-04 2.7205967517e+00 -4.7122118009e+00 2.7205967517e+00 4.7122118009e+00 
462900 4.6781003517e+00 -3.8191288702e-04 2.7206037744e+00 -4.7122239645e+00 2.7206037744e+00 4.7122239645e+00 
463000 4.6781003488e+00 -3.8170947755e-04 2.7206107933e+00 -4.7122361216e+00 2.7206107933e+00 4.7122361216e+00 
463100 4.6781003460e+00 -3.8150617226e-04 2.7206178084e+00 -4.7122482721e+00 2.7206178084e+00 4.7122482721e+00 
463200 4.6781003432e+00 -3.8130297110e-04 2.7206248198e+00 -4.7122604162e+00 2.7206248198e+00 4.7122604162e+00 
463300 4.6781003404e+00 -3.8109987402e-04 2.7206318274e+00 -4.7122725538e+00 2.7206318274e+00 4.7122725538e+00 
463400 4.6781003376e+00 -3.8089688098e-04 2.7206388313e+00 -4.7122846849e+00 2.7206388313e+00 4.7122846849e+00 
463500 4.6781003348e+00 -3.8069399193e-04 2.7206458315e+00 -4.7122968095e+00 2.7206458315e+00 4.7122968095e+00 
463600 4.6781003319e+00 -3.8049120682e-04 2.7206528279e+00 -4.7123089276e+00 2.7206528279e+00 4.7123089276e+00 
463700 4.6781003291e+00 -3.8028852559e-04 2.7206598205e+00 -4.7123210392e+00 2.7206598205e+00 4.7123210392e+00 
463800 4.6781003263e+00 -3.8008594822e-04 2.7206668094e+00 -4.7123331444e+00 2.7206668094e+00 4.7123331444e+00 
463900 4.6781003235e+00 -3.7988347464e-04 2.7206737946e+00 -4.7123452430e+00 2.7206737946e+00 4.7123452430e+00 
464000 4.6781003207e+00 -3.7968110480e-04 2.7206807760e+00 -4.7123573352e+00 2.7206807760e+00 4.7123573352e+00 
464100 4.6781003179e+00 -3.7947883867e-04 2.7206877537e+00 -4.7123694209e+00 2.7206877537e+00 4.7123694209e+00 
464200 4.6781003152e+00 -3.7927667620e-04 2.7206947276e+00 -4.7123815002e+00 2.7206947276e+00 4.7123815002e+00 
464300 4.6781003124e+00 -3.7907461733e-04 2.7207016979e+00 -4.7123935730e+00 2.7207016979e+00 4.7123935730e+00 
464400 4.6781003096e+00 -3.7887266202e-04 2.7207086644e+00 -4.7124056393e+00 2.7207086644e+00 4.7124056393e+00 
464500 4.6781003068e+00 -3.7867081022e-04 2.7207156271e+00 -4.7124176991e+00 2.7207156271e+00 4.7124176991e+00 
464600 4.6781003040e+00 -3.7846906188e-04 2.7207225862e+00 -4.7124297525e+00 2.7207225862e+00 4.7124297525e+00 
464700 4.6781003012e+00 -3.7826741696e-04 2.7207295415e+00 -4.7124417995e+00 2.7207295415e+00 4.7124417995e+00 
464800 4.6781002985e+00 -3.7806587541e-04 2.7207364930e+00 -4.7124538400e+00 2.7207364930e+00 4.7124538400e+00 
464900 4.6781002957e+00 -3.7786443718e-04 2.7207434409e+00 -4.7124658740e+00 2.7207434409e+00 4.7124658740e+00 
465000 4.6781002929e+00 -3.7766310222e-04 2.7207503850e+00 -4.7124779016e+00 2.7207503850e+00 4.7124779016e+00 
465100 4.6781002902e+00 -3.7746187049e-04 2.7207573255e+00 -4.7124899228e+00 2.7207573255e+00 4.7124899228e+00 
465200 4.6781002874e+00 -3.7726074194e-04 2.7207642622e+00 -4.7125019375e+00 2.7207642622e+00 4.7125019375e+00 
465300 4.6781002847e+00 -3.7705971652e-04 2.7207711952e+00 -4.7125139458e+00 2.7207711952e+00 4.7125139458e+00 
465400 4.6781002819e+00 -3.7685879418e-04 2.7207781245e+00 -4.7125259477e+00 2.7207781245e+00 4.7125259477e+00 
465500 4.6781002791e+00 -3.7665797488e-04 2.7207850500e+00 -4.7125379431e+00 2.7207850500e+00 4.7125379431e+00 
465600 4.6781002764e+00 -3.7645725857e-04 2.7207919719e+00 -4.7125499322e+00 2.7207919719e+00 4.7125499322e+00 
465700 4.6781002737e+00 -3.7625664520e-04 2.7207988901e+00 -4.7125619148e+00 2.7207988901e+00 4.7125619148e+00 
465800 4.6781002709e+00 -3.7605613472e-04 2.7208058045e+00 -4.7125738909e+00 2.7208058045e+00 4.7125738909e+00 
465900 4.6781002682e+00 -3.7585572709e-04 2.7208127153e+00 -4.7125858607e+00 2.7208127153e+00 4.7125858607e+00 
466000 4.6781002654e+00 -3.7565542226e-04 2.7208196223e+00 -4.7125978241e+00 2.7208196223e+00 4.7125978241e+00 
466100 4.6781002627e+00 -3.7545522018e-04 2.7208265257e+00 -4.7126097810e+00 2.7208265257e+00 4.7126097810e+00 
466200 4.6781002600e+00 -3.7525512081e-04 2.7208334253e+00 -4.7126217316e+00 2.7208334253e+00 4.7126217316e+00 
466300 4.6781002572e+00 -3.7505512409e-04 2.7208403213e+00 -4.7126336757e+00 2.7208403213e+00 4.7126336757e+00 
466400 4.6781002545e+00 -3.7485522999e-04 2.7208472136e+00 -4.7126456135e+00 2.7208472136e+00 4.7126456135e+00 
466500 4.6781002518e+00 -3.7465543845e-04 2.7208541021e+00 -4.7126575449e+00 2.7208541021e+00 4.7126575449e+00 
466600 4.6781002491e+00 -3.7445574942e-04 2.7208609870e+00 -4.7126694699e+00 2.7208609870e+00 4.7126694699e+00 
466700 4.6781002464e+00 -3.7425616286e-04 2.7208678682e+00 -4.7126813884e+00 2.7208678682e+00 4.7126813884e+00 
466800 4.6781002436e+00 -3.7405667872e-04 2.7208747457e+00 -4.7126933007e+00 2.7208747457e+00 4.7126933007e+00 
466900 4.6781002409e+00 -3.7385729696e-04 2.7208816196e+00 -4.7127052065e+00 2.7208816196e+00 4.7127052065e+00 
467000 4.6781002382e+00 -3.7365801752e-04 2.7208884897e+00 -4.7127171059e+00 2.7208884897e+00 4.7127171059e+00 
467100 4.6781002355e+00 -3.7345884037e-04 2.7208953562e+00 -4.7127289990e+00 2.7208953562e+00 4.7127289990e+00 
467200 4.6781002328e+00 -3.7325976544e-04 2.7209022190e+00 -4.7127408857e+00 2.7209022190e+00 4.7127408857e+00 
467300 4.6781002301e+00 -3.7306079270e-04 2.7209090781e+00 -4.7127527661e+00 2.7209090781e+00 4.7127527661e+00 
467400 4.6781002274e+00 -3.7286192210e-04 2.7209159336e+00 -4.7127646401e+00 2.7209159336e+00 4.7127646401e+00 
467500 4.6781002247e+00 -3.7266315359e-04 2.7209227853e+00 -4.7127765077e+00 2.7209227853e+00 4.7127765077e+00 
467600 4.6781002220e+00 -3.7246448712e-04 2.7209296334e+00 -4.7127883690e+00 2.7209296334e+00 4.7127883690e+00 
467700 4.6781002193e+00 -3.7226592265e-04 2.7209364779e+00 -4.7128002239e+00 2.7209364779e+00 4.7128002239e+00 
467800 4.6781002167e+00 -3.7206746013e-04 2.7209433187e+00 -4.7128120724e+00 2.7209433187e+00 4.7128120724e+00 
467900 4.6781002140e+00 -3.7186909951e-04 2.7209501558e+00 -4.7128239146e+00 2.7209501558e+00 4.7128239146e+00 
468000 4.6781002113e+00 -3.7167084075e-04 2.7209569892e+00 -4.7128357505e+00 2.7209569892e+00 4.7128357505e+00 
468100 4.6781002086e+00 -3.7147268380e-04 2.7209638190e+00 -4.7128475801e+00 2.7209638190e+00 4.7128475801e+00 
468200 4.6781002059e+00 -3.7127462860e-04 2.7209706451e+00 -4.7128594032e+00 2.7209706451e+00 4.7128594032e+00 
468300 4.6781002033e+00 -3.7107667512e-04 2.7209774676e+00 -4.7128712201e+00 2.7209774676e+00 4.7128712201e+00 
468400 4.6781002006e+00 -3.7087882331e-04 2.7209842864e+00 -4.7128830306e+00 2.7209842864e+00 4.7128830306e+00 
468500 4.6781001979e+00 -3.7068107312e-04 2.7209911016e+00 -4.7128948349e+00 2.7209911016e+00 4.7128948349e+00 
468600 4.6781001953e+00 -3.7048342450e-04 2.7209979131e+00 -4.7129066327e+00 2.7209979131e+00 4.7129066327e+00 
468700 4.6781001926e+00 -3.7028587741e-04 2.7210047209e+00 -4.7129184243e+00 2.7210047209e+00 4.7129184243e+00 
468800 4.6781001900e+00 -3.7008843180e-04 2.7210115252e+00 -4.7129302095e+00 2.7210115252e+00 4.7129302095e+00 
468900 4.6781001873e+00 -3.6989108762e-04 2.7210183257e+00 -4.7129419885e+00 2.7210183257e+00 4.7129419885e+00 
469000 4.6781001847e+00 -3.6969384482e-04 2.7210251226e+00 -4.7129537611e+00 2.7210251226e+00 4.7129537611e+00 
469100 4.6781001820e+00 -3.6949670337e-04 2.7210319159e+00 -4.7129655274e+00 2.7210319159e+00 4.7129655274e+00 
469200 4.6781001794e+00 -3.6929966320e-04 2.7210387056e+00 -4.7129772874e+00 2.7210387056e+00 4.7129772874e+00 
469300 4.6781001767e+00 -3.6910272428e-04 2.7210454916e+00 -4.7129890411e+00 2.7210454916e+00 4.7129890411e+00 
469400 4.6781001741e+00 -3.6890588656e-04 2.7210522740e+00 -4.7130007886e+00 2.7210522740e+00 4.7130007886e+00 
469500 4.6781001715e+00 -3.6870914999e-04 2.7210590527e+00 -4.7130125297e+00 2.7210590527e+00 4.7130125297e+00 
469600 4.6781001688e+00 -3.6851251453e-04 2.7210658278e+00 -4.7130242645e+00 2.7210658278e+00 4.7130242645e+00 
469700 4.6781001662e+00 -3.6831598012e-04 2.7210725993e+00 -4.7130359930e+00 2.7210725993e+00 4.7130359930e+00 
469800 4.6781001636e+00 -3.6811954672e-04 2.7210793671e+00 -4.7130477153e+00 2.7210793671e+00 4.7130477153e+00 
469900 4.6781001609e+00 -3.6792321429e-04 2.7210861314e+00 -4.7130594313e+00 2.7210861314e+00 4.7130594313e+00 
470000 4.6781001583e+00 -3.6772698277e-04 2.7210928920e+00 -4.7130711410e+00 2.7210928920e+00 4.7130711410e+00 
470100 4.6781001557e+00 -3.6753085212e-04 2.7210996489e+00 -4.7130828444e+00 2.7210996489e+00 4.7130828444e+00 
470200 4.6781001531e+00 -3.6733482230e-04 2.7211064023e+00 -4.7130945416e+00 2.7211064023e+00 4.7130945416e+00 
470300 4.6781001505e+00 -3.6713889325e-04 2.7211131520e+00 -4.7131062324e+00 2.7211131520e+00 4.7131062324e+00 
470400 4.6781001479e+00 -3.6694306494e-04 2.7211198981e+00 -4.7131179171e+00 2.7211198981e+00 4.7131179171e+00 
470500 4.6781001452e+00 -3.6674733730e-04 2.7211266406e+00 -4.7131295954e+00 2.7211266406e+00 4.7131295954e+00 
470600 4.6781001426e+00 -3.6655171031e-04 2.7211333795e+00 -4.7131412675e+00 2.7211333795e+00 4.7131412675e+00 
470700 4.6781001400e+00 -3.6635618390e-04 2.7211401148e+00 -4.7131529334e+00 2.7211401148e+00 4.7131529334e+00 
470800 4.6781001374e+00 -3.6616075804e-04 2.7211468465e+00 -4.7131645930e+00 2.7211468465e+00 4.7131645930e+00 
470900 4.6781001348e+00 -3.6596543267e-04 2.7211535745e+00 -4.7131762463e+00 2.7211535745e+00 4.7131762463e+00 
471000 4.6781001322e+00 -3.6577020775e-04 2.7211602990e+00 -4.7131878934e+00 2.7211602990e+00 4.7131878934e+00 
471100 4.6781001297e+00 -3.6557508324e-04 2.7211670198e+00 -4.7131995343e+00 2.7211670198e+00 4.7131995343e+00 
471200 4.6781001271e+00 -3.6538005908e-04 2.7211737371e+00 -4.7132111689e+00 2.7211737371e+00 4.7132111689e+00 
471300 4.6781001245e+00 -3.6518513524e-04 2.7211804508e+00 -4.7132227973e+00 2.7211804508e+00 4.7132227973e+00 
471400 4.6781001219e+00 -3.6499031166e-04 2.7211871608e+00 -4.7132344194e+00 2.7211871608e+00 4.7132344194e+00 
471500 4.6781001193e+00 -3.6479558829e-04 2.7211938673e+00 -4.7132460353e+00 2.7211938673e+00 4.7132460353e+00 
471600 4.6781001167e+00 -3.6460096509e-04 2.7212005701e+00 -4.7132576450e+00 2.7212005701e+00 4.7132576450e+00 
471700 4.6781001142e+00 -3.6440644202e-04 2.7212072694e+00 -4.7132692485e+00 2.7212072694e+00 4.7132692485e+00 
471800 4.6781001116e+00 -3.6421201903e-04 2.7212139651e+00 -4.7132808458e+00 2.7212139651e+00 4.7132808458e+00 
471900 4.6781001090e+00 -3.6401769607e-04 2.7212206572e+00 -4.7132924368e+00 2.7212206572e+00 4.7132924368e+00 
472000 4.6781001065e+00 -3.6382347309e-04 2.7212273457e+00 -4.7133040216e+00 2.7212273457e+00 4.7133040216e+00 
472100 4.6781001039e+00 -3.6362935005e-04 2.7212340306e+00 -4.7133156003e+00 2.7212340306e+00 4.7133156003e+00 
472200 4.6781001013e+00 -3.6343532690e-04 2.7212407119e+00 -4.7133271727e+00 2.7212407119e+00 4.7133271727e+00 
472300 4.6781000988e+00 -3.6324140360e-04 2.7212473897e+00 -4.7133387389e+00 2.7212473897e+00 4.7133387389e+00 
472400 4.6781000962e+00 -3.6304758009e-04 2.7212540638e+00 -4.7133502989e+00 2.7212540638e+00 4.7133502989e+00 
472500 4.6781000937e+00 -3.6285385634e-04 2.7212607344e+00 -4.7133618527e+00 2.7212607344e+00 4.7133618527e+00 
472600 4.6781000911e+00 -3.6266023229e-04 2.7212674015e+00 -4.7133734003e+00 2.7212674015e+00 4.7133734003e+00 
472700 4.6781000886e+00 -3.6246670790e-04 2.7212740649e+00 -4.7133849417e+00 2.7212740649e+00 4.7133849417e+00 
472800 4.6781000860e+00 -3.6227328313e-04 2.7212807248e+00 -4.7133964770e+00 2.7212807248e+00 4.7133964770e+00 
472900 4.6781000835e+00 -3.6207995792e-04 2.7212873811e+00 -4.7134080060e+00 2.7212873811e+00 4.7134080060e+00 
473000 4.6781000809e+00 -3.6188673223e-04 2.7212940338e+00 -4.7134195289e+00 2.7212940338e+00 4.7134195289e+00 
473100 4.6781000784e+00 -3.6169360602e-04 2.7213006830e+00 -4.7134310456e+00 2.7213006830e+00 4.7134310456e+00 
473200 4.6781000759e+00 -3.6150057923e-04 2.7213073286e+00 -4.7134425561e+00 2.7213073286e+00 4.7134425561e+00 
473300 4.6781000733e+00 -3.6130765183e-04 2.7213139706e+00 -4.7134540605e+00 2.7213139706e+00 4.7134540605e+00 
473400 4.6781000708e+00 -3.6111482376e-04 2.7213206091e+00 -4.7134655587e+00 2.7213206091e+00 4.7134655587e+00 
473500 4.6781000683e+00 -3.6092209498e-04 2.7213272440e+00 -4.7134770507e+00 2.7213272440e+00 4.7134770507e+00 
473600 4.6781000658e+00 -3.6072946544e-04 2.7213338754e+00 -4.7134885366e+00 2.7213338754e+00 4.7134885366e+00 
473700 4.6781000632e+00 -3.6053693510e-04 2.7213405032e+00 -4.7135000163e+00 2.7213405032e+00 4.7135000163e+00 
473800 4.6781000607e+00 -3.6034450390e-04 2.7213471275e+00 -4.7135114898e+00 2.7213471275e+00 4.7135114898e+00 
473900 4.6781000582e+00 -3.6015217181e-04 2.7213537482e+00 -4.7135229572e+00 2.7213537482e+00 4.7135229572e+00 
474000 4.6781000557e+00 -3.5995993878e-04 2.7213603653e+00 -4.7135344184e+00 2.7213603653e+00 4.7135344184e+00 
474100 4.6781000532e+00 -3.5976780476e-04 2.7213669789e+00 -4.7135458735e+00 2.7213669789e+00 4.7135458735e+00 
474200 4.6781000507e+00 -3.5957576971e-04 2.7213735890e+00 -4.7135573225e+00 2.7213735890e+00 4.7135573225e+00 
474300 4.6781000482e+00 -3.5938383358e-04 2.7213801955e+00 -4.7135687653e+00 2.7213801955e+00 4.7135687653e+00 
474400 4.6781000457e+00 -3.5919199631e-04 2.7213867985e+00 -4.7135802020e+00 2.7213867985e+00 4.7135802020e+00 
474500 4.6781000432e+00 -3.5900025788e-04 2.7213933979e+00 -4.7135916326e+00 2.7213933979e+00 4.7135916326e+00 
474600 4.6781000407e+00 -3.5880861822e-04 2.7213999938e+00 -4.7136030570e+00 2.7213999938e+00 4.7136030570e+00 
474700 4.6781000382e+00 -3.5861707730e-04 2.7214065862e+00 -4.7136144753e+00 2.7214065862e+00 4.7136144753e+00 
474800 4.6781000357e+00 -3.5842563507e-04 2.7214131750e+00 -4.7136258874e+00 2.7214131750e+00 4.7136258874e+00 
474900 4.6781000332e+00 -3.5823429148e-04 2.7214197603e+00 -4.7136372935e+00 2.7214197603e+00 4.7136372935e+00 
475000 4.6781000307e+00 -3.5804304649e-04 2.7214263420e+00 -4.7136486934e+00 2.7214263420e+00 4.7136486934e+00 
475100 4.6781000282e+00 -3.5785190005e-04 2.7214329202e+00 -4.7136600873e+00 2.7214329202e+00 4.7136600873e+00 
475200 4.6781000258e+00 -3.5766085211e-04 2.7214394949e+00 -4.7136714750e+00 2.7214394949e+00 4.7136714750e+00 
475300 4.6781000233e+00 -3.5746990263e-04 2.7214460661e+00 -4.7136828566e+00 2.7214460661e+00 4.7136828566e+00 
475400 4.6781000208e+00 -3.5727905157e-04 2.7214526338e+00 -4.7136942321e+00 2.7214526338e+00 4.7136942321e+00 
475500 4.6781000183e+00 -3.5708829887e-04 2.7214591979e+00 -4.7137056015e+00 2.7214591979e+00 4.7137056015e+00 
475600 4.6781000159e+00 -3.5689764449e-04 2.7214657585e+00 -4.7137169648e+00 2.7214657585e+00 4.7137169648e+00 
475700 4.6781000134e+00 -3.5670708838e-04 2.7214723156e+00 -4.7137283220e+00 2.7214723156e+00 4.7137283220e+00 
475800 4.6781000109e+00 -3.5651663050e-04 2.7214788692e+00 -4.7137396731e+00 2.7214788692e+00 4.7137396731e+00 
475900 4.6781000085e+00 -3.5632627081e-04 2.7214854192e+00 -4.7137510181e+00 2.7214854192e+00 4.7137510181e+00 
476000 4.6781000060e+00 -3.5613600925e-04 2.7214919658e+00 -4.7137623571e+00 2.7214919658e+00 4.7137623571e+00 
476100 4.6781000036e+00 -3.5594584578e-04 2.7214985088e+00 -4.7137736899e+00 2.7214985088e+00 4.7137736899e+00 
476200 4.6781000011e+00 -3.5575578036e-04 2.7215050483e+00 -4.7137850167e+00 2.7215050483e+00 4.7137850167e+00 
476300 4.6780999987e+00 -3.5556581294e-04 2.7215115843e+00 -4.7137963374e+00 2.7215115843e+00 4.7137963374e+00 
476400 4.6780999962e+00 -3.5537594347e-04 2.7215181168e+00 -4.7138076521e+00 2.7215181168e+00 4.7138076521e+00 
476500 4.6780999938e+00 -3.5518617190e-04 2.7215246458e+00 -4.7138189606e+00 2.7215246458e+00 4.7138189606e+00 
476600 4.6780999913e+00 -3.5499649820e-04 2.7215311713e+00 -4.7138302631e+00 2.7215311713e+00 4.7138302631e+00 
476700 4.6780999889e+00 -3.5480692232e-04 2.7215376933e+00 -4.7138415596e+00 2.7215376933e+00 4.7138415596e+00 
476800 4.6780999864e+00 -3.5461744420e-04 2.7215442118e+00 -4.7138528500e+00 2.7215442118e+00 4.7138528500e+00 
476900 4.6780999840e+00 -3.5442806381e-04 2.7215507269e+00 -4.7138641343e+00 2.7215507269e+00 4.7138641343e+00 
477000 4.6780999816e+00 -3.5423878110e-04 2.7215572384e+00 -4.7138754126e+00 2.7215572384e+00 4.7138754126e+00 
477100 4.6780999791e+00 -3.5404959602e-04 2.7215637464e+00 -4.7138866848e+00 2.7215637464e+00 4.7138866848e+00 
477200 4.6780999767e+00 -3.5386050853e-04 2.7215702509e+00 -4.7138979509e+00 2.7215702509e+00 4.7138979509e+00 
477300 4.6780999743e+00 -3.5367151857e-04 2.7215767520e+00 -4.7139092111e+00 2.7215767520e+00 4.7139092111e+00 
477400 4.6780999719e+00 -3.5348262612e-04 2.7215832495e+00 -4.7139204652e+00 2.7215832495e+00 4.7139204652e+00 
477500 4.6780999694e+00 -3.5329383111e-04 2.7215897436e+00 -4.7139317132e+00 2.7215897436e+00 4.7139317132e+00 
477600 4.6780999670e+00 -3.5310513351e-04 2.7215962341e+00 -4.7139429552e+00 2.7215962341e+00 4.7139429552e+00 
477700 4.6780999646e+00 -3.5291653326e-04 2.7216027212e+00 -4.7139541912e+00 2.7216027212e+00 4.7139541912e+00 
477800 4.6780999622e+00 -3.5272803033e-04 2.7216092049e+00 -4.7139654212e+00 2.7216092049e+00 4.7139654212e+00 
477900 4.6780999598e+00 -3.5253962467e-04 2.7216156850e+00 -4.7139766451e+00 2.7216156850e+00 4.7139766451e+00 
478000 4.6780999574e+00 -3.5235131623e-04 2.7216221617e+00 -4.7139878630e+00 2.7216221617e+00 4.7139878630e+00 
478100 4.6780999550e+00 -3.5216310496e-04 2.7216286349e+00 -4.7139990749e+00 2.7216286349e+00 4.7139990749e+00 
478200 4.6780999526e+00 -3.5197499083e-04 2.7216351046e+00 -4.7140102808e+00 2.7216351046e+00 4.7140102808e+00 
478300 4.6780999502e+00 -3.5178697378e-04 2.7216415708e+00 -4.7140214806e+00 2.7216415708e+00 4.7140214806e+00 
478400 4.6780999478e+00 -3.5159905376e-04 2.7216480336e+00 -4.7140326745e+00 2.7216480336e+00 4.7140326745e+00 
478500 4.6780999454e+00 -3.5141123075e-04 2.7216544929e+00 -4.7140438623e+00 2.7216544929e+00 4.7140438623e+00 
478600 4.6780999430e+00 -3.5122350468e-04 2.7216609487e+00 -4.7140550442e+00 2.7216609487e+00 4.7140550442e+00 
478700 4.6780999406e+00 -3.5103587551e-04 2.7216674011e+00 -4.7140662200e+00 2.7216674011e+00 4.7140662200e+00 
478800 4.6780999382e+00 -3.5084834320e-04 2.7216738500e+00 -4.7140773899e+00 2.7216738500e+00 4.7140773899e+00 
478900 4.6780999358e+00 -3.5066090770e-04 2.7216802955e+00 -4.7140885537e+00 2.7216802955e+00 4.7140885537e+00 
479000 4.6780999335e+00 -3.5047356897e-04 2.7216867375e+00 -4.7140997116e+00 2.7216867375e+00 4.7140997116e+00 
479100 4.6780999311e+00 -3.5028632696e-04 2.7216931760e+00 -4.7141108635e+00 2.7216931760e+00 4.7141108635e+00 
479200 4.6780999287e+00 -3.5009918163e-04 2.7216996111e+00 -4.7141220094e+00 2.7216996111e+00 4.7141220094e+00 
479300 4.6780999263e+00 -3.4991213292e-04 2.7217060427e+00 -4.7141331493e+00 2.7217060427e+00 4.7141331493e+00 
479400 4.6780999240e+00 -3.4972518080e-04 2.7217124709e+00 -4.7141442832e+00 2.7217124709e+00 4.7141442832e+00 
479500 4.6780999216e+00 -3.4953832522e-04 2.7217188956e+00 -4.7141554112e+00 2.7217188956e+00 4.7141554112e+00 
479600 4.6780999192e+00 -3.4935156614e-04 2.7217253169e+00 -4.7141665332e+00 2.7217253169e+00 4.7141665332e+00 
479700 4.6780999169e+00 -3.4916490350e-04 2.7217317348e+00 -4.7141776492e+00 2.7217317348e+00 4.7141776492e+00 
479800 4.6780999145e+00 -3.4897833726e-04 2.7217381491e+00 -4.7141887592e+00 2.7217381491e+00 4.7141887592e+00 
479900 4.6780999121e+00 -3.4879186739e-04 2.7217445601e+00 -4.7141998633e+00 2.7217445601e+00 4.7141998633e+00 
480000 4.6780999098e+00 -3.4860549382e-04 2.7217509676e+00 -4.7142109614e+00 2.7217509676e+00 4.7142109614e+00 
480100 4.6780999074e+00 -3.4841921652e-04 2.7217573717e+00 -4.7142220536e+00 2.7217573717e+00 4.7142220536e+00 
480200 4.6780999051e+00 -3.4823303545e-04 2.7217637723e+00 -4.7142331398e+00 2.7217637723e+00 4.7142331398e+00 
480300 4.6780999027e+00 -3.4804695055e-04 2.7217701695e+00 -4.7142442201e+00 2.7217701695e+00 4.7142442201e+00 
480400 4.6780999004e+00 -3.4786096178e-04 2.7217765633e+00 -4.7142552944e+00 2.7217765633e+00 4.7142552944e+00 
480500 4.6780998981e+00 -3.4767506910e-04 2.7217829536e+00 -4.7142663628e+00 2.7217829536e+00 4.7142663628e+00 
480600 4.6780998957e+00 -3.4748927246e-04 2.7217893405e+00 -4.7142774252e+00 2.7217893405e+00 4.7142774252e+00 
480700 4.6780998934e+00 -3.4730357182e-04 2.7217957240e+00 -4.7142884817e+00 2.7217957240e+00 4.7142884817e+00 
480800 4.6780998910e+00 -3.4711796712e-04 2.7218021040e+00 -4.7142995323e+00 2.7218021040e+00 4.7142995323e+00 
480900 4.6780998887e+00 -3.4693245834e-04 2.7218084806e+00 -4.7143105769e+00 2.7218084806e+00 4.7143105769e+00 
481000 4.6780998864e+00 -3.4674704541e-04 2.7218148538e+00 -4.7143216157e+00 2.7218148538e+00 4.7143216157e+00 
481100 4.6780998841e+00 -3.4656172829e-04 2.7218212236e+00 -4.7143326484e+00 2.7218212236e+00 4.7143326484e+00 
481200 4.6780998817e+00 -3.4637650695e-04 2.7218275900e+00 -4.7143436753e+00 2.7218275900e+00 4.7143436753e+00 
481300 4.6780998794e+00 -3.4619138133e-04 2.7218339529e+00 -4.7143546962e+00 2.7218339529e+00 4.7143546962e+00 
481400 4.6780998771e+00 -3.4600635139e-04 2.7218403125e+00 -4.7143657113e+00 2.7218403125e+00 4.7143657113e+00 
481500 4.6780998748e+00 -3.4582141709e-04 2.7218466686e+00 -4.7143767204e+00 2.7218466686e+00 4.7143767204e+00 
481600 4.6780998724e+00 -3.4563657838e-04 2.7218530213e+00 -4.7143877236e+00 2.7218530213e+00 4.7143877236e+00 
481700 4.6780998701e+00 -3.4545183521e-04 2.7218593706e+00 -4.7143987209e+00 2.7218593706e+00 4.7143987209e+00 
481800 4.6780998678e+00 -3.4526718754e-04 2.7218657164e+00 -4.7144097122e+00 2.7218657164e+00 4.7144097122e+00 
481900 4.6780998655e+00 -3.4508263532e-04 2.7218720589e+00 -4.7144206977e+00 2.7218720589e+00 4.7144206977e+00 
482000 4.6780998632e+00 -3.4489817852e-04 2.7218783980e+00 -4.7144316773e+00 2.7218783980e+00 4.7144316773e+00 
482100 4.6780998609e+00 -3.4471381707e-04 2.7218847337e+00 -4.7144426510e+00 2.7218847337e+00 4.7144426510e+00 
482200 4.6780998586e+00 -3.4452955095e-04 2.7218910659e+00 -4.7144536188e+00 2.7218910659e+00 4.7144536188e+00 
482300 4.6780998563e+00 -3.4434538010e-04 2.7218973948e+00 -4.7144645808e+00 2.7218973948e+00 4.7144645808e+00 
482400 4.6780998540e+00 -3.4416130449e-04 2.7219037203e+00 -4.7144755368e+00 2.7219037203e+00 4.7144755368e+00 
482500 4.6780998517e+00 -3.4397732405e-04 2.7219100423e+00 -4.7144864869e+00 2.7219100423e+00 4.7144864869e+00 
482600 4.6780998494e+00 -3.4379343876e-04 2.7219163610e+00 -4.7144974312e+00 2.7219163610e+00 4.7144974312e+00 
482700 4.6780998471e+00 -3.4360964856e-04 2.7219226763e+00 -4.7145083696e+00 2.7219226763e+00 4.7145083696e+00 
482800 4.6780998449e+00 -3.4342595341e-04 2.7219289882e+00 -4.7145193021e+00 2.7219289882e+00 4.7145193021e+00 
482900 4.6780998426e+00 -3.4324235327e-04 2.7219352967e+00 -4.7145302288e+00 2.7219352967e+00 4.7145302288e+00 
483000 4.6780998403e+00 -3.4305884808e-04 2.7219416018e+00 -4.7145411496e+00 2.7219416018e+00 4.7145411496e+00 
483100 4.6780998380e+00 -3.4287543782e-04 2.7219479035e+00 -4.7145520645e+00 2.7219479035e+00 4.7145520645e+00 
483200 4.6780998357e+00 -3.4269212242e-04 2.7219542019e+00 -4.7145629735e+00 2.7219542019e+00 4.7145629735e+00 
483300 4.6780998335e+00 -3.4250890185e-04 2.7219604969e+00 -4.7145738767e+00 2.7219604969e+00 4.7145738767e+00 
483400 4.6780998312e+00 -3.4232577605e-04 2.7219667884e+00 -4.7145847741e+00 2.7219667884e+00 4.7145847741e+00 
483500 4.6780998289e+00 -3.4214274500e-04 2.7219730767e+00 -4.7145956656e+00 2.7219730767e+00 4.7145956656e+00 
483600 4.6780998267e+00 -3.4195980863e-04 2.7219793615e+00 -4.7146065512e+00 2.7219793615e+00 4.7146065512e+00 
483700 4.6780998244e+00 -3.4177696692e-04 2.7219856429e+00 -4.7146174310e+00 2.7219856429e+00 4.7146174310e+00 
483800 4.6780998221e+00 -3.4159421980e-04 2.7219919210e+00 -4.7146283050e+00 2.7219919210e+00 4.7146283050e+00 
483900 4.6780998199e+00 -3.4141156724e-04 2.7219981957e+00 -4.7146391731e+00 2.7219981957e+00 4.7146391731e+00 
484000 4.6780998176e+00 -3.4122900920e-04 2.7220044671e+00 -4.7146500354e+00 2.7220044671e+00 4.7146500354e+00 
484100 4.6780998154e+00 -3.4104654562e-04 2.7220107351e+00 -4.7146608919e+00 2.7220107351e+00 4.7146608919e+00 
484200 4.6780998131e+00 -3.4086417646e-04 2.7220169997e+00 -4.7146717425e+00 2.7220169997e+00 4.7146717425e+00 
484300 4.6780998109e+00 -3.4068190169e-04 2.7220232609e+00 -4.7146825873e+00 2.7220232609e+00 4.7146825873e+00 
484400 4.6780998086e+00 -3.4049972124e-04 2.7220295188e+00 -4.7146934262e+00 2.7220295188e+00 4.7146934262e+00 
484500 4.6780998064e+00 -3.4031763509e-04 2.7220357733e+00 -4.7147042594e+00 2.7220357733e+00 4.7147042594e+00 
484600 4.6780998041e+00 -3.4013564318e-04 2.7220420245e+00 -4.7147150867e+00 2.7220420245e+00 4.7147150867e+00 
484700 4.6780998019e+00 -3.3995374547e-04 2.7220482723e+00 -4.7147259082e+00 2.7220482723e+00 4.7147259082e+00 
484800 4.6780997997e+00 -3.3977194192e-04 2.7220545167e+00 -4.7147367240e+00 2.7220545167e+00 4.7147367240e+00 
484900 4.6780997974e+00 -3.3959023247e-04 2.7220607578e+00 -4.7147475338e+00 2.7220607578e+00 4.7147475338e+00 
485000 4.6780997952e+00 -3.3940861709e-04 2.7220669956e+00 -4.7147583379e+00 2.7220669956e+00 4.7147583379e+00 
485100 4.6780997930e+00 -3.3922709574e-04 2.7220732300e+00 -4.7147691362e+00 2.7220732300e+00 4.7147691362e+00 
485200 4.6780997907e+00 -3.3904566836e-04 2.7220794610e+00 -4.7147799287e+00 2.7220794610e+00 4.7147799287e+00 
485300 4.6780997885e+00 -3.3886433491e-04 2.7220856887e+00 -4.7147907154e+00 2.7220856887e+00 4.7147907154e+00 
485400 4.6780997863e+00 -3.3868309535e-04 2.7220919131e+00 -4.7148014963e+00 2.7220919131e+00 4.7148014963e+00 
485500 4.6780997841e+00 -3.3850194964e-04 2.7220981341e+00 -4.7148122714e+00 2.7220981341e+00 4.7148122714e+00 
485600 4.6780997818e+00 -3.3832089772e-04 2.7221043517e+00 -4.7148230407e+00 2.7221043517e+00 4.7148230407e+00 
485700 4.6780997796e+00 -3.3813993956e-04 2.7221105661e+00 -4.7148338043e+00 2.7221105661e+00 4.7148338043e+00 
485800 4.6780997774e+00 -3.3795907511e-04 2.7221167771e+00 -4.7148445620e+00 2.7221167771e+00 4.7148445620e+00 
485900 4.6780997752e+00 -3.3777830433e-04 2.7221229847e+00 -4.7148553140e+00 2.7221229847e+00 4.7148553140e+00 
486000 4.6780997730e+00 -3.3759762716e-04 2.7221291890e+00 -4.7148660602e+00 2.7221291890e+00 4.7148660602e+00 
486100 4.6780997708e+00 -3.3741704358e-04 2.7221353900e+00 -4.7148768006e+00 2.7221353900e+00 4.7148768006e+00 
486200 4.6780997686e+00 -3.3723655352e-04 2.7221415877e+00 -4.7148875353e+00 2.7221415877e+00 4.7148875353e+00 
486300 4.6780997664e+00 -3.3705615696e-04 2.7221477820e+00 -4.7148982641e+00 2.7221477820e+00 4.7148982641e+00 
486400 4.6780997642e+00 -3.3687585384e-04 2.7221539730e+00 -4.7149089873e+00 2.7221539730e+00 4.7149089873e+00 
486500 4.6780997620e+00 -3.3669564411e-04 2.7221601607e+00 -4.7149197046e+00 2.7221601607e+00 4.7149197046e+00 
486600 4.6780997598e+00 -3.3651552775e-04 2.7221663450e+00 -4.7149304162e+00 2.7221663450e+00 4.7149304162e+00 
486700 4.6780997576e+00 -3.3633550469e-04 2.7221725261e+00 -4.7149411221e+00 2.7221725261e+00 4.7149411221e+00 
486800 4.6780997554e+00 -3.3615557490e-04 2.7221787038e+00 -4.7149518222e+00 2.7221787038e+00 4.7149518222e+00 
486900 4.6780997532e+00 -3.3597573834e-04 2.7221848781e+00 -4.7149625165e+00 2.7221848781e+00 4.7149625165e+00 
487000 4.6780997510e+00 -3.3579599495e-04 2.7221910492e+00 -4.7149732051e+00 2.7221910492e+00 4.7149732051e+00 
487100 4.6780997489e+00 -3.3561634469e-04 2.7221972170e+00 -4.7149838880e+00 2.7221972170e+00 4.7149838880e+00 
487200 4.6780997467e+00 -3.3543678753e-04 2.7222033814e+00 -4.7149945651e+00 2.7222033814e+00 4.7149945651e+00 
487300 4.6780997445e+00 -3.3525732341e-04 2.7222095425e+00 -4.7150052365e+00 2.7222095425e+00 4.7150052365e+00 
487400 4.6780997423e+00 -3.3507795229e-04 2.7222157004e+00 -4.7150159022e+00 2.7222157004e+00 4.7150159022e+00 
487500 4.6780997402e+00 -3.3489867413e-04 2.7222218549e+00 -4.7150265621e+00 2.7222218549e+00 4.7150265621e+00 
487600 4.6780997380e+00 -3.3471948889e-04 2.7222280061e+00 -4.7150372163e+00 2.7222280061e+00 4.7150372163e+00 
487700 4.6780997358e+00 -3.3454039651e-04 2.7222341540e+00 -4.7150478648e+00 2.7222341540e+00 4.7150478648e+00 
487800 4.6780997337e+00 -3.3436139695e-04 2.7222402986e+00 -4.7150585075e+00 2.7222402986e+00 4.7150585075e+00 
487900 4.6780997315e+00 -3.3418249018e-04 2.7222464399e+00 -4.7150691446e+00 2.7222464399e+00 4.7150691446e+00 
488000 4.6780997293e+00 -3.3400367614e-04 2.7222525779e+00 -4.7150797759e+00 2.7222525779e+00 4.7150797759e+00 
488100 4.6780997272e+00 -3.3382495480e-04 2.7222587125e+00 -4.7150904015e+00 2.7222587125e+00 4.7150904015e+00 
488200 4.6780997250e+00 -3.3364632610e-04 2.7222648439e+00 -4.7151010214e+00 2.7222648439e+00 4.7151010214e+00 
488300 4.6780997229e+00 -3.3346779001e-04 2.7222709720e+00 -4.7151116356e+00 2.7222709720e+00 4.7151116356e+00 
488400 4.6780997207e+00 -3.3328934648e-04 2.7222770969e+00 -4.7151222440e+00 2.7222770969e+00 4.7151222440e+00 
488500 4.6780997186e+00 -3.3311099546e-04 2.7222832184e+00 -4.7151328468e+00 2.7222832184e+00 4.7151328468e+00 
488600 4.6780997164e+00 -3.3293273692e-04 2.7222893366e+00 -4.7151434439e+00 2.7222893366e+00 4.7151434439e+00 
488700 4.6780997143e+00 -3.3275457081e-04 2.7222954516e+00 -4.7151540353e+00 2.7222954516e+00 4.7151540353e+00 
488800 4.6780997121e+00 -3.3257649708e-04 2.7223015632e+00 -4.7151646210e+00 2.7223015632e+00 4.7151646210e+00 
488900 4.6780997100e+00 -3.3239851569e-04 2.7223076716e+00 -4.7151752010e+00 2.7223076716e+00 4.7151752010e+00 
489000 4.6780997078e+00 -3.3222062659e-04 2.7223137767e+00 -4.7151857753e+00 2.7223137767e+00 4.7151857753e+00 
489100 4.6780997057e+00 -3.3204282975e-04 2.7223198785e+00 -4.7151963440e+00 2.7223198785e+00 4.7151963440e+00 
489200 4.6780997036e+00 -3.3186512512e-04 2.7223259770e+00 -4.7152069069e+00 2.7223259770e+00 4.7152069069e+00 
489300 4.6780997014e+00 -3.3168751265e-04 2.7223320723e+00 -4.7152174642e+00 2.7223320723e+00 4.7152174642e+00 
489400 4.6780996993e+00 -3.3150999230e-04 2.7223381642e+00 -4.7152280158e+00 2.7223381642e+00 4.7152280158e+00 
489500 4.6780996972e+00 -3.3133256403e-04 2.7223442529e+00 -4.7152385618e+00 2.7223442529e+00 4.7152385618e+00 
489600 4.6780996951e+00 -3.3115522780e-04 2.7223503384e+00 -4.7152491021e+00 2.7223503384e+00 4.7152491021e+00 
489700 4.6780996929e+00 -3.3097798355e-04 2.7223564205e+00 -4.7152596367e+00 2.7223564205e+00 4.7152596367e+00 
489800 4.6780996908e+00 -3.3080083125e-04 2.7223624994e+00 -4.7152701656e+00 2.7223624994e+00 4.7152701656e+00 
489900 4.6780996887e+00 -3.3062377084e-04 2.7223685750e+00 -4.7152806889e+00 2.7223685750e+00 4.7152806889e+00 
490000 4.6780996866e+00 -3.3044680230e-04 2.7223746474e+00 -4.7152912065e+00 2.7223746474e+00 4.7152912065e+00 
490100 4.6780996845e+00 -3.3026992557e-04 2.7223807165e+00 -4.7153017185e+00 2.7223807165e+00 4.7153017185e+00 
490200 4.6780996824e+00 -3.3009314061e-04 2.7223867823e+00 -4.7153122248e+00 2.7223867823e+00 4.7153122248e+00 
490300 4.6780996803e+00 -3.2991644738e-04 2.7223928449e+00 -4.7153227255e+00 2.7223928449e+00 4.7153227255e+00 
490400 4.6780996781e+00 -3.2973984583e-04 2.7223989042e+00 -4.7153332206e+00 2.7223989042e+00 4.7153332206e+00 
490500 4.6780996760e+00 -3.2956333592e-04 2.7224049603e+00 -4.7153437100e+00 2.7224049603e+00 4.7153437100e+00 
490600 4.6780996739e+00 -3.2938691760e-04 2.7224110131e+00 -4.7153541937e+00 2.7224110131e+00 4.7153541937e+00 
490700 4.6780996718e+00 -3.2921059084e-04 2.7224170626e+00 -4.7153646718e+00 2.7224170626e+00 4.7153646718e+00 
490800 4.6780996697e+00 -3.2903435558e-04 2.7224231089e+00 -4.7153751443e+00 2.7224231089e+00 4.7153751443e+00 
490900 4.6780996677e+00 -3.2885821179e-04 2.7224291519e+00 -4.7153856112e+00 2.7224291519e+00 4.7153856112e+00 
491000 4.6780996656e+00 -3.2868215942e-04 2.7224351917e+00 -4.7153960724e+00 2.7224351917e+00 4.7153960724e+00 
491100 4.6780996635e+00 -3.2850619843e-04 2.7224412283e+00 -4.7154065280e+00 2.7224412283e+00 4.7154065280e+00 
491200 4.6780996614e+00 -3.2833032877e-04 2.7224472616e+00 -4.7154169780e+00 2.7224472616e+00 4.7154169780e+00 
491300 4.6780996593e+00 -3.2815455040e-04 2.7224532917e+00 -4.7154274224e+00 2.7224532917e+00 4.7154274224e+00 
491400 4.6780996572e+00 -3.2797886327e-04 2.7224593185e+00 -4.7154378611e+00 2.7224593185e+00 4.7154378611e+00 
491500 4.6780996551e+00 -3.2780326735e-04 2.7224653421e+00 -4.7154482943e+00 2.7224653421e+00 4.7154482943e+00 
491600 4.6780996531e+00 -3.2762776259e-04 2.7224713624e+00 -4.7154587218e+00 2.7224713624e+00 4.7154587218e+00 
491700 4.6780996510e+00 -3.2745234894e-04 2.7224773795e+00 -4.7154691438e+00 2.7224773795e+00 4.7154691438e+00 
491800 4.6780996489e+00 -3.2727702637e-04 2.7224833934e+00 -4.7154795601e+00 2.7224833934e+00 4.7154795601e+00 
491900 4.6780996468e+00 -3.2710179482e-04 2.7224894040e+00 -4.7154899708e+00 2.7224894040e+00 4.7154899708e+00 
492000 4.6780996448e+00 -3.2692665426e-04 2.7224954114e+00 -4.7155003759e+00 2.7224954114e+00 4.7155003759e+00 
492100 4.6780996427e+00 -3.2675160464e-04 2.7225014156e+00 -4.7155107755e+00 2.7225014156e+00 4.7155107755e+00 
492200 4.6780996406e+00 -3.2657664592e-04 2.7225074165e+00 -4.7155211694e+00 2.7225074165e+00 4.7155211694e+00 
492300 4.6780996386e+00 -3.2640177806e-04 2.7225134143e+00 -4.7155315578e+00 2.7225134143e+00 4.7155315578e+00 
492400 4.6780996365e+00 -3.2622700100e-04 2.7225194087e+00 -4.7155419405e+00 2.7225194087e+00 4.7155419405e+00 
492500 4.6780996344e+00 -3.2605231471e-04 2.7225254000e+00 -4.7155523177e+00 2.7225254000e+00 4.7155523177e+00 
492600 4.6780996324e+00 -3.2587771915e-04 2.7225313881e+00 -4.7155626893e+00 2.7225313881e+00 4.7155626893e+00 
492700 4.6780996303e+00 -3.2570321427e-04 2.7225373729e+00 -4.7155730554e+00 2.7225373729e+00 4.7155730554e+00 
492800 4.6780996283e+00 -3.2552880003e-04 2.7225433545e+00 -4.7155834158e+00 2.7225433545e+00 4.7155834158e+00 
492900 4.6780996262e+00 -3.2535447638e-04 2.7225493329e+00 -4.7155937707e+00 2.7225493329e+00 4.7155937707e+00 
493000 4.6780996242e+00 -3.2518024328e-04 2.7225553081e+00 -4.7156041200e+00 2.7225553081e+00 4.7156041200e+00 
493100 4.6780996221e+00 -3.2500610069e-04 2.7225612801e+00 -4.7156144638e+00 2.7225612801e+00 4.7156144638e+00 
493200 4.6780996201e+00 -3.2483204857e-04 2.7225672488e+00 -4.7156248020e+00 2.7225672488e+00 4.7156248020e+00 
493300 4.6780996180e+00 -3.2465808687e-04 2.7225732144e+00 -4.7156351346e+00 2.7225732144e+00 4.7156351346e+00 
493400 4.6780996160e+00 -3.2448421554e-04 2.7225791767e+00 -4.7156454617e+00 2.7225791767e+00 4.7156454617e+00 
493500 4.6780996140e+00 -3.2431043455e-04 2.7225851359e+00 -4.7156557832e+00 2.7225851359e+00 4.7156557832e+00 
493600 4.6780996119e+00 -3.2413674385e-04 2.7225910918e+00 -4.7156660992e+00 2.7225910918e+00 4.7156660992e+00 
493700 4.6780996099e+00 -3.2396314340e-04 2.7225970445e+00 -4.7156764096e+00 2.7225970445e+00 4.7156764096e+00 
493800 4.6780996079e+00 -3.2378963315e-04 2.7226029940e+00 -4.7156867145e+00 2.7226029940e+00 4.7156867145e+00 
493900 4.6780996058e+00 -3.2361621307e-04 2.7226089404e+00 -4.7156970138e+00 2.7226089404e+00 4.7156970138e+00 
494000 4.6780996038e+00 -3.2344288311e-04 2.7226148835e+00 -4.7157073077e+00 2.7226148835e+00 4.7157073077e+00 
494100 4.6780996018e+00 -3.2326964322e-04 2.7226208234e+00 -4.7157175959e+00 2.7226208234e+00 4.7157175959e+00 
494200 4.6780995998e+00 -3.2309649336e-04 2.7226267602e+00 -4.7157278787e+00 2.7226267602e+00 4.7157278787e+00 
494300 4.6780995977e+00 -3.2292343349e-04 2.7226326937e+00 -4.7157381559e+00 2.7226326937e+00 4.7157381559e+00 
494400 4.6780995957e+00 -3.2275046357e-04 2.7226386241e+00 -4.7157484275e+00 2.7226386241e+00 4.7157484275e+00 
494500 4.6780995937e+00 -3.2257758355e-04 2.7226445512e+00 -4.7157586937e+00 2.7226445512e+00 4.7157586937e+00 
494600 4.6780995917e+00 -3.2240479339e-04 2.7226504752e+00 -4.7157689543e+00 2.7226504752e+00 4.7157689543e+00 
494700 4.6780995897e+00 -3.2223209305e-04 2.7226563960e+00 -4.7157792094e+00 2.7226563960e+00 4.7157792094e+00 
494800 4.6780995877e+00 -3.2205948249e-04 2.7226623136e+00 -4.7157894590e+00 2.7226623136e+00 4.7157894590e+00 
494900 4.6780995857e+00 -3.2188696165e-04 2.7226682280e+00 -4.7157997031e+00 2.7226682280e+00 4.7157997031e+00 
495000 4.6780995837e+00 -3.2171453050e-04 2.7226741393e+00 -4.7158099417e+00 2.7226741393e+00 4.7158099417e+00 
495100 4.6780995817e+00 -3.2154218900e-04 2.7226800473e+00 -4.7158201747e+00 2.7226800473e+00 4.7158201747e+00 
495200 4.6780995797e+00 -3.2136993709e-04 2.7226859522e+00 -4.7158304023e+00 2.7226859522e+00 4.7158304023e+00 
495300 4.6780995777e+00 -3.2119777475e-04 2.7226918539e+00 -4.7158406244e+00 2.7226918539e+00 4.7158406244e+00 
495400 4.6780995757e+00 -3.2102570192e-04 2.7226977525e+00 -4.7158508409e+00 2.7226977525e+00 4.7158508409e+00 
495500 4.6780995737e+00 -3.2085371857e-04 2.7227036478e+00 -4.7158610520e+00 2.7227036478e+00 4.7158610520e+00 
495600 4.6780995717e+00 -3.2068182465e-04 2.7227095400e+00 -4.7158712576e+00 2.7227095400e+00 4.7158712576e+00 
495700 4.6780995697e+00 -3.2051002011e-04 2.7227154290e+00 -4.7158814577e+00 2.7227154290e+00 4.7158814577e+00 
495800 4.6780995677e+00 -3.2033830492e-04 2.7227213149e+00 -4.7158916523e+00 2.7227213149e+00 4.7158916523e+00 
495900 4.6780995657e+00 -3.2016667903e-04 2.7227271976e+00 -4.7159018414e+00 2.7227271976e+00 4.7159018414e+00 
496000 4.6780995637e+00 -3.1999514239e-04 2.7227330771e+00 -4.7159120250e+00 2.7227330771e+00 4.7159120250e+00 
496100 4.6780995618e+00 -3.1982369498e-04 2.7227389535e+00 -4.7159222032e+00 2.7227389535e+00 4.7159222032e+00 
496200 4.6780995598e+00 -3.1965233673e-04 2.7227448267e+00 -4.7159323758e+00 2.7227448267e+00 4.7159323758e+00 
496300 4.6780995578e+00 -3.1948106762e-04 2.7227506967e+00 -4.7159425431e+00 2.7227506967e+00 4.7159425431e+00 
496400 4.6780995558e+00 -3.1930988759e-04 2.7227565636e+00 -4.7159527048e+00 2.7227565636e+00 4.7159527048e+00 
496500 4.6780995539e+00 -3.1913879661e-04 2.7227624273e+00 -4.7159628611e+00 2.7227624273e+00 4.7159628611e+00 
496600 4.6780995519e+00 -3.1896779463e-04 2.7227682879e+00 -4.7159730119e+00 2.7227682879e+00 4.7159730119e+00 
496700 4.6780995499e+00 -3.1879688161e-04 2.7227741453e+00 -4.7159831572e+00 2.7227741453e+00 4.7159831572e+00 
496800 4.6780995480e+00 -3.1862605750e-04 2.7227799996e+00 -4.7159932971e+00 2.7227799996e+00 4.7159932971e+00 
496900 4.6780995460e+00 -3.1845532227e-04 2.7227858507e+00 -4.7160034315e+00 2.7227858507e+00 4.7160034315e+00 
497000 4.6780995440e+00 -3.1828467587e-04 2.7227916987e+00 -4.7160135605e+00 2.7227916987e+00 4.7160135605e+00 
497100 4.6780995421e+00 -3.1811411825e-04 2.7227975435e+00 -4.7160236841e+00 2.7227975435e+00 4.7160236841e+00 
497200 4.6780995401e+00 -3.1794364939e-04 2.7228033852e+00 -4.7160338021e+00 2.7228033852e+00 4.7160338021e+00 
497300 4.6780995382e+00 -3.1777326922e-04 2.7228092237e+00 -4.7160439148e+00 2.7228092237e+00 4.7160439148e+00 
497400 4.6780995362e+00 -3.1760297772e-04 2.7228150591e+00 -4.7160540220e+00 2.7228150591e+00 4.7160540220e+00 
497500 4.6780995343e+00 -3.1743277483e-04 2.7228208914e+00 -4.7160641238e+00 2.7228208914e+00 4.7160641238e+00 
497600 4.6780995323e+00 -3.1726266051e-04 2.7228267205e+00 -4.7160742201e+00 2.7228267205e+00 4.7160742201e+00 
497700 4.6780995304e+00 -3.1709263473e-04 2.7228325465e+00 -4.7160843110e+00 2.7228325465e+00 4.7160843110e+00 
497800 4.6780995284e+00 -3.1692269744e-04 2.7228383693e+00 -4.7160943964e+00 2.7228383693e+00 4.7160943964e+00 
497900 4.6780995265e+00 -3.1675284860e-04 2.7228441890e+00 -4.7161044765e+00 2.7228441890e+00 4.7161044765e+00 
498000 4.6780995245e+00 -3.1658308816e-04 2.7228500056e+00 -4.7161145511e+00 2.7228500056e+00 4.7161145511e+00 
498100 4.6780995226e+00 -3.1641341608e-04 2.7228558191e+00 -4.7161246203e+00 2.7228558191e+00 4.7161246203e+00 
498200 4.6780995207e+00 -3.1624383233e-04 2.7228616294e+00 -4.7161346841e+00 2.7228616294e+00 4.7161346841e+00 
498300 4.6780995187e+00 -3.1607433684e-04 2.7228674366e+00 -4.7161447424e+00 2.7228674366e+00 4.7161447424e+00 
498400 4.6780995168e+00 -3.1590492960e-04 2.7228732407e+00 -4.7161547954e+00 2.7228732407e+00 4.7161547954e+00 
498500 4.6780995149e+00 -3.1573561054e-04 2.7228790416e+00 -4.7161648429e+00 2.7228790416e+00 4.7161648429e+00 
498600 4.6780995129e+00 -3.1556637964e-04 2.7228848394e+00 -4.7161748851e+00 2.7228848394e+00 4.7161748851e+00 
498700 4.6780995110e+00 -3.1539723684e-04 2.7228906341e+00 -4.7161849218e+00 2.7228906341e+00 4.7161849218e+00 
498800 4.6780995091e+00 -3.1522818211e-04 2.7228964257e+00 -4.7161949531e+00 2.7228964257e+00 4.7161949531e+00 
498900 4.6780995072e+00 -3.1505921540e-04 2.7229022142e+00 -4.7162049791e+00 2.7229022142e+00 4.7162049791e+00 
499000 4.6780995052e+00 -3.1489033667e-04 2.7229079996e+00 -4.7162149996e+00 2.7229079996e+00 4.7162149996e+00 
499100 4.6780995033e+00 -3.1472154587e-04 2.7229137818e+00 -4.7162250147e+00 2.7229137818e+00 4.7162250147e+00 
499200 4.6780995014e+00 -3.1455284297e-04 2.7229195609e+00 -4.7162350245e+00 2.7229195609e+00 4.7162350245e+00 
499300 4.6780994995e+00 -3.1438422793e-04 2.7229253370e+00 -4.7162450288e+00 2.7229253370e+00 4.7162450288e+00 
499400 4.6780994976e+00 -3.1421570069e-04 2.7229311099e+00 -4.7162550278e+00 2.7229311099e+00 4.7162550278e+00 
499500 4.6780994957e+00 -3.1404726123e-04 2.7229368797e+00 -4.7162650214e+00 2.7229368797e+00 4.7162650214e+00 
499600 4.6780994938e+00 -3.1387890949e-04 2.7229426464e+00 -4.7162750097e+00 2.7229426464e+00 4.7162750097e+00 
499700 4.6780994919e+00 -3.1371064543e-04 2.7229484100e+00 -4.7162849925e+00 2.7229484100e+00 4.7162849925e+00 
499800 4.6780994899e+00 -3.1354246901e-04 2.7229541705e+00 -4.7162949700e+00 2.7229541705e+00 4.7162949700e+00 
499900 4.6780994880e+00 -3.1337438020e-04 2.7229599279e+00 -4.7163049421e+00 2.7229599279e+00 4.7163049421e+00 
500000 4.6780994861e+00 -3.1320637893e-04 2.7229656822e+00 -4.7163149088e+00 2.7229656822e+00 4.7163149088e+00 
500100 4.6780994842e+00 -3.1303846519e-04 2.7229714334e+00 -4.7163248702e+00 2.7229714334e+00 4.7163248702e+00 
500200 4.6780994824e+00 -3.1287063892e-04 2.7229771815e+00 -4.7163348262e+00 2.7229771815e+00 4.7163348262e+00 
500300 4.6780994805e+00 -3.1270290007e-04 2.7229829265e+00 -4.7163447769e+00 2.7229829265e+00 4.7163447769e+00 
500400 4.6780994786e+00 -3.1253524862e-04 2.7229886684e+00 -4.7163547222e+00 2.7229886684e+00 4.7163547222e+00 
500500 4.6780994767e+00 -3.1236768451e-04 2.7229944073e+00 -4.7163646621e+00 2.7229944073e+00 4.7163646621e+00 
500600 4.6780994748e+00 -3.1220020770e-04 2.7230001430e+00 -4.7163745967e+00 2.7230001430e+00 4.7163745967e+00 
500700 4.6780994729e+00 -3.1203281816e-04 2.7230058757e+00 -4.7163845259e+00 2.7230058757e+00 4.7163845259e+00 
500800 4.6780994710e+00 -3.1186551583e-04 2.7230116052e+00 -4.7163944498e+00 2.7230116052e+00 4.7163944498e+00 
500900 4.6780994691e+00 -3.1169830068e-04 2.7230173317e+00 -4.7164043684e+00 2.7230173317e+00 4.7164043684e+00 
501000 4.6780994673e+00 -3.1153117267e-04 2.7230230551e+00 -4.7164142816e+00 2.7230230551e+00 4.7164142816e+00 
501100 4.6780994654e+00 -3.1136413175e-04 2.7230287754e+00 -4.7164241895e+00 2.7230287754e+00 4.7164241895e+00 
501200 4.6780994635e+00 -3.1119717788e-04 2.7230344927e+00 -4.7164340921e+00 2.7230344927e+00 4.7164340921e+00 
501300 4.6780994616e+00 -3.1103031102e-04 2.7230402068e+00 -4.7164439893e+00 2.7230402068e+00 4.7164439893e+00 
501400 4.6780994598e+00 -3.1086353113e-04 2.7230459179e+00 -4.7164538812e+00 2.7230459179e+00 4.7164538812e+00 
501500 4.6780994579e+00 -3.1069683817e-04 2.7230516259e+00 -4.7164637677e+00 2.7230516259e+00 4.7164637677e+00 
501600 4.6780994560e+00 -3.1053023208e-04 2.7230573309e+00 -4.7164736490e+00 2.7230573309e+00 4.7164736490e+00 
501700 4.6780994542e+00 -3.1036371284e-04 2.7230630327e+00 -4.7164835249e+00 2.7230630327e+00 4.7164835249e+00 
501800 4.6780994523e+00 -3.1019728040e-04 2.7230687315e+00 -4.7164933955e+00 2.7230687315e+00 4.7164933955e+00 
501900 4.6780994504e+00 -3.1003093471e-04 2.7230744273e+00 -4.7165032608e+00 2.7230744273e+00 4.7165032608e+00 
502000 4.6780994486e+00 -3.0986467574e-04 2.7230801199e+00 -4.7165131208e+00 2.7230801199e+00 4.7165131208e+00 
502100 4.6780994467e+00 -3.0969850344e-04 2.7230858095e+00 -4.7165229755e+00 2.7230858095e+00 4.7165229755e+00 
502200 4.6780994449e+00 -3.0953241777e-04 2.7230914961e+00 -4.7165328249e+00 2.7230914961e+00 4.7165328249e+00 
502300 4.6780994430e+00 -3.0936641870e-04 2.7230971796e+00 -4.7165426689e+00 2.7230971796e+00 4.7165426689e+00 
502400 4.6780994412e+00 -3.0920050617e-04 2.7231028600e+00 -4.7165525077e+00 2.7231028600e+00 4.7165525077e+00 
502500 4.6780994393e+00 -3.0903468014e-04 2.7231085373e+00 -4.7165623412e+00 2.7231085373e+00 4.7165623412e+00 
502600 4.6780994375e+00 -3.0886894058e-04 2.7231142116e+00 -4.7165721694e+00 2.7231142116e+00 4.7165721694e+00 
502700 4.6780994356e+00 -3.0870328745e-04 2.7231198829e+00 -4.7165819922e+00 2.7231198829e+00 4.7165819922e+00 
502800 4.6780994338e+00 -3.0853772069e-04 2.7231255511e+00 -4.7165918098e+00 2.7231255511e+00 4.7165918098e+00 
502900 4.6780994319e+00 -3.0837224027e-04 2.7231312162e+00 -4.7166016222e+00 2.7231312162e+00 4.7166016222e+00 
503000 4.6780994301e+00 -3.0820684615e-04 2.7231368783e+00 -4.7166114292e+00 2.7231368783e+00 4.7166114292e+00 
503100 4.6780994283e+00 -3.0804153829e-04 2.7231425373e+00 -4.7166212309e+00 2.7231425373e+00 4.7166212309e+00 
503200 4.6780994264e+00 -3.0787631663e-04 2.7231481933e+00 -4.7166310274e+00 2.7231481933e+00 4.7166310274e+00 
503300 4.6780994246e+00 -3.0771118115e-04 2.7231538463e+00 -4.7166408186e+00 2.7231538463e+00 4.7166408186e+00 
503400 4.6780994228e+00 -3.0754613180e-04 2.7231594962e+00 -4.7166506045e+00 2.7231594962e+00 4.7166506045e+00 
503500 4.6780994209e+00 -3.0738116854e-04 2.7231651431e+00 -4.7166603852e+00 2.7231651431e+00 4.7166603852e+00 
503600 4.6780994191e+00 -3.0721629132e-04 2.7231707869e+00 -4.7166701606e+00 2.7231707869e+00 4.7166701606e+00 
503700 4.6780994173e+00 -3.0705150011e-04 2.7231764277e+00 -4.7166799307e+00 2.7231764277e+00 4.7166799307e+00 
503800 4.6780994155e+00 -3.0688679486e-04 2.7231820654e+00 -4.7166896956e+00 2.7231820654e+00 4.7166896956e+00 
503900 4.6780994136e+00 -3.0672217554e-04 2.7231877001e+00 -4.7166994552e+00 2.7231877001e+00 4.7166994552e+00 
504000 4.6780994118e+00 -3.0655764209e-04 2.7231933318e+00 -4.7167092095e+00 2.7231933318e+00 4.7167092095e+00 
504100 4.6780994100e+00 -3.0639319448e-04 2.7231989605e+00 -4.7167189586e+00 2.7231989605e+00 4.7167189586e+00 
504200 4.6780994082e+00 -3.0622883267e-04 2.7232045861e+00 -4.7167287025e+00 2.7232045861e+00 4.7167287025e+00 
504300 4.6780994064e+00 -3.0606455662e-04 2.7232102086e+00 -4.7167384411e+00 2.7232102086e+00 4.7167384411e+00 
504400 4.6780994046e+00 -3.0590036627e-04 2.7232158282e+00 -4.7167481744e+00 2.7232158282e+00 4.7167481744e+00 
504500 4.6780994028e+00 -3.0573626160e-04 2.7232214447e+00 -4.7167579025e+00 2.7232214447e+00 4.7167579025e+00 
504600 4.6780994009e+00 -3.0557224256e-04 2.7232270582e+00 -4.7167676254e+00 2.7232270582e+00 4.7167676254e+00 
504700 4.6780993991e+00 -3.0540830911e-04 2.7232326687e+00 -4.7167773431e+00 2.7232326687e+00 4.7167773431e+00 
504800 4.6780993973e+00 -3.0524446121e-04 2.7232382762e+00 -4.7167870555e+00 2.7232382762e+00 4.7167870555e+00 
504900 4.6780993955e+00 -3.0508069881e-04 2.7232438806e+00 -4.7167967626e+00 2.7232438806e+00 4.7167967626e+00 
505000 4.6780993937e+00 -3.0491702188e-04 2.7232494820e+00 -4.7168064646e+00 2.7232494820e+00 4.7168064646e+00 
505100 4.6780993919e+00 -3.0475343037e-04 2.7232550805e+00 -4.7168161613e+00 2.7232550805e+00 4.7168161613e+00 
505200 4.6780993901e+00 -3.0458992425e-04 2.7232606758e+00 -4.7168258528e+00 2.7232606758e+00 4.7168258528e+00 
505300 4.6780993883e+00 -3.0442650346e-04 2.7232662682e+00 -4.7168355391e+00 2.7232662682e+00 4.7168355391e+00 
505400 4.6780993866e+00 -3.0426316798e-04 2.7232718576e+00 -4.7168452202e+00 2.7232718576e+00 4.7168452202e+00 
505500 4.6780993848e+00 -3.0409991775e-04 2.7232774439e+00 -4.7168548960e+00 2.7232774439e+00 4.7168548960e+00 
505600 4.6780993830e+00 -3.0393675273e-04 2.7232830273e+00 -4.7168645667e+00 2.7232830273e+00 4.7168645667e+00 
505700 4.6780993812e+00 -3.0377367290e-04 2.7232886076e+00 -4.7168742321e+00 2.7232886076e+00 4.7168742321e+00 
505800 4.6780993794e+00 -3.0361067819e-04 2.7232941850e+00 -4.7168838923e+00 2.7232941850e+00 4.7168838923e+00 
505900 4.6780993776e+00 -3.0344776858e-04 2.7232997593e+00 -4.7168935473e+00 2.7232997593e+00 4.7168935473e+00 
506000 4.6780993758e+00 -3.0328494402e-04 2.7233053306e+00 -4.7169031972e+00 2.7233053306e+00 4.7169031972e+00 
506100 4.6780993741e+00 -3.0312220447e-04 2.7233108989e+00 -4.7169128418e+00 2.7233108989e+00 4.7169128418e+00 
506200 4.6780993723e+00 -3.0295954988e-04 2.7233164643e+00 -4.7169224812e+00 2.7233164643e+00 4.7169224812e+00 
506300 4.6780993705e+00 -3.0279698023e-04 2.7233220266e+00 -4.7169321154e+00 2.7233220266e+00 4.7169321154e+00 
506400 4.6780993687e+00 -3.0263449546e-04 2.7233275859e+00 -4.7169417445e+00 2.7233275859e+00 4.7169417445e+00 
506500 4.6780993670e+00 -3.0247209554e-04 2.7233331423e+00 -4.7169513683e+00 2.7233331423e+00 4.7169513683e+00 
506600 4.6780993652e+00 -3.0230978041e-04 2.7233386956e+00 -4.7169609870e+00 2.7233386956e+00 4.7169609870e+00 
506700 4.6780993634e+00 -3.0214755006e-04 2.7233442460e+00 -4.7169706005e+00 2.7233442460e+00 4.7169706005e+00 
506800 4.6780993617e+00 -3.0198540442e-04 2.7233497933e+00 -4.7169802088e+00 2.7233497933e+00 4.7169802088e+00 
506900 4.6780993599e+00 -3.0182334346e-04 2.7233553377e+00 -4.7169898120e+00 2.7233553377e+00 4.7169898120e+00 
507000 4.6780993581e+00 -3.0166136714e-04 2.7233608791e+00 -4.7169994099e+00 2.7233608791e+00 4.7169994099e+00 
507100 4.6780993564e+00 -3.0149947542e-04 2.7233664175e+00 -4.7170090027e+00 2.7233664175e+00 4.7170090027e+00 
507200 4.6780993546e+00 -3.0133766826e-04 2.7233719529e+00 -4.7170185904e+00 2.7233719529e+00 4.7170185904e+00 
507300 4.6780993529e+00 -3.0117594561e-04 2.7233774854e+00 -4.7170281728e+00 2.7233774854e+00 4.7170281728e+00 
507400 4.6780993511e+00 -3.0101430743e-04 2.7233830148e+00 -4.7170377501e+00 2.7233830148e+00 4.7170377501e+00 
507500 4.6780993494e+00 -3.0085275369e-04 2.7233885413e+00 -4.7170473223e+00 2.7233885413e+00 4.7170473223e+00 
507600 4.6780993476e+00 -3.0069128435e-04 2.7233940648e+00 -4.7170568893e+00 2.7233940648e+00 4.7170568893e+00 
507700 4.6780993459e+00 -3.0052989935e-04 2.7233995853e+00 -4.7170664511e+00 2.7233995853e+00 4.7170664511e+00 
507800 4.6780993441e+00 -3.0036859866e-04 2.7234051029e+00 -4.7170760078e+00 2.7234051029e+00 4.7170760078e+00 
507900 4.6780993424e+00 -3.0020738224e-04 2.7234106175e+00 -4.7170855593e+00 2.7234106175e+00 4.7170855593e+00 
508000 4.6780993406e+00 -3.0004625006e-04 2.7234161291e+00 -4.7170951057e+00 2.7234161291e+00 4.7170951057e+00 
508100 4.6780993389e+00 -2.9988520205e-04 2.7234216377e+00 -4.7171046469e+00 2.7234216377e+00 4.7171046469e+00 
508200 4.6780993371e+00 -2.9972423820e-04 2.7234271434e+00 -4.7171141831e+00 2.7234271434e+00 4.7171141831e+00 
508300 4.6780993354e+00 -2.9956335845e-04 2.7234326461e+00 -4.7171237140e+00 2.7234326461e+00 4.7171237140e+00 
508400 4.6780993337e+00 -2.9940256276e-04 2.7234381458e+00 -4.7171332398e+00 2.7234381458e+00 4.7171332398e+00 
508500 4.6780993319e+00 -2.9924185110e-04 2.7234436426e+00 -4.7171427605e+00 2.7234436426e+00 4.7171427605e+00 
508600 4.6780993302e+00 -2.9908122342e-04 2.7234491364e+00 -4.7171522761e+00 2.7234491364e+00 4.7171522761e+00 
508700 4.6780993285e+00 -2.9892067969e-04 2.7234546273e+00 -4.7171617866e+00 2.7234546273e+00 4.7171617866e+00 
508800 4.6780993268e+00 -2.9876021985e-04 2.7234601152e+00 -4.7171712919e+00 2.7234601152e+00 4.7171712919e+00 
508900 4.6780993250e+00 -2.9859984388e-04 2.7234656001e+00 -4.7171807921e+00 2.7234656001e+00 4.7171807921e+00 
509000 4.6780993233e+00 -2.9843955172e-04 2.7234710821e+00 -4.7171902871e+00 2.7234710821e+00 4.7171902871e+00 
509100 4.6780993216e+00 -2.9827934334e-04 2.7234765611e+00 -4.7171997771e+00 2.7234765611e+00 4.7171997771e+00 
509200 4.6780993199e+00 -2.9811921870e-04 2.7234820372e+00 -4.7172092619e+00 2.7234820372e+00 4.7172092619e+00 
509300 4.6780993181e+00 -2.9795917776e-04 2.7234875103e+00 -4.7172187417e+00 2.7234875103e+00 4.7172187417e+00 
509400 4.6780993164e+00 -2.9779922047e-04 2.7234929805e+00 -4.7172282163e+00 2.7234929805e+00 4.7172282163e+00 
509500 4.6780993147e+00 -2.9763934680e-04 2.7234984477e+00 -4.7172376858e+00 2.7234984477e+00 4.7172376858e+00 
509600 4.6780993130e+00 -2.9747955670e-04 2.7235039120e+00 -4.7172471503e+00 2.7235039120e+00 4.7172471503e+00 
509700 4.6780993113e+00 -2.9731985014e-04 2.7235093734e+00 -4.7172566096e+00 2.7235093734e+00 4.7172566096e+00 
509800 4.6780993096e+00 -2.9716022707e-04 2.7235148318e+00 -4.7172660638e+00 2.7235148318e+00 4.7172660638e+00 
509900 4.6780993079e+00 -2.9700068745e-04 2.7235202872e+00 -4.7172755129e+00 2.7235202872e+00 4.7172755129e+00 
510000 4.6780993062e+00 -2.9684123125e-04 2.7235257397e+00 -4.7172849570e+00 2.7235257397e+00 4.7172849570e+00 
510100 4.6780993045e+00 -2.9668185841e-04 2.7235311893e+00 -4.7172943959e+00 2.7235311893e+00 4.7172943959e+00 
510200 4.6780993028e+00 -2.9652256891e-04 2.7235366360e+00 -4.7173038298e+00 2.7235366360e+00 4.7173038298e+00 
510300 4.6780993011e+00 -2.9636336270e-04 2.7235420797e+00 -4.7173132585e+00 2.7235420797e+00 4.7173132585e+00 
510400 4.6780992994e+00 -2.9620423973e-04 2.7235475204e+00 -4.7173226822e+00 2.7235475204e+00 4.7173226822e+00 
510500 4.6780992977e+00 -2.9604519998e-04 2.7235529583e+00 -4.7173321009e+00 2.7235529583e+00 4.7173321009e+00 
510600 4.6780992960e+00 -2.9588624339e-04 2.7235583932e+00 -4.7173415144e+00 2.7235583932e+00 4.7173415144e+00 
510700 4.6780992943e+00 -2.9572736993e-04 2.7235638252e+00 -4.7173509229e+00 2.7235638252e+00 4.7173509229e+00 
510800 4.6780992926e+00 -2.9556857956e-04 2.7235692542e+00 -4.7173603263e+00 2.7235692542e+00 4.7173603263e+00 
510900 4.6780992909e+00 -2.9540987223e-04 2.7235746804e+00 -4.7173697246e+00 2.7235746804e+00 4.7173697246e+00 
511000 4.6780992892e+00 -2.9525124791e-04 2.7235801036e+00 -4.7173791178e+00 2.7235801036e+00 4.7173791178e+00 
511100 4.6780992875e+00 -2.9509270656e-04 2.7235855238e+00 -4.7173885060e+00 2.7235855238e+00 4.7173885060e+00 
511200 4.6780992858e+00 -2.9493424813e-04 2.7235909412e+00 -4.7173978892e+00 2.7235909412e+00 4.7173978892e+00 
511300 4.6780992842e+00 -2.9477587259e-04 2.7235963556e+00 -4.7174072673e+00 2.7235963556e+00 4.7174072673e+00 
511400 4.6780992825e+00 -2.9461757989e-04 2.7236017672e+00 -4.7174166403e+00 2.7236017672e+00 4.7174166403e+00 
511500 4.6780992808e+00 -2.9445936999e-04 2.7236071758e+00 -4.7174260083e+00 2.7236071758e+00 4.7174260083e+00 
511600 4.6780992791e+00 -2.9430124286e-04 2.7236125815e+00 -4.7174353712e+00 2.7236125815e+00 4.7174353712e+00 
511700 4.6780992775e+00 -2.9414319845e-04 2.7236179842e+00 -4.7174447291e+00 2.7236179842e+00 4.7174447291e+00 
511800 4.6780992758e+00 -2.9398523672e-04 2.7236233841e+00 -4.7174540819e+00 2.7236233841e+00 4.7174540819e+00 
511900 4.6780992741e+00 -2.9382735763e-04 2.7236287810e+00 -4.7174634297e+00 2.7236287810e+00 4.7174634297e+00 
512000 4.6780992724e+00 -2.9366956115e-04 2.7236341751e+00 -4.7174727725e+00 2.7236341751e+00 4.7174727725e+00 
512100 4.6780992708e+00 -2.9351184723e-04 2.7236395662e+00 -4.7174821102e+00 2.7236395662e+00 4.7174821102e+00 
512200 4.6780992691e+00 -2.9335421583e-04 2.7236449545e+00 -4.7174914429e+00 2.7236449545e+00 4.7174914429e+00 
512300 4.6780992674e+00 -2.9319666690e-04 2.7236503398e+00 -4.7175007705e+00 2.7236503398e+00 4.7175007705e+00 
512400 4.6780992658e+00 -2.9303920042e-04 2.7236557222e+00 -4.7175100932e+00 2.7236557222e+00 4.7175100932e+00 
512500 4.6780992641e+00 -2.9288181634e-04 2.7236611017e+00 -4.7175194108e+00 2.7236611017e+00 4.7175194108e+00 
512600 4.6780992625e+00 -2.9272451462e-04 2.7236664783e+00 -4.7175287234e+00 2.7236664783e+00 4.7175287234e+00 
512700 4.6780992608e+00 -2.9256729522e-04 2.7236718521e+00 -4.7175380309e+00 2.7236718521e+00 4.7175380309e+00 
512800 4.6780992592e+00 -2.9241015810e-04 2.7236772229e+00 -4.7175473335e+00 2.7236772229e+00 4.7175473335e+00 
512900 4.6780992575e+00 -2.9225310322e-04 2.7236825908e+00 -4.7175566310e+00 2.7236825908e+00 4.7175566310e+00 
513000 4.6780992559e+00 -2.9209613054e-04 2.7236879559e+00 -4.7175659235e+00 2.7236879559e+00 4.7175659235e+00 
513100 4.6780992542e+00 -2.9193924002e-04 2.7236933180e+00 -4.7175752110e+00 2.7236933180e+00 4.7175752110e+00 
513200 4.6780992526e+00 -2.9178243161e-04 2.7236986773e+00 -4.7175844935e+00 2.7236986773e+00 4.7175844935e+00 
513300 4.6780992509e+00 -2.9162570529e-04 2.7237040336e+00 -4.7175937710e+00 2.7237040336e+00 4.7175937710e+00 
513400 4.6780992493e+00 -2.9146906100e-04 2.7237093871e+00 -4.7176030435e+00 2.7237093871e+00 4.7176030435e+00 
513500 4.6780992476e+00 -2.9131249871e-04 2.7237147377e+00 -4.7176123110e+00 2.7237147377e+00 4.7176123110e+00 
513600 4.6780992460e+00 -2.9115601838e-04 2.7237200854e+00 -4.7176215735e+00 2.7237200854e+00 4.7176215735e+00 
513700 4.6780992443e+00 -2.9099961996e-04 2.7237254302e+00 -4.7176308310e+00 2.7237254302e+00 4.7176308310e+00 
513800 4.6780992427e+00 -2.9084330343e-04 2.7237307722e+00 -4.7176400835e+00 2.7237307722e+00 4.7176400835e+00 
513900 4.6780992411e+00 -2.9068706873e-04 2.7237361112e+00 -4.7176493311e+00 2.7237361112e+00 4.7176493311e+00 
514000 4.6780992394e+00 -2.9053091583e-04 2.7237414474e+00 -4.7176585736e+00 2.7237414474e+00 4.7176585736e+00 
514100 4.6780992378e+00 -2.9037484469e-04 2.7237467807e+00 -4.7176678112e+00 2.7237467807e+00 4.7176678112e+00 
514200 4.6780992362e+00 -2.9021885527e-04 2.7237521112e+00 -4.7176770438e+00 2.7237521112e+00 4.7176770438e+00 
514300 4.6780992345e+00 -2.9006294752e-04 2.7237574387e+00 -4.7176862714e+00 2.7237574387e+00 4.7176862714e+00 
514400 4.6780992329e+00 -2.8990712141e-04 2.7237627634e+00 -4.7176954940e+00 2.7237627634e+00 4.7176954940e+00 
514500 4.6780992313e+00 -2.8975137690e-04 2.7237680852e+00 -4.7177047116e+00 2.7237680852e+00 4.7177047116e+00 
514600 4.6780992297e+00 -2.8959571395e-04 2.7237734042e+00 -4.7177139243e+00 2.7237734042e+00 4.7177139243e+00 
514700 4.6780992281e+00 -2.8944013252e-04 2.7237787202e+00 -4.7177231320e+00 2.7237787202e+00 4.7177231320e+00 
514800 4.6780992264e+00 -2.8928463256e-04 2.7237840335e+00 -4.7177323348e+00 2.7237840335e+00 4.7177323348e+00 
514900 4.6780992248e+00 -2.8912921404e-04 2.7237893438e+00 -4.7177415326e+00 2.7237893438e+00 4.7177415326e+00 
515000 4.6780992232e+00 -2.8897387692e-04 2.7237946513e+00 -4.7177507254e+00 2.7237946513e+00 4.7177507254e+00 
515100 4.6780992216e+00 -2.8881862116e-04 2.7237999559e+00 -4.7177599133e+00 2.7237999559e+00 4.7177599133e+00 
515200 4.6780992200e+00 -2.8866344672e-04 2.7238052577e+00 -4.7177690962e+00 2.7238052577e+00 4.7177690962e+00 
515300 4.6780992184e+00 -2.8850835356e-04 2.7238105566e+00 -4.7177782742e+00 2.7238105566e+00 4.7177782742e+00 
515400 4.6780992168e+00 -2.8835334163e-04 2.7238158526e+00 -4.7177874472e+00 2.7238158526e+00 4.7177874472e+00 
515500 4.6780992151e+00 -2.8819841091e-04 2.7238211458e+00 -4.7177966153e+00 2.7238211458e+00 4.7177966153e+00 
515600 4.6780992135e+00 -2.8804356134e-04 2.7238264361e+00 -4.7178057784e+00 2.7238264361e+00 4.7178057784e+00 
515700 4.6780992119e+00 -2.8788879290e-04 2.7238317236e+00 -4.7178149366e+00 2.7238317236e+00 4.7178149366e+00 
515800 4.6780992103e+00 -2.8773410553e-04 2.7238370082e+00 -4.7178240898e+00 2.7238370082e+00 4.7178240898e+00 
515900 4.6780992087e+00 -2.8757949920e-04 2.7238422900e+00 -4.7178332381e+00 2.7238422900e+00 4.7178332381e+00 
516000 4.6780992071e+00 -2.8742497388e-04 2.7238475690e+00 -4.7178423815e+00 2.7238475690e+00 4.7178423815e+00 
516100 4.6780992055e+00 -2.8727052951e-04 2.7238528450e+00 -4.7178515200e+00 2.7238528450e+00 4.7178515200e+00 
516200 4.6780992039e+00 -2.8711616607e-04 2.7238581183e+00 -4.7178606535e+00 2.7238581183e+00 4.7178606535e+00 
516300 4.6780992024e+00 -2.8696188350e-04 2.7238633887e+00 -4.7178697821e+00 2.7238633887e+00 4.7178697821e+00 
516400 4.6780992008e+00 -2.8680768178e-04 2.7238686562e+00 -4.7178789057e+00 2.7238686562e+00 4.7178789057e+00 
516500 4.6780991992e+00 -2.8665356086e-04 2.7238739210e+00 -4.7178880245e+00 2.7238739210e+00 4.7178880245e+00 
516600 4.6780991976e+00 -2.8649952070e-04 2.7238791828e+00 -4.7178971383e+00 2.7238791828e+00 4.7178971383e+00 
516700 4.6780991960e+00 -2.8634556127e-04 2.7238844419e+00 -4.7179062473e+00 2.7238844419e+00 4.7179062473e+00 
516800 4.6780991944e+00 -2.8619168252e-04 2.7238896981e+00 -4.7179153513e+00 2.7238896981e+00 4.7179153513e+00 
516900 4.6780991928e+00 -2.8603788441e-04 2.7238949514e+00 -4.7179244504e+00 2.7238949514e+00 4.7179244504e+00 
517000 4.6780991912e+00 -2.8588416691e-04 2.7239002020e+00 -4.7179335445e+00 2.7239002020e+00 4.7179335445e+00 
517100 4.6780991897e+00 -2.8573052997e-04 2.7239054497e+00 -4.7179426338e+00 2.7239054497e+00 4.7179426338e+00 
517200 4.6780991881e+00 -2.8557697355e-04 2.7239106945e+00 -4.7179517182e+00 2.7239106945e+00 4.7179517182e+00 
517300 4.6780991865e+00 -2.8542349762e-04 2.7239159366e+00 -4.7179607977e+00 2.7239159366e+00 4.7179607977e+00 
517400 4.6780991849e+00 -2.8527010214e-04 2.7239211758e+00 -4.7179698723e+00 2.7239211758e+00 4.7179698723e+00 
517500 4.6780991834e+00 -2.8511678706e-04 2.7239264122e+00 -4.7179789420e+00 2.7239264122e+00 4.7179789420e+00 
517600 4.6780991818e+00 -2.8496355235e-04 2.7239316457e+00 -4.7179880068e+00 2.7239316457e+00 4.7179880068e+00 
517700 4.6780991802e+00 -2.8481039796e-04 2.7239368765e+00 -4.7179970667e+00 2.7239368765e+00 4.7179970667e+00 
517800 4.6780991787e+00 -2.8465732387e-04 2.7239421044e+00 -4.7180061217e+00 2.7239421044e+00 4.7180061217e+00 
517900 4.6780991771e+00 -2.8450433002e-04 2.7239473295e+00 -4.7180151718e+00 2.7239473295e+00 4.7180151718e+00 
518000 4.6780991755e+00 -2.8435141638e-04 2.7239525518e+00 -4.7180242171e+00 2.7239525518e+00 4.7180242171e+00 
518100 4.6780991740e+00 -2.8419858291e-04 2.7239577713e+00 -4.7180332575e+00 2.7239577713e+00 4.7180332575e+00 
518200 4.6780991724e+00 -2.8404582958e-04 2.7239629879e+00 -4.7180422930e+00 2.7239629879e+00 4.7180422930e+00 
518300 4.6780991708e+00 -2.8389315633e-04 2.7239682017e+00 -4.7180513236e+00 2.7239682017e+00 4.7180513236e+00 
518400 4.6780991693e+00 -2.8374056313e-04 2.7239734128e+00 -4.7180603494e+00 2.7239734128e+00 4.7180603494e+00 
518500 4.6780991677e+00 -2.8358804995e-04 2.7239786210e+00 -4.7180693703e+00 2.7239786210e+00 4.7180693703e+00 
518600 4.6780991662e+00 -2.8343561674e-04 2.7239838264e+00 -4.7180783863e+00 2.7239838264e+00 4.7180783863e+00 
518700 4.6780991646e+00 -2.8328326346e-04 2.7239890290e+00 -4.7180873974e+00 2.7239890290e+00 4.7180873974e+00 
518800 4.6780991631e+00 -2.8313099008e-04 2.7239942288e+00 -4.7180964037e+00 2.7239942288e+00 4.7180964037e+00 
518900 4.6780991615e+00 -2.8297879655e-04 2.7239994257e+00 -4.7181054052e+00 2.7239994257e+00 4.7181054052e+00 
519000 4.6780991600e+00 -2.8282668284e-04 2.7240046199e+00 -4.7181144018e+00 2.7240046199e+00 4.7181144018e+00 
519100 4.6780991584e+00 -2.8267464890e-04 2.7240098113e+00 -4.7181233935e+00 2.7240098113e+00 4.7181233935e+00 
519200 4.6780991569e+00 -2.8252269470e-04 2.7240149999e+00 -4.7181323804e+00 2.7240149999e+00 4.7181323804e+00 
519300 4.6780991553e+00 -2.8237082020e-04 2.7240201857e+00 -4.7181413624e+00 2.7240201857e+00 4.7181413624e+00 
519400 4.6780991538e+00 -2.8221902536e-04 2.7240253686e+00 -4.7181503396e+00 2.7240253686e+00 4.7181503396e+00 
519500 4.6780991523e+00 -2.8206731014e-04 2.7240305488e+00 -4.7181593119e+00 2.7240305488e+00 4.7181593119e+00 
519600 4.6780991507e+00 -2.8191567450e-04 2.7240357262e+00 -4.7181682794e+00 2.7240357262e+00 4.7181682794e+00 
519700 4.6780991492e+00 -2.8176411840e-04 2.7240409008e+00 -4.7181772421e+00 2.7240409008e+00 4.7181772421e+00 
519800 4.6780991477e+00 -2.8161264180e-04 2.7240460726e+00 -4.7181861999e+00 2.7240460726e+00 4.7181861999e+00 
519900 4.6780991461e+00 -2.8146124467e-04 2.7240512416e+00 -4.7181951529e+00 2.7240512416e+00 4.7181951529e+00 
520000 4.6780991446e+00 -2.8130992696e-04 2.7240564079e+00 -4.7182041011e+00 2.7240564079e+00 4.7182041011e+00 
520100 4.6780991431e+00 -2.8115868863e-04 2.7240615713e+00 -4.7182130444e+00 2.7240615713e+00 4.7182130444e+00 
520200 4.6780991415e+00 -2.8100752965e-04 2.7240667320e+00 -4.7182219830e+00 2.7240667320e+00 4.7182219830e+00 
520300 4.6780991400e+00 -2.8085644998e-04 2.7240718898e+00 -4.7182309166e+00 2.7240718898e+00 4.7182309166e+00 
520400 4.6780991385e+00 -2.8070544958e-04 2.7240770449e+00 -4.7182398455e+00 2.7240770449e+00 4.7182398455e+00 
520500 4.6780991370e+00 -2.8055452840e-04 2.7240821972e+00 -4.7182487696e+00 2.7240821972e+00 4.7182487696e+00 
520600 4.6780991354e+00 -2.8040368641e-04 2.7240873467e+00 -4.7182576888e+00 2.7240873467e+00 4.7182576888e+00 
520700 4.6780991339e+00 -2.8025292358e-04 2.7240924935e+00 -4.7182666032e+00 2.7240924935e+00 4.7182666032e+00 
520800 4.6780991324e+00 -2.8010223985e-04 2.7240976375e+00 -4.7182755129e+00 2.7240976375e+00 4.7182755129e+00 
520900 4.6780991309e+00 -2.7995163520e-04 2.7241027787e+00 -4.7182844177e+00 2.7241027787e+00 4.7182844177e+00 
521000 4.6780991294e+00 -2.7980110959e-04 2.7241079171e+00 -4.7182933177e+00 2.7241079171e+00 4.7182933177e+00 
521100 4.6780991279e+00 -2.7965066296e-04 2.7241130527e+00 -4.7183022129e+00 2.7241130527e+00 4.7183022129e+00 
521200 4.6780991263e+00 -2.7950029530e-04 2.7241181856e+00 -4.7183111033e+00 2.7241181856e+00 4.7183111033e+00 
521300 4.6780991248e+00 -2.7935000655e-04 2.7241233157e+00 -4.7183199889e+00 2.7241233157e+00 4.7183199889e+00 
521400 4.6780991233e+00 -2.7919979668e-04 2.7241284430e+00 -4.7183288697e+00 2.7241284430e+00 4.7183288697e+00 
521500 4.6780991218e+00 -2.7904966565e-04 2.7241335676e+00 -4.7183377457e+00 2.7241335676e+00 4.7183377457e+00 
521600 4.6780991203e+00 -2.7889961342e-04 2.7241386894e+00 -4.7183466170e+00 2.7241386894e+00 4.7183466170e+00 
521700 4.6780991188e+00 -2.7874963995e-04 2.7241438085e+00 -4.7183554834e+00 2.7241438085e+00 4.7183554834e+00 
521800 4.6780991173e+00 -2.7859974520e-04 2.7241489248e+00 -4.7183643451e+00 2.7241489248e+00 4.7183643451e+00 
521900 4.6780991158e+00 -2.7844992914e-04 2.7241540383e+00 -4.7183732019e+00 2.7241540383e+00 4.7183732019e+00 
522000 4.6780991143e+00 -2.7830019172e-04 2.7241591490e+00 -4.7183820540e+00 2.7241591490e+00 4.7183820540e+00 
522100 4.6780991128e+00 -2.7815053291e-04 2.7241642570e+00 -4.7183909014e+00 2.7241642570e+00 4.7183909014e+00 
522200 4.6780991113e+00 -2.7800095267e-04 2.7241693623e+00 -4.7183997439e+00 2.7241693623e+00 4.7183997439e+00 
522300 4.6780991098e+00 -2.7785145095e-04 2.7241744648e+00 -4.7184085817e+00 2.7241744648e+00 4.7184085817e+00 
522400 4.6780991083e+00 -2.7770202773e-04 2.7241795645e+00 -4.7184174147e+00 2.7241795645e+00 4.7184174147e+00 
522500 4.6780991068e+00 -2.7755268296e-04 2.7241846615e+00 -4.7184262429e+00 2.7241846615e+00 4.7184262429e+00 
522600 4.6780991054e+00 -2.7740341660e-04 2.7241897557e+00 -4.7184350664e+00 2.7241897557e+00 4.7184350664e+00 
522700 4.6780991039e+00 -2.7725422862e-04 2.7241948472e+00 -4.7184438851e+00 2.7241948472e+00 4.7184438851e+00 
522800 4.6780991024e+00 -2.7710511897e-04 2.7241999360e+00 -4.7184526991e+00 2.7241999360e+00 4.7184526991e+00 
522900 4.6780991009e+00 -2.7695608761e-04 2.7242050220e+00 -4.7184615083e+00 2.7242050220e+00 4.7184615083e+00 
523000 4.6780990994e+00 -2.7680713452e-04 2.7242101052e+00 -4.7184703127e+00 2.7242101052e+00 4.7184703127e+00 
523100 4.6780990979e+00 -2.7665825965e-04 2.7242151857e+00 -4.7184791124e+00 2.7242151857e+00 4.7184791124e+00 
523200 4.6780990965e+00 -2.7650946295e-04 2.7242202635e+00 -4.7184879073e+00 2.7242202635e+00 4.7184879073e+00 
523300 4.6780990950e+00 -2.7636074440e-04 2.7242253385e+00 -4.7184966975e+00 2.7242253385e+00 4.7184966975e+00 
523400 4.6780990935e+00 -2.7621210395e-04 2.7242304108e+00 -4.7185054830e+00 2.7242304108e+00 4.7185054830e+00 
523500 4.6780990920e+00 -2.7606354157e-04 2.7242354803e+00 -4.7185142637e+00 2.7242354803e+00 4.7185142637e+00 
523600 4.6780990906e+00 -2.7591505722e-04 2.7242405471e+00 -4.7185230397e+00 2.7242405471e+00 4.7185230397e+00 
523700 4.6780990891e+00 -2.7576665085e-04 2.7242456112e+00 -4.7185318109e+00 2.7242456112e+00 4.7185318109e+00 
523800 4.6780990876e+00 -2.7561832243e-04 2.7242506725e+00 -4.7185405774e+00 2.7242506725e+00 4.7185405774e+00 
523900 4.6780990861e+00 -2.7547007193e-04 2.7242557312e+00 -4.7185493392e+00 2.7242557312e+00 4.7185493392e+00 
524000 4.6780990847e+00 -2.7532189929e-04 2.7242607870e+00 -4.7185580962e+00 2.7242607870e+00 4.7185580962e+00 
524100 4.6780990832e+00 -2.7517380450e-04 2.7242658402e+00 -4.7185668485e+00 2.7242658402e+00 4.7185668485e+00 
524200 4.6780990818e+00 -2.7502578749e-04 2.7242708906e+00 -4.7185755961e+00 2.7242708906e+00 4.7185755961e+00 
524300 4.6780990803e+00 -2.7487784825e-04 2.7242759383e+00 -4.7185843390e+00 2.7242759383e+00 4.7185843390e+00 
524400 4.6780990788e+00 -2.7472998672e-04 2.7242809833e+00 -4.7185930771e+00 2.7242809833e+00 4.7185930771e+00 
524500 4.6780990774e+00 -2.7458220288e-04 2.7242860255e+00 -4.7186018106e+00 2.7242860255e+00 4.7186018106e+00 
524600 4.6780990759e+00 -2.7443449667e-04 2.7242910651e+00 -4.7186105393e+00 2.7242910651e+00 4.7186105393e+00 
524700 4.6780990745e+00 -2.7428686807e-04 2.7242961019e+00 -4.7186192633e+00 2.7242961019e+00 4.7186192633e+00 
524800 4.6780990730e+00 -2.7413931704e-04 2.7243011359e+00 -4.7186279826e+00 2.7243011359e+00 4.7186279826e+00 
524900 4.6780990716e+00 -2.7399184353e-04 2.7243061673e+00 -4.7186366972e+00 2.7243061673e+00 4.7186366972e+00 
525000 4.6780990701e+00 -2.7384444752e-04 2.7243111960e+00 -4.7186454071e+00 2.7243111960e+00 4.7186454071e+00 
525100 4.6780990687e+00 -2.7369712895e-04 2.7243162219e+00 -4.7186541122e+00 2.7243162219e+00 4.7186541122e+00 
525200 4.6780990672e+00 -2.7354988780e-04 2.7243212451e+00 -4.7186628127e+00 2.7243212451e+00 4.7186628127e+00 
525300 4.6780990658e+00 -2.7340272401e-04 2.7243262657e+00 -4.7186715085e+00 2.7243262657e+00 4.7186715085e+00 
525400 4.6780990643e+00 -2.7325563757e-04 2.7243312835e+00 -4.7186801996e+00 2.7243312835e+00 4.7186801996e+00 
525500 4.6780990629e+00 -2.7310862842e-04 2.7243362986e+00 -4.7186888860e+00 2.7243362986e+00 4.7186888860e+00 
525600 4.6780990614e+00 -2.7296169653e-04 2.7243413110e+00 -4.7186975677e+00 2.7243413110e+00 4.7186975677e+00 
525700 4.6780990600e+00 -2.7281484187e-04 2.7243463206e+00 -4.7187062448e+00 2.7243463206e+00 4.7187062448e+00 
525800 4.6780990586e+00 -2.7266806438e-04 2.7243513276e+00 -4.7187149171e+00 2.7243513276e+00 4.7187149171e+00 
525900 4.6780990571e+00 -2.7252136404e-04 2.7243563319e+00 -4.7187235848e+00 2.7243563319e+00 4.7187235848e+00 
526000 4.6780990557e+00 -2.7237474081e-04 2.7243613335e+00 -4.7187322477e+00 2.7243613335e+00 4.7187322477e+00 
526100 4.6780990543e+00 -2.7222819465e-04 2.7243663323e+00 -4.7187409060e+00 2.7243663323e+00 4.7187409060e+00 
526200 4.6780990528e+00 -2.7208172551e-04 2.7243713285e+00 -4.7187495597e+00 2.7243713285e+00 4.7187495597e+00 
526300 4.6780990514e+00 -2.7193533337e-04 2.7243763220e+00 -4.7187582086e+00 2.7243763220e+00 4.7187582086e+00 
526400 4.6780990500e+00 -2.7178901818e-04 2.7243813128e+00 -4.7187668529e+00 2.7243813128e+00 4.7187668529e+00 
526500 4.6780990485e+00 -2.7164277991e-04 2.7243863009e+00 -4.7187754925e+00 2.7243863009e+00 4.7187754925e+00 
526600 4.6780990471e+00 -2.7149661852e-04 2.7243912863e+00 -4.7187841275e+00 2.7243912863e+00 4.7187841275e+00 
526700 4.6780990457e+00 -2.7135053396e-04 2.7243962690e+00 -4.7187927578e+00 2.7243962690e+00 4.7187927578e+00 
526800 4.6780990443e+00 -2.7120452621e-04 2.7244012490e+00 -4.7188013834e+00 2.7244012490e+00 4.7188013834e+00 
526900 4.6780990428e+00 -2.7105859522e-04 2.7244062263e+00 -4.7188100044e+00 2.7244062263e+00 4.7188100044e+00 
527000 4.6780990414e+00 -2.7091274096e-04 2.7244112009e+00 -4.7188186207e+00 2.7244112009e+00 4.7188186207e+00 
527100 4.6780990400e+00 -2.7076696338e-04 2.7244161729e+00 -4.7188272324e+00 2.7244161729e+00 4.7188272324e+00 
527200 4.6780990386e+00 -2.7062126246e-04 2.7244211422e+00 -4.7188358394e+00 2.7244211422e+00 4.7188358394e+00 
527300 4.6780990372e+00 -2.7047563814e-04 2.7244261087e+00 -4.7188444418e+00 2.7244261087e+00 4.7188444418e+00 
527400 4.6780990358e+00 -2.7033009040e-04 2.7244310726e+00 -4.7188530395e+00 2.7244310726e+00 4.7188530395e+00 
527500 4.6780990343e+00 -2.7018461920e-04 2.7244360339e+00 -4.7188616326e+00 2.7244360339e+00 4.7188616326e+00 
527600 4.6780990329e+00 -2.7003922450e-04 2.7244409924e+00 -4.7188702211e+00 2.7244409924e+00 4.7188702211e+00 
527700 4.6780990315e+00 -2.6989390625e-04 2.7244459483e+00 -4.7188788049e+00 2.7244459483e+00 4.7188788049e+00 
527800 4.6780990301e+00 -2.6974866443e-04 2.7244509015e+00 -4.7188873841e+00 2.7244509015e+00 4.7188873841e+00 
527900 4.6780990287e+00 -2.6960349899e-04 2.7244558520e+00 -4.7188959586e+00 2.7244558520e+00 4.7188959586e+00 
528000 4.6780990273e+00 -2.6945840990e-04 2.7244607998e+00 -4.7189045285e+00 2.7244607998e+00 4.7189045285e+00 
528100 4.6780990259e+00 -2.6931339711e-04 2.7244657450e+00 -4.7189130938e+00 2.7244657450e+00 4.7189130938e+00 
528200 4.6780990245e+00 -2.6916846060e-04 2.7244706875e+00 -4.7189216545e+00 2.7244706875e+00 4.7189216545e+00 
528300 4.6780990231e+00 -2.6902360032e-04 2.7244756273e+00 -4.7189302105e+00 2.7244756273e+00 4.7189302105e+00 
528400 4.6780990217e+00 -2.6887881624e-04 2.7244805645e+00 -4.7189387619e+00 2.7244805645e+00 4.7189387619e+00 
528500 4.6780990203e+00 -2.6873410831e-04 2.7244854990e+00 -4.7189473087e+00 2.7244854990e+00 4.7189473087e+00 
528600 4.6780990189e+00 -2.6858947650e-04 2.7244904308e+00 -4.7189558509e+00 2.7244904308e+00 4.7189558509e+00 
528700 4.6780990175e+00 -2.6844492078e-04 2.7244953600e+00 -4.7189643885e+00 2.7244953600e+00 4.7189643885e+00 
528800 4.6780990161e+00 -2.6830044110e-04 2.7245002865e+00 -4.7189729215e+00 2.7245002865e+00 4.7189729215e+00 
528900 4.6780990147e+00 -2.6815603743e-04 2.7245052104e+00 -4.7189814498e+00 2.7245052104e+00 4.7189814498e+00 
529000 4.6780990133e+00 -2.6801170972e-04 2.7245101315e+00 -4.7189899736e+00 2.7245101315e+00 4.7189899736e+00 
529100 4.6780990120e+00 -2.6786745795e-04 2.7245150501e+00 -4.7189984927e+00 2.7245150501e+00 4.7189984927e+00 
529200 4.6780990106e+00 -2.6772328207e-04 2.7245199660e+00 -4.7190070073e+00 2.7245199660e+00 4.7190070073e+00 
529300 4.6780990092e+00 -2.6757918204e-04 2.7245248792e+00 -4.7190155172e+00 2.7245248792e+00 4.7190155172e+00 
529400 4.6780990078e+00 -2.6743515784e-04 2.7245297897e+00 -4.7190240226e+00 2.7245297897e+00 4.7190240226e+00 
529500 4.6780990064e+00 -2.6729120941e-04 2.7245346977e+00 -4.7190325233e+00 2.7245346977e+00 4.7190325233e+00 
529600 4.6780990050e+00 -2.6714733673e-04 2.7245396029e+00 -4.7190410195e+00 2.7245396029e+00 4.7190410195e+00 
529700 4.6780990037e+00 -2.6700353975e-04 2.7245445055e+00 -4.7190495111e+00 2.7245445055e+00 4.7190495111e+00 
529800 4.6780990023e+00 -2.6685981844e-04 2.7245494055e+00 -4.7190579981e+00 2.7245494055e+00 4.7190579981e+00 
529900 4.6780990009e+00 -2.6671617276e-04 2.7245543028e+00 -4.7190664805e+00 2.7245543028e+00 4.7190664805e+00 
530000 4.6780989995e+00 -2.6657260268e-04 2.7245591975e+00 -4.7190749583e+00 2.7245591975e+00 4.7190749583e+00 
530100 4.6780989982e+00 -2.6642910815e-04 2.7245640895e+00 -4.7190834316e+00 2.7245640895e+00 4.7190834316e+00 
530200 4.6780989968e+00 -2.6628568914e-04 2.7245689789e+00 -4.7190919002e+00 2.7245689789e+00 4.7190919002e+00 
530300 4.6780989954e+00 -2.6614234560e-04 2.7245738657e+00 -4.7191003643e+00 2.7245738657e+00 4.7191003643e+00 
530400 4.6780989941e+00 -2.6599907751e-04 2.7245787498e+00 -4.7191088239e+00 2.7245787498e+00 4.7191088239e+00 
530500 4.6780989927e+00 -2.6585588483e-04 2.7245836313e+00 -4.7191172788e+00 2.7245836313e+00 4.7191172788e+00 
530600 4.6780989913e+00 -2.6571276751e-04 2.7245885101e+00 -4.7191257292e+00 2.7245885101e+00 4.7191257292e+00 
530700 4.6780989900e+00 -2.6556972553e-04 2.7245933863e+00 -4.7191341750e+00 2.7245933863e+00 4.7191341750e+00 
530800 4.6780989886e+00 -2.6542675883e-04 2.7245982599e+00 -4.7191426163e+00 2.7245982599e+00 4.7191426163e+00 
530900 4.6780989872e+00 -2.6528386739e-04 2.7246031308e+00 -4.7191510530e+00 2.7246031308e+00 4.7191510530e+00 
531000 4.6780989859e+00 -2.6514105118e-04 2.7246079991e+00 -4.7191594852e+00 2.7246079991e+00 4.7191594852e+00 
531100 4.6780989845e+00 -2.6499831014e-04 2.7246128648e+00 -4.7191679128e+00 2.7246128648e+00 4.7191679128e+00 
531200 4.6780989832e+00 -2.6485564424e-04 2.7246177278e+00 -4.7191763358e+00 2.7246177278e+00 4.7191763358e+00 
531300 4.6780989818e+00 -2.6471305345e-04 2.7246225883e+00 -4.7191847543e+00 2.7246225883e+00 4.7191847543e+00 
531400 4.6780989805e+00 -2.6457053773e-04 2.7246274460e+00 -4.7191931682e+00 2.7246274460e+00 4.7191931682e+00 
531500 4.6780989791e+00 -2.6442809704e-04 2.7246323012e+00 -4.7192015776e+00 2.7246323012e+00 4.7192015776e+00 
531600 4.6780989777e+00 -2.6428573135e-04 2.7246371538e+00 -4.7192099825e+00 2.7246371538e+00 4.7192099825e+00 
531700 4.6780989764e+00 -2.6414344061e-04 2.7246420037e+00 -4.7192183828e+00 2.7246420037e+00 4.7192183828e+00 
531800 4.6780989751e+00 -2.6400122480e-04 2.7246468510e+00 -4.7192267786e+00 2.7246468510e+00 4.7192267786e+00 
531900 4.6780989737e+00 -2.6385908386e-04 2.7246516957e+00 -4.7192351699e+00 2.7246516957e+00 4.7192351699e+00 
532000 4.6780989724e+00 -2.6371701777e-04 2.7246565378e+00 -4.7192435566e+00 2.7246565378e+00 4.7192435566e+00 
532100 4.6780989710e+00 -2.6357502649e-04 2.7246613772e+00 -4.7192519388e+00 2.7246613772e+00 4.7192519388e+00 
532200 4.6780989697e+00 -2.6343310998e-04 2.7246662141e+00 -4.7192603164e+00 2.7246662141e+00 4.7192603164e+00 
532300 4.6780989683e+00 -2.6329126820e-04 2.7246710483e+00 -4.7192686895e+00 2.7246710483e+00 4.7192686895e+00 
532400 4.6780989670e+00 -2.6314950112e-04 2.7246758799e+00 -4.7192770581e+00 2.7246758799e+00 4.7192770581e+00 
532500 4.6780989657e+00 -2.6300780870e-04 2.7246807089e+00 -4.7192854222e+00 2.7246807089e+00 4.7192854222e+00 
532600 4.6780989643e+00 -2.6286619090e-04 2.7246855353e+00 -4.7192937818e+00 2.7246855353e+00 4.7192937818e+00 
532700 4.6780989630e+00 -2.6272464768e-04 2.7246903591e+00 -4.7193021368e+00 2.7246903591e+00 4.7193021368e+00 
532800 4.6780989617e+00 -2.6258317902e-04 2.7246951803e+00 -4.7193104874e+00 2.7246951803e+00 4.7193104874e+00 
532900 4.6780989603e+00 -2.6244178486e-04 2.7246999989e+00 -4.7193188334e+00 2.7246999989e+00 4.7193188334e+00 
533000 4.6780989590e+00 -2.6230046518e-04 2.7247048148e+00 -4.7193271749e+00 2.7247048148e+00 4.7193271749e+00 
533100 4.6780989577e+00 -2.6215921994e-04 2.7247096282e+00 -4.7193355119e+00 2.7247096282e+00 4.7193355119e+00 
533200 4.6780989563e+00 -2.6201804909e-04 2.7247144390e+00 -4.7193438444e+00 2.7247144390e+00 4.7193438444e+00 
533300 4.6780989550e+00 -2.6187695261e-04 2.7247192472e+00 -4.7193521725e+00 2.7247192472e+00 4.7193521725e+00 
533400 4.6780989537e+00 -2.6173593045e-04 2.7247240527e+00 -4.7193604960e+00 2.7247240527e+00 4.7193604960e+00 
533500 4.6780989524e+00 -2.6159498258e-04 2.7247288557e+00 -4.7193688150e+00 2.7247288557e+00 4.7193688150e+00 
533600 4.6780989510e+00 -2.6145410897e-04 2.7247336561e+00 -4.7193771295e+00 2.7247336561e+00 4.7193771295e+00 
533700 4.6780989497e+00 -2.6131330956e-04 2.7247384539e+00 -4.7193854395e+00 2.7247384539e+00 4.7193854395e+00 
533800 4.6780989484e+00 -2.6117258434e-04 2.7247432491e+00 -4.7193937450e+00 2.7247432491e+00 4.7193937450e+00 
533900 4.6780989471e+00 -2.6103193326e-04 2.7247480417e+00 -4.7194020461e+00 2.7247480417e+00 4.7194020461e+00 
534000 4.6780989458e+00 -2.6089135628e-04 2.7247528317e+00 -4.7194103426e+00 2.7247528317e+00 4.7194103426e+00 
534100 4.6780989444e+00 -2.6075085336e-04 2.7247576192e+00 -4.7194186347e+00 2.7247576192e+00 4.7194186347e+00 
534200 4.6780989431e+00 -2.6061042448e-04 2.7247624040e+00 -4.7194269223e+00 2.7247624040e+00 4.7194269223e+00 
534300 4.6780989418e+00 -2.6047006959e-04 2.7247671863e+00 -4.7194352054e+00 2.7247671863e+00 4.7194352054e+00 
534400 4.6780989405e+00 -2.6032978866e-04 2.7247719660e+00 -4.7194434841e+00 2.7247719660e+00 4.7194434841e+00 
534500 4.6780989392e+00 -2.6018958164e-04 2.7247767431e+00 -4.7194517582e+00 2.7247767431e+00 4.7194517582e+00 
534600 4.6780989379e+00 -2.6004944851e-04 2.7247815176e+00 -4.7194600279e+00 2.7247815176e+00 4.7194600279e+00 
534700 4.6780989366e+00 -2.5990938923e-04 2.7247862895e+00 -4.7194682932e+00 2.7247862895e+00 4.7194682932e+00 
534800 4.6780989353e+00 -2.5976940375e-04 2.7247910589e+00 -4.7194765539e+00 2.7247910589e+00 4.7194765539e+00 
534900 4.6780989340e+00 -2.5962949205e-04 2.7247958256e+00 -4.7194848102e+00 2.7247958256e+00 4.7194848102e+00 
535000 4.6780989327e+00 -2.5948965408e-04 2.7248005898e+00 -4.7194930621e+00 2.7248005898e+00 4.7194930621e+00 
535100 4.6780989314e+00 -2.5934988981e-04 2.7248053515e+00 -4.7195013095e+00 2.7248053515e+00 4.7195013095e+00 
535200 4.6780989301e+00 -2.5921019920e-04 2.7248101105e+00 -4.7195095524e+00 2.7248101105e+00 4.7195095524e+00 
535300 4.6780989288e+00 -2.5907058222e-04 2.7248148670e+00 -4.7195177909e+00 2.7248148670e+00 4.7195177909e+00 
535400 4.6780989275e+00 -2.5893103883e-04 2.7248196209e+00 -4.7195260249e+00 2.7248196209e+00 4.7195260249e+00 
535500 4.6780989262e+00 -2.5879156898e-04 2.7248243723e+00 -4.7195342544e+00 2.7248243723e+00 4.7195342544e+00 
535600 4.6780989249e+00 -2.5865217266e-04 2.7248291210e+00 -4.7195424796e+00 2.7248291210e+00 4.7195424796e+00 
535700 4.6780989236e+00 -2.5851284981e-04 2.7248338672e+00 -4.7195507002e+00 2.7248338672e+00 4.7195507002e+00 
535800 4.6780989223e+00 -2.5837360040e-04 2.7248386109e+00 -4.7195589165e+00 2.7248386109e+00 4.7195589165e+00 
535900 4.6780989210e+00 -2.5823442440e-04 2.7248433520e+00 -4.7195671283e+00 2.7248433520e+00 4.7195671283e+00 
536000 4.6780989197e+00 -2.5809532177e-04 2.7248480905e+00 -4.7195753356e+00 2.7248480905e+00 4.7195753356e+00 
536100 4.6780989184e+00 -2.5795629247e-04 2.7248528264e+00 -4.7195835386e+00 2.7248528264e+00 4.7195835386e+00 
536200 4.6780989172e+00 -2.5781733647e-04 2.7248575598e+00 -4.7195917370e+00 2.7248575598e+00 4.7195917370e+00 
536300 4.6780989159e+00 -2.5767845372e-04 2.7248622907e+00 -4.7195999311e+00 2.7248622907e+00 4.7195999311e+00 
536400 4.6780989146e+00 -2.5753964420e-04 2.7248670190e+00 -4.7196081207e+00 2.7248670190e+00 4.7196081207e+00 
536500 4.6780989133e+00 -2.5740090786e-04 2.7248717447e+00 -4.7196163059e+00 2.7248717447e+00 4.7196163059e+00 
536600 4.6780989120e+00 -2.5726224467e-04 2.7248764679e+00 -4.7196244867e+00 2.7248764679e+00 4.7196244867e+00 
536700 4.6780989108e+00 -2.5712365460e-04 2.7248811885e+00 -4.7196326631e+00 2.7248811885e+00 4.7196326631e+00 
536800 4.6780989095e+00 -2.5698513760e-04 2.7248859066e+00 -4.7196408350e+00 2.7248859066e+00 4.7196408350e+00 
536900 4.6780989082e+00 -2.5684669364e-04 2.7248906221e+00 -4.7196490025e+00 2.7248906221e+00 4.7196490025e+00 
537000 4.6780989069e+00 -2.5670832269e-04 2.7248953351e+00 -4.7196571657e+00 2.7248953351e+00 4.7196571657e+00 
537100 4.6780989057e+00 -2.5657002470e-04 2.7249000455e+00 -4.7196653244e+00 2.7249000455e+00 4.7196653244e+00 
537200 4.6780989044e+00 -2.5643179964e-04 2.7249047534e+00 -4.7196734786e+00 2.7249047534e+00 4.7196734786e+00 
537300 4.6780989031e+00 -2.5629364748e-04 2.7249094587e+00 -4.7196816285e+00 2.7249094587e+00 4.7196816285e+00 
537400 4.6780989018e+00 -2.5615556817e-04 2.7249141615e+00 -4.7196897740e+00 2.7249141615e+00 4.7196897740e+00 
537500 4.6780989006e+00 -2.5601756168e-04 2.7249188618e+00 -4.7196979151e+00 2.7249188618e+00 4.7196979151e+00 
537600 4.6780988993e+00 -2.5587962798e-04 2.7249235595e+00 -4.7197060518e+00 2.7249235595e+00 4.7197060518e+00 
537700 4.6780988981e+00 -2.5574176703e-04 2.7249282546e+00 -4.7197141840e+00 2.7249282546e+00 4.7197141840e+00 
537800 4.6780988968e+00 -2.5560397880e-04 2.7249329473e+00 -4.7197223119e+00 2.7249329473e+00 4.7197223119e+00 
537900 4.6780988955e+00 -2.5546626323e-04 2.7249376374e+00 -4.7197304354e+00 2.7249376374e+00 4.7197304354e+00 
538000 4.6780988943e+00 -2.5532862031e-04 2.7249423249e+00 -4.7197385545e+00 2.7249423249e+00 4.7197385545e+00 
538100 4.6780988930e+00 -2.5519104999e-04 2.7249470100e+00 -4.7197466692e+00 2.7249470100e+00 4.7197466692e+00 
538200 4.6780988917e+00 -2.5505355224e-04 2.7249516925e+00 -4.7197547795e+00 2.7249516925e+00 4.7197547795e+00 
538300 4.6780988905e+00 -2.5491612702e-04 2.7249563724e+00 -4.7197628855e+00 2.7249563724e+00 4.7197628855e+00 
538400 4.6780988892e+00 -2.5477877429e-04 2.7249610499e+00 -4.7197709870e+00 2.7249610499e+00 4.7197709870e+00 
538500 4.6780988880e+00 -2.5464149402e-04 2.7249657248e+00 -4.7197790842e+00 2.7249657248e+00 4.7197790842e+00 
538600 4.6780988867e+00 -2.5450428617e-04 2.7249703972e+00 -4.7197871770e+00 2.7249703972e+00 4.7197871770e+00 
538700 4.6780988855e+00 -2.5436715071e-04 2.7249750670e+00 -4.7197952654e+00 2.7249750670e+00 4.7197952654e+00 
538800 4.6780988842e+00 -2.5423008760e-04 2.7249797343e+00 -4.7198033495e+00 2.7249797343e+00 4.7198033495e+00 
538900 4.6780988830e+00 -2.5409309681e-04 2.7249843992e+00 -4.7198114292e+00 2.7249843992e+00 4.7198114292e+00 
539000 4.6780988817e+00 -2.5395617829e-04 2.7249890614e+00 -4.7198195045e+00 2.7249890614e+00 4.7198195045e+00 
539100 4.6780988805e+00 -2.5381933201e-04 2.7249937212e+00 -4.7198275754e+00 2.7249937212e+00 4.7198275754e+00 
539200 4.6780988792e+00 -2.5368255793e-04 2.7249983785e+00 -4.7198356420e+00 2.7249983785e+00 4.7198356420e+00 
539300 4.6780988780e+00 -2.5354585603e-04 2.7250030332e+00 -4.7198437043e+00 2.7250030332e+00 4.7198437043e+00 
539400 4.6780988768e+00 -2.5340922626e-04 2.7250076854e+00 -4.7198517621e+00 2.7250076854e+00 4.7198517621e+00 
539500 4.6780988755e+00 -2.5327266859e-04 2.7250123351e+00 -4.7198598156e+00 2.7250123351e+00 4.7198598156e+00 
539600 4.6780988743e+00 -2.5313618297e-04 2.7250169823e+00 -4.7198678648e+00 2.7250169823e+00 4.7198678648e+00 
539700 4.6780988730e+00 -2.5299976938e-04 2.7250216270e+00 -4.7198759096e+00 2.7250216270e+00 4.7198759096e+00 
539800 4.6780988718e+00 -2.5286342779e-04 2.7250262691e+00 -4.7198839501e+00 2.7250262691e+00 4.7198839501e+00 
539900 4.6780988706e+00 -2.5272715814e-04 2.7250309088e+00 -4.7198919862e+00 2.7250309088e+00 4.7198919862e+00 
540000 4.6780988693e+00 -2.5259096041e-04 2.7250355459e+00 -4.7199000180e+00 2.7250355459e+00 4.7199000180e+00 
540100 4.6780988681e+00 -2.5245483456e-04 2.7250401806e+00 -4.7199080454e+00 2.7250401806e+00 4.7199080454e+00 
540200 4.6780988669e+00 -2.5231878056e-04 2.7250448127e+00 -4.7199160685e+00 2.7250448127e+00 4.7199160685e+00 
540300 4.6780988656e+00 -2.5218279836e-04 2.7250494423e+00 -4.7199240872e+00 2.7250494423e+00 4.7199240872e+00 
540400 4.6780988644e+00 -2.5204688794e-04 2.7250540694e+00 -4.7199321016e+00 2.7250540694e+00 4.7199321016e+00 
540500 4.6780988632e+00 -2.5191104925e-04 2.7250586941e+00 -4.7199401117e+00 2.7250586941e+00 4.7199401117e+00 
540600 4.6780988620e+00 -2.5177528227e-04 2.7250633162e+00 -4.7199481175e+00 2.7250633162e+00 4.7199481175e+00 
540700 4.6780988607e+00 -2.5163958695e-04 2.7250679358e+00 -4.7199561189e+00 2.7250679358e+00 4.7199561189e+00 
540800 4.6780988595e+00 -2.5150396326e-04 2.7250725529e+00 -4.7199641160e+00 2.7250725529e+00 4.7199641160e+00 
540900 4.6780988583e+00 -2.5136841117e-04 2.7250771676e+00 -4.7199721088e+00 2.7250771676e+00 4.7199721088e+00 
541000 4.6780988571e+00 -2.5123293063e-04 2.7250817797e+00 -4.7199800972e+00 2.7250817797e+00 4.7199800972e+00 
541100 4.6780988559e+00 -2.5109752161e-04 2.7250863893e+00 -4.7199880814e+00 2.7250863893e+00 4.7199880814e+00 
541200 4.6780988546e+00 -2.5096218408e-04 2.7250909965e+00 -4.7199960612e+00 2.7250909965e+00 4.7199960612e+00 
541300 4.6780988534e+00 -2.5082691800e-04 2.7250956011e+00 -4.7200040367e+00 2.7250956011e+00 4.7200040367e+00 
541400 4.6780988522e+00 -2.5069172334e-04 2.7251002033e+00 -4.7200120079e+00 2.7251002033e+00 4.7200120079e+00 
541500 4.6780988510e+00 -2.5055660005e-04 2.7251048030e+00 -4.7200199747e+00 2.7251048030e+00 4.7200199747e+00 
541600 4.6780988498e+00 -2.5042154811e-04 2.7251094002e+00 -4.7200279373e+00 2.7251094002e+00 4.7200279373e+00 
541700 4.6780988486e+00 -2.5028656747e-04 2.7251139949e+00 -4.7200358956e+00 2.7251139949e+00 4.7200358956e+00 
541800 4.6780988474e+00 -2.5015165810e-04 2.7251185871e+00 -4.7200438495e+00 2.7251185871e+00 4.7200438495e+00 
541900 4.6780988462e+00 -2.5001681997e-04 2.7251231769e+00 -4.7200517992e+00 2.7251231769e+00 4.7200517992e+00 
542000 4.6780988449e+00 -2.4988205304e-04 2.7251277641e+00 -4.7200597446e+00 2.7251277641e+00 4.7200597446e+00 
542100 4.6780988437e+00 -2.4974735728e-04 2.7251323489e+00 -4.7200676856e+00 2.7251323489e+00 4.7200676856e+00 
542200 4.6780988425e+00 -2.4961273264e-04 2.7251369312e+00 -4.7200756224e+00 2.7251369312e+00 4.7200756224e+00 
542300 4.6780988413e+00 -2.4947817910e-04 2.7251415110e+00 -4.7200835549e+00 2.7251415110e+00 4.7200835549e+00 
542400 4.6780988401e+00 -2.4934369661e-04 2.7251460884e+00 -4.7200914831e+00 2.7251460884e+00 4.7200914831e+00 
542500 4.6780988389e+00 -2.4920928515e-04 2.7251506632e+00 -4.7200994070e+00 2.7251506632e+00 4.7200994070e+00 
542600 4.6780988377e+00 -2.4907494467e-04 2.7251552356e+00 -4.7201073266e+00 2.7251552356e+00 4.7201073266e+00 
542700 4.6780988365e+00 -2.4894067515e-04 2.7251598056e+00 -4.7201152420e+00 2.7251598056e+00 4.7201152420e+00 
542800 4.6780988353e+00 -2.4880647653e-04 2.7251643730e+00 -4.7201231530e+00 2.7251643730e+00 4.7201231530e+00 
542900 4.6780988341e+00 -2.4867234880e-04 2.7251689380e+00 -4.7201310598e+00 2.7251689380e+00 4.7201310598e+00 
543000 4.6780988329e+00 -2.4853829191e-04 2.7251735005e+00 -4.7201389623e+00 2.7251735005e+00 4.7201389623e+00 
543100 4.6780988318e+00 -2.4840430583e-04 2.7251780605e+00 -4.7201468605e+00 2.7251780605e+00 4.7201468605e+00 
543200 4.6780988306e+00 -2.4827039053e-04 2.7251826181e+00 -4.7201547545e+00 2.7251826181e+00 4.7201547545e+00 
543300 4.6780988294e+00 -2.4813654596e-04 2.7251871732e+00 -4.7201626442e+00 2.7251871732e+00 4.7201626442e+00 
543400 4.6780988282e+00 -2.4800277209e-04 2.7251917259e+00 -4.7201705296e+00 2.7251917259e+00 4.7201705296e+00 
543500 4.6780988270e+00 -2.4786906889e-04 2.7251962761e+00 -4.7201784108e+00 2.7251962761e+00 4.7201784108e+00 
543600 4.6780988258e+00 -2.4773543632e-04 2.7252008238e+00 -4.7201862877e+00 2.7252008238e+00 4.7201862877e+00 
543700 4.6780988246e+00 -2.4760187434e-04 2.7252053691e+00 -4.7201941603e+00 2.7252053691e+00 4.7201941603e+00 
543800 4.6780988234e+00 -2.4746838293e-04 2.7252099119e+00 -4.7202020287e+00 2.7252099119e+00 4.7202020287e+00 
543900 4.6780988223e+00 -2.4733496204e-04 2.7252144523e+00 -4.7202098928e+00 2.7252144523e+00 4.7202098928e+00 
544000 4.6780988211e+00 -2.4720161164e-04 2.7252189902e+00 -4.7202177527e+00 2.7252189902e+00 4.7202177527e+00 
544100 4.6780988199e+00 -2.4706833170e-04 2.7252235256e+00 -4.7202256083e+00 2.7252235256e+00 4.7202256083e+00 
544200 4.6780988187e+00 -2.4693512217e-04 2.7252280586e+00 -4.7202334597e+00 2.7252280586e+00 4.7202334597e+00 
544300 4.6780988175e+00 -2.4680198303e-04 2.7252325891e+00 -4.7202413068e+00 2.7252325891e+00 4.7202413068e+00 
544400 4.6780988164e+00 -2.4666891423e-04 2.7252371172e+00 -4.7202491497e+00 2.7252371172e+00 4.7202491497e+00 
544500 4.6780988152e+00 -2.4653591575e-04 2.7252416429e+00 -4.7202569884e+00 2.7252416429e+00 4.7202569884e+00 
544600 4.6780988140e+00 -2.4640298754e-04 2.7252461661e+00 -4.7202648228e+00 2.7252461661e+00 4.7202648228e+00 
544700 4.6780988128e+00 -2.4627012958e-04 2.7252506868e+00 -4.7202726529e+00 2.7252506868e+00 4.7202726529e+00 
544800 4.6780988117e+00 -2.4613734182e-04 2.7252552051e+00 -4.7202804789e+00 2.7252552051e+00 4.7202804789e+00 
544900 4.6780988105e+00 -2.4600462424e-04 2.7252597210e+00 -4.7202883006e+00 2.7252597210e+00 4.7202883006e+00 
545000 4.6780988093e+00 -2.4587197679e-04 2.7252642344e+00 -4.7202961180e+00 2.7252642344e+00 4.7202961180e+00 
545100 4.6780988082e+00 -2.4573939944e-04 2.7252687454e+00 -4.7203039313e+00 2.7252687454e+00 4.7203039313e+00 
545200 4.6780988070e+00 -2.4560689216e-04 2.7252732539e+00 -4.7203117403e+00 2.7252732539e+00 4.7203117403e+00 
545300 4.6780988058e+00 -2.4547445491e-04 2.7252777600e+00 -4.7203195451e+00 2.7252777600e+00 4.7203195451e+00 
545400 4.6780988047e+00 -2.4534208766e-04 2.7252822637e+00 -4.7203273456e+00 2.7252822637e+00 4.7203273456e+00 
545500 4.6780988035e+00 -2.4520979036e-04 2.7252867649e+00 -4.7203351420e+00 2.7252867649e+00 4.7203351420e+00 
545600 4.6780988023e+00 -2.4507756299e-04 2.7252912637e+00 -4.7203429341e+00 2.7252912637e+00 4.7203429341e+00 
545700 4.6780988012e+00 -2.4494540551e-04 2.7252957600e+00 -4.7203507220e+00 2.7252957600e+00 4.7203507220e+00 
545800 4.6780988000e+00 -2.4481331789e-04 2.7253002540e+00 -4.7203585057e+00 2.7253002540e+00 4.7203585057e+00 
545900 4.6780987989e+00 -2.4468130009e-04 2.7253047455e+00 -4.7203662852e+00 2.7253047455e+00 4.7203662852e+00 
546000 4.6780987977e+00 -2.4454935207e-04 2.7253092345e+00 -4.7203740605e+00 2.7253092345e+00 4.7203740605e+00 
546100 4.6780987966e+00 -2.4441747380e-04 2.7253137212e+00 -4.7203818316e+00 2.7253137212e+00 4.7203818316e+00 
546200 4.6780987954e+00 -2.4428566524e-04 2.7253182054e+00 -4.7203895985e+00 2.7253182054e+00 4.7203895985e+00 
546300 4.6780987943e+00 -2.4415392637e-04 2.7253226871e+00 -4.7203973612e+00 2.7253226871e+00 4.7203973612e+00 
546400 4.6780987931e+00 -2.4402225714e-04 2.7253271665e+00 -4.7204051196e+00 2.7253271665e+00 4.7204051196e+00 
546500 4.6780987920e+00 -2.4389065752e-04 2.7253316434e+00 -4.7204128739e+00 2.7253316434e+00 4.7204128739e+00 
546600 4.6780987908e+00 -2.4375912747e-04 2.7253361180e+00 -4.7204206240e+00 2.7253361180e+00 4.7204206240e+00 
546700 4.6780987897e+00 -2.4362766697e-04 2.7253405901e+00 -4.7204283699e+00 2.7253405901e+00 4.7204283699e+00 
546800 4.6780987885e+00 -2.4349627597e-04 2.7253450597e+00 -4.7204361116e+00 2.7253450597e+00 4.7204361116e+00 
546900 4.6780987874e+00 -2.4336495443e-04 2.7253495270e+00 -4.7204438491e+00 2.7253495270e+00 4.7204438491e+00 
547000 4.6780987862e+00 -2.4323370234e-04 2.7253539918e+00 -4.7204515825e+00 2.7253539918e+00 4.7204515825e+00 
547100 4.6780987851e+00 -2.4310251964e-04 2.7253584543e+00 -4.7204593116e+00 2.7253584543e+00 4.7204593116e+00 
547200 4.6780987839e+00 -2.4297140631e-04 2.7253629143e+00 -4.7204670366e+00 2.7253629143e+00 4.7204670366e+00 
547300 4.6780987828e+00 -2.4284036231e-04 2.7253673719e+00 -4.7204747574e+00 2.7253673719e+00 4.7204747574e+00 
547400 4.6780987817e+00 -2.4270938760e-04 2.7253718270e+00 -4.7204824740e+00 2.7253718270e+00 4.7204824740e+00 
547500 4.6780987805e+00 -2.4257848216e-04 2.7253762798e+00 -4.7204901864e+00 2.7253762798e+00 4.7204901864e+00 
547600 4.6780987794e+00 -2.4244764594e-04 2.7253807302e+00 -4.7204978947e+00 2.7253807302e+00 4.7204978947e+00 
547700 4.6780987783e+00 -2.4231687891e-04 2.7253851782e+00 -4.7205055988e+00 2.7253851782e+00 4.7205055988e+00 
547800 4.6780987771e+00 -2.4218618104e-04 2.7253896237e+00 -4.7205132987e+00 2.7253896237e+00 4.7205132987e+00 
547900 4.6780987760e+00 -2.4205555229e-04 2.7253940669e+00 -4.7205209944e+00 2.7253940669e+00 4.7205209944e+00 
548000 4.6780987749e+00 -2.4192499262e-04 2.7253985076e+00 -4.7205286860e+00 2.7253985076e+00 4.7205286860e+00 
548100 4.6780987737e+00 -2.4179450201e-04 2.7254029459e+00 -4.7205363735e+00 2.7254029459e+00 4.7205363735e+00 
548200 4.6780987726e+00 -2.4166408041e-04 2.7254073819e+00 -4.7205440568e+00 2.7254073819e+00 4.7205440568e+00 
548300 4.6780987715e+00 -2.4153372779e-04 2.7254118154e+00 -4.7205517359e+00 2.7254118154e+00 4.7205517359e+00 
548400 4.6780987703e+00 -2.4140344413e-04 2.7254162466e+00 -4.7205594108e+00 2.7254162466e+00 4.7205594108e+00 
548500 4.6780987692e+00 -2.4127322937e-04 2.7254206753e+00 -4.7205670816e+00 2.7254206753e+00 4.7205670816e+00 
548600 4.6780987681e+00 -2.4114308350e-04 2.7254251017e+00 -4.7205747483e+00 2.7254251017e+00 4.7205747483e+00 
548700 4.6780987670e+00 -2.4101300646e-04 2.7254295256e+00 -4.7205824108e+00 2.7254295256e+00 4.7205824108e+00 
548800 4.6780987659e+00 -2.4088299824e-04 2.7254339472e+00 -4.7205900692e+00 2.7254339472e+00 4.7205900692e+00 
548900 4.6780987647e+00 -2.4075305879e-04 2.7254383664e+00 -4.7205977234e+00 2.7254383664e+00 4.7205977234e+00 
549000 4.6780987636e+00 -2.4062318808e-04 2.7254427831e+00 -4.7206053735e+00 2.7254427831e+00 4.7206053735e+00 
549100 4.6780987625e+00 -2.4049338607e-04 2.7254471975e+00 -4.7206130194e+00 2.7254471975e+00 4.7206130194e+00 
549200 4.6780987614e+00 -2.4036365273e-04 2.7254516095e+00 -4.7206206613e+00 2.7254516095e+00 4.7206206613e+00 
549300 4.6780987603e+00 -2.4023398803e-04 2.7254560191e+00 -4.7206282989e+00 2.7254560191e+00 4.7206282989e+00 
549400 4.6780987591e+00 -2.4010439193e-04 2.7254604264e+00 -4.7206359325e+00 2.7254604264e+00 4.7206359325e+00 
549500 4.6780987580e+00 -2.3997486440e-04 2.7254648312e+00 -4.7206435619e+00 2.7254648312e+00 4.7206435619e+00 
549600 4.6780987569e+00 -2.3984540540e-04 2.7254692337e+00 -4.7206511872e+00 2.7254692337e+00 4.7206511872e+00 
549700 4.6780987558e+00 -2.3971601490e-04 2.7254736337e+00 -4.7206588083e+00 2.7254736337e+00 4.7206588083e+00 
549800 4.6780987547e+00 -2.3958669285e-04 2.7254780314e+00 -4.7206664254e+00 2.7254780314e+00 4.7206664254e+00 
549900 4.6780987536e+00 -2.3945743924e-04 2.7254824267e+00 -4.7206740383e+00 2.7254824267e+00 4.7206740383e+00 
550000 4.6780987525e+00 -2.3932825402e-04 2.7254868197e+00 -4.7206816471e+00 2.7254868197e+00 4.7206816471e+00 
550100 4.6780987514e+00 -2.3919913716e-04 2.7254912102e+00 -4.7206892517e+00 2.7254912102e+00 4.7206892517e+00 
550200 4.6780987503e+00 -2.3907008863e-04 2.7254955984e+00 -4.7206968523e+00 2.7254955984e+00 4.7206968523e+00 
550300 4.6780987492e+00 -2.3894110839e-04 2.7254999842e+00 -4.7207044487e+00 2.7254999842e+00 4.7207044487e+00 
550400 4.6780987481e+00 -2.3881219640e-04 2.7255043677e+00 -4.7207120411e+00 2.7255043677e+00 4.7207120411e+00 
550500 4.6780987470e+00 -2.3868335264e-04 2.7255087487e+00 -4.7207196293e+00 2.7255087487e+00 4.7207196293e+00 
550600 4.6780987459e+00 -2.3855457706e-04 2.7255131274e+00 -4.7207272134e+00 2.7255131274e+00 4.7207272134e+00 
550700 4.6780987448e+00 -2.3842586963e-04 2.7255175038e+00 -4.7207347934e+00 2.7255175038e+00 4.7207347934e+00 
550800 4.6780987437e+00 -2.3829723033e-04 2.7255218777e+00 -4.7207423694e+00 2.7255218777e+00 4.7207423694e+00 
550900 4.6780987426e+00 -2.3816865910e-04 2.7255262493e+00 -4.7207499412e+00 2.7255262493e+00 4.7207499412e+00 
551000 4.6780987415e+00 -2.3804015593e-04 2.7255306185e+00 -4.7207575089e+00 2.7255306185e+00 4.7207575089e+00 
551100 4.6780987404e+00 -2.3791172077e-04 2.7255349854e+00 -4.7207650725e+00 2.7255349854e+00 4.7207650725e+00 
551200 4.6780987393e+00 -2.3778335360e-04 2.7255393499e+00 -4.7207726320e+00 2.7255393499e+00 4.7207726320e+00 
551300 4.6780987382e+00 -2.3765505437e-04 2.7255437120e+00 -4.7207801875e+00 2.7255437120e+00 4.7207801875e+00 
551400 4.6780987371e+00 -2.3752682306e-04 2.7255480718e+00 -4.7207877388e+00 2.7255480718e+00 4.7207877388e+00 
551500 4.6780987360e+00 -2.3739865962e-04 2.7255524292e+00 -4.7207952861e+00 2.7255524292e+00 4.7207952861e+00 
551600 4.6780987349e+00 -2.3727056403e-04 2.7255567843e+00 -4.7208028293e+00 2.7255567843e+00 4.7208028293e+00 
551700 4.6780987338e+00 -2.3714253624e-04 2.7255611370e+00 -4.7208103684e+00 2.7255611370e+00 4.7208103684e+00 
551800 4.6780987328e+00 -2.3701457624e-04 2.7255654873e+00 -4.7208179034e+00 2.7255654873e+00 4.7208179034e+00 
551900 4.6780987317e+00 -2.3688668397e-04 2.7255698353e+00 -4.7208254343e+00 2.7255698353e+00 4.7208254343e+00 
552000 4.6780987306e+00 -2.3675885942e-04 2.7255741809e+00 -4.7208329612e+00 2.7255741809e+00 4.7208329612e+00 
552100 4.6780987295e+00 -2.3663110253e-04 2.7255785242e+00 -4.7208404840e+00 2.7255785242e+00 4.7208404840e+00 
552200 4.6780987284e+00 -2.3650341329e-04 2.7255828652e+00 -4.7208480027e+00 2.7255828652e+00 4.7208480027e+00 
552300 4.6780987274e+00 -2.3637579165e-04 2.7255872038e+00 -4.7208555174e+00 2.7255872038e+00 4.7208555174e+00 
552400 4.6780987263e+00 -2.3624823758e-04 2.7255915400e+00 -4.7208630279e+00 2.7255915400e+00 4.7208630279e+00 
552500 4.6780987252e+00 -2.3612075105e-04 2.7255958739e+00 -4.7208705345e+00 2.7255958739e+00 4.7208705345e+00 
552600 4.6780987241e+00 -2.3599333202e-04 2.7256002054e+00 -4.7208780369e+00 2.7256002054e+00 4.7208780369e+00 
552700 4.6780987230e+00 -2.3586598046e-04 2.7256045346e+00 -4.7208855353e+00 2.7256045346e+00 4.7208855353e+00 
552800 4.6780987220e+00 -2.3573869633e-04 2.7256088615e+00 -4.7208930296e+00 2.7256088615e+00 4.7208930296e+00 
552900 4.6780987209e+00 -2.3561147961e-04 2.7256131860e+00 -4.7209005199e+00 2.7256131860e+00 4.7209005199e+00 
553000 4.6780987198e+00 -2.3548433025e-04 2.7256175082e+00 -4.7209080062e+00 2.7256175082e+00 4.7209080062e+00 
553100 4.6780987188e+00 -2.3535724822e-04 2.7256218280e+00 -4.7209154883e+00 2.7256218280e+00 4.7209154883e+00 
553200 4.6780987177e+00 -2.3523023349e-04 2.7256261455e+00 -4.7209229665e+00 2.7256261455e+00 4.7209229665e+00 
553300 4.6780987166e+00 -2.3510328603e-04 2.7256304607e+00 -4.7209304405e+00 2.7256304607e+00 4.7209304405e+00 
553400 4.6780987156e+00 -2.3497640580e-04 2.7256347735e+00 -4.7209379106e+00 2.7256347735e+00 4.7209379106e+00 
553500 4.6780987145e+00 -2.3484959276e-04 2.7256390840e+00 -4.7209453766e+00 2.7256390840e+00 4.7209453766e+00 
553600 4.6780987134e+00 -2.3472284689e-04 2.7256433921e+00 -4.7209528385e+00 2.7256433921e+00 4.7209528385e+00 
553700 4.6780987124e+00 -2.3459616814e-04 2.7256476980e+00 -4.7209602964e+00 2.7256476980e+00 4.7209602964e+00 
553800 4.6780987113e+00 -2.3446955649e-04 2.7256520015e+00 -4.7209677503e+00 2.7256520015e+00 4.7209677503e+00 
553900 4.6780987102e+00 -2.3434301190e-04 2.7256563026e+00 -4.7209752001e+00 2.7256563026e+00 4.7209752001e+00 
554000 4.6780987092e+00 -2.3421653434e-04 2.7256606015e+00 -4.7209826459e+00 2.7256606015e+00 4.7209826459e+00 
554100 4.6780987081e+00 -2.3409012377e-04 2.7256648980e+00 -4.7209900877e+00 2.7256648980e+00 4.7209900877e+00 
554200 4.6780987071e+00 -2.3396378016e-04 2.7256691922e+00 -4.7209975254e+00 2.7256691922e+00 4.7209975254e+00 
554300 4.6780987060e+00 -2.3383750348e-04 2.7256734840e+00 -4.7210049592e+00 2.7256734840e+00 4.7210049592e+00 
554400 4.6780987049e+00 -2.3371129368e-04 2.7256777736e+00 -4.7210123889e+00 2.7256777736e+00 4.7210123889e+00 
554500 4.6780987039e+00 -2.3358515075e-04 2.7256820608e+00 -4.7210198145e+00 2.7256820608e+00 4.7210198145e+00 
554600 4.6780987028e+00 -2.3345907464e-04 2.7256863457e+00 -4.7210272362e+00 2.7256863457e+00 4.7210272362e+00 
554700 4.6780987018e+00 -2.3333306532e-04 2.7256906282e+00 -4.7210346538e+00 2.7256906282e+00 4.7210346538e+00 
554800 4.6780987007e+00 -2.3320712275e-04 2.7256949085e+00 -4.7210420675e+00 2.7256949085e+00 4.7210420675e+00 
554900 4.6780986997e+00 -2.3308124691e-04 2.7256991864e+00 -4.7210494771e+00 2.7256991864e+00 4.7210494771e+00 
555000 4.6780986986e+00 -2.3295543776e-04 2.7257034621e+00 -4.7210568827e+00 2.7257034621e+00 4.7210568827e+00 
555100 4.6780986976e+00 -2.3282969526e-04 2.7257077354e+00 -4.7210642843e+00 2.7257077354e+00 4.7210642843e+00 
555200 4.6780986965e+00 -2.3270401939e-04 2.7257120064e+00 -4.7210716818e+00 2.7257120064e+00 4.7210716818e+00 
555300 4.6780986955e+00 -2.3257841010e-04 2.7257162751e+00 -4.7210790754e+00 2.7257162751e+00 4.7210790754e+00 
555400 4.6780986945e+00 -2.3245286737e-04 2.7257205414e+00 -4.7210864650e+00 2.7257205414e+00 4.7210864650e+00 
555500 4.6780986934e+00 -2.3232739116e-04 2.7257248055e+00 -4.7210938506e+00 2.7257248055e+00 4.7210938506e+00 
555600 4.6780986924e+00 -2.3220198143e-04 2.7257290672e+00 -4.7211012321e+00 2.7257290672e+00 4.7211012321e+00 
555700 4.6780986913e+00 -2.3207663816e-04 2.7257333267e+00 -4.7211086097e+00 2.7257333267e+00 4.7211086097e+00 
555800 4.6780986903e+00 -2.3195136131e-04 2.7257375838e+00 -4.7211159833e+00 2.7257375838e+00 4.7211159833e+00 
555900 4.6780986892e+00 -2.3182615084e-04 2.7257418387e+00 -4.7211233529e+00 2.7257418387e+00 4.7211233529e+00 
556000 4.6780986882e+00 -2.3170100673e-04 2.7257460912e+00 -4.7211307185e+00 2.7257460912e+00 4.7211307185e+00 
556100 4.6780986872e+00 -2.3157592893e-04 2.7257503414e+00 -4.7211380801e+00 2.7257503414e+00 4.7211380801e+00 
556200 4.6780986861e+00 -2.3145091742e-04 2.7257545894e+00 -4.7211454378e+00 2.7257545894e+00 4.7211454378e+00 
556300 4.6780986851e+00 -2.3132597217e-04 2.7257588350e+00 -4.7211527914e+00 2.7257588350e+00 4.7211527914e+00 
556400 4.6780986841e+00 -2.3120109313e-04 2.7257630783e+00 -4.7211601411e+00 2.7257630783e+00 4.7211601411e+00 
556500 4.6780986830e+00 -2.3107628027e-04 2.7257673194e+00 -4.7211674868e+00 2.7257673194e+00 4.7211674868e+00 
556600 4.6780986820e+00 -2.3095153357e-04 2.7257715581e+00 -4.7211748285e+00 2.7257715581e+00 4.7211748285e+00 
556700 4.6780986810e+00 -2.3082685299e-04 2.7257757946e+00 -4.7211821662e+00 2.7257757946e+00 4.7211821662e+00 
556800 4.6780986799e+00 -2.3070223849e-04 2.7257800287e+00 -4.7211895000e+00 2.7257800287e+00 4.7211895000e+00 
556900 4.6780986789e+00 -2.3057769004e-04 2.7257842606e+00 -4.7211968298e+00 2.7257842606e+00 4.7211968298e+00 
557000 4.6780986779e+00 -2.3045320760e-04 2.7257884901e+00 -4.7212041556e+00 2.7257884901e+00 4.7212041556e+00 
557100 4.6780986769e+00 -2.3032879116e-04 2.7257927174e+00 -4.7212114775e+00 2.7257927174e+00 4.7212114775e+00 
557200 4.6780986758e+00 -2.3020444066e-04 2.7257969424e+00 -4.7212187953e+00 2.7257969424e+00 4.7212187953e+00 
557300 4.6780986748e+00 -2.3008015608e-04 2.7258011651e+00 -4.7212261093e+00 2.7258011651e+00 4.7212261093e+00 
557400 4.6780986738e+00 -2.2995593738e-04 2.7258053855e+00 -4.7212334193e+00 2.7258053855e+00 4.7212334193e+00 
557500 4.6780986728e+00 -2.2983178454e-04 2.7258096036e+00 -4.7212407253e+00 2.7258096036e+00 4.7212407253e+00 
557600 4.6780986718e+00 -2.2970769751e-04 2.7258138195e+00 -4.7212480273e+00 2.7258138195e+00 4.7212480273e+00 
557700 4.6780986707e+00 -2.2958367627e-04 2.7258180331e+00 -4.7212553254e+00 2.7258180331e+00 4.7212553254e+00 
557800 4.6780986697e+00 -2.2945972077e-04 2.7258222443e+00 -4.7212626196e+00 2.7258222443e+00 4.7212626196e+00 
557900 4.6780986687e+00 -2.2933583100e-04 2.7258264533e+00 -4.7212699098e+00 2.7258264533e+00 4.7212699098e+00 
558000 4.6780986677e+00 -2.2921200690e-04 2.7258306601e+00 -4.7212771960e+00 2.7258306601e+00 4.7212771960e+00 
558100 4.6780986667e+00 -2.2908824846e-04 2.7258348645e+00 -4.7212844784e+00 2.7258348645e+00 4.7212844784e+00 
558200 4.6780986657e+00 -2.2896455564e-04 2.7258390667e+00 -4.7212917567e+00 2.7258390667e+00 4.7212917567e+00 
558300 4.6780986647e+00 -2.2884092840e-04 2.7258432666e+00 -4.7212990312e+00 2.7258432666e+00 4.7212990312e+00 
558400 4.6780986636e+00 -2.2871736671e-04 2.7258474642e+00 -4.7213063016e+00 2.7258474642e+00 4.7213063016e+00 
558500 4.6780986626e+00 -2.2859387054e-04 2.7258516595e+00 -4.7213135682e+00 2.7258516595e+00 4.7213135682e+00 
558600 4.6780986616e+00 -2.2847043985e-04 2.7258558526e+00 -4.7213208308e+00 2.7258558526e+00 4.7213208308e+00 
558700 4.6780986606e+00 -2.2834707461e-04 2.7258600434e+00 -4.7213280895e+00 2.7258600434e+00 4.7213280895e+00 
558800 4.6780986596e+00 -2.2822377480e-04 2.7258642319e+00 -4.7213353442e+00 2.7258642319e+00 4.7213353442e+00 
558900 4.6780986586e+00 -2.2810054036e-04 2.7258684182e+00 -4.7213425951e+00 2.7258684182e+00 4.7213425951e+00 
559000 4.6780986576e+00 -2.2797737128e-04 2.7258726022e+00 -4.7213498420e+00 2.7258726022e+00 4.7213498420e+00 
559100 4.6780986566e+00 -2.2785426752e-04 2.7258767839e+00 -4.7213570849e+00 2.7258767839e+00 4.7213570849e+00 
559200 4.6780986556e+00 -2.2773122905e-04 2.7258809634e+00 -4.7213643240e+00 2.7258809634e+00 4.7213643240e+00 
559300 4.6780986546e+00 -2.2760825582e-04 2.7258851406e+00 -4.7213715591e+00 2.7258851406e+00 4.7213715591e+00 
559400 4.6780986536e+00 -2.2748534782e-04 2.7258893155e+00 -4.7213787903e+00 2.7258893155e+00 4.7213787903e+00 
559500 4.6780986526e+00 -2.2736250500e-04 2.7258934882e+00 -4.7213860176e+00 2.7258934882e+00 4.7213860176e+00 
559600 4.6780986516e+00 -2.2723972734e-04 2.7258976587e+00 -4.7213932410e+00 2.7258976587e+00 4.7213932410e+00 
559700 4.6780986506e+00 -2.2711701479e-04 2.7259018268e+00 -4.7214004605e+00 2.7259018268e+00 4.7214004605e+00 
559800 4.6780986496e+00 -2.2699436734e-04 2.7259059927e+00 -4.7214076761e+00 2.7259059927e+00 4.7214076761e+00 
559900 4.6780986486e+00 -2.2687178494e-04 2.7259101564e+00 -4.7214148877e+00 2.7259101564e+00 4.7214148877e+00 
560000 4.6780986476e+00 -2.2674926756e-04 2.7259143178e+00 -4.7214220955e+00 2.7259143178e+00 4.7214220955e+00 
560100 4.6780986466e+00 -2.2662681516e-04 2.7259184769e+00 -4.7214292993e+00 2.7259184769e+00 4.7214292993e+00 
560200 4.6780986456e+00 -2.2650442773e-04 2.7259226338e+00 -4.7214364993e+00 2.7259226338e+00 4.7214364993e+00 
560300 4.6780986446e+00 -2.2638210521e-04 2.7259267884e+00 -4.7214436953e+00 2.7259267884e+00 4.7214436953e+00 
560400 4.6780986437e+00 -2.2625984759e-04 2.7259309408e+00 -4.7214508874e+00 2.7259309408e+00 4.7214508874e+00 
560500 4.6780986427e+00 -2.2613765482e-04 2.7259350910e+00 -4.7214580757e+00 2.7259350910e+00 4.7214580757e+00 
560600 4.6780986417e+00 -2.2601552687e-04 2.7259392389e+00 -4.7214652601e+00 2.7259392389e+00 4.7214652601e+00 
560700 4.6780986407e+00 -2.2589346372e-04 2.7259433845e+00 -4.7214724405e+00 2.7259433845e+00 4.7214724405e+00 
560800 4.6780986397e+00 -2.2577146532e-04 2.7259475279e+00 -4.7214796171e+00 2.7259475279e+00 4.7214796171e+00 
560900 4.6780986387e+00 -2.2564953165e-04 2.7259516691e+00 -4.7214867898e+00 2.7259516691e+00 4.7214867898e+00 
561000 4.6780986377e+00 -2.2552766267e-04 2.7259558080e+00 -4.7214939586e+00 2.7259558080e+00 4.7214939586e+00 
561100 4.6780986368e+00 -2.2540585835e-04 2.7259599447e+00 -4.7215011235e+00 2.7259599447e+00 4.7215011235e+00 
561200 4.6780986358e+00 -2.2528411866e-04 2.7259640791e+00 -4.7215082846e+00 2.7259640791e+00 4.7215082846e+00 
561300 4.6780986348e+00 -2.2516244356e-04 2.7259682113e+00 -4.7215154418e+00 2.7259682113e+00 4.7215154418e+00 
561400 4.6780986338e+00 -2.2504083302e-04 2.7259723412e+00 -4.7215225950e+00 2.7259723412e+00 4.7215225950e+00 
561500 4.6780986328e+00 -2.2491928701e-04 2.7259764690e+00 -4.7215297445e+00 2.7259764690e+00 4.7215297445e+00 
561600 4.6780986319e+00 -2.2479780550e-04 2.7259805944e+00 -4.7215368900e+00 2.7259805944e+00 4.7215368900e+00 
561700 4.6780986309e+00 -2.2467638845e-04 2.7259847177e+00 -4.7215440317e+00 2.7259847177e+00 4.7215440317e+00 
561800 4.6780986299e+00 -2.2455503583e-04 2.7259888387e+00 -4.7215511695e+00 2.7259888387e+00 4.7215511695e+00 
561900 4.6780986289e+00 -2.2443374760e-04 2.7259929575e+00 -4.7215583034e+00 2.7259929575e+00 4.7215583034e+00 
562000 4.6780986280e+00 -2.2431252374e-04 2.7259970740e+00 -4.7215654335e+00 2.7259970740e+00 4.7215654335e+00 
562100 4.6780986270e+00 -2.2419136421e-04 2.7260011884e+00 -4.7215725597e+00 2.7260011884e+00 4.7215725597e+00 
562200 4.6780986260e+00 -2.2407026898e-04 2.7260053004e+00 -4.7215796821e+00 2.7260053004e+00 4.7215796821e+00 
562300 4.6780986251e+00 -2.2394923802e-04 2.7260094103e+00 -4.7215868006e+00 2.7260094103e+00 4.7215868006e+00 
562400 4.6780986241e+00 -2.2382827129e-04 2.7260135180e+00 -4.7215939152e+00 2.7260135180e+00 4.7215939152e+00 
562500 4.6780986231e+00 -2.2370736876e-04 2.7260176234e+00 -4.7216010260e+00 2.7260176234e+00 4.7216010260e+00 
562600 4.6780986222e+00 -2.2358653040e-04 2.7260217266e+00 -4.7216081329e+00 2.7260217266e+00 4.7216081329e+00 
562700 4.6780986212e+00 -2.2346575618e-04 2.7260258275e+00 -4.7216152360e+00 2.7260258275e+00 4.7216152360e+00 
562800 4.6780986202e+00 -2.2334504606e-04 2.7260299263e+00 -4.7216223353e+00 2.7260299263e+00 4.7216223353e+00 
562900 4.6780986193e+00 -2.2322440001e-04 2.7260340228e+00 -4.7216294307e+00 2.7260340228e+00 4.7216294307e+00 
563000 4.6780986183e+00 -2.2310381800e-04 2.7260381171e+00 -4.7216365222e+00 2.7260381171e+00 4.7216365222e+00 
563100 4.6780986174e+00 -2.2298330000e-04 2.7260422092e+00 -4.7216436099e+00 2.7260422092e+00 4.7216436099e+00 
563200 4.6780986164e+00 -2.2286284597e-04 2.7260462991e+00 -4.7216506938e+00 2.7260462991e+00 4.7216506938e+00 
563300 4.6780986154e+00 -2.2274245588e-04 2.7260503867e+00 -4.7216577738e+00 2.7260503867e+00 4.7216577738e+00 
563400 4.6780986145e+00 -2.2262212970e-04 2.7260544722e+00 -4.7216648500e+00 2.7260544722e+00 4.7216648500e+00 
563500 4.6780986135e+00 -2.2250186739e-04 2.7260585554e+00 -4.7216719224e+00 2.7260585554e+00 4.7216719224e+00 
563600 4.6780986126e+00 -2.2238166893e-04 2.7260626364e+00 -4.7216789909e+00 2.7260626364e+00 4.7216789909e+00 
563700 4.6780986116e+00 -2.2226153428e-04 2.7260667152e+00 -4.7216860556e+00 2.7260667152e+00 4.7216860556e+00 
563800 4.6780986107e+00 -2.2214146340e-04 2.7260707918e+00 -4.7216931165e+00 2.7260707918e+00 4.7216931165e+00 
563900 4.6780986097e+00 -2.2202145627e-04 2.7260748662e+00 -4.7217001735e+00 2.7260748662e+00 4.7217001735e+00 
564000 4.6780986088e+00 -2.2190151286e-04 2.7260789384e+00 -4.7217072268e+00 2.7260789384e+00 4.7217072268e+00 
564100 4.6780986078e+00 -2.2178163313e-04 2.7260830084e+00 -4.7217142762e+00 2.7260830084e+00 4.7217142762e+00 
564200 4.6780986069e+00 -2.2166181704e-04 2.7260870762e+00 -4.7217213218e+00 2.7260870762e+00 4.7217213218e+00 
564300 4.6780986059e+00 -2.2154206458e-04 2.7260911417e+00 -4.7217283635e+00 2.7260911417e+00 4.7217283635e+00 
564400 4.6780986050e+00 -2.2142237569e-04 2.7260952051e+00 -4.7217354015e+00 2.7260952051e+00 4.7217354015e+00 
564500 4.6780986040e+00 -2.2130275036e-04 2.7260992663e+00 -4.7217424356e+00 2.7260992663e+00 4.7217424356e+00 
564600 4.6780986031e+00 -2.2118318855e-04 2.7261033252e+00 -4.7217494660e+00 2.7261033252e+00 4.7217494660e+00 
564700 4.6780986021e+00 -2.2106369023e-04 2.7261073820e+00 -4.7217564925e+00 2.7261073820e+00 4.7217564925e+00 
564800 4.6780986012e+00 -2.2094425536e-04 2.7261114365e+00 -4.7217635152e+00 2.7261114365e+00 4.7217635152e+00 
564900 4.6780986002e+00 -2.2082488391e-04 2.7261154889e+00 -4.7217705341e+00 2.7261154889e+00 4.7217705341e+00 
565000 4.6780985993e+00 -2.2070557585e-04 2.7261195391e+00 -4.7217775492e+00 2.7261195391e+00 4.7217775492e+00 
565100 4.6780985984e+00 -2.2058633115e-04 2.7261235871e+00 -4.7217845605e+00 2.7261235871e+00 4.7217845605e+00 
565200 4.6780985974e+00 -2.2046714978e-04 2.7261276329e+00 -4.7217915680e+00 2.7261276329e+00 4.7217915680e+00 
565300 4.6780985965e+00 -2.2034803170e-04 2.7261316765e+00 -4.7217985718e+00 2.7261316765e+00 4.7217985718e+00 
565400 4.6780985955e+00 -2.2022897688e-04 2.7261357179e+00 -4.7218055717e+00 2.7261357179e+00 4.7218055717e+00 
565500 4.6780985946e+00 -2.2010998529e-04 2.7261397571e+00 -4.7218125678e+00 2.7261397571e+00 4.7218125678e+00 
565600 4.6780985937e+00 -2.1999105690e-04 2.7261437941e+00 -4.7218195601e+00 2.7261437941e+00 4.7218195601e+00 
565700 4.6780985927e+00 -2.1987219167e-04 2.7261478290e+00 -4.7218265487e+00 2.7261478290e+00 4.7218265487e+00 
565800 4.6780985918e+00 -2.1975338958e-04 2.7261518616e+00 -4.7218335335e+00 2.7261518616e+00 4.7218335335e+00 
565900 4.6780985909e+00 -2.1963465059e-04 2.7261558921e+00 -4.7218405144e+00 2.7261558921e+00 4.7218405144e+00 
566000 4.6780985899e+00 -2.1951597466e-04 2.7261599204e+00 -4.7218474916e+00 2.7261599204e+00 4.7218474916e+00 
566100 4.6780985890e+00 -2.1939736177e-04 2.7261639465e+00 -4.7218544650e+00 2.7261639465e+00 4.7218544650e+00 
566200 4.6780985881e+00 -2.1927881189e-04 2.7261679704e+00 -4.7218614347e+00 2.7261679704e+00 4.7218614347e+00 
566300 4.6780985872e+00 -2.1916032498e-04 2.7261719921e+00 -4.7218684005e+00 2.7261719921e+00 4.7218684005e+00 
566400 4.6780985862e+00 -2.1904190100e-04 2.7261760117e+00 -4.7218753626e+00 2.7261760117e+00 4.7218753626e+00 
566500 4.6780985853e+00 -2.1892353994e-04 2.7261800291e+00 -4.7218823209e+00 2.7261800291e+00 4.7218823209e+00 
566600 4.6780985844e+00 -2.1880524175e-04 2.7261840443e+00 -4.7218892755e+00 2.7261840443e+00 4.7218892755e+00 
566700 4.6780985835e+00 -2.1868700641e-04 2.7261880573e+00 -4.7218962263e+00 2.7261880573e+00 4.7218962263e+00 
566800 4.6780985825e+00 -2.1856883388e-04 2.7261920682e+00 -4.7219031733e+00 2.7261920682e+00 4.7219031733e+00 
566900 4.6780985816e+00 -2.1845072413e-04 2.7261960769e+00 -4.7219101165e+00 2.7261960769e+00 4.7219101165e+00 
567000 4.6780985807e+00 -2.1833267712e-04 2.7262000834e+00 -4.7219170560e+00 2.7262000834e+00 4.7219170560e+00 
567100 4.6780985798e+00 -2.1821469283e-04 2.7262040877e+00 -4.7219239917e+00 2.7262040877e+00 4.7219239917e+00 
567200 4.6780985788e+00 -2.1809677123e-04 2.7262080899e+00 -4.7219309237e+00 2.7262080899e+00 4.7219309237e+00 
567300 4.6780985779e+00 -2.1797891228e-04 2.7262120899e+00 -4.7219378519e+00 2.7262120899e+00 4.7219378519e+00 
567400 4.6780985770e+00 -2.1786111595e-04 2.7262160877e+00 -4.7219447763e+00 2.7262160877e+00 4.7219447763e+00 
567500 4.6780985761e+00 -2.1774338221e-04 2.7262200834e+00 -4.7219516971e+00 2.7262200834e+00 4.7219516971e+00 
567600 4.6780985752e+00 -2.1762571102e-04 2.7262240769e+00 -4.7219586140e+00 2.7262240769e+00 4.7219586140e+00 
567700 4.6780985743e+00 -2.1750810236e-04 2.7262280682e+00 -4.7219655272e+00 2.7262280682e+00 4.7219655272e+00 
567800 4.6780985734e+00 -2.1739055619e-04 2.7262320574e+00 -4.7219724367e+00 2.7262320574e+00 4.7219724367e+00 
567900 4.6780985724e+00 -2.1727307249e-04 2.7262360444e+00 -4.7219793424e+00 2.7262360444e+00 4.7219793424e+00 
568000 4.6780985715e+00 -2.1715565121e-04 2.7262400293e+00 -4.7219862444e+00 2.7262400293e+00 4.7219862444e+00 
568100 4.6780985706e+00 -2.1703829233e-04 2.7262440120e+00 -4.7219931426e+00 2.7262440120e+00 4.7219931426e+00 
568200 4.6780985697e+00 -2.1692099581e-04 2.7262479925e+00 -4.7220000371e+00 2.7262479925e+00 4.7220000371e+00 
568300 4.6780985688e+00 -2.1680376163e-04 2.7262519709e+00 -4.7220069278e+00 2.7262519709e+00 4.7220069278e+00 
568400 4.6780985679e+00 -2.1668658975e-04 2.7262559471e+00 -4.7220138149e+00 2.7262559471e+00 4.7220138149e+00 
568500 4.6780985670e+00 -2.1656948015e-04 2.7262599212e+00 -4.7220206982e+00 2.7262599212e+00 4.7220206982e+00 
568600 4.6780985661e+00 -2.1645243278e-04 2.7262638931e+00 -4.7220275777e+00 2.7262638931e+00 4.7220275777e+00 
568700 4.6780985652e+00 -2.1633544761e-04 2.7262678629e+00 -4.7220344535e+00 2.7262678629e+00 4.7220344535e+00 
568800 4.6780985643e+00 -2.1621852462e-04 2.7262718305e+00 -4.7220413257e+00 2.7262718305e+00 4.7220413257e+00 
568900 4.6780985634e+00 -2.1610166378e-04 2.7262757960e+00 -4.7220481940e+00 2.7262757960e+00 4.7220481940e+00 
569000 4.6780985625e+00 -2.1598486504e-04 2.7262797593e+00 -4.7220550587e+00 2.7262797593e+00 4.7220550587e+00 
569100 4.6780985616e+00 -2.1586812839e-04 2.7262837204e+00 -4.7220619196e+00 2.7262837204e+00 4.7220619196e+00 
569200 4.6780985607e+00 -2.1575145379e-04 2.7262876795e+00 -4.7220687769e+00 2.7262876795e+00 4.7220687769e+00 
569300 4.6780985598e+00 -2.1563484120e-04 2.7262916363e+00 -4.7220756304e+00 2.7262916363e+00 4.7220756304e+00 
569400 4.6780985589e+00 -2.1551829059e-04 2.7262955911e+00 -4.7220824802e+00 2.7262955911e+00 4.7220824802e+00 
569500 4.6780985580e+00 -2.1540180194e-04 2.7262995436e+00 -4.7220893262e+00 2.7262995436e+00 4.7220893262e+00 
569600 4.6780985571e+00 -2.1528537522e-04 2.7263034941e+00 -4.7220961686e+00 2.7263034941e+00 4.7220961686e+00 
569700 4.6780985562e+00 -2.1516901038e-04 2.7263074424e+00 -4.7221030073e+00 2.7263074424e+00 4.7221030073e+00 
569800 4.6780985553e+00 -2.1505270740e-04 2.7263113885e+00 -4.7221098422e+00 2.7263113885e+00 4.7221098422e+00 
569900 4.6780985544e+00 -2.1493646625e-04 2.7263153326e+00 -4.7221166735e+00 2.7263153326e+00 4.7221166735e+00 
570000 4.6780985535e+00 -2.1482028689e-04 2.7263192745e+00 -4.7221235010e+00 2.7263192745e+00 4.7221235010e+00 
570100 4.6780985526e+00 -2.1470416930e-04 2.7263232142e+00 -4.7221303249e+00 2.7263232142e+00 4.7221303249e+00 
570200 4.6780985517e+00 -2.1458811344e-04 2.7263271518e+00 -4.7221371450e+00 2.7263271518e+00 4.7221371450e+00 
570300 4.6780985508e+00 -2.1447211928e-04 2.7263310873e+00 -4.7221439615e+00 2.7263310873e+00 4.7221439615e+00 
570400 4.6780985500e+00 -2.1435618679e-04 2.7263350207e+00 -4.7221507742e+00 2.7263350207e+00 4.7221507742e+00 
570500 4.6780985491e+00 -2.1424031594e-04 2.7263389519e+00 -4.7221575833e+00 2.7263389519e+00 4.7221575833e+00 
570600 4.6780985482e+00 -2.1412450670e-04 2.7263428810e+00 -4.7221643887e+00 2.7263428810e+00 4.7221643887e+00 
570700 4.6780985473e+00 -2.1400875903e-04 2.7263468079e+00 -4.7221711904e+00 2.7263468079e+00 4.7221711904e+00 
570800 4.6780985464e+00 -2.1389307290e-04 2.7263507327e+00 -4.7221779884e+00 2.7263507327e+00 4.7221779884e+00 
570900 4.6780985455e+00 -2.1377744829e-04 2.7263546554e+00 -4.7221847827e+00 2.7263546554e+00 4.7221847827e+00 
571000 4.6780985447e+00 -2.1366188516e-04 2.7263585760e+00 -4.7221915733e+00 2.7263585760e+00 4.7221915733e+00 
571100 4.6780985438e+00 -2.1354638348e-04 2.7263624945e+00 -4.7221983603e+00 2.7263624945e+00 4.7221983603e+00 
571200 4.6780985429e+00 -2.1343094321e-04 2.7263664108e+00 -4.7222051435e+00 2.7263664108e+00 4.7222051435e+00 
571300 4.6780985420e+00 -2.1331556433e-04 2.7263703250e+00 -4.7222119231e+00 2.7263703250e+00 4.7222119231e+00 
571400 4.6780985411e+00 -2.1320024681e-04 2.7263742371e+00 -4.7222186990e+00 2.7263742371e+00 4.7222186990e+00 
571500 4.6780985403e+00 -2.1308499061e-04 2.7263781470e+00 -4.7222254713e+00 2.7263781470e+00 4.7222254713e+00 
571600 4.6780985394e+00 -2.1296979571e-04 2.7263820549e+00 -4.7222322399e+00 2.7263820549e+00 4.7222322399e+00 
571700 4.6780985385e+00 -2.1285466207e-04 2.7263859606e+00 -4.7222390048e+00 2.7263859606e+00 4.7222390048e+00 
571800 4.6780985376e+00 -2.1273958965e-04 2.7263898642e+00 -4.7222457660e+00 2.7263898642e+00 4.7222457660e+00 
571900 4.6780985368e+00 -2.1262457844e-04 2.7263937657e+00 -4.7222525236e+00 2.7263937657e+00 4.7222525236e+00 
572000 4.6780985359e+00 -2.1250962839e-04 2.7263976651e+00 -4.7222592775e+00 2.7263976651e+00 4.7222592775e+00 
572100 4.6780985350e+00 -2.1239473948e-04 2.7264015623e+00 -4.7222660278e+00 2.7264015623e+00 4.7222660278e+00 
572200 4.6780985341e+00 -2.1227991168e-04 2.7264054575e+00 -4.7222727744e+00 2.7264054575e+00 4.7222727744e+00 
572300 4.6780985333e+00 -2.1216514495e-04 2.7264093505e+00 -4.7222795173e+00 2.7264093505e+00 4.7222795173e+00 
572400 4.6780985324e+00 -2.1205043926e-04 2.7264132414e+00 -4.7222862566e+00 2.7264132414e+00 4.7222862566e+00 
572500 4.6780985315e+00 -2.1193579459e-04 2.7264171303e+00 -4.7222929922e+00 2.7264171303e+00 4.7222929922e+00 
572600 4.6780985307e+00 -2.1182121089e-04 2.7264210170e+00 -4.7222997242e+00 2.7264210170e+00 4.7222997242e+00 
572700 4.6780985298e+00 -2.1170668815e-04 2.7264249016e+00 -4.7223064525e+00 2.7264249016e+00 4.7223064525e+00 
572800 4.6780985289e+00 -2.1159222632e-04 2.7264287841e+00 -4.7223131772e+00 2.7264287841e+00 4.7223131772e+00 
572900 4.6780985281e+00 -2.1147782538e-04 2.7264326645e+00 -4.7223198983e+00 2.7264326645e+00 4.7223198983e+00 
573000 4.6780985272e+00 -2.1136348529e-04 2.7264365427e+00 -4.7223266156e+00 2.7264365427e+00 4.7223266156e+00 
573100 4.6780985264e+00 -2.1124920603e-04 2.7264404189e+00 -4.7223333294e+00 2.7264404189e+00 4.7223333294e+00 
573200 4.6780985255e+00 -2.1113498757e-04 2.7264442930e+00 -4.7223400395e+00 2.7264442930e+00 4.7223400395e+00 
573300 4.6780985246e+00 -2.1102082986e-04 2.7264481650e+00 -4.7223467460e+00 2.7264481650e+00 4.7223467460e+00 
573400 4.6780985238e+00 -2.1090673289e-04 2.7264520349e+00 -4.7223534488e+00 2.7264520349e+00 4.7223534488e+00 
573500 4.6780985229e+00 -2.1079269662e-04 2.7264559027e+00 -4.7223601480e+00 2.7264559027e+00 4.7223601480e+00 
573600 4.6780985221e+00 -2.1067872102e-04 2.7264597684e+00 -4.7223668436e+00 2.7264597684e+00 4.7223668436e+00 
573700 4.6780985212e+00 -2.1056480606e-04 2.7264636320e+00 -4.7223735356e+00 2.7264636320e+00 4.7223735356e+00 
573800 4.6780985203e+00 -2.1045095170e-04 2.7264674935e+00 -4.7223802239e+00 2.7264674935e+00 4.7223802239e+00 
573900 4.6780985195e+00 -2.1033715793e-04 2.7264713529e+00 -4.7223869086e+00 2.7264713529e+00 4.7223869086e+00 
574000 4.6780985186e+00 -2.1022342469e-04 2.7264752102e+00 -4.7223935896e+00 2.7264752102e+00 4.7223935896e+00 
574100 4.6780985178e+00 -2.1010975197e-04 2.7264790654e+00 -4.7224002671e+00 2.7264790654e+00 4.7224002671e+00 
574200 4.6780985169e+00 -2.0999613974e-04 2.7264829185e+00 -4.7224069409e+00 2.7264829185e+00 4.7224069409e+00 
574300 4.6780985161e+00 -2.0988258796e-04 2.7264867696e+00 -4.7224136111e+00 2.7264867696e+00 4.7224136111e+00 
574400 4.6780985152e+00 -2.0976909660e-04 2.7264906186e+00 -4.7224202777e+00 2.7264906186e+00 4.7224202777e+00 
574500 4.6780985144e+00 -2.0965566563e-04 2.7264944654e+00 -4.7224269407e+00 2.7264944654e+00 4.7224269407e+00 
574600 4.6780985135e+00 -2.0954229502e-04 2.7264983102e+00 -4.7224336000e+00 2.7264983102e+00 4.7224336000e+00 
574700 4.6780985127e+00 -2.0942898474e-04 2.7265021529e+00 -4.7224402558e+00 2.7265021529e+00 4.7224402558e+00 
574800 4.6780985118e+00 -2.0931573476e-04 2.7265059935e+00 -4.7224469079e+00 2.7265059935e+00 4.7224469079e+00 
574900 4.6780985110e+00 -2.0920254505e-04 2.7265098321e+00 -4.7224535565e+00 2.7265098321e+00 4.7224535565e+00 
575000 4.6780985102e+00 -2.0908941557e-04 2.7265136685e+00 -4.7224602014e+00 2.7265136685e+00 4.7224602014e+00 
575100 4.6780985093e+00 -2.0897634630e-04 2.7265175029e+00 -4.7224668427e+00 2.7265175029e+00 4.7224668427e+00 
575200 4.6780985085e+00 -2.0886333720e-04 2.7265213352e+00 -4.7224734805e+00 2.7265213352e+00 4.7224734805e+00 
575300 4.6780985076e+00 -2.0875038825e-04 2.7265251654e+00 -4.7224801146e+00 2.7265251654e+00 4.7224801146e+00 
575400 4.6780985068e+00 -2.0863749941e-04 2.7265289935e+00 -4.7224867451e+00 2.7265289935e+00 4.7224867451e+00 
575500 4.6780985059e+00 -2.0852467066e-04 2.7265328196e+00 -4.7224933721e+00 2.7265328196e+00 4.7224933721e+00 
575600 4.6780985051e+00 -2.0841190195e-04 2.7265366436e+00 -4.7224999954e+00 2.7265366436e+00 4.7224999954e+00 
575700 4.6780985043e+00 -2.0829919327e-04 2.7265404655e+00 -4.7225066152e+00 2.7265404655e+00 4.7225066152e+00 
575800 4.6780985034e+00 -2.0818654458e-04 2.7265442854e+00 -4.7225132313e+00 2.7265442854e+00 4.7225132313e+00 
575900 4.6780985026e+00 -2.0807395584e-04 2.7265481031e+00 -4.7225198439e+00 2.7265481031e+00 4.7225198439e+00 
576000 4.6780985018e+00 -2.0796142704e-04 2.7265519188e+00 -4.7225264529e+00 2.7265519188e+00 4.7225264529e+00 
576100 4.6780985009e+00 -2.0784895814e-04 2.7265557325e+00 -4.7225330583e+00 2.7265557325e+00 4.7225330583e+00 
576200 4.6780985001e+00 -2.0773654910e-04 2.7265595440e+00 -4.7225396601e+00 2.7265595440e+00 4.7225396601e+00 
576300 4.6780984993e+00 -2.0762419990e-04 2.7265633535e+00 -4.7225462584e+00 2.7265633535e+00 4.7225462584e+00 
576400 4.6780984984e+00 -2.0751191051e-04 2.7265671610e+00 -4.7225528531e+00 2.7265671610e+00 4.7225528531e+00 
576500 4.6780984976e+00 -2.0739968089e-04 2.7265709663e+00 -4.7225594442e+00 2.7265709663e+00 4.7225594442e+00 
576600 4.6780984968e+00 -2.0728751102e-04 2.7265747697e+00 -4.7225660317e+00 2.7265747697e+00 4.7225660317e+00 
576700 4.6780984959e+00 -2.0717540086e-04 2.7265785709e+00 -4.7225726156e+00 2.7265785709e+00 4.7225726156e+00 
576800 4.6780984951e+00 -2.0706335039e-04 2.7265823701e+00 -4.7225791960e+00 2.7265823701e+00 4.7225791960e+00 
576900 4.6780984943e+00 -2.0695135957e-04 2.7265861672e+00 -4.7225857728e+00 2.7265861672e+00 4.7225857728e+00 
577000 4.6780984935e+00 -2.0683942837e-04 2.7265899623e+00 -4.7225923461e+00 2.7265899623e+00 4.7225923461e+00 
577100 4.6780984926e+00 -2.0672755677e-04 2.7265937553e+00 -4.7225989157e+00 2.7265937553e+00 4.7225989157e+00 
577200 4.6780984918e+00 -2.0661574472e-04 2.7265975462e+00 -4.7226054819e+00 2.7265975462e+00 4.7226054819e+00 
577300 4.6780984910e+00 -2.0650399221e-04 2.7266013351e+00 -4.7226120444e+00 2.7266013351e+00 4.7226120444e+00 
577400 4.6780984902e+00 -2.0639229920e-04 2.7266051220e+00 -4.7226186034e+00 2.7266051220e+00 4.7226186034e+00 
577500 4.6780984893e+00 -2.0628066567e-04 2.7266089067e+00 -4.7226251589e+00 2.7266089067e+00 4.7226251589e+00 
577600 4.6780984885e+00 -2.0616909157e-04 2.7266126895e+00 -4.7226317107e+00 2.7266126895e+00 4.7226317107e+00 
577700 4.6780984877e+00 -2.0605757688e-04 2.7266164702e+00 -4.7226382591e+00 2.7266164702e+00 4.7226382591e+00 
577800 4.6780984869e+00 -2.0594612157e-04 2.7266202488e+00 -4.7226448039e+00 2.7266202488e+00 4.7226448039e+00 
577900 4.6780984861e+00 -2.0583472560e-04 2.7266240254e+00 -4.7226513451e+00 2.7266240254e+00 4.7226513451e+00 
578000 4.6780984852e+00 -2.0572338896e-04 2.7266277999e+00 -4.7226578828e+00 2.7266277999e+00 4.7226578828e+00 
578100 4.6780984844e+00 -2.0561211160e-04 2.7266315724e+00 -4.7226644169e+00 2.7266315724e+00 4.7226644169e+00 
578200 4.6780984836e+00 -2.0550089350e-04 2.7266353428e+00 -4.7226709475e+00 2.7266353428e+00 4.7226709475e+00 
578300 4.6780984828e+00 -2.0538973463e-04 2.7266391112e+00 -4.7226774746e+00 2.7266391112e+00 4.7226774746e+00 
578400 4.6780984820e+00 -2.0527863496e-04 2.7266428776e+00 -4.7226839981e+00 2.7266428776e+00 4.7226839981e+00 
578500 4.6780984812e+00 -2.0516759445e-04 2.7266466419e+00 -4.7226905181e+00 2.7266466419e+00 4.7226905181e+00 
578600 4.6780984804e+00 -2.0505661308e-04 2.7266504042e+00 -4.7226970345e+00 2.7266504042e+00 4.7226970345e+00 
578700 4.6780984795e+00 -2.0494569081e-04 2.7266541644e+00 -4.7227035474e+00 2.7266541644e+00 4.7227035474e+00 
578800 4.6780984787e+00 -2.0483482762e-04 2.7266579226e+00 -4.7227100568e+00 2.7266579226e+00 4.7227100568e+00 
578900 4.6780984779e+00 -2.0472402348e-04 2.7266616788e+00 -4.7227165626e+00 2.7266616788e+00 4.7227165626e+00 
579000 4.6780984771e+00 -2.0461327835e-04 2.7266654329e+00 -4.7227230650e+00 2.7266654329e+00 4.7227230650e+00 
579100 4.6780984763e+00 -2.0450259220e-04 2.7266691849e+00 -4.7227295638e+00 2.7266691849e+00 4.7227295638e+00 
579200 4.6780984755e+00 -2.0439196501e-04 2.7266729350e+00 -4.7227360590e+00 2.7266729350e+00 4.7227360590e+00 
579300 4.6780984747e+00 -2.0428139674e-04 2.7266766830e+00 -4.7227425508e+00 2.7266766830e+00 4.7227425508e+00 
579400 4.6780984739e+00 -2.0417088737e-04 2.7266804290e+00 -4.7227490390e+00 2.7266804290e+00 4.7227490390e+00 
579500 4.6780984731e+00 -2.0406043686e-04 2.7266841729e+00 -4.7227555237e+00 2.7266841729e+00 4.7227555237e+00 
579600 4.6780984723e+00 -2.0395004518e-04 2.7266879148e+00 -4.7227620049e+00 2.7266879148e+00 4.7227620049e+00 
579700 4.6780984715e+00 -2.0383971231e-04 2.7266916547e+00 -4.7227684826e+00 2.7266916547e+00 4.7227684826e+00 
579800 4.6780984707e+00 -2.0372943821e-04 2.7266953926e+00 -4.7227749567e+00 2.7266953926e+00 4.7227749567e+00 
579900 4.6780984699e+00 -2.0361922286e-04 2.7266991284e+00 -4.7227814274e+00 2.7266991284e+00 4.7227814274e+00 
580000 4.6780984691e+00 -2.0350906621e-04 2.7267028622e+00 -4.7227878945e+00 2.7267028622e+00 4.7227878945e+00 
580100 4.6780984683e+00 -2.0339896825e-04 2.7267065940e+00 -4.7227943582e+00 2.7267065940e+00 4.7227943582e+00 
580200 4.6780984675e+00 -2.0328892895e-04 2.7267103238e+00 -4.7228008183e+00 2.7267103238e+00 4.7228008183e+00 
580300 4.6780984667e+00 -2.0317894826e-04 2.7267140515e+00 -4.7228072749e+00 2.7267140515e+00 4.7228072749e+00 
580400 4.6780984659e+00 -2.0306902617e-04 2.7267177772e+00 -4.7228137280e+00 2.7267177772e+00 4.7228137280e+00 
580500 4.6780984651e+00 -2.0295916264e-04 2.7267215009e+00 -4.7228201776e+00 2.7267215009e+00 4.7228201776e+00 
580600 4.6780984643e+00 -2.0284935764e-04 2.7267252226e+00 -4.7228266238e+00 2.7267252226e+00 4.7228266238e+00 
580700 4.6780984635e+00 -2.0273961115e-04 2.7267289422e+00 -4.7228330664e+00 2.7267289422e+00 4.7228330664e+00 
580800 4.6780984627e+00 -2.0262992313e-04 2.7267326599e+00 -4.7228395055e+00 2.7267326599e+00 4.7228395055e+00 
580900 4.6780984619e+00 -2.0252029355e-04 2.7267363755e+00 -4.7228459412e+00 2.7267363755e+00 4.7228459412e+00 
581000 4.6780984611e+00 -2.0241072238e-04 2.7267400891e+00 -4.7228523733e+00 2.7267400891e+00 4.7228523733e+00 
581100 4.6780984603e+00 -2.0230120960e-04 2.7267438007e+00 -4.7228588020e+00 2.7267438007e+00 4.7228588020e+00 
581200 4.6780984596e+00 -2.0219175517e-04 2.7267475102e+00 -4.7228652272e+00 2.7267475102e+00 4.7228652272e+00 
581300 4.6780984588e+00 -2.0208235906e-04 2.7267512178e+00 -4.7228716488e+00 2.7267512178e+00 4.7228716488e+00 
581400 4.6780984580e+00 -2.0197302124e-04 2.7267549234e+00 -4.7228780670e+00 2.7267549234e+00 4.7228780670e+00 
581500 4.6780984572e+00 -2.0186374169e-04 2.7267586269e+00 -4.7228844818e+00 2.7267586269e+00 4.7228844818e+00 
581600 4.6780984564e+00 -2.0175452037e-04 2.7267623284e+00 -4.7228908930e+00 2.7267623284e+00 4.7228908930e+00 
581700 4.6780984556e+00 -2.0164535725e-04 2.7267660280e+00 -4.7228973008e+00 2.7267660280e+00 4.7228973008e+00 
581800 4.6780984548e+00 -2.0153625230e-04 2.7267697255e+00 -4.7229037051e+00 2.7267697255e+00 4.7229037051e+00 
581900 4.6780984540e+00 -2.0142720550e-04 2.7267734210e+00 -4.7229101059e+00 2.7267734210e+00 4.7229101059e+00 
582000 4.6780984533e+00 -2.0131821681e-04 2.7267771145e+00 -4.7229165032e+00 2.7267771145e+00 4.7229165032e+00 
582100 4.6780984525e+00 -2.0120928621e-04 2.7267808060e+00 -4.7229228971e+00 2.7267808060e+00 4.7229228971e+00 
582200 4.6780984517e+00 -2.0110041366e-04 2.7267844955e+00 -4.7229292875e+00 2.7267844955e+00 4.7229292875e+00 
582300 4.6780984509e+00 -2.0099159913e-04 2.7267881830e+00 -4.7229356745e+00 2.7267881830e+00 4.7229356745e+00 
582400 4.6780984501e+00 -2.0088284259e-04 2.7267918685e+00 -4.7229420579e+00 2.7267918685e+00 4.7229420579e+00 
582500 4.6780984494e+00 -2.0077414402e-04 2.7267955520e+00 -4.7229484380e+00 2.7267955520e+00 4.7229484380e+00 
582600 4.6780984486e+00 -2.0066550339e-04 2.7267992335e+00 -4.7229548145e+00 2.7267992335e+00 4.7229548145e+00 
582700 4.6780984478e+00 -2.0055692066e-04 2.7268029130e+00 -4.7229611876e+00 2.7268029130e+00 4.7229611876e+00 
582800 4.6780984470e+00 -2.0044839580e-04 2.7268065905e+00 -4.7229675572e+00 2.7268065905e+00 4.7229675572e+00 
582900 4.6780984463e+00 -2.0033992879e-04 2.7268102661e+00 -4.7229739234e+00 2.7268102661e+00 4.7229739234e+00 
583000 4.6780984455e+00 -2.0023151960e-04 2.7268139396e+00 -4.7229802861e+00 2.7268139396e+00 4.7229802861e+00 
583100 4.6780984447e+00 -2.0012316819e-04 2.7268176111e+00 -4.7229866454e+00 2.7268176111e+00 4.7229866454e+00 
583200 4.6780984439e+00 -2.0001487454e-04 2.7268212806e+00 -4.7229930012e+00 2.7268212806e+00 4.7229930012e+00 
583300 4.6780984432e+00 -1.9990663861e-04 2.7268249482e+00 -4.7229993536e+00 2.7268249482e+00 4.7229993536e+00 
583400 4.6780984424e+00 -1.9979846038e-04 2.7268286138e+00 -4.7230057026e+00 2.7268286138e+00 4.7230057026e+00 
583500 4.6780984416e+00 -1.9969033982e-04 2.7268322773e+00 -4.7230120480e+00 2.7268322773e+00 4.7230120480e+00 
583600 4.6780984409e+00 -1.9958227690e-04 2.7268359389e+00 -4.7230183901e+00 2.7268359389e+00 4.7230183901e+00 
583700 4.6780984401e+00 -1.9947427158e-04 2.7268395985e+00 -4.7230247287e+00 2.7268395985e+00 4.7230247287e+00 
583800 4.6780984393e+00 -1.9936632384e-04 2.7268432561e+00 -4.7230310639e+00 2.7268432561e+00 4.7230310639e+00 
583900 4.6780984386e+00 -1.9925843365e-04 2.7268469117e+00 -4.7230373956e+00 2.7268469117e+00 4.7230373956e+00 
584000 4.6780984378e+00 -1.9915060098e-04 2.7268505654e+00 -4.7230437239e+00 2.7268505654e+00 4.7230437239e+00 
584100 4.6780984370e+00 -1.9904282580e-04 2.7268542170e+00 -4.7230500487e+00 2.7268542170e+00 4.7230500487e+00 
584200 4.6780984363e+00 -1.9893510808e-04 2.7268578667e+00 -4.7230563702e+00 2.7268578667e+00 4.7230563702e+00 
584300 4.6780984355e+00 -1.9882744779e-04 2.7268615144e+00 -4.7230626882e+00 2.7268615144e+00 4.7230626882e+00 
584400 4.6780984347e+00 -1.9871984490e-04 2.7268651601e+00 -4.7230690027e+00 2.7268651601e+00 4.7230690027e+00 
584500 4.6780984340e+00 -1.9861229939e-04 2.7268688039e+00 -4.7230753139e+00 2.7268688039e+00 4.7230753139e+00 
584600 4.6780984332e+00 -1.9850481121e-04 2.7268724456e+00 -4.7230816216e+00 2.7268724456e+00 4.7230816216e+00 
584700 4.6780984325e+00 -1.9839738035e-04 2.7268760854e+00 -4.7230879259e+00 2.7268760854e+00 4.7230879259e+00 
584800 4.6780984317e+00 -1.9829000677e-04 2.7268797233e+00 -4.7230942268e+00 2.7268797233e+00 4.7230942268e+00 
584900 4.6780984309e+00 -1.9818269044e-04 2.7268833591e+00 -4.7231005243e+00 2.7268833591e+00 4.7231005243e+00 
585000 4.6780984302e+00 -1.9807543134e-04 2.7268869930e+00 -4.7231068183e+00 2.7268869930e+00 4.7231068183e+00 
585100 4.6780984294e+00 -1.9796822943e-04 2.7268906249e+00 -4.7231131089e+00 2.7268906249e+00 4.7231131089e+00 
585200 4.6780984287e+00 -1.9786108469e-04 2.7268942548e+00 -4.7231193962e+00 2.7268942548e+00 4.7231193962e+00 
585300 4.6780984279e+00 -1.9775399708e-04 2.7268978827e+00 -4.7231256800e+00 2.7268978827e+00 4.7231256800e+00 
585400 4.6780984272e+00 -1.9764696658e-04 2.7269015087e+00 -4.7231319604e+00 2.7269015087e+00 4.7231319604e+00 
585500 4.6780984264e+00 -1.9753999316e-04 2.7269051328e+00 -4.7231382374e+00 2.7269051328e+00 4.7231382374e+00 
585600 4.6780984256e+00 -1.9743307678e-04 2.7269087548e+00 -4.7231445109e+00 2.7269087548e+00 4.7231445109e+00 
585700 4.6780984249e+00 -1.9732621743e-04 2.7269123749e+00 -4.7231507811e+00 2.7269123749e+00 4.7231507811e+00 
585800 4.6780984241e+00 -1.9721941506e-04 2.7269159930e+00 -4.7231570479e+00 2.7269159930e+00 4.7231570479e+00 
585900 4.6780984234e+00 -1.9711266965e-04 2.7269196092e+00 -4.7231633113e+00 2.7269196092e+00 4.7231633113e+00 
586000 4.6780984226e+00 -1.9700598117e-04 2.7269232234e+00 -4.7231695713e+00 2.7269232234e+00 4.7231695713e+00 
586100 4.6780984219e+00 -1.9689934960e-04 2.7269268356e+00 -4.7231758278e+00 2.7269268356e+00 4.7231758278e+00 
586200 4.6780984211e+00 -1.9679277489e-04 2.7269304459e+00 -4.7231820810e+00 2.7269304459e+00 4.7231820810e+00 
586300 4.6780984204e+00 -1.9668625703e-04 2.7269340542e+00 -4.7231883308e+00 2.7269340542e+00 4.7231883308e+00 
586400 4.6780984197e+00 -1.9657979598e-04 2.7269376606e+00 -4.7231945772e+00 2.7269376606e+00 4.7231945772e+00 
586500 4.6780984189e+00 -1.9647339172e-04 2.7269412650e+00 -4.7232008202e+00 2.7269412650e+00 4.7232008202e+00 
586600 4.6780984182e+00 -1.9636704421e-04 2.7269448675e+00 -4.7232070599e+00 2.7269448675e+00 4.7232070599e+00 
586700 4.6780984174e+00 -1.9626075343e-04 2.7269484679e+00 -4.7232132961e+00 2.7269484679e+00 4.7232132961e+00 
586800 4.6780984167e+00 -1.9615451934e-04 2.7269520665e+00 -4.7232195290e+00 2.7269520665e+00 4.7232195290e+00 
586900 4.6780984159e+00 -1.9604834192e-04 2.7269556631e+00 -4.7232257584e+00 2.7269556631e+00 4.7232257584e+00 
587000 4.6780984152e+00 -1.9594222114e-04 2.7269592577e+00 -4.7232319845e+00 2.7269592577e+00 4.7232319845e+00 
587100 4.6780984145e+00 -1.9583615697e-04 2.7269628504e+00 -4.7232382073e+00 2.7269628504e+00 4.7232382073e+00 
587200 4.6780984137e+00 -1.9573014937e-04 2.7269664411e+00 -4.7232444266e+00 2.7269664411e+00 4.7232444266e+00 
587300 4.6780984130e+00 -1.9562419833e-04 2.7269700299e+00 -4.7232506426e+00 2.7269700299e+00 4.7232506426e+00 
587400 4.6780984122e+00 -1.9551830381e-04 2.7269736168e+00 -4.7232568552e+00 2.7269736168e+00 4.7232568552e+00 
587500 4.6780984115e+00 -1.9541246578e-04 2.7269772017e+00 -4.7232630644e+00 2.7269772017e+00 4.7232630644e+00 
587600 4.6780984108e+00 -1.9530668422e-04 2.7269807846e+00 -4.7232692702e+00 2.7269807846e+00 4.7232692702e+00 
587700 4.6780984100e+00 -1.9520095909e-04 2.7269843656e+00 -4.7232754727e+00 2.7269843656e+00 4.7232754727e+00 
587800 4.6780984093e+00 -1.9509529037e-04 2.7269879447e+00 -4.7232816718e+00 2.7269879447e+00 4.7232816718e+00 
587900 4.6780984086e+00 -1.9498967802e-04 2.7269915218e+00 -4.7232878676e+00 2.7269915218e+00 4.7232878676e+00 
588000 4.6780984078e+00 -1.9488412202e-04 2.7269950970e+00 -4.7232940600e+00 2.7269950970e+00 4.7232940600e+00 
588100 4.6780984071e+00 -1.9477862234e-04 2.7269986702e+00 -4.7233002490e+00 2.7269986702e+00 4.7233002490e+00 
588200 4.6780984064e+00 -1.9467317894e-04 2.7270022415e+00 -4.7233064347e+00 2.7270022415e+00 4.7233064347e+00 
588300 4.6780984056e+00 -1.9456779181e-04 2.7270058109e+00 -4.7233126170e+00 2.7270058109e+00 4.7233126170e+00 
588400 4.6780984049e+00 -1.9446246091e-04 2.7270093783e+00 -4.7233187960e+00 2.7270093783e+00 4.7233187960e+00 
588500 4.6780984042e+00 -1.9435718621e-04 2.7270129438e+00 -4.7233249716e+00 2.7270129438e+00 4.7233249716e+00 
588600 4.6780984034e+00 -1.9425196768e-04 2.7270165074e+00 -4.7233311438e+00 2.7270165074e+00 4.7233311438e+00 
588700 4.6780984027e+00 -1.9414680530e-04 2.7270200690e+00 -4.7233373128e+00 2.7270200690e+00 4.7233373128e+00 
588800 4.6780984020e+00 -1.9404169903e-04 2.7270236287e+00 -4.7233434783e+00 2.7270236287e+00 4.7233434783e+00 
588900 4.6780984013e+00 -1.9393664885e-04 2.7270271864e+00 -4.7233496405e+00 2.7270271864e+00 4.7233496405e+00 
589000 4.6780984005e+00 -1.9383165473e-04 2.7270307423e+00 -4.7233557994e+00 2.7270307423e+00 4.7233557994e+00 
589100 4.6780983998e+00 -1.9372671664e-04 2.7270342962e+00 -4.7233619549e+00 2.7270342962e+00 4.7233619549e+00 
589200 4.6780983991e+00 -1.9362183455e-04 2.7270378481e+00 -4.7233681071e+00 2.7270378481e+00 4.7233681071e+00 
589300 4.6780983984e+00 -1.9351700842e-04 2.7270413982e+00 -4.7233742560e+00 2.7270413982e+00 4.7233742560e+00 
589400 4.6780983976e+00 -1.9341223824e-04 2.7270449463e+00 -4.7233804015e+00 2.7270449463e+00 4.7233804015e+00 
589500 4.6780983969e+00 -1.9330752398e-04 2.7270484925e+00 -4.7233865437e+00 2.7270484925e+00 4.7233865437e+00 
589600 4.6780983962e+00 -1.9320286560e-04 2.7270520367e+00 -4.7233926825e+00 2.7270520367e+00 4.7233926825e+00 
589700 4.6780983955e+00 -1.9309826307e-04 2.7270555791e+00 -4.7233988180e+00 2.7270555791e+00 4.7233988180e+00 
589800 4.6780983948e+00 -1.9299371637e-04 2.7270591195e+00 -4.7234049502e+00 2.7270591195e+00 4.7234049502e+00 
589900 4.6780983940e+00 -1.9288922547e-04 2.7270626580e+00 -4.7234110791e+00 2.7270626580e+00 4.7234110791e+00 
590000 4.6780983933e+00 -1.9278479034e-04 2.7270661946e+00 -4.7234172046e+00 2.7270661946e+00 4.7234172046e+00 
590100 4.6780983926e+00 -1.9268041095e-04 2.7270697292e+00 -4.7234233268e+00 2.7270697292e+00 4.7234233268e+00 
590200 4.6780983919e+00 -1.9257608727e-04 2.7270732620e+00 -4.7234294457e+00 2.7270732620e+00 4.7234294457e+00 
590300 4.6780983912e+00 -1.9247181928e-04 2.7270767928e+00 -4.7234355612e+00 2.7270767928e+00 4.7234355612e+00 
590400 4.6780983905e+00 -1.9236760693e-04 2.7270803217e+00 -4.7234416735e+00 2.7270803217e+00 4.7234416735e+00 
590500 4.6780983897e+00 -1.9226345022e-04 2.7270838487e+00 -4.7234477824e+00 2.7270838487e+00 4.7234477824e+00 
590600 4.6780983890e+00 -1.9215934910e-04 2.7270873737e+00 -4.7234538880e+00 2.7270873737e+00 4.7234538880e+00 
590700 4.6780983883e+00 -1.9205530355e-04 2.7270908969e+00 -4.7234599903e+00 2.7270908969e+00 4.7234599903e+00 
590800 4.6780983876e+00 -1.9195131354e-04 2.7270944182e+00 -4.7234660893e+00 2.7270944182e+00 4.7234660893e+00 
590900 4.6780983869e+00 -1.9184737905e-04 2.7270979375e+00 -4.7234721850e+00 2.7270979375e+00 4.7234721850e+00 
591000 4.6780983862e+00 -1.9174350003e-04 2.7271014549e+00 -4.7234782773e+00 2.7271014549e+00 4.7234782773e+00 
591100 4.6780983855e+00 -1.9163967647e-04 2.7271049704e+00 -4.7234843664e+00 2.7271049704e+00 4.7234843664e+00 
591200 4.6780983848e+00 -1.9153590833e-04 2.7271084841e+00 -4.7234904521e+00 2.7271084841e+00 4.7234904521e+00 
591300 4.6780983841e+00 -1.9143219559e-04 2.7271119958e+00 -4.7234965346e+00 2.7271119958e+00 4.7234965346e+00 
591400 4.6780983834e+00 -1.9132853822e-04 2.7271155056e+00 -4.7235026137e+00 2.7271155056e+00 4.7235026137e+00 
591500 4.6780983827e+00 -1.9122493619e-04 2.7271190134e+00 -4.7235086896e+00 2.7271190134e+00 4.7235086896e+00 
591600 4.6780983819e+00 -1.9112138947e-04 2.7271225194e+00 -4.7235147621e+00 2.7271225194e+00 4.7235147621e+00 
591700 4.6780983812e+00 -1.9101789803e-04 2.7271260235e+00 -4.7235208314e+00 2.7271260235e+00 4.7235208314e+00 
591800 4.6780983805e+00 -1.9091446185e-04 2.7271295257e+00 -4.7235268973e+00 2.7271295257e+00 4.7235268973e+00 
591900 4.6780983798e+00 -1.9081108089e-04 2.7271330260e+00 -4.7235329600e+00 2.7271330260e+00 4.7235329600e+00 
592000 4.6780983791e+00 -1.9070775513e-04 2.7271365244e+00 -4.7235390194e+00 2.7271365244e+00 4.7235390194e+00 
592100 4.6780983784e+00 -1.9060448454e-04 2.7271400209e+00 -4.7235450755e+00 2.7271400209e+00 4.7235450755e+00 
592200 4.6780983777e+00 -1.9050126909e-04 2.7271435154e+00 -4.7235511283e+00 2.7271435154e+00 4.7235511283e+00 
592300 4.6780983770e+00 -1.9039810874e-04 2.7271470081e+00 -4.7235571778e+00 2.7271470081e+00 4.7235571778e+00 
592400 4.6780983763e+00 -1.9029500349e-04 2.7271504989e+00 -4.7235632240e+00 2.7271504989e+00 4.7235632240e+00 
592500 4.6780983756e+00 -1.9019195328e-04 2.7271539878e+00 -4.7235692670e+00 2.7271539878e+00 4.7235692670e+00 
592600 4.6780983749e+00 -1.9008895811e-04 2.7271574748e+00 -4.7235753066e+00 2.7271574748e+00 4.7235753066e+00 
592700 4.6780983742e+00 -1.8998601793e-04 2.7271609599e+00 -4.7235813430e+00 2.7271609599e+00 4.7235813430e+00 
592800 4.6780983735e+00 -1.8988313272e-04 2.7271644432e+00 -4.7235873762e+00 2.7271644432e+00 4.7235873762e+00 
592900 4.6780983728e+00 -1.8978030245e-04 2.7271679245e+00 -4.7235934060e+00 2.7271679245e+00 4.7235934060e+00 
593000 4.6780983722e+00 -1.8967752710e-04 2.7271714039e+00 -4.7235994326e+00 2.7271714039e+00 4.7235994326e+00 
593100 4.6780983715e+00 -1.8957480663e-04 2.7271748815e+00 -4.7236054559e+00 2.7271748815e+00 4.7236054559e+00 
593200 4.6780983708e+00 -1.8947214102e-04 2.7271783571e+00 -4.7236114759e+00 2.7271783571e+00 4.7236114759e+00 
593300 4.6780983701e+00 -1.8936953023e-04 2.7271818309e+00 -4.7236174926e+00 2.7271818309e+00 4.7236174926e+00 
593400 4.6780983694e+00 -1.8926697425e-04 2.7271853028e+00 -4.7236235061e+00 2.7271853028e+00 4.7236235061e+00 
593500 4.6780983687e+00 -1.8916447303e-04 2.7271887728e+00 -4.7236295164e+00 2.7271887728e+00 4.7236295164e+00 
593600 4.6780983680e+00 -1.8906202656e-04 2.7271922409e+00 -4.7236355233e+00 2.7271922409e+00 4.7236355233e+00 
593700 4.6780983673e+00 -1.8895963480e-04 2.7271957072e+00 -4.7236415270e+00 2.7271957072e+00 4.7236415270e+00 
593800 4.6780983666e+00 -1.8885729773e-04 2.7271991715e+00 -4.7236475275e+00 2.7271991715e+00 4.7236475275e+00 
593900 4.6780983659e+00 -1.8875501532e-04 2.7272026340e+00 -4.7236535247e+00 2.7272026340e+00 4.7236535247e+00 
594000 4.6780983652e+00 -1.8865278754e-04 2.7272060946e+00 -4.7236595186e+00 2.7272060946e+00 4.7236595186e+00 
594100 4.6780983646e+00 -1.8855061436e-04 2.7272095533e+00 -4.7236655093e+00 2.7272095533e+00 4.7236655093e+00 
594200 4.6780983639e+00 -1.8844849575e-04 2.7272130102e+00 -4.7236714967e+00 2.7272130102e+00 4.7236714967e+00 
594300 4.6780983632e+00 -1.8834643169e-04 2.7272164651e+00 -4.7236774809e+00 2.7272164651e+00 4.7236774809e+00 
594400 4.6780983625e+00 -1.8824442214e-04 2.7272199182e+00 -4.7236834618e+00 2.7272199182e+00 4.7236834618e+00 
594500 4.6780983618e+00 -1.8814246709e-04 2.7272233695e+00 -4.7236894395e+00 2.7272233695e+00 4.7236894395e+00 
594600 4.6780983611e+00 -1.8804056649e-04 2.7272268188e+00 -4.7236954139e+00 2.7272268188e+00 4.7236954139e+00 
594700 4.6780983605e+00 -1.8793872033e-04 2.7272302663e+00 -4.7237013851e+00 2.7272302663e+00 4.7237013851e+00 
594800 4.6780983598e+00 -1.8783692857e-04 2.7272337119e+00 -4.7237073531e+00 2.7272337119e+00 4.7237073531e+00 
594900 4.6780983591e+00 -1.8773519119e-04 2.7272371556e+00 -4.7237133178e+00 2.7272371556e+00 4.7237133178e+00 
595000 4.6780983584e+00 -1.8763350816e-04 2.7272405974e+00 -4.7237192792e+00 2.7272405974e+00 4.7237192792e+00 
595100 4.6780983577e+00 -1.8753187945e-04 2.7272440374e+00 -4.7237252375e+00 2.7272440374e+00 4.7237252375e+00 
595200 4.6780983571e+00 -1.8743030503e-04 2.7272474756e+00 -4.7237311925e+00 2.7272474756e+00 4.7237311925e+00 
595300 4.6780983564e+00 -1.8732878488e-04 2.7272509118e+00 -4.7237371442e+00 2.7272509118e+00 4.7237371442e+00 
595400 4.6780983557e+00 -1.8722731896e-04 2.7272543462e+00 -4.7237430928e+00 2.7272543462e+00 4.7237430928e+00 
595500 4.6780983550e+00 -1.8712590725e-04 2.7272577787e+00 -4.7237490381e+00 2.7272577787e+00 4.7237490381e+00 
595600 4.6780983544e+00 -1.8702454972e-04 2.7272612094e+00 -4.7237549802e+00 2.7272612094e+00 4.7237549802e+00 
595700 4.6780983537e+00 -1.8692324634e-04 2.7272646382e+00 -4.7237609190e+00 2.7272646382e+00 4.7237609190e+00 
595800 4.6780983530e+00 -1.8682199709e-04 2.7272680651e+00 -4.7237668547e+00 2.7272680651e+00 4.7237668547e+00 
595900 4.6780983523e+00 -1.8672080193e-04 2.7272714902e+00 -4.7237727871e+00 2.7272714902e+00 4.7237727871e+00 
596000 4.6780983517e+00 -1.8661966084e-04 2.7272749134e+00 -4.7237787162e+00 2.7272749134e+00 4.7237787162e+00 
596100 4.6780983510e+00 -1.8651857380e-04 2.7272783348e+00 -4.7237846422e+00 2.7272783348e+00 4.7237846422e+00 
596200 4.6780983503e+00 -1.8641754076e-04 2.7272817543e+00 -4.7237905650e+00 2.7272817543e+00 4.7237905650e+00 
596300 4.6780983496e+00 -1.8631656171e-04 2.7272851719e+00 -4.7237964845e+00 2.7272851719e+00 4.7237964845e+00 
596400 4.6780983490e+00 -1.8621563661e-04 2.7272885877e+00 -4.7238024008e+00 2.7272885877e+00 4.7238024008e+00 
596500 4.6780983483e+00 -1.8611476545e-04 2.7272920016e+00 -4.7238083139e+00 2.7272920016e+00 4.7238083139e+00 
596600 4.6780983476e+00 -1.8601394818e-04 2.7272954137e+00 -4.7238142238e+00 2.7272954137e+00 4.7238142238e+00 
596700 4.6780983470e+00 -1.8591318479e-04 2.7272988240e+00 -4.7238201305e+00 2.7272988240e+00 4.7238201305e+00 
596800 4.6780983463e+00 -1.8581247524e-04 2.7273022323e+00 -4.7238260340e+00 2.7273022323e+00 4.7238260340e+00 
596900 4.6780983456e+00 -1.8571181951e-04 2.7273056389e+00 -4.7238319343e+00 2.7273056389e+00 4.7238319343e+00 
597000 4.6780983450e+00 -1.8561121757e-04 2.7273090435e+00 -4.7238378313e+00 2.7273090435e+00 4.7238378313e+00 
597100 4.6780983443e+00 -1.8551066939e-04 2.7273124464e+00 -4.7238437252e+00 2.7273124464e+00 4.7238437252e+00 
597200 4.6780983437e+00 -1.8541017495e-04 2.7273158473e+00 -4.7238496159e+00 2.7273158473e+00 4.7238496159e+00 
597300 4.6780983430e+00 -1.8530973421e-04 2.7273192465e+00 -4.7238555033e+00 2.7273192465e+00 4.7238555033e+00 
597400 4.6780983423e+00 -1.8520934715e-04 2.7273226438e+00 -4.7238613876e+00 2.7273226438e+00 4.7238613876e+00 
597500 4.6780983417e+00 -1.8510901374e-04 2.7273260392e+00 -4.7238672687e+00 2.7273260392e+00 4.7238672687e+00 
597600 4.6780983410e+00 -1.8500873395e-04 2.7273294328e+00 -4.7238731466e+00 2.7273294328e+00 4.7238731466e+00 
597700 4.6780983403e+00 -1.8490850776e-04 2.7273328246e+00 -4.7238790213e+00 2.7273328246e+00 4.7238790213e+00 
597800 4.6780983397e+00 -1.8480833513e-04 2.7273362145e+00 -4.7238848928e+00 2.7273362145e+00 4.7238848928e+00 
597900 4.6780983390e+00 -1.8470821604e-04 2.7273396025e+00 -4.7238907611e+00 2.7273396025e+00 4.7238907611e+00 
598000 4.6780983384e+00 -1.8460815047e-04 2.7273429888e+00 -4.7238966262e+00 2.7273429888e+00 4.7238966262e+00 
598100 4.6780983377e+00 -1.8450813838e-04 2.7273463732e+00 -4.7239024882e+00 2.7273463732e+00 4.7239024882e+00 
598200 4.6780983371e+00 -1.8440817975e-04 2.7273497557e+00 -4.7239083469e+00 2.7273497557e+00 4.7239083469e+00 
598300 4.6780983364e+00 -1.8430827454e-04 2.7273531365e+00 -4.7239142025e+00 2.7273531365e+00 4.7239142025e+00 
598400 4.6780983357e+00 -1.8420842274e-04 2.7273565153e+00 -4.7239200549e+00 2.7273565153e+00 4.7239200549e+00 
598500 4.6780983351e+00 -1.8410862431e-04 2.7273598924e+00 -4.7239259042e+00 2.7273598924e+00 4.7239259042e+00 
598600 4.6780983344e+00 -1.8400887923e-04 2.7273632676e+00 -4.7239317502e+00 2.7273632676e+00 4.7239317502e+00 
598700 4.6780983338e+00 -1.8390918746e-04 2.7273666410e+00 -4.7239375931e+00 2.7273666410e+00 4.7239375931e+00 
598800 4.6780983331e+00 -1.8380954898e-04 2.7273700126e+00 -4.7239434328e+00 2.7273700126e+00 4.7239434328e+00 
598900 4.6780983325e+00 -1.8370996377e-04 2.7273733823e+00 -4.7239492693e+00 2.7273733823e+00 4.7239492693e+00 
599000 4.6780983318e+00 -1.8361043180e-04 2.7273767502e+00 -4.7239551027e+00 2.7273767502e+00 4.7239551027e+00 
599100 4.6780983312e+00 -1.8351095303e-04 2.7273801162e+00 -4.7239609329e+00 2.7273801162e+00 4.7239609329e+00 
599200 4.6780983305e+00 -1.8341152744e-04 2.7273834805e+00 -4.7239667599e+00 2.7273834805e+00 4.7239667599e+00 
599300 4.6780983299e+00 -1.8331215501e-04 2.7273868429e+00 -4.7239725838e+00 2.7273868429e+00 4.7239725838e+00 
599400 4.6780983292e+00 -1.8321283570e-04 2.7273902035e+00 -4.7239784045e+00 2.7273902035e+00 4.7239784045e+00 
599500 4.6780983286e+00 -1.8311356949e-04 2.7273935622e+00 -4.7239842220e+00 2.7273935622e+00 4.7239842220e+00 
599600 4.6780983279e+00 -1.8301435635e-04 2.7273969192e+00 -4.7239900364e+00 2.7273969192e+00 4.7239900364e+00 
599700 4.6780983273e+00 -1.8291519625e-04 2.7274002743e+00 -4.7239958476e+00 2.7274002743e+00 4.7239958476e+00 
599800 4.6780983266e+00 -1.8281608917e-04 2.7274036276e+00 -4.7240016557e+00 2.7274036276e+00 4.7240016557e+00 
599900 4.6780983260e+00 -1.8271703507e-04 2.7274069790e+00 -4.7240074606e+00 2.7274069790e+00 4.7240074606e+00 
600000 4.6780983254e+00 -1.8261803394e-04 2.7274103287e+00 -4.7240132623e+00 2.7274103287e+00 4.7240132623e+00 
600100 4.6780983247e+00 -1.8251908574e-04 2.7274136765e+00 -4.7240190609e+00 2.7274136765e+00 4.7240190609e+00 
600200 4.6780983241e+00 -1.8242019045e-04 2.7274170225e+00 -4.7240248564e+00 2.7274170225e+00 4.7240248564e+00 
600300 4.6780983234e+00 -1.8232134803e-04 2.7274203667e+00 -4.7240306487e+00 2.7274203667e+00 4.7240306487e+00 
600400 4.6780983228e+00 -1.8222255847e-04 2.7274237091e+00 -4.7240364379e+00 2.7274237091e+00 4.7240364379e+00 
600500 4.6780983221e+00 -1.8212382173e-04 2.7274270496e+00 -4.7240422239e+00 2.7274270496e+00 4.7240422239e+00 
600600 4.6780983215e+00 -1.8202513778e-04 2.7274303884e+00 -4.7240480068e+00 2.7274303884e+00 4.7240480068e+00 
600700 4.6780983209e+00 -1.8192650661e-04 2.7274337253e+00 -4.7240537865e+00 2.7274337253e+00 4.7240537865e+00 
600800 4.6780983202e+00 -1.8182792817e-04 2.7274370604e+00 -4.7240595631e+00 2.7274370604e+00 4.7240595631e+00 
600900 4.6780983196e+00 -1.8172940245e-04 2.7274403938e+00 -4.7240653366e+00 2.7274403938e+00 4.7240653366e+00 
601000 4.6780983190e+00 -1.8163092942e-04 2.7274437253e+00 -4.7240711069e+00 2.7274437253e+00 4.7240711069e+00 
601100 4.6780983183e+00 -1.8153250905e-04 2.7274470550e+00 -4.7240768741e+00 2.7274470550e+00 4.7240768741e+00 
601200 4.6780983177e+00 -1.8143414131e-04 2.7274503828e+00 -4.7240826382e+00 2.7274503828e+00 4.7240826382e+00 
601300 4.6780983171e+00 -1.8133582617e-04 2.7274537089e+00 -4.7240883991e+00 2.7274537089e+00 4.7240883991e+00 
601400 4.6780983164e+00 -1.8123756361e-04 2.7274570332e+00 -4.7240941569e+00 2.7274570332e+00 4.7240941569e+00 
601500 4.6780983158e+00 -1.8113935361e-04 2.7274603556e+00 -4.7240999116e+00 2.7274603556e+00 4.7240999116e+00 
601600 4.6780983152e+00 -1.8104119612e-04 2.7274636763e+00 -4.7241056632e+00 2.7274636763e+00 4.7241056632e+00 
601700 4.6780983145e+00 -1.8094309114e-04 2.7274669952e+00 -4.7241114116e+00 2.7274669952e+00 4.7241114116e+00 
601800 4.6780983139e+00 -1.8084503862e-04 2.7274703122e+00 -4.7241171569e+00 2.7274703122e+00 4.7241171569e+00 
601900 4.6780983133e+00 -1.8074703854e-04 2.7274736275e+00 -4.7241228991e+00 2.7274736275e+00 4.7241228991e+00 
602000 4.6780983126e+00 -1.8064909088e-04 2.7274769409e+00 -4.7241286382e+00 2.7274769409e+00 4.7241286382e+00 
602100 4.6780983120e+00 -1.8055119561e-04 2.7274802526e+00 -4.7241343741e+00 2.7274802526e+00 4.7241343741e+00 
602200 4.6780983114e+00 -1.8045335269e-04 2.7274835624e+00 -4.7241401069e+00 2.7274835624e+00 4.7241401069e+00 
602300 4.6780983107e+00 -1.8035556211e-04 2.7274868705e+00 -4.7241458367e+00 2.7274868705e+00 4.7241458367e+00 
602400 4.6780983101e+00 -1.8025782384e-04 2.7274901767e+00 -4.7241515633e+00 2.7274901767e+00 4.7241515633e+00 
602500 4.6780983095e+00 -1.8016013784e-04 2.7274934812e+00 -4.7241572868e+00 2.7274934812e+00 4.7241572868e+00 
602600 4.6780983089e+00 -1.8006250410e-04 2.7274967839e+00 -4.7241630072e+00 2.7274967839e+00 4.7241630072e+00 
602700 4.6780983082e+00 -1.7996492258e-04 2.7275000848e+00 -4.7241687244e+00 2.7275000848e+00 4.7241687244e+00 
602800 4.6780983076e+00 -1.7986739326e-04 2.7275033838e+00 -4.7241744386e+00 2.7275033838e+00 4.7241744386e+00 
602900 4.6780983070e+00 -1.7976991611e-04 2.7275066811e+00 -4.7241801497e+00 2.7275066811e+00 4.7241801497e+00 
603000 4.6780983064e+00 -1.7967249111e-04 2.7275099766e+00 -4.7241858577e+00 2.7275099766e+00 4.7241858577e+00 
603100 4.6780983057e+00 -1.7957511822e-04 2.7275132703e+00 -4.7241915625e+00 2.7275132703e+00 4.7241915625e+00 
603200 4.6780983051e+00 -1.7947779742e-04 2.7275165623e+00 -4.7241972643e+00 2.7275165623e+00 4.7241972643e+00 
603300 4.6780983045e+00 -1.7938052868e-04 2.7275198524e+00 -4.7242029630e+00 2.7275198524e+00 4.7242029630e+00 
603400 4.6780983039e+00 -1.7928331198e-04 2.7275231407e+00 -4.7242086586e+00 2.7275231407e+00 4.7242086586e+00 
603500 4.6780983033e+00 -1.7918614728e-04 2.7275264273e+00 -4.7242143511e+00 2.7275264273e+00 4.7242143511e+00 
603600 4.6780983026e+00 -1.7908903457e-04 2.7275297121e+00 -4.7242200405e+00 2.7275297121e+00 4.7242200405e+00 
603700 4.6780983020e+00 -1.7899197381e-04 2.7275329951e+00 -4.7242257268e+00 2.7275329951e+00 4.7242257268e+00 
603800 4.6780983014e+00 -1.7889496498e-04 2.7275362763e+00 -4.7242314100e+00 2.7275362763e+00 4.7242314100e+00 
603900 4.6780983008e+00 -1.7879800805e-04 2.7275395557e+00 -4.7242370901e+00 2.7275395557e+00 4.7242370901e+00 
604000 4.6780983002e+00 -1.7870110300e-04 2.7275428333e+00 -4.7242427672e+00 2.7275428333e+00 4.7242427672e+00 
604100 4.6780982996e+00 -1.7860424979e-04 2.7275461092e+00 -4.7242484411e+00 2.7275461092e+00 4.7242484411e+00 
604200 4.6780982989e+00 -1.7850744840e-04 2.7275493833e+00 -4.7242541120e+00 2.7275493833e+00 4.7242541120e+00 
604300 4.6780982983e+00 -1.7841069881e-04 2.7275526556e+00 -4.7242597798e+00 2.7275526556e+00 4.7242597798e+00 
604400 4.6780982977e+00 -1.7831400098e-04 2.7275559261e+00 -4.7242654445e+00 2.7275559261e+00 4.7242654445e+00 
604500 4.6780982971e+00 -1.7821735489e-04 2.7275591949e+00 -4.7242711062e+00 2.7275591949e+00 4.7242711062e+00 
604600 4.6780982965e+00 -1.7812076052e-04 2.7275624618e+00 -4.7242767647e+00 2.7275624618e+00 4.7242767647e+00 
604700 4.6780982959e+00 -1.7802421783e-04 2.7275657270e+00 -4.7242824202e+00 2.7275657270e+00 4.7242824202e+00 
604800 4.6780982953e+00 -1.7792772679e-04 2.7275689905e+00 -4.7242880727e+00 2.7275689905e+00 4.7242880727e+00 
604900 4.6780982947e+00 -1.7783128740e-04 2.7275722521e+00 -4.7242937220e+00 2.7275722521e+00 4.7242937220e+00 
605000 4.6780982940e+00 -1.7773489960e-04 2.7275755120e+00 -4.7242993683e+00 2.7275755120e+00 4.7242993683e+00 
605100 4.6780982934e+00 -1.7763856339e-04 2.7275787701e+00 -4.7243050115e+00 2.7275787701e+00 4.7243050115e+00 
605200 4.6780982928e+00 -1.7754227872e-04 2.7275820265e+00 -4.7243106517e+00 2.7275820265e+00 4.7243106517e+00 
605300 4.6780982922e+00 -1.7744604558e-04 2.7275852810e+00 -4.7243162887e+00 2.7275852810e+00 4.7243162887e+00 
605400 4.6780982916e+00 -1.7734986394e-04 2.7275885338e+00 -4.7243219228e+00 2.7275885338e+00 4.7243219228e+00 
605500 4.6780982910e+00 -1.7725373378e-04 2.7275917849e+00 -4.7243275537e+00 2.7275917849e+00 4.7243275537e+00 
605600 4.6780982904e+00 -1.7715765505e-04 2.7275950342e+00 -4.7243331816e+00 2.7275950342e+00 4.7243331816e+00 
605700 4.6780982898e+00 -1.7706162775e-04 2.7275982817e+00 -4.7243388065e+00 2.7275982817e+00 4.7243388065e+00 
605800 4.6780982892e+00 -1.7696565183e-04 2.7276015274e+00 -4.7243444283e+00 2.7276015274e+00 4.7243444283e+00 
605900 4.6780982886e+00 -1.7686972729e-04 2.7276047714e+00 -4.7243500470e+00 2.7276047714e+00 4.7243500470e+00 
606000 4.6780982880e+00 -1.7677385407e-04 2.7276080136e+00 -4.7243556627e+00 2.7276080136e+00 4.7243556627e+00 
606100 4.6780982874e+00 -1.7667803218e-04 2.7276112541e+00 -4.7243612753e+00 2.7276112541e+00 4.7243612753e+00 
606200 4.6780982868e+00 -1.7658226156e-04 2.7276144928e+00 -4.7243668849e+00 2.7276144928e+00 4.7243668849e+00 
606300 4.6780982862e+00 -1.7648654221e-04 2.7276177297e+00 -4.7243724915e+00 2.7276177297e+00 4.7243724915e+00 
606400 4.6780982856e+00 -1.7639087408e-04 2.7276209649e+00 -4.7243780949e+00 2.7276209649e+00 4.7243780949e+00 
606500 4.6780982850e+00 -1.7629525716e-04 2.7276241983e+00 -4.7243836954e+00 2.7276241983e+00 4.7243836954e+00 
606600 4.6780982844e+00 -1.7619969142e-04 2.7276274300e+00 -4.7243892928e+00 2.7276274300e+00 4.7243892928e+00 
606700 4.6780982838e+00 -1.7610417683e-04 2.7276306599e+00 -4.7243948872e+00 2.7276306599e+00 4.7243948872e+00 
606800 4.6780982832e+00 -1.7600871337e-04 2.7276338880e+00 -4.7244004785e+00 2.7276338880e+00 4.7244004785e+00 
606900 4.6780982826e+00 -1.7591330101e-04 2.7276371144e+00 -4.7244060668e+00 2.7276371144e+00 4.7244060668e+00 
607000 4.6780982820e+00 -1.7581793971e-04 2.7276403391e+00 -4.7244116520e+00 2.7276403391e+00 4.7244116520e+00 
607100 4.6780982814e+00 -1.7572262947e-04 2.7276435620e+00 -4.7244172342e+00 2.7276435620e+00 4.7244172342e+00 
607200 4.6780982808e+00 -1.7562737024e-04 2.7276467831e+00 -4.7244228134e+00 2.7276467831e+00 4.7244228134e+00 
607300 4.6780982802e+00 -1.7553216201e-04 2.7276500025e+00 -4.7244283896e+00 2.7276500025e+00 4.7244283896e+00 
607400 4.6780982796e+00 -1.7543700474e-04 2.7276532201e+00 -4.7244339627e+00 2.7276532201e+00 4.7244339627e+00 
607500 4.6780982790e+00 -1.7534189841e-04 2.7276564360e+00 -4.7244395328e+00 2.7276564360e+00 4.7244395328e+00 
607600 4.6780982784e+00 -1.7524684299e-04 2.7276596502e+00 -4.7244450999e+00 2.7276596502e+00 4.7244450999e+00 
607700 4.6780982778e+00 -1.7515183847e-04 2.7276628626e+00 -4.7244506639e+00 2.7276628626e+00 4.7244506639e+00 
607800 4.6780982772e+00 -1.7505688480e-04 2.7276660733e+00 -4.7244562250e+00 2.7276660733e+00 4.7244562250e+00 
607900 4.6780982766e+00 -1.7496198196e-04 2.7276692822e+00 -4.7244617830e+00 2.7276692822e+00 4.7244617830e+00 
608000 4.6780982761e+00 -1.7486712994e-04 2.7276724893e+00 -4.7244673379e+00 2.7276724893e+00 4.7244673379e+00 
608100 4.6780982755e+00 -1.7477232869e-04 2.7276756948e+00 -4.7244728899e+00 2.7276756948e+00 4.7244728899e+00 
608200 4.6780982749e+00 -1.7467757820e-04 2.7276788984e+00 -4.7244784388e+00 2.7276788984e+00 4.7244784388e+00 
608300 4.6780982743e+00 -1.7458287844e-04 2.7276821004e+00 -4.7244839848e+00 2.7276821004e+00 4.7244839848e+00 
608400 4.6780982737e+00 -1.7448822938e-04 2.7276853006e+00 -4.7244895277e+00 2.7276853006e+00 4.7244895277e+00 
608500 4.6780982731e+00 -1.7439363100e-04 2.7276884991e+00 -4.7244950676e+00 2.7276884991e+00 4.7244950676e+00 
608600 4.6780982725e+00 -1.7429908326e-04 2.7276916958e+00 -4.7245006045e+00 2.7276916958e+00 4.7245006045e+00 
608700 4.6780982719e+00 -1.7420458615e-04 2.7276948908e+00 -4.7245061384e+00 2.7276948908e+00 4.7245061384e+00 
608800 4.6780982714e+00 -1.7411013964e-04 2.7276980840e+00 -4.7245116693e+00 2.7276980840e+00 4.7245116693e+00 
608900 4.6780982708e+00 -1.7401574370e-04 2.7277012756e+00 -4.7245171972e+00 2.7277012756e+00 4.7245171972e+00 
609000 4.6780982702e+00 -1.7392139830e-04 2.7277044654e+00 -4.7245227220e+00 2.7277044654e+00 4.7245227220e+00 
609100 4.6780982696e+00 -1.7382710342e-04 2.7277076534e+00 -4.7245282439e+00 2.7277076534e+00 4.7245282439e+00 
609200 4.6780982690e+00 -1.7373285903e-04 2.7277108397e+00 -4.7245337628e+00 2.7277108397e+00 4.7245337628e+00 
609300 4.6780982684e+00 -1.7363866510e-04 2.7277140243e+00 -4.7245392787e+00 2.7277140243e+00 4.7245392787e+00 
609400 4.6780982679e+00 -1.7354452162e-04 2.7277172072e+00 -4.7245447915e+00 2.7277172072e+00 4.7245447915e+00 
609500 4.6780982673e+00 -1.7345042854e-04 2.7277203883e+00 -4.7245503014e+00 2.7277203883e+00 4.7245503014e+00 
609600 4.6780982667e+00 -1.7335638586e-04 2.7277235677e+00 -4.7245558083e+00 2.7277235677e+00 4.7245558083e+00 
609700 4.6780982661e+00 -1.7326239353e-04 2.7277267454e+00 -4.7245613122e+00 2.7277267454e+00 4.7245613122e+00 
609800 4.6780982655e+00 -1.7316845154e-04 2.7277299213e+00 -4.7245668131e+00 2.7277299213e+00 4.7245668131e+00 
609900 4.6780982650e+00 -1.7307455986e-04 2.7277330956e+00 -4.7245723110e+00 2.7277330956e+00 4.7245723110e+00 
610000 4.6780982644e+00 -1.7298071846e-04 2.7277362681e+00 -4.7245778059e+00 2.7277362681e+00 4.7245778059e+00 
610100 4.6780982638e+00 -1.7288692732e-04 2.7277394388e+00 -4.7245832979e+00 2.7277394388e+00 4.7245832979e+00 
610200 4.6780982632e+00 -1.7279318640e-04 2.7277426079e+00 -4.7245887869e+00 2.7277426079e+00 4.7245887869e+00 
610300 4.6780982627e+00 -1.7269949569e-04 2.7277457752e+00 -4.7245942728e+00 2.7277457752e+00 4.7245942728e+00 
610400 4.6780982621e+00 -1.7260585516e-04 2.7277489408e+00 -4.7245997558e+00 2.7277489408e+00 4.7245997558e+00 
610500 4.6780982615e+00 -1.7251226478e-04 2.7277521047e+00 -4.7246052358e+00 2.7277521047e+00 4.7246052358e+00 
610600 4.6780982609e+00 -1.7241872453e-04 2.7277552669e+00 -4.7246107129e+00 2.7277552669e+00 4.7246107129e+00 
610700 4.6780982604e+00 -1.7232523437e-04 2.7277584273e+00 -4.7246161869e+00 2.7277584273e+00 4.7246161869e+00 
610800 4.6780982598e+00 -1.7223179429e-04 2.7277615861e+00 -4.7246216580e+00 2.7277615861e+00 4.7246216580e+00 
610900 4.6780982592e+00 -1.7213840425e-04 2.7277647431e+00 -4.7246271261e+00 2.7277647431e+00 4.7246271261e+00 
611000 4.6780982586e+00 -1.7204506424e-04 2.7277678984e+00 -4.7246325913e+00 2.7277678984e+00 4.7246325913e+00 
611100 4.6780982581e+00 -1.7195177422e-04 2.7277710520e+00 -4.7246380535e+00 2.7277710520e+00 4.7246380535e+00 
611200 4.6780982575e+00 -1.7185853417e-04 2.7277742039e+00 -4.7246435127e+00 2.7277742039e+00 4.7246435127e+00 
611300 4.6780982569e+00 -1.7176534406e-04 2.7277773540e+00 -4.7246489689e+00 2.7277773540e+00 4.7246489689e+00 
611400 4.6780982564e+00 -1.7167220387e-04 2.7277805025e+00 -4.7246544222e+00 2.7277805025e+00 4.7246544222e+00 
611500 4.6780982558e+00 -1.7157911357e-04 2.7277836492e+00 -4.7246598725e+00 2.7277836492e+00 4.7246598725e+00 
611600 4.6780982552e+00 -1.7148607314e-04 2.7277867942e+00 -4.7246653198e+00 2.7277867942e+00 4.7246653198e+00 
611700 4.6780982547e+00 -1.7139308255e-04 2.7277899376e+00 -4.7246707642e+00 2.7277899376e+00 4.7246707642e+00 
611800 4.6780982541e+00 -1.7130014177e-04 2.7277930792e+00 -4.7246762057e+00 2.7277930792e+00 4.7246762057e+00 
611900 4.6780982535e+00 -1.7120725077e-04 2.7277962191e+00 -4.7246816441e+00 2.7277962191e+00 4.7246816441e+00 
612000 4.6780982530e+00 -1.7111440954e-04 2.7277993573e+00 -4.7246870797e+00 2.7277993573e+00 4.7246870797e+00 
612100 4.6780982524e+00 -1.7102161805e-04 2.7278024938e+00 -4.7246925122e+00 2.7278024938e+00 4.7246925122e+00 
612200 4.6780982518e+00 -1.7092887626e-04 2.7278056286e+00 -4.7246979418e+00 2.7278056286e+00 4.7246979418e+00 
612300 4.6780982513e+00 -1.7083618416e-04 2.7278087616e+00 -4.7247033685e+00 2.7278087616e+00 4.7247033685e+00 
612400 4.6780982507e+00 -1.7074354172e-04 2.7278118930e+00 -4.7247087922e+00 2.7278118930e+00 4.7247087922e+00 
612500 4.6780982502e+00 -1.7065094891e-04 2.7278150227e+00 -4.7247142130e+00 2.7278150227e+00 4.7247142130e+00 
612600 4.6780982496e+00 -1.7055840571e-04 2.7278181507e+00 -4.7247196308e+00 2.7278181507e+00 4.7247196308e+00 
612700 4.6780982490e+00 -1.7046591208e-04 2.7278212770e+00 -4.7247250457e+00 2.7278212770e+00 4.7247250457e+00 
612800 4.6780982485e+00 -1.7037346801e-04 2.7278244015e+00 -4.7247304576e+00 2.7278244015e+00 4.7247304576e+00 
612900 4.6780982479e+00 -1.7028107347e-04 2.7278275244e+00 -4.7247358666e+00 2.7278275244e+00 4.7247358666e+00 
613000 4.6780982473e+00 -1.7018872844e-04 2.7278306456e+00 -4.7247412726e+00 2.7278306456e+00 4.7247412726e+00 
613100 4.6780982468e+00 -1.7009643288e-04 2.7278337651e+00 -4.7247466757e+00 2.7278337651e+00 4.7247466757e+00 
613200 4.6780982462e+00 -1.7000418677e-04 2.7278368829e+00 -4.7247520759e+00 2.7278368829e+00 4.7247520759e+00 
613300 4.6780982457e+00 -1.6991199009e-04 2.7278399990e+00 -4.7247574732e+00 2.7278399990e+00 4.7247574732e+00 
613400 4.6780982451e+00 -1.6981984281e-04 2.7278431134e+00 -4.7247628675e+00 2.7278431134e+00 4.7247628675e+00 
613500 4.6780982446e+00 -1.6972774490e-04 2.7278462261e+00 -4.7247682589e+00 2.7278462261e+00 4.7247682589e+00 
613600 4.6780982440e+00 -1.6963569635e-04 2.7278493371e+00 -4.7247736473e+00 2.7278493371e+00 4.7247736473e+00 
613700 4.6780982435e+00 -1.6954369711e-04 2.7278524465e+00 -4.7247790328e+00 2.7278524465e+00 4.7247790328e+00 
613800 4.6780982429e+00 -1.6945174717e-04 2.7278555541e+00 -4.7247844154e+00 2.7278555541e+00 4.7247844154e+00 
613900 4.6780982423e+00 -1.6935984651e-04 2.7278586601e+00 -4.7247897951e+00 2.7278586601e+00 4.7247897951e+00 
614000 4.6780982418e+00 -1.6926799509e-04 2.7278617643e+00 -4.7247951718e+00 2.7278617643e+00 4.7247951718e+00 
614100 4.6780982412e+00 -1.6917619289e-04 2.7278648669e+00 -4.7248005456e+00 2.7278648669e+00 4.7248005456e+00 
614200 4.6780982407e+00 -1.6908443989e-04 2.7278679678e+00 -4.7248059165e+00 2.7278679678e+00 4.7248059165e+00 
614300 4.6780982401e+00 -1.6899273606e-04 2.7278710670e+00 -4.7248112845e+00 2.7278710670e+00 4.7248112845e+00 
614400 4.6780982396e+00 -1.6890108136e-04 2.7278741645e+00 -4.7248166496e+00 2.7278741645e+00 4.7248166496e+00 
614500 4.6780982390e+00 -1.6880947579e-04 2.7278772604e+00 -4.7248220117e+00 2.7278772604e+00 4.7248220117e+00 
614600 4.6780982385e+00 -1.6871791931e-04 2.7278803545e+00 -4.7248273710e+00 2.7278803545e+00 4.7248273710e+00 
614700 4.6780982379e+00 -1.6862641190e-04 2.7278834470e+00 -4.7248327273e+00 2.7278834470e+00 4.7248327273e+00 
614800 4.6780982374e+00 -1.6853495353e-04 2.7278865378e+00 -4.7248380807e+00 2.7278865378e+00 4.7248380807e+00 
614900 4.6780982368e+00 -1.6844354417e-04 2.7278896269e+00 -4.7248434312e+00 2.7278896269e+00 4.7248434312e+00 
615000 4.6780982363e+00 -1.6835218381e-04 2.7278927143e+00 -4.7248487788e+00 2.7278927143e+00 4.7248487788e+00 
615100 4.6780982357e+00 -1.6826087241e-04 2.7278958001e+00 -4.7248541235e+00 2.7278958001e+00 4.7248541235e+00 
615200 4.6780982352e+00 -1.6816960994e-04 2.7278988842e+00 -4.7248594653e+00 2.7278988842e+00 4.7248594653e+00 
615300 4.6780982347e+00 -1.6807839640e-04 2.7279019666e+00 -4.7248648041e+00 2.7279019666e+00 4.7248648041e+00 
615400 4.6780982341e+00 -1.6798723174e-04 2.7279050473e+00 -4.7248701401e+00 2.7279050473e+00 4.7248701401e+00 
615500 4.6780982336e+00 -1.6789611594e-04 2.7279081263e+00 -4.7248754732e+00 2.7279081263e+00 4.7248754732e+00 
615600 4.6780982330e+00 -1.6780504898e-04 2.7279112037e+00 -4.7248808034e+00 2.7279112037e+00 4.7248808034e+00 
615700 4.6780982325e+00 -1.6771403083e-04 2.7279142794e+00 -4.7248861307e+00 2.7279142794e+00 4.7248861307e+00 
615800 4.6780982319e+00 -1.6762306147e-04 2.7279173535e+00 -4.7248914550e+00 2.7279173535e+00 4.7248914550e+00 
615900 4.6780982314e+00 -1.6753214087e-04 2.7279204258e+00 -4.7248967765e+00 2.7279204258e+00 4.7248967765e+00 
616000 4.6780982309e+00 -1.6744126901e-04 2.7279234965e+00 -4.7249020951e+00 2.7279234965e+00 4.7249020951e+00 
616100 4.6780982303e+00 -1.6735044585e-04 2.7279265655e+00 -4.7249074108e+00 2.7279265655e+00 4.7249074108e+00 
616200 4.6780982298e+00 -1.6725967138e-04 2.7279296329e+00 -4.7249127236e+00 2.7279296329e+00 4.7249127236e+00 
616300 4.6780982292e+00 -1.6716894557e-04 2.7279326986e+00 -4.7249180336e+00 2.7279326986e+00 4.7249180336e+00 
616400 4.6780982287e+00 -1.6707826840e-04 2.7279357626e+00 -4.7249233406e+00 2.7279357626e+00 4.7249233406e+00 
616500 4.6780982282e+00 -1.6698763983e-04 2.7279388250e+00 -4.7249286448e+00 2.7279388250e+00 4.7249286448e+00 
616600 4.6780982276e+00 -1.6689705985e-04 2.7279418857e+00 -4.7249339461e+00 2.7279418857e+00 4.7249339461e+00 
616700 4.6780982271e+00 -1.6680652842e-04 2.7279449447e+00 -4.7249392445e+00 2.7279449447e+00 4.7249392445e+00 
616800 4.6780982266e+00 -1.6671604553e-04 2.7279480021e+00 -4.7249445400e+00 2.7279480021e+00 4.7249445400e+00 
616900 4.6780982260e+00 -1.6662561114e-04 2.7279510578e+00 -4.7249498326e+00 2.7279510578e+00 4.7249498326e+00 
617000 4.6780982255e+00 -1.6653522524e-04 2.7279541118e+00 -4.7249551224e+00 2.7279541118e+00 4.7249551224e+00 
617100 4.6780982249e+00 -1.6644488779e-04 2.7279571642e+00 -4.7249604092e+00 2.7279571642e+00 4.7249604092e+00 
617200 4.6780982244e+00 -1.6635459878e-04 2.7279602149e+00 -4.7249656933e+00 2.7279602149e+00 4.7249656933e+00 
617300 4.6780982239e+00 -1.6626435817e-04 2.7279632640e+00 -4.7249709744e+00 2.7279632640e+00 4.7249709744e+00 
617400 4.6780982233e+00 -1.6617416594e-04 2.7279663114e+00 -4.7249762527e+00 2.7279663114e+00 4.7249762527e+00 
617500 4.6780982228e+00 -1.6608402207e-04 2.7279693571e+00 -4.7249815281e+00 2.7279693571e+00 4.7249815281e+00 
617600 4.6780982223e+00 -1.6599392653e-04 2.7279724012e+00 -4.7249868006e+00 2.7279724012e+00 4.7249868006e+00 
617700 4.6780982218e+00 -1.6590387930e-04 2.7279754437e+00 -4.7249920703e+00 2.7279754437e+00 4.7249920703e+00 
617800 4.6780982212e+00 -1.6581388034e-04 2.7279784845e+00 -4.7249973371e+00 2.7279784845e+00 4.7249973371e+00 
617900 4.6780982207e+00 -1.6572392964e-04 2.7279815236e+00 -4.7250026010e+00 2.7279815236e+00 4.7250026010e+00 
618000 4.6780982202e+00 -1.6563402717e-04 2.7279845611e+00 -4.7250078621e+00 2.7279845611e+00 4.7250078621e+00 
618100 4.6780982196e+00 -1.6554417291e-04 2.7279875969e+00 -4.7250131203e+00 2.7279875969e+00 4.7250131203e+00 
618200 4.6780982191e+00 -1.6545436682e-04 2.7279906311e+00 -4.7250183756e+00 2.7279906311e+00 4.7250183756e+00 
618300 4.6780982186e+00 -1.6536460889e-04 2.7279936636e+00 -4.7250236281e+00 2.7279936636e+00 4.7250236281e+00 
618400 4.6780982180e+00 -1.6527489909e-04 2.7279966945e+00 -4.7250288778e+00 2.7279966945e+00 4.7250288778e+00 
618500 4.6780982175e+00 -1.6518523740e-04 2.7279997238e+00 -4.7250341246e+00 2.7279997238e+00 4.7250341246e+00 
618600 4.6780982170e+00 -1.6509562378e-04 2.7280027513e+00 -4.7250393685e+00 2.7280027513e+00 4.7250393685e+00 
618700 4.6780982165e+00 -1.6500605822e-04 2.7280057773e+00 -4.7250446096e+00 2.7280057773e+00 4.7250446096e+00 
618800 4.6780982159e+00 -1.6491654068e-04 2.7280088016e+00 -4.7250498478e+00 2.7280088016e+00 4.7250498478e+00 
618900 4.6780982154e+00 -1.6482707115e-04 2.7280118242e+00 -4.7250550832e+00 2.7280118242e+00 4.7250550832e+00 
619000 4.6780982149e+00 -1.6473764960e-04 2.7280148452e+00 -4.7250603158e+00 2.7280148452e+00 4.7250603158e+00 
619100 4.6780982144e+00 -1.6464827601e-04 2.7280178646e+00 -4.7250655455e+00 2.7280178646e+00 4.7250655455e+00 
619200 4.6780982139e+00 -1.6455895034e-04 2.7280208823e+00 -4.7250707723e+00 2.7280208823e+00 4.7250707723e+00 
619300 4.6780982133e+00 -1.6446967257e-04 2.7280238984e+00 -4.7250759963e+00 2.7280238984e+00 4.7250759963e+00 
619400 4.6780982128e+00 -1.6438044269e-04 2.7280269129e+00 -4.7250812175e+00 2.7280269129e+00 4.7250812175e+00 
619500 4.6780982123e+00 -1.6429126066e-04 2.7280299257e+00 -4.7250864359e+00 2.7280299257e+00 4.7250864359e+00 
619600 4.6780982118e+00 -1.6420212646e-04 2.7280329369e+00 -4.7250916514e+00 2.7280329369e+00 4.7250916514e+00 
619700 4.6780982112e+00 -1.6411304006e-04 2.7280359464e+00 -4.7250968640e+00 2.7280359464e+00 4.7250968640e+00 
619800 4.6780982107e+00 -1.6402400144e-04 2.7280389543e+00 -4.7251020739e+00 2.7280389543e+00 4.7251020739e+00 
619900 4.6780982102e+00 -1.6393501058e-04 2.7280419606e+00 -4.7251072809e+00 2.7280419606e+00 4.7251072809e+00 
620000 4.6780982097e+00 -1.6384606744e-04 2.7280449652e+00 -4.7251124850e+00 2.7280449652e+00 4.7251124850e+00 
620100 4.6780982092e+00 -1.6375717201e-04 2.7280479682e+00 -4.7251176864e+00 2.7280479682e+00 4.7251176864e+00 
620200 4.6780982087e+00 -1.6366832426e-04 2.7280509695e+00 -4.7251228849e+00 2.7280509695e+00 4.7251228849e+00 
620300 4.6780982081e+00 -1.6357952416e-04 2.7280539693e+00 -4.7251280806e+00 2.7280539693e+00 4.7251280806e+00 
620400 4.6780982076e+00 -1.6349077170e-04 2.7280569674e+00 -4.7251332734e+00 2.7280569674e+00 4.7251332734e+00 
620500 4.6780982071e+00 -1.6340206683e-04 2.7280599638e+00 -4.7251384635e+00 2.7280599638e+00 4.7251384635e+00 
620600 4.6780982066e+00 -1.6331340955e-04 2.7280629587e+00 -4.7251436507e+00 2.7280629587e+00 4.7251436507e+00 
620700 4.6780982061e+00 -1.6322479983e-04 2.7280659519e+00 -4.7251488351e+00 2.7280659519e+00 4.7251488351e+00 
620800 4.6780982056e+00 -1.6313623763e-04 2.7280689435e+00 -4.7251540167e+00 2.7280689435e+00 4.7251540167e+00 
620900 4.6780982051e+00 -1.6304772294e-04 2.7280719334e+00 -4.7251591954e+00 2.7280719334e+00 4.7251591954e+00 
621000 4.6780982045e+00 -1.6295925573e-04 2.7280749218e+00 -4.7251643714e+00 2.7280749218e+00 4.7251643714e+00 
621100 4.6780982040e+00 -1.6287083597e-04 2.7280779085e+00 -4.7251695445e+00 2.7280779085e+00 4.7251695445e+00 
621200 4.6780982035e+00 -1.6278246365e-04 2.7280808936e+00 -4.7251747148e+00 2.7280808936e+00 4.7251747148e+00 
621300 4.6780982030e+00 -1.6269413873e-04 2.7280838770e+00 -4.7251798823e+00 2.7280838770e+00 4.7251798823e+00 
621400 4.6780982025e+00 -1.6260586120e-04 2.7280868589e+00 -4.7251850470e+00 2.7280868589e+00 4.7251850470e+00 
621500 4.6780982020e+00 -1.6251763102e-04 2.7280898391e+00 -4.7251902089e+00 2.7280898391e+00 4.7251902089e+00 
621600 4.6780982015e+00 -1.6242944817e-04 2.7280928177e+00 -4.7251953680e+00 2.7280928177e+00 4.7251953680e+00 
621700 4.6780982010e+00 -1.6234131263e-04 2.7280957947e+00 -4.7252005243e+00 2.7280957947e+00 4.7252005243e+00 
621800 4.6780982005e+00 -1.6225322438e-04 2.7280987700e+00 -4.7252056777e+00 2.7280987700e+00 4.7252056777e+00 
621900 4.6780982000e+00 -1.6216518338e-04 2.7281017438e+00 -4.7252108284e+00 2.7281017438e+00 4.7252108284e+00 
622000 4.6780981994e+00 -1.6207718961e-04 2.7281047159e+00 -4.7252159763e+00 2.7281047159e+00 4.7252159763e+00 
622100 4.6780981989e+00 -1.6198924306e-04 2.7281076864e+00 -4.7252211214e+00 2.7281076864e+00 4.7252211214e+00 
622200 4.6780981984e+00 -1.6190134369e-04 2.7281106553e+00 -4.7252262636e+00 2.7281106553e+00 4.7252262636e+00 
622300 4.6780981979e+00 -1.6181349147e-04 2.7281136226e+00 -4.7252314031e+00 2.7281136226e+00 4.7252314031e+00 
622400 4.6780981974e+00 -1.6172568640e-04 2.7281165882e+00 -4.7252365398e+00 2.7281165882e+00 4.7252365398e+00 
622500 4.6780981969e+00 -1.6163792843e-04 2.7281195523e+00 -4.7252416737e+00 2.7281195523e+00 4.7252416737e+00 
622600 4.6780981964e+00 -1.6155021755e-04 2.7281225147e+00 -4.7252468048e+00 2.7281225147e+00 4.7252468048e+00 
622700 4.6780981959e+00 -1.6146255372e-04 2.7281254756e+00 -4.7252519331e+00 2.7281254756e+00 4.7252519331e+00 
622800 4.6780981954e+00 -1.6137493694e-04 2.7281284348e+00 -4.7252570586e+00 2.7281284348e+00 4.7252570586e+00 
622900 4.6780981949e+00 -1.6128736717e-04 2.7281313924e+00 -4.7252621814e+00 2.7281313924e+00 4.7252621814e+00 
623000 4.6780981944e+00 -1.6119984438e-04 2.7281343484e+00 -4.7252673013e+00 2.7281343484e+00 4.7252673013e+00 
623100 4.6780981939e+00 -1.6111236856e-04 2.7281373028e+00 -4.7252724185e+00 2.7281373028e+00 4.7252724185e+00 
623200 4.6780981934e+00 -1.6102493967e-04 2.7281402556e+00 -4.7252775329e+00 2.7281402556e+00 4.7252775329e+00 
623300 4.6780981929e+00 -1.6093755770e-04 2.7281432068e+00 -4.7252826445e+00 2.7281432068e+00 4.7252826445e+00 
623400 4.6780981924e+00 -1.6085022262e-04 2.7281461564e+00 -4.7252877533e+00 2.7281461564e+00 4.7252877533e+00 
623500 4.6780981919e+00 -1.6076293440e-04 2.7281491043e+00 -4.7252928593e+00 2.7281491043e+00 4.7252928593e+00 
623600 4.6780981914e+00 -1.6067569302e-04 2.7281520507e+00 -4.7252979626e+00 2.7281520507e+00 4.7252979626e+00 
623700 4.6780981909e+00 -1.6058849846e-04 2.7281549955e+00 -4.7253030631e+00 2.7281549955e+00 4.7253030631e+00 
623800 4.6780981904e+00 -1.6050135069e-04 2.7281579387e+00 -4.7253081608e+00 2.7281579387e+00 4.7253081608e+00 
623900 4.6780981899e+00 -1.6041424969e-04 2.7281608802e+00 -4.7253132558e+00 2.7281608802e+00 4.7253132558e+00 
624000 4.6780981894e+00 -1.6032719543e-04 2.7281638202e+00 -4.7253183480e+00 2.7281638202e+00 4.7253183480e+00 
624100 4.6780981889e+00 -1.6024018788e-04 2.7281667586e+00 -4.7253234374e+00 2.7281667586e+00 4.7253234374e+00 
624200 4.6780981884e+00 -1.6015322703e-04 2.7281696953e+00 -4.7253285240e+00 2.7281696953e+00 4.7253285240e+00 
624300 4.6780981879e+00 -1.6006631285e-04 2.7281726305e+00 -4.7253336079e+00 2.7281726305e+00 4.7253336079e+00 
624400 4.6780981874e+00 -1.5997944531e-04 2.7281755641e+00 -4.7253386890e+00 2.7281755641e+00 4.7253386890e+00 
624500 4.6780981870e+00 -1.5989262440e-04 2.7281784961e+00 -4.7253437673e+00 2.7281784961e+00 4.7253437673e+00 
624600 4.6780981865e+00 -1.5980585008e-04 2.7281814265e+00 -4.7253488429e+00 2.7281814265e+00 4.7253488429e+00 
624700 4.6780981860e+00 -1.5971912233e-04 2.7281843553e+00 -4.7253539158e+00 2.7281843553e+00 4.7253539158e+00 
624800 4.6780981855e+00 -1.5963244113e-04 2.7281872825e+00 -4.7253589858e+00 2.7281872825e+00 4.7253589858e+00 
624900 4.6780981850e+00 -1.5954580645e-04 2.7281902081e+00 -4.7253640531e+00 2.7281902081e+00 4.7253640531e+00 
625000 4.6780981845e+00 -1.5945921827e-04 2.7281931321e+00 -4.7253691177e+00 2.7281931321e+00 4.7253691177e+00 
625100 4.6780981840e+00 -1.5937267656e-04 2.7281960546e+00 -4.7253741795e+00 2.7281960546e+00 4.7253741795e+00 
625200 4.6780981835e+00 -1.5928618130e-04 2.7281989754e+00 -4.7253792386e+00 2.7281989754e+00 4.7253792386e+00 
625300 4.6780981830e+00 -1.5919973247e-04 2.7282018947e+00 -4.7253842949e+00 2.7282018947e+00 4.7253842949e+00 
625400 4.6780981825e+00 -1.5911333004e-04 2.7282048123e+00 -4.7253893484e+00 2.7282048123e+00 4.7253893484e+00 
625500 4.6780981820e+00 -1.5902697399e-04 2.7282077284e+00 -4.7253943992e+00 2.7282077284e+00 4.7253943992e+00 
625600 4.6780981816e+00 -1.5894066429e-04 2.7282106429e+00 -4.7253994473e+00 2.7282106429e+00 4.7253994473e+00 
625700 4.6780981811e+00 -1.5885440092e-04 2.7282135558e+00 -4.7254044926e+00 2.7282135558e+00 4.7254044926e+00 
625800 4.6780981806e+00 -1.5876818385e-04 2.7282164671e+00 -4.7254095351e+00 2.7282164671e+00 4.7254095351e+00 
625900 4.6780981801e+00 -1.5868201307e-04 2.7282193769e+00 -4.7254145750e+00 2.7282193769e+00 4.7254145750e+00 
626000 4.6780981796e+00 -1.5859588854e-04 2.7282222850e+00 -4.7254196120e+00 2.7282222850e+00 4.7254196120e+00 
626100 4.6780981791e+00 -1.5850981024e-04 2.7282251916e+00 -4.7254246464e+00 2.7282251916e+00 4.7254246464e+00 
626200 4.6780981786e+00 -1.5842377815e-04 2.7282280966e+00 -4.7254296780e+00 2.7282280966e+00 4.7254296780e+00 
626300 4.6780981782e+00 -1.5833779224e-04 2.7282310000e+00 -4.7254347069e+00 2.7282310000e+00 4.7254347069e+00 
626400 4.6780981777e+00 -1.5825185249e-04 2.7282339019e+00 -4.7254397330e+00 2.7282339019e+00 4.7254397330e+00 
626500 4.6780981772e+00 -1.5816595888e-04 2.7282368021e+00 -4.7254447564e+00 2.7282368021e+00 4.7254447564e+00 
626600 4.6780981767e+00 -1.5808011138e-04 2.7282397008e+00 -4.7254497771e+00 2.7282397008e+00 4.7254497771e+00 
626700 4.6780981762e+00 -1.5799430996e-04 2.7282425979e+00 -4.7254547950e+00 2.7282425979e+00 4.7254547950e+00 
626800 4.6780981758e+00 -1.5790855461e-04 2.7282454935e+00 -4.7254598102e+00 2.7282454935e+00 4.7254598102e+00 
626900 4.6780981753e+00 -1.5782284529e-04 2.7282483874e+00 -4.7254648227e+00 2.7282483874e+00 4.7254648227e+00 
627000 4.6780981748e+00 -1.5773718200e-04 2.7282512798e+00 -4.7254698325e+00 2.7282512798e+00 4.7254698325e+00 
627100 4.6780981743e+00 -1.5765156469e-04 2.7282541706e+00 -4.7254748395e+00 2.7282541706e+00 4.7254748395e+00 
627200 4.6780981738e+00 -1.5756599334e-04 2.7282570599e+00 -4.7254798438e+00 2.7282570599e+00 4.7254798438e+00 
627300 4.6780981734e+00 -1.5748046794e-04 2.7282599475e+00 -4.7254848454e+00 2.7282599475e+00 4.7254848454e+00 
627400 4.6780981729e+00 -1.5739498846e-04 2.7282628336e+00 -4.7254898443e+00 2.7282628336e+00 4.7254898443e+00 
627500 4.6780981724e+00 -1.5730955488e-04 2.7282657182e+00 -4.7254948404e+00 2.7282657182e+00 4.7254948404e+00 
627600 4.6780981719e+00 -1.5722416716e-04 2.7282686011e+00 -4.7254998338e+00 2.7282686011e+00 4.7254998338e+00 
627700 4.6780981714e+00 -1.5713882529e-04 2.7282714825e+00 -4.7255048246e+00 2.7282714825e+00 4.7255048246e+00 
627800 4.6780981710e+00 -1.5705352924e-04 2.7282743623e+00 -4.7255098126e+00 2.7282743623e+00 4.7255098126e+00 
627900 4.6780981705e+00 -1.5696827899e-04 2.7282772406e+00 -4.7255147978e+00 2.7282772406e+00 4.7255147978e+00 
628000 4.6780981700e+00 -1.5688307451e-04 2.7282801173e+00 -4.7255197804e+00 2.7282801173e+00 4.7255197804e+00 
628100 4.6780981695e+00 -1.5679791579e-04 2.7282829924e+00 -4.7255247603e+00 2.7282829924e+00 4.7255247603e+00 
628200 4.6780981691e+00 -1.5671280279e-04 2.7282858660e+00 -4.7255297375e+00 2.7282858660e+00 4.7255297375e+00 
628300 4.6780981686e+00 -1.5662773549e-04 2.7282887380e+00 -4.7255347119e+00 2.7282887380e+00 4.7255347119e+00 
628400 4.6780981681e+00 -1.5654271387e-04 2.7282916084e+00 -4.7255396837e+00 2.7282916084e+00 4.7255396837e+00 
628500 4.6780981677e+00 -1.5645773791e-04 2.7282944773e+00 -4.7255446527e+00 2.7282944773e+00 4.7255446527e+00 
628600 4.6780981672e+00 -1.5637280758e-04 2.7282973446e+00 -4.7255496190e+00 2.7282973446e+00 4.7255496190e+00 
628700 4.6780981667e+00 -1.5628792285e-04 2.7283002104e+00 -4.7255545827e+00 2.7283002104e+00 4.7255545827e+00 
628800 4.6780981662e+00 -1.5620308371e-04 2.7283030746e+00 -4.7255595436e+00 2.7283030746e+00 4.7255595436e+00 
628900 4.6780981658e+00 -1.5611829013e-04 2.7283059372e+00 -4.7255645019e+00 2.7283059372e+00 4.7255645019e+00 
629000 4.6780981653e+00 -1.5603354208e-04 2.7283087983e+00 -4.7255694574e+00 2.7283087983e+00 4.7255694574e+00 
629100 4.6780981648e+00 -1.5594883955e-04 2.7283116578e+00 -4.7255744103e+00 2.7283116578e+00 4.7255744103e+00 
629200 4.6780981644e+00 -1.5586418250e-04 2.7283145158e+00 -4.7255793604e+00 2.7283145158e+00 4.7255793604e+00 
629300 4.6780981639e+00 -1.5577957091e-04 2.7283173722e+00 -4.7255843079e+00 2.7283173722e+00 4.7255843079e+00 
629400 4.6780981634e+00 -1.5569500477e-04 2.7283202271e+00 -4.7255892526e+00 2.7283202271e+00 4.7255892526e+00 
629500 4.6780981630e+00 -1.5561048404e-04 2.7283230804e+00 -4.7255941947e+00 2.7283230804e+00 4.7255941947e+00 
629600 4.6780981625e+00 -1.5552600870e-04 2.7283259322e+00 -4.7255991341e+00 2.7283259322e+00 4.7255991341e+00 
629700 4.6780981620e+00 -1.5544157874e-04 2.7283287824e+00 -4.7256040708e+00 2.7283287824e+00 4.7256040708e+00 
629800 4.6780981616e+00 -1.5535719411e-04 2.7283316310e+00 -4.7256090049e+00 2.7283316310e+00 4.7256090049e+00 
629900 4.6780981611e+00 -1.5527285481e-04 2.7283344781e+00 -4.7256139362e+00 2.7283344781e+00 4.7256139362e+00 
630000 4.6780981606e+00 -1.5518856081e-04 2.7283373237e+00 -4.7256188649e+00 2.7283373237e+00 4.7256188649e+00 
630100 4.6780981602e+00 -1.5510431208e-04 2.7283401677e+00 -4.7256237908e+00 2.7283401677e+00 4.7256237908e+00 
630200 4.6780981597e+00 -1.5502010860e-04 2.7283430102e+00 -4.7256287141e+00 2.7283430102e+00 4.7256287141e+00 
630300 4.6780981592e+00 -1.5493595035e-04 2.7283458511e+00 -4.7256336347e+00 2.7283458511e+00 4.7256336347e+00 
630400 4.6780981588e+00 -1.5485183730e-04 2.7283486905e+00 -4.7256385527e+00 2.7283486905e+00 4.7256385527e+00 
630500 4.6780981583e+00 -1.5476776942e-04 2.7283515283e+00 -4.7256434680e+00 2.7283515283e+00 4.7256434680e+00 
630600 4.6780981579e+00 -1.5468374671e-04 2.7283543646e+00 -4.7256483806e+00 2.7283543646e+00 4.7256483806e+00 
630700 4.6780981574e+00 -1.5459976912e-04 2.7283571994e+00 -4.7256532905e+00 2.7283571994e+00 4.7256532905e+00 
630800 4.6780981569e+00 -1.5451583665e-04 2.7283600326e+00 -4.7256581977e+00 2.7283600326e+00 4.7256581977e+00 
630900 4.6780981565e+00 -1.5443194925e-04 2.7283628642e+00 -4.7256631023e+00 2.7283628642e+00 4.7256631023e+00 
631000 4.6780981560e+00 -1.5434810692e-04 2.7283656943e+00 -4.7256680042e+00 2.7283656943e+00 4.7256680042e+00 
631100 4.6780981556e+00 -1.5426430963e-04 2.7283685229e+00 -4.7256729035e+00 2.7283685229e+00 4.7256729035e+00 
631200 4.6780981551e+00 -1.5418055735e-04 2.7283713500e+00 -4.7256778001e+00 2.7283713500e+00 4.7256778001e+00 
631300 4.6780981546e+00 -1.5409685006e-04 2.7283741755e+00 -4.7256826940e+00 2.7283741755e+00 4.7256826940e+00 
631400 4.6780981542e+00 -1.5401318773e-04 2.7283769994e+00 -4.7256875852e+00 2.7283769994e+00 4.7256875852e+00 
631500 4.6780981537e+00 -1.5392957035e-04 2.7283798219e+00 -4.7256924738e+00 2.7283798219e+00 4.7256924738e+00 
631600 4.6780981533e+00 -1.5384599789e-04 2.7283826428e+00 -4.7256973598e+00 2.7283826428e+00 4.7256973598e+00 
631700 4.6780981528e+00 -1.5376247032e-04 2.7283854621e+00 -4.7257022430e+00 2.7283854621e+00 4.7257022430e+00 
631800 4.6780981524e+00 -1.5367898763e-04 2.7283882800e+00 -4.7257071237e+00 2.7283882800e+00 4.7257071237e+00 
631900 4.6780981519e+00 -1.5359554978e-04 2.7283910963e+00 -4.7257120016e+00 2.7283910963e+00 4.7257120016e+00 
632000 4.6780981514e+00 -1.5351215676e-04 2.7283939110e+00 -4.7257168770e+00 2.7283939110e+00 4.7257168770e+00 
632100 4.6780981510e+00 -1.5342880854e-04 2.7283967243e+00 -4.7257217496e+00 2.7283967243e+00 4.7257217496e+00 
632200 4.6780981505e+00 -1.5334550510e-04 2.7283995360e+00 -4.7257266196e+00 2.7283995360e+00 4.7257266196e+00 
632300 4.6780981501e+00 -1.5326224642e-04 2.7284023461e+00 -4.7257314870e+00 2.7284023461e+00 4.7257314870e+00 
632400 4.6780981496e+00 -1.5317903246e-04 2.7284051548e+00 -4.7257363517e+00 2.7284051548e+00 4.7257363517e+00 
632500 4.6780981492e+00 -1.5309586322e-04 2.7284079619e+00 -4.7257412138e+00 2.7284079619e+00 4.7257412138e+00 
632600 4.6780981487e+00 -1.5301273866e-04 2.7284107675e+00 -4.7257460732e+00 2.7284107675e+00 4.7257460732e+00 
632700 4.6780981483e+00 -1.5292965875e-04 2.7284135715e+00 -4.7257509300e+00 2.7284135715e+00 4.7257509300e+00 
632800 4.6780981478e+00 -1.5284662349e-04 2.7284163741e+00 -4.7257557841e+00 2.7284163741e+00 4.7257557841e+00 
632900 4.6780981474e+00 -1.5276363284e-04 2.7284191751e+00 -4.7257606356e+00 2.7284191751e+00 4.7257606356e+00 
633000 4.6780981469e+00 -1.5268068679e-04 2.7284219746e+00 -4.7257654845e+00 2.7284219746e+00 4.7257654845e+00 
633100 4.6780981465e+00 -1.5259778529e-04 2.7284247726e+00 -4.7257703307e+00 2.7284247726e+00 4.7257703307e+00 
633200 4.6780981460e+00 -1.5251492835e-04 2.7284275690e+00 -4.7257751743e+00 2.7284275690e+00 4.7257751743e+00 
633300 4.6780981456e+00 -1.5243211592e-04 2.7284303639e+00 -4.7257800152e+00 2.7284303639e+00 4.7257800152e+00 
633400 4.6780981451e+00 -1.5234934799e-04 2.7284331573e+00 -4.7257848536e+00 2.7284331573e+00 4.7257848536e+00 
633500 4.6780981447e+00 -1.5226662454e-04 2.7284359492e+00 -4.7257896892e+00 2.7284359492e+00 4.7257896892e+00 
633600 4.6780981442e+00 -1.5218394554e-04 2.7284387396e+00 -4.7257945223e+00 2.7284387396e+00 4.7257945223e+00 
633700 4.6780981438e+00 -1.5210131096e-04 2.7284415284e+00 -4.7257993527e+00 2.7284415284e+00 4.7257993527e+00 
633800 4.6780981433e+00 -1.5201872079e-04 2.7284443158e+00 -4.7258041805e+00 2.7284443158e+00 4.7258041805e+00 
633900 4.6780981429e+00 -1.5193617500e-04 2.7284471016e+00 -4.7258090057e+00 2.7284471016e+00 4.7258090057e+00 
634000 4.6780981425e+00 -1.5185367357e-04 2.7284498859e+00 -4.7258138282e+00 2.7284498859e+00 4.7258138282e+00 
634100 4.6780981420e+00 -1.5177121647e-04 2.7284526687e+00 -4.7258186482e+00 2.7284526687e+00 4.7258186482e+00 
634200 4.6780981416e+00 -1.5168880368e-04 2.7284554499e+00 -4.7258234655e+00 2.7284554499e+00 4.7258234655e+00 
634300 4.6780981411e+00 -1.5160643518e-04 2.7284582297e+00 -4.7258282801e+00 2.7284582297e+00 4.7258282801e+00 
634400 4.6780981407e+00 -1.5152411094e-04 2.7284610079e+00 -4.7258330922e+00 2.7284610079e+00 4.7258330922e+00 
634500 4.6780981402e+00 -1.5144183095e-04 2.7284637847e+00 -4.7258379016e+00 2.7284637847e+00 4.7258379016e+00 
634600 4.6780981398e+00 -1.5135959517e-04 2.7284665599e+00 -4.7258427085e+00 2.7284665599e+00 4.7258427085e+00 
634700 4.6780981394e+00 -1.5127740359e-04 2.7284693336e+00 -4.7258475127e+00 2.7284693336e+00 4.7258475127e+00 
634800 4.6780981389e+00 -1.5119525619e-04 2.7284721058e+00 -4.7258523143e+00 2.7284721058e+00 4.7258523143e+00 
634900 4.6780981385e+00 -1.5111315293e-04 2.7284748765e+00 -4.7258571133e+00 2.7284748765e+00 4.7258571133e+00 
635000 4.6780981380e+00 -1.5103109379e-04 2.7284776457e+00 -4.7258619096e+00 2.7284776457e+00 4.7258619096e+00 
635100 4.6780981376e+00 -1.5094907876e-04 2.7284804134e+00 -4.7258667034e+00 2.7284804134e+00 4.7258667034e+00 
635200 4.6780981372e+00 -1.5086710781e-04 2.7284831795e+00 -4.7258714945e+00 2.7284831795e+00 4.7258714945e+00 
635300 4.6780981367e+00 -1.5078518091e-04 2.7284859442e+00 -4.7258762831e+00 2.7284859442e+00 4.7258762831e+00 
635400 4.6780981363e+00 -1.5070329805e-04 2.7284887074e+00 -4.7258810690e+00 2.7284887074e+00 4.7258810690e+00 
635500 4.6780981358e+00 -1.5062145919e-04 2.7284914690e+00 -4.7258858524e+00 2.7284914690e+00 4.7258858524e+00 
635600 4.6780981354e+00 -1.5053966432e-04 2.7284942292e+00 -4.7258906331e+00 2.7284942292e+00 4.7258906331e+00 
635700 4.6780981350e+00 -1.5045791342e-04 2.7284969879e+00 -4.7258954113e+00 2.7284969879e+00 4.7258954113e+00 
635800 4.6780981345e+00 -1.5037620646e-04 2.7284997450e+00 -4.7259001868e+00 2.7284997450e+00 4.7259001868e+00 
635900 4.6780981341e+00 -1.5029454341e-04 2.7285025007e+00 -4.7259049597e+00 2.7285025007e+00 4.7259049597e+00 
636000 4.6780981337e+00 -1.5021292426e-04 2.7285052548e+00 -4.7259097301e+00 2.7285052548e+00 4.7259097301e+00 
636100 4.6780981332e+00 -1.5013134898e-04 2.7285080075e+00 -4.7259144978e+00 2.7285080075e+00 4.7259144978e+00 
636200 4.6780981328e+00 -1.5004981755e-04 2.7285107586e+00 -4.7259192630e+00 2.7285107586e+00 4.7259192630e+00 
636300 4.6780981324e+00 -1.4996832995e-04 2.7285135083e+00 -4.7259240255e+00 2.7285135083e+00 4.7259240255e+00 
636400 4.6780981319e+00 -1.4988688615e-04 2.7285162565e+00 -4.7259287855e+00 2.7285162565e+00 4.7259287855e+00 
636500 4.6780981315e+00 -1.4980548612e-04 2.7285190032e+00 -4.7259335429e+00 2.7285190032e+00 4.7259335429e+00 
636600 4.6780981311e+00 -1.4972412986e-04 2.7285217483e+00 -4.7259382977e+00 2.7285217483e+00 4.7259382977e+00 
636700 4.6780981306e+00 -1.4964281733e-04 2.7285244920e+00 -4.7259430499e+00 2.7285244920e+00 4.7259430499e+00 
636800 4.6780981302e+00 -1.4956154850e-04 2.7285272342e+00 -4.7259477995e+00 2.7285272342e+00 4.7259477995e+00 
636900 4.6780981298e+00 -1.4948032337e-04 2.7285299749e+00 -4.7259525465e+00 2.7285299749e+00 4.7259525465e+00 
637000 4.6780981293e+00 -1.4939914190e-04 2.7285327141e+00 -4.7259572910e+00 2.7285327141e+00 4.7259572910e+00 
637100 4.6780981289e+00 -1.4931800407e-04 2.7285354518e+00 -4.7259620329e+00 2.7285354518e+00 4.7259620329e+00 
637200 4.6780981285e+00 -1.4923690986e-04 2.7285381881e+00 -4.7259667721e+00 2.7285381881e+00 4.7259667721e+00 
637300 4.6780981280e+00 -1.4915585925e-04 2.7285409228e+00 -4.7259715089e+00 2.7285409228e+00 4.7259715089e+00 
637400 4.6780981276e+00 -1.4907485221e-04 2.7285436561e+00 -4.7259762430e+00 2.7285436561e+00 4.7259762430e+00 
637500 4.6780981272e+00 -1.4899388872e-04 2.7285463878e+00 -4.7259809745e+00 2.7285463878e+00 4.7259809745e+00 
637600 4.6780981268e+00 -1.4891296876e-04 2.7285491181e+00 -4.7259857035e+00 2.7285491181e+00 4.7259857035e+00 
637700 4.6780981263e+00 -1.4883209230e-04 2.7285518469e+00 -4.7259904299e+00 2.7285518469e+00 4.7259904299e+00 
637800 4.6780981259e+00 -1.4875125933e-04 2.7285545742e+00 -4.7259951538e+00 2.7285545742e+00 4.7259951538e+00 
637900 4.6780981255e+00 -1.4867046981e-04 2.7285573001e+00 -4.7259998751e+00 2.7285573001e+00 4.7259998751e+00 
638000 4.6780981250e+00 -1.4858972373e-04 2.7285600244e+00 -4.7260045938e+00 2.7285600244e+00 4.7260045938e+00 
638100 4.6780981246e+00 -1.4850902106e-04 2.7285627473e+00 -4.7260093099e+00 2.7285627473e+00 4.7260093099e+00 
638200 4.6780981242e+00 -1.4842836179e-04 2.7285654686e+00 -4.7260140234e+00 2.7285654686e+00 4.7260140234e+00 
638300 4.6780981238e+00 -1.4834774588e-04 2.7285681885e+00 -4.7260187345e+00 2.7285681885e+00 4.7260187345e+00 
638400 4.6780981234e+00 -1.4826717332e-04 2.7285709069e+00 -4.7260234429e+00 2.7285709069e+00 4.7260234429e+00 
638500 4.6780981229e+00 -1.4818664407e-04 2.7285736239e+00 -4.7260281488e+00 2.7285736239e+00 4.7260281488e+00 
638600 4.6780981225e+00 -1.4810615813e-04 2.7285763393e+00 -4.7260328521e+00 2.7285763393e+00 4.7260328521e+00 
638700 4.6780981221e+00 -1.4802571547e-04 2.7285790533e+00 -4.7260375528e+00 2.7285790533e+00 4.7260375528e+00 
638800 4.6780981217e+00 -1.4794531605e-04 2.7285817658e+00 -4.7260422510e+00 2.7285817658e+00 4.7260422510e+00 
638900 4.6780981212e+00 -1.4786495987e-04 2.7285844769e+00 -4.7260469467e+00 2.7285844769e+00 4.7260469467e+00 
639000 4.6780981208e+00 -1.4778464690e-04 2.7285871864e+00 -4.7260516398e+00 2.7285871864e+00 4.7260516398e+00 
639100 4.6780981204e+00 -1.4770437712e-04 2.7285898945e+00 -4.7260563303e+00 2.7285898945e+00 4.7260563303e+00 
639200 4.6780981200e+00 -1.4762415049e-04 2.7285926011e+00 -4.7260610183e+00 2.7285926011e+00 4.7260610183e+00 
639300 4.6780981196e+00 -1.4754396701e-04 2.7285953062e+00 -4.7260657037e+00 2.7285953062e+00 4.7260657037e+00 
639400 4.6780981191e+00 -1.4746382664e-04 2.7285980099e+00 -4.7260703866e+00 2.7285980099e+00 4.7260703866e+00 
639500 4.6780981187e+00 -1.4738372938e-04 2.7286007121e+00 -4.7260750669e+00 2.7286007121e+00 4.7260750669e+00 
639600 4.6780981183e+00 -1.4730367518e-04 2.7286034128e+00 -4.7260797447e+00 2.7286034128e+00 4.7260797447e+00 
639700 4.6780981179e+00 -1.4722366403e-04 2.7286061121e+00 -4.7260844199e+00 2.7286061121e+00 4.7260844199e+00 
639800 4.6780981175e+00 -1.4714369591e-04 2.7286088098e+00 -4.7260890926e+00 2.7286088098e+00 4.7260890926e+00 
639900 4.6780981170e+00 -1.4706377080e-04 2.7286115062e+00 -4.7260937628e+00 2.7286115062e+00 4.7260937628e+00 
640000 4.6780981166e+00 -1.4698388866e-04 2.7286142010e+00 -4.7260984304e+00 2.7286142010e+00 4.7260984304e+00 
640100 4.6780981162e+00 -1.4690404949e-04 2.7286168944e+00 -4.7261030955e+00 2.7286168944e+00 4.7261030955e+00 
640200 4.6780981158e+00 -1.4682425325e-04 2.7286195863e+00 -4.7261077580e+00 2.7286195863e+00 4.7261077580e+00 
640300 4.6780981154e+00 -1.4674449993e-04 2.7286222768e+00 -4.7261124180e+00 2.7286222768e+00 4.7261124180e+00 
640400 4.6780981150e+00 -1.4666478950e-04 2.7286249657e+00 -4.7261170755e+00 2.7286249657e+00 4.7261170755e+00 
640500 4.6780981146e+00 -1.4658512194e-04 2.7286276533e+00 -4.7261217304e+00 2.7286276533e+00 4.7261217304e+00 
640600 4.6780981141e+00 -1.4650549723e-04 2.7286303393e+00 -4.7261263828e+00 2.7286303393e+00 4.7261263828e+00 
640700 4.6780981137e+00 -1.4642591534e-04 2.7286330239e+00 -4.7261310326e+00 2.7286330239e+00 4.7261310326e+00 
640800 4.6780981133e+00 -1.4634637625e-04 2.7286357071e+00 -4.7261356800e+00 2.7286357071e+00 4.7261356800e+00 
640900 4.6780981129e+00 -1.4626687994e-04 2.7286383887e+00 -4.7261403248e+00 2.7286383887e+00 4.7261403248e+00 
641000 4.6780981125e+00 -1.4618742639e-04 2.7286410690e+00 -4.7261449670e+00 2.7286410690e+00 4.7261449670e+00 
641100 4.6780981121e+00 -1.4610801557e-04 2.7286437477e+00 -4.7261496068e+00 2.7286437477e+00 4.7261496068e+00 
641200 4.6780981117e+00 -1.4602864747e-04 2.7286464250e+00 -4.7261542440e+00 2.7286464250e+00 4.7261542440e+00 
641300 4.6780981113e+00 -1.4594932205e-04 2.7286491009e+00 -4.7261588787e+00 2.7286491009e+00 4.7261588787e+00 
641400 4.6780981108e+00 -1.4587003930e-04 2.7286517752e+00 -4.7261635109e+00 2.7286517752e+00 4.7261635109e+00 
641500 4.6780981104e+00 -1.4579079920e-04 2.7286544482e+00 -4.7261681405e+00 2.7286544482e+00 4.7261681405e+00 
641600 4.6780981100e+00 -1.4571160171e-04 2.7286571197e+00 -4.7261727677e+00 2.7286571197e+00 4.7261727677e+00 
641700 4.6780981096e+00 -1.4563244683e-04 2.7286597897e+00 -4.7261773923e+00 2.7286597897e+00 4.7261773923e+00 
641800 4.6780981092e+00 -1.4555333452e-04 2.7286624583e+00 -4.7261820144e+00 2.7286624583e+00 4.7261820144e+00 
641900 4.6780981088e+00 -1.4547426477e-04 2.7286651254e+00 -4.7261866340e+00 2.7286651254e+00 4.7261866340e+00 
642000 4.6780981084e+00 -1.4539523756e-04 2.7286677910e+00 -4.7261912511e+00 2.7286677910e+00 4.7261912511e+00 
642100 4.6780981080e+00 -1.4531625285e-04 2.7286704553e+00 -4.7261958656e+00 2.7286704553e+00 4.7261958656e+00 
642200 4.6780981076e+00 -1.4523731063e-04 2.7286731180e+00 -4.7262004777e+00 2.7286731180e+00 4.7262004777e+00 
642300 4.6780981072e+00 -1.4515841087e-04 2.7286757793e+00 -4.7262050872e+00 2.7286757793e+00 4.7262050872e+00 
642400 4.6780981068e+00 -1.4507955356e-04 2.7286784392e+00 -4.7262096942e+00 2.7286784392e+00 4.7262096942e+00 
642500 4.6780981064e+00 -1.4500073867e-04 2.7286810976e+00 -4.7262142988e+00 2.7286810976e+00 4.7262142988e+00 
642600 4.6780981059e+00 -1.4492196618e-04 2.7286837546e+00 -4.7262189008e+00 2.7286837546e+00 4.7262189008e+00 
642700 4.6780981055e+00 -1.4484323607e-04 2.7286864101e+00 -4.7262235003e+00 2.7286864101e+00 4.7262235003e+00 
642800 4.6780981051e+00 -1.4476454831e-04 2.7286890642e+00 -4.7262280973e+00 2.7286890642e+00 4.7262280973e+00 
642900 4.6780981047e+00 -1.4468590288e-04 2.7286917169e+00 -4.7262326918e+00 2.7286917169e+00 4.7262326918e+00 
643000 4.6780981043e+00 -1.4460729976e-04 2.7286943681e+00 -4.7262372838e+00 2.7286943681e+00 4.7262372838e+00 
643100 4.6780981039e+00 -1.4452873892e-04 2.7286970178e+00 -4.7262418733e+00 2.7286970178e+00 4.7262418733e+00 
643200 4.6780981035e+00 -1.4445022036e-04 2.7286996661e+00 -4.7262464603e+00 2.7286996661e+00 4.7262464603e+00 
643300 4.6780981031e+00 -1.4437174403e-04 2.7287023130e+00 -4.7262510448e+00 2.7287023130e+00 4.7262510448e+00 
643400 4.6780981027e+00 -1.4429330993e-04 2.7287049584e+00 -4.7262556268e+00 2.7287049584e+00 4.7262556268e+00 
643500 4.6780981023e+00 -1.4421491802e-04 2.7287076024e+00 -4.7262602064e+00 2.7287076024e+00 4.7262602064e+00 
643600 4.6780981019e+00 -1.4413656829e-04 2.7287102450e+00 -4.7262647834e+00 2.7287102450e+00 4.7262647834e+00 
643700 4.6780981015e+00 -1.4405826072e-04 2.7287128861e+00 -4.7262693579e+00 2.7287128861e+00 4.7262693579e+00 
643800 4.6780981011e+00 -1.4397999527e-04 2.7287155257e+00 -4.7262739300e+00 2.7287155257e+00 4.7262739300e+00 
643900 4.6780981007e+00 -1.4390177194e-04 2.7287181640e+00 -4.7262784996e+00 2.7287181640e+00 4.7262784996e+00 
644000 4.6780981003e+00 -1.4382359069e-04 2.7287208008e+00 -4.7262830666e+00 2.7287208008e+00 4.7262830666e+00 
644100 4.6780980999e+00 -1.4374545151e-04 2.7287234362e+00 -4.7262876312e+00 2.7287234362e+00 4.7262876312e+00 
644200 4.6780980995e+00 -1.4366735437e-04 2.7287260701e+00 -4.7262921933e+00 2.7287260701e+00 4.7262921933e+00 
644300 4.6780980991e+00 -1.4358929926e-04 2.7287287026e+00 -4.7262967529e+00 2.7287287026e+00 4.7262967529e+00 
644400 4.6780980987e+00 -1.4351128614e-04 2.7287313337e+00 -4.7263013101e+00 2.7287313337e+00 4.7263013101e+00 
644500 4.6780980983e+00 -1.4343331500e-04 2.7287339633e+00 -4.7263058647e+00 2.7287339633e+00 4.7263058647e+00 
644600 4.6780980979e+00 -1.4335538581e-04 2.7287365915e+00 -4.7263104169e+00 2.7287365915e+00 4.7263104169e+00 
644700 4.6780980975e+00 -1.4327749856e-04 2.7287392183e+00 -4.7263149666e+00 2.7287392183e+00 4.7263149666e+00 
644800 4.6780980971e+00 -1.4319965322e-04 2.7287418436e+00 -4.7263195139e+00 2.7287418436e+00 4.7263195139e+00 
644900 4.6780980968e+00 -1.4312184976e-04 2.7287444675e+00 -4.7263240586e+00 2.7287444675e+00 4.7263240586e+00 
645000 4.6780980964e+00 -1.4304408818e-04 2.7287470900e+00 -4.7263286009e+00 2.7287470900e+00 4.7263286009e+00 
645100 4.6780980960e+00 -1.4296636843e-04 2.7287497111e+00 -4.7263331407e+00 2.7287497111e+00 4.7263331407e+00 
645200 4.6780980956e+00 -1.4288869051e-04 2.7287523307e+00 -4.7263376780e+00 2.7287523307e+00 4.7263376780e+00 
645300 4.6780980952e+00 -1.4281105439e-04 2.7287549489e+00 -4.7263422129e+00 2.7287549489e+00 4.7263422129e+00 
645400 4.6780980948e+00 -1.4273346005e-04 2.7287575657e+00 -4.7263467453e+00 2.7287575657e+00 4.7263467453e+00 
645500 4.6780980944e+00 -1.4265590747e-04 2.7287601810e+00 -4.7263512752e+00 2.7287601810e+00 4.7263512752e+00 
645600 4.6780980940e+00 -1.4257839662e-04 2.7287627950e+00 -4.7263558027e+00 2.7287627950e+00 4.7263558027e+00 
645700 4.6780980936e+00 -1.4250092748e-04 2.7287654075e+00 -4.7263603277e+00 2.7287654075e+00 4.7263603277e+00 
645800 4.6780980932e+00 -1.4242350004e-04 2.7287680186e+00 -4.7263648502e+00 2.7287680186e+00 4.7263648502e+00 
645900 4.6780980928e+00 -1.4234611426e-04 2.7287706282e+00 -4.7263693703e+00 2.7287706282e+00 4.7263693703e+00 
646000 4.6780980924e+00 -1.4226877013e-04 2.7287732365e+00 -4.7263738879e+00 2.7287732365e+00 4.7263738879e+00 
646100 4.6780980920e+00 -1.4219146763e-04 2.7287758433e+00 -4.7263784031e+00 2.7287758433e+00 4.7263784031e+00 
646200 4.6780980917e+00 -1.4211420672e-04 2.7287784487e+00 -4.7263829158e+00 2.7287784487e+00 4.7263829158e+00 
646300 4.6780980913e+00 -1.4203698740e-04 2.7287810527e+00 -4.7263874260e+00 2.7287810527e+00 4.7263874260e+00 
646400 4.6780980909e+00 -1.4195980964e-04 2.7287836553e+00 -4.7263919338e+00 2.7287836553e+00 4.7263919338e+00 
646500 4.6780980905e+00 -1.4188267341e-04 2.7287862564e+00 -4.7263964391e+00 2.7287862564e+00 4.7263964391e+00 
646600 4.6780980901e+00 -1.4180557871e-04 2.7287888562e+00 -4.7264009420e+00 2.7287888562e+00 4.7264009420e+00 
646700 4.6780980897e+00 -1.4172852549e-04 2.7287914545e+00 -4.7264054425e+00 2.7287914545e+00 4.7264054425e+00 
646800 4.6780980893e+00 -1.4165151375e-04 2.7287940514e+00 -4.7264099404e+00 2.7287940514e+00 4.7264099404e+00 
646900 4.6780980889e+00 -1.4157454345e-04 2.7287966469e+00 -4.7264144360e+00 2.7287966469e+00 4.7264144360e+00 
647000 4.6780980886e+00 -1.4149761459e-04 2.7287992410e+00 -4.7264189291e+00 2.7287992410e+00 4.7264189291e+00 
647100 4.6780980882e+00 -1.4142072713e-04 2.7288018337e+00 -4.7264234197e+00 2.7288018337e+00 4.7264234197e+00 
647200 4.6780980878e+00 -1.4134388105e-04 2.7288044249e+00 -4.7264279079e+00 2.7288044249e+00 4.7264279079e+00 
647300 4.6780980874e+00 -1.4126707634e-04 2.7288070148e+00 -4.7264323936e+00 2.7288070148e+00 4.7264323936e+00 
647400 4.6780980870e+00 -1.4119031297e-04 2.7288096032e+00 -4.7264368770e+00 2.7288096032e+00 4.7264368770e+00 
647500 4.6780980866e+00 -1.4111359092e-04 2.7288121902e+00 -4.7264413578e+00 2.7288121902e+00 4.7264413578e+00 
647600 4.6780980862e+00 -1.4103691016e-04 2.7288147759e+00 -4.7264458363e+00 2.7288147759e+00 4.7264458363e+00 
647700 4.6780980859e+00 -1.4096027069e-04 2.7288173601e+00 -4.7264503122e+00 2.7288173601e+00 4.7264503122e+00 
647800 4.6780980855e+00 -1.4088367246e-04 2.7288199429e+00 -4.7264547858e+00 2.7288199429e+00 4.7264547858e+00 
647900 4.6780980851e+00 -1.4080711547e-04 2.7288225243e+00 -4.7264592569e+00 2.7288225243e+00 4.7264592569e+00 
648000 4.6780980847e+00 -1.4073059969e-04 2.7288251043e+00 -4.7264637256e+00 2.7288251043e+00 4.7264637256e+00 
648100 4.6780980843e+00 -1.4065412509e-04 2.7288276829e+00 -4.7264681919e+00 2.7288276829e+00 4.7264681919e+00 
648200 4.6780980840e+00 -1.4057769167e-04 2.7288302601e+00 -4.7264726557e+00 2.7288302601e+00 4.7264726557e+00 
648300 4.6780980836e+00 -1.4050129939e-04 2.7288328359e+00 -4.7264771171e+00 2.7288328359e+00 4.7264771171e+00 
648400 4.6780980832e+00 -1.4042494823e-04 2.7288354103e+00 -4.7264815761e+00 2.7288354103e+00 4.7264815761e+00 
648500 4.6780980828e+00 -1.4034863818e-04 2.7288379832e+00 -4.7264860326e+00 2.7288379832e+00 4.7264860326e+00 
648600 4.6780980824e+00 -1.4027236920e-04 2.7288405548e+00 -4.7264904867e+00 2.7288405548e+00 4.7264904867e+00 
648700 4.6780980821e+00 -1.4019614129e-04 2.7288431250e+00 -4.7264949384e+00 2.7288431250e+00 4.7264949384e+00 
648800 4.6780980817e+00 -1.4011995441e-04 2.7288456938e+00 -4.7264993877e+00 2.7288456938e+00 4.7264993877e+00 
648900 4.6780980813e+00 -1.4004380855e-04 2.7288482612e+00 -4.7265038345e+00 2.7288482612e+00 4.7265038345e+00 
649000 4.6780980809e+00 -1.3996770368e-04 2.7288508272e+00 -4.7265082789e+00 2.7288508272e+00 4.7265082789e+00 
649100 4.6780980805e+00 -1.3989163979e-04 2.7288533918e+00 -4.7265127209e+00 2.7288533918e+00 4.7265127209e+00 
649200 4.6780980802e+00 -1.3981561684e-04 2.7288559549e+00 -4.7265171605e+00 2.7288559549e+00 4.7265171605e+00 
649300 4.6780980798e+00 -1.3973963482e-04 2.7288585167e+00 -4.7265215977e+00 2.7288585167e+00 4.7265215977e+00 
649400 4.6780980794e+00 -1.3966369372e-04 2.7288610772e+00 -4.7265260324e+00 2.7288610772e+00 4.7265260324e+00 
649500 4.6780980790e+00 -1.3958779350e-04 2.7288636362e+00 -4.7265304648e+00 2.7288636362e+00 4.7265304648e+00 
649600 4.6780980787e+00 -1.3951193414e-04 2.7288661938e+00 -4.7265348947e+00 2.7288661938e+00 4.7265348947e+00 
649700 4.6780980783e+00 -1.3943611562e-04 2.7288687500e+00 -4.7265393222e+00 2.7288687500e+00 4.7265393222e+00 
649800 4.6780980779e+00 -1.3936033793e-04 2.7288713048e+00 -4.7265437473e+00 2.7288713048e+00 4.7265437473e+00 
649900 4.6780980775e+00 -1.3928460104e-04 2.7288738583e+00 -4.7265481700e+00 2.7288738583e+00 4.7265481700e+00 
650000 4.6780980772e+00 -1.3920890492e-04 2.7288764103e+00 -4.7265525903e+00 2.7288764103e+00 4.7265525903e+00 
650100 4.6780980768e+00 -1.3913324957e-04 2.7288789610e+00 -4.7265570082e+00 2.7288789610e+00 4.7265570082e+00 
650200 4.6780980764e+00 -1.3905763495e-04 2.7288815103e+00 -4.7265614236e+00 2.7288815103e+00 4.7265614236e+00 
650300 4.6780980760e+00 -1.3898206104e-04 2.7288840582e+00 -4.7265658367e+00 2.7288840582e+00 4.7265658367e+00 
650400 4.6780980757e+00 -1.3890652783e-04 2.7288866047e+00 -4.7265702474e+00 2.7288866047e+00 4.7265702474e+00 
650500 4.6780980753e+00 -1.3883103528e-04 2.7288891498e+00 -4.7265746556e+00 2.7288891498e+00 4.7265746556e+00 
650600 4.6780980749e+00 -1.3875558339e-04 2.7288916935e+00 -4.7265790615e+00 2.7288916935e+00 4.7265790615e+00 
650700 4.6780980746e+00 -1.3868017212e-04 2.7288942358e+00 -4.7265834650e+00 2.7288942358e+00 4.7265834650e+00 
650800 4.6780980742e+00 -1.3860480147e-04 2.7288967768e+00 -4.7265878660e+00 2.7288967768e+00 4.7265878660e+00 
650900 4.6780980738e+00 -1.3852947139e-04 2.7288993164e+00 -4.7265922647e+00 2.7288993164e+00 4.7265922647e+00 
651000 4.6780980734e+00 -1.3845418188e-04 2.7289018546e+00 -4.7265966610e+00 2.7289018546e+00 4.7265966610e+00 
651100 4.6780980731e+00 -1.3837893292e-04 2.7289043914e+00 -4.7266010549e+00 2.7289043914e+00 4.7266010549e+00 
651200 4.6780980727e+00 -1.3830372447e-04 2.7289069268e+00 -4.7266054464e+00 2.7289069268e+00 4.7266054464e+00 
651300 4.6780980723e+00 -1.3822855653e-04 2.7289094609e+00 -4.7266098355e+00 2.7289094609e+00 4.7266098355e+00 
651400 4.6780980720e+00 -1.3815342907e-04 2.7289119935e+00 -4.7266142222e+00 2.7289119935e+00 4.7266142222e+00 
651500 4.6780980716e+00 -1.3807834206e-04 2.7289145248e+00 -4.7266186065e+00 2.7289145248e+00 4.7266186065e+00 
651600 4.6780980712e+00 -1.3800329549e-04 2.7289170547e+00 -4.7266229885e+00 2.7289170547e+00 4.7266229885e+00 
651700 4.6780980709e+00 -1.3792828933e-04 2.7289195833e+00 -4.7266273680e+00 2.7289195833e+00 4.7266273680e+00 
651800 4.6780980705e+00 -1.3785332356e-04 2.7289221104e+00 -4.7266317452e+00 2.7289221104e+00 4.7266317452e+00 
651900 4.6780980701e+00 -1.3777839817e-04 2.7289246362e+00 -4.7266361200e+00 2.7289246362e+00 4.7266361200e+00 
652000 4.6780980698e+00 -1.3770351313e-04 2.7289271606e+00 -4.7266404924e+00 2.7289271606e+00 4.7266404924e+00 
652100 4.6780980694e+00 -1.3762866842e-04 2.7289296837e+00 -4.7266448624e+00 2.7289296837e+00 4.7266448624e+00 
652200 4.6780980690e+00 -1.3755386402e-04 2.7289322053e+00 -4.7266492300e+00 2.7289322053e+00 4.7266492300e+00 
652300 4.6780980687e+00 -1.3747909990e-04 2.7289347256e+00 -4.7266535953e+00 2.7289347256e+00 4.7266535953e+00 
652400 4.6780980683e+00 -1.3740437605e-04 2.7289372445e+00 -4.7266579582e+00 2.7289372445e+00 4.7266579582e+00 
652500 4.6780980679e+00 -1.3732969245e-04 2.7289397621e+00 -4.7266623187e+00 2.7289397621e+00 4.7266623187e+00 
652600 4.6780980676e+00 -1.3725504907e-04 2.7289422783e+00 -4.7266666769e+00 2.7289422783e+00 4.7266666769e+00 
652700 4.6780980672e+00 -1.3718044589e-04 2.7289447931e+00 -4.7266710326e+00 2.7289447931e+00 4.7266710326e+00 
652800 4.6780980669e+00 -1.3710588289e-04 2.7289473065e+00 -4.7266753860e+00 2.7289473065e+00 4.7266753860e+00 
652900 4.6780980665e+00 -1.3703136005e-04 2.7289498186e+00 -4.7266797370e+00 2.7289498186e+00 4.7266797370e+00 
653000 4.6780980661e+00 -1.3695687735e-04 2.7289523293e+00 -4.7266840857e+00 2.7289523293e+00 4.7266840857e+00 
653100 4.6780980658e+00 -1.3688243476e-04 2.7289548386e+00 -4.7266884320e+00 2.7289548386e+00 4.7266884320e+00 
653200 4.6780980654e+00 -1.3680803228e-04 2.7289573465e+00 -4.7266927759e+00 2.7289573465e+00 4.7266927759e+00 
653300 4.6780980651e+00 -1.3673366987e-04 2.7289598531e+00 -4.7266971175e+00 2.7289598531e+00 4.7266971175e+00 
653400 4.6780980647e+00 -1.3665934751e-04 2.7289623584e+00 -4.7267014567e+00 2.7289623584e+00 4.7267014567e+00 
653500 4.6780980643e+00 -1.3658506518e-04 2.7289648623e+00 -4.7267057935e+00 2.7289648623e+00 4.7267057935e+00 
653600 4.6780980640e+00 -1.3651082287e-04 2.7289673648e+00 -4.7267101280e+00 2.7289673648e+00 4.7267101280e+00 
653700 4.6780980636e+00 -1.3643662055e-04 2.7289698659e+00 -4.7267144601e+00 2.7289698659e+00 4.7267144601e+00 
653800 4.6780980633e+00 -1.3636245820e-04 2.7289723657e+00 -4.7267187898e+00 2.7289723657e+00 4.7267187898e+00 
653900 4.6780980629e+00 -1.3628833579e-04 2.7289748641e+00 -4.7267231172e+00 2.7289748641e+00 4.7267231172e+00 
654000 4.6780980625e+00 -1.3621425332e-04 2.7289773612e+00 -4.7267274423e+00 2.7289773612e+00 4.7267274423e+00 
654100 4.6780980622e+00 -1.3614021075e-04 2.7289798569e+00 -4.7267317649e+00 2.7289798569e+00 4.7267317649e+00 
654200 4.6780980618e+00 -1.3606620806e-04 2.7289823512e+00 -4.7267360853e+00 2.7289823512e+00 4.7267360853e+00 
654300 4.6780980615e+00 -1.3599224524e-04 2.7289848442e+00 -4.7267404032e+00 2.7289848442e+00 4.7267404032e+00 
654400 4.6780980611e+00 -1.3591832226e-04 2.7289873358e+00 -4.7267447189e+00 2.7289873358e+00 4.7267447189e+00 
654500 4.6780980608e+00 -1.3584443911e-04 2.7289898261e+00 -4.7267490321e+00 2.7289898261e+00 4.7267490321e+00 
654600 4.6780980604e+00 -1.3577059575e-04 2.7289923150e+00 -4.7267533431e+00 2.7289923150e+00 4.7267533431e+00 
654700 4.6780980600e+00 -1.3569679218e-04 2.7289948026e+00 -4.7267576516e+00 2.7289948026e+00 4.7267576516e+00 
654800 4.6780980597e+00 -1.3562302836e-04 2.7289972888e+00 -4.7267619579e+00 2.7289972888e+00 4.7267619579e+00 
654900 4.6780980593e+00 -1.3554930429e-04 2.7289997736e+00 -4.7267662618e+00 2.7289997736e+00 4.7267662618e+00 
655000 4.6780980590e+00 -1.3547561993e-04 2.7290022571e+00 -4.7267705633e+00 2.7290022571e+00 4.7267705633e+00 
655100 4.6780980586e+00 -1.3540197527e-04 2.7290047393e+00 -4.7267748625e+00 2.7290047393e+00 4.7267748625e+00 
655200 4.6780980583e+00 -1.3532837028e-04 2.7290072201e+00 -4.7267791594e+00 2.7290072201e+00 4.7267791594e+00 
655300 4.6780980579e+00 -1.3525480495e-04 2.7290096995e+00 -4.7267834539e+00 2.7290096995e+00 4.7267834539e+00 
655400 4.6780980576e+00 -1.3518127925e-04 2.7290121776e+00 -4.7267877461e+00 2.7290121776e+00 4.7267877461e+00 
655500 4.6780980572e+00 -1.3510779316e-04 2.7290146543e+00 -4.7267920359e+00 2.7290146543e+00 4.7267920359e+00 
655600 4.6780980569e+00 -1.3503434666e-04 2.7290171297e+00 -4.7267963234e+00 2.7290171297e+00 4.7267963234e+00 
655700 4.6780980565e+00 -1.3496093974e-04 2.7290196038e+00 -4.7268006086e+00 2.7290196038e+00 4.7268006086e+00 
655800 4.6780980562e+00 -1.3488757236e-04 2.7290220765e+00 -4.7268048915e+00 2.7290220765e+00 4.7268048915e+00 
655900 4.6780980558e+00 -1.3481424452e-04 2.7290245478e+00 -4.7268091720e+00 2.7290245478e+00 4.7268091720e+00 
656000 4.6780980555e+00 -1.3474095618e-04 2.7290270179e+00 -4.7268134502e+00 2.7290270179e+00 4.7268134502e+00 
656100 4.6780980551e+00 -1.3466770733e-04 2.7290294865e+00 -4.7268177260e+00 2.7290294865e+00 4.7268177260e+00 
656200 4.6780980548e+00 -1.3459449795e-04 2.7290319538e+00 -4.7268219995e+00 2.7290319538e+00 4.7268219995e+00 
656300 4.6780980544e+00 -1.3452132801e-04 2.7290344198e+00 -4.7268262707e+00 2.7290344198e+00 4.7268262707e+00 
656400 4.6780980541e+00 -1.3444819750e-04 2.7290368844e+00 -4.7268305396e+00 2.7290368844e+00 4.7268305396e+00 
656500 4.6780980537e+00 -1.3437510639e-04 2.7290393477e+00 -4.7268348061e+00 2.7290393477e+00 4.7268348061e+00 
656600 4.6780980534e+00 -1.3430205466e-04 2.7290418097e+00 -4.7268390704e+00 2.7290418097e+00 4.7268390704e+00 
656700 4.6780980530e+00 -1.3422904230e-04 2.7290442703e+00 -4.7268433323e+00 2.7290442703e+00 4.7268433323e+00 
656800 4.6780980527e+00 -1.3415606928e-04 2.7290467296e+00 -4.7268475918e+00 2.7290467296e+00 4.7268475918e+00 
656900 4.6780980523e+00 -1.3408313558e-04 2.7290491875e+00 -4.7268518491e+00 2.7290491875e+00 4.7268518491e+00 
657000 4.6780980520e+00 -1.3401024118e-04 2.7290516441e+00 -4.7268561040e+00 2.7290516441e+00 4.7268561040e+00 
657100 4.6780980516e+00 -1.3393738606e-04 2.7290540993e+00 -4.7268603567e+00 2.7290540993e+00 4.7268603567e+00 
657200 4.6780980513e+00 -1.3386457019e-04 2.7290565533e+00 -4.7268646070e+00 2.7290565533e+00 4.7268646070e+00 
657300 4.6780980509e+00 -1.3379179357e-04 2.7290590058e+00 -4.7268688550e+00 2.7290590058e+00 4.7268688550e+00 
657400 4.6780980506e+00 -1.3371905616e-04 2.7290614571e+00 -4.7268731006e+00 2.7290614571e+00 4.7268731006e+00 
657500 4.6780980503e+00 -1.3364635795e-04 2.7290639070e+00 -4.7268773440e+00 2.7290639070e+00 4.7268773440e+00 
657600 4.6780980499e+00 -1.3357369892e-04 2.7290663556e+00 -4.7268815851e+00 2.7290663556e+00 4.7268815851e+00 
657700 4.6780980496e+00 -1.3350107904e-04 2.7290688028e+00 -4.7268858238e+00 2.7290688028e+00 4.7268858238e+00 
657800 4.6780980492e+00 -1.3342849829e-04 2.7290712487e+00 -4.7268900602e+00 2.7290712487e+00 4.7268900602e+00 
657900 4.6780980489e+00 -1.3335595666e-04 2.7290736933e+00 -4.7268942944e+00 2.7290736933e+00 4.7268942944e+00 
658000 4.6780980485e+00 -1.3328345412e-04 2.7290761365e+00 -4.7268985262e+00 2.7290761365e+00 4.7268985262e+00 
658100 4.6780980482e+00 -1.3321099066e-04 2.7290785785e+00 -4.7269027557e+00 2.7290785785e+00 4.7269027557e+00 
658200 4.6780980479e+00 -1.3313856624e-04 2.7290810190e+00 -4.7269069829e+00 2.7290810190e+00 4.7269069829e+00 
658300 4.6780980475e+00 -1.3306618086e-04 2.7290834583e+00 -4.7269112079e+00 2.7290834583e+00 4.7269112079e+00 
658400 4.6780980472e+00 -1.3299383449e-04 2.7290858962e+00 -4.7269154305e+00 2.7290858962e+00 4.7269154305e+00 
658500 4.6780980468e+00 -1.3292152711e-04 2.7290883328e+00 -4.7269196508e+00 2.7290883328e+00 4.7269196508e+00 
658600 4.6780980465e+00 -1.3284925869e-04 2.7290907681e+00 -4.7269238688e+00 2.7290907681e+00 4.7269238688e+00 
658700 4.6780980462e+00 -1.3277702923e-04 2.7290932020e+00 -4.7269280845e+00 2.7290932020e+00 4.7269280845e+00 
658800 4.6780980458e+00 -1.3270483869e-04 2.7290956347e+00 -4.7269322980e+00 2.7290956347e+00 4.7269322980e+00 
658900 4.6780980455e+00 -1.3263268707e-04 2.7290980660e+00 -4.7269365091e+00 2.7290980660e+00 4.7269365091e+00 
659000 4.6780980451e+00 -1.3256057433e-04 2.7291004959e+00 -4.7269407179e+00 2.7291004959e+00 4.7269407179e+00 
659100 4.6780980448e+00 -1.3248850045e-04 2.7291029246e+00 -4.7269449245e+00 2.7291029246e+00 4.7269449245e+00 
659200 4.6780980445e+00 -1.3241646542e-04 2.7291053519e+00 -4.7269491287e+00 2.7291053519e+00 4.7269491287e+00 
659300 4.6780980441e+00 -1.3234446922e-04 2.7291077779e+00 -4.7269533307e+00 2.7291077779e+00 4.7269533307e+00 
659400 4.6780980438e+00 -1.3227251183e-04 2.7291102026e+00 -4.7269575304e+00 2.7291102026e+00 4.7269575304e+00 
659500 4.6780980434e+00 -1.3220059321e-04 2.7291126260e+00 -4.7269617278e+00 2.7291126260e+00 4.7269617278e+00 
659600 4.6780980431e+00 -1.3212871336e-04 2.7291150480e+00 -4.7269659229e+00 2.7291150480e+00 4.7269659229e+00 
659700 4.6780980428e+00 -1.3205687226e-04 2.7291174687e+00 -4.7269701157e+00 2.7291174687e+00 4.7269701157e+00 
659800 4.6780980424e+00 -1.3198506988e-04 2.7291198881e+00 -4.7269743062e+00 2.7291198881e+00 4.7269743062e+00 
659900 4.6780980421e+00 -1.3191330620e-04 2.7291223062e+00 -4.7269784945e+00 2.7291223062e+00 4.7269784945e+00 
660000 4.6780980418e+00 -1.3184158120e-04 2.7291247230e+00 -4.7269826804e+00 2.7291247230e+00 4.7269826804e+00 
660100 4.6780980414e+00 -1.3176989487e-04 2.7291271385e+00 -4.7269868641e+00 2.7291271385e+00 4.7269868641e+00 
660200 4.6780980411e+00 -1.3169824717e-04 2.7291295526e+00 -4.7269910455e+00 2.7291295526e+00 4.7269910455e+00 
660300 4.6780980408e+00 -1.3162663810e-04 2.7291319654e+00 -4.7269952247e+00 2.7291319654e+00 4.7269952247e+00 
660400 4.6780980404e+00 -1.3155506763e-04 2.7291343769e+00 -4.7269994015e+00 2.7291343769e+00 4.7269994015e+00 
660500 4.6780980401e+00 -1.3148353574e-04 2.7291367871e+00 -4.7270035761e+00 2.7291367871e+00 4.7270035761e+00 
660600 4.6780980398e+00 -1.3141204241e-04 2.7291391960e+00 -4.7270077484e+00 2.7291391960e+00 4.7270077484e+00 
660700 4.6780980394e+00 -1.3134058761e-04 2.7291416036e+00 -4.7270119185e+00 2.7291416036e+00 4.7270119185e+00 
660800 4.6780980391e+00 -1.3126917134e-04 2.7291440099e+00 -4.7270160862e+00 2.7291440099e+00 4.7270160862e+00 
660900 4.6780980388e+00 -1.3119779356e-04 2.7291464148e+00 -4.7270202517e+00 2.7291464148e+00 4.7270202517e+00 
661000 4.6780980384e+00 -1.3112645427e-04 2.7291488185e+00 -4.7270244150e+00 2.7291488185e+00 4.7270244150e+00 
661100 4.6780980381e+00 -1.3105515343e-04 2.7291512208e+00 -4.7270285759e+00 2.7291512208e+00 4.7270285759e+00 
661200 4.6780980378e+00 -1.3098389103e-04 2.7291536218e+00 -4.7270327346e+00 2.7291536218e+00 4.7270327346e+00 
661300 4.6780980374e+00 -1.3091266705e-04 2.7291560215e+00 -4.7270368911e+00 2.7291560215e+00 4.7270368911e+00 
661400 4.6780980371e+00 -1.3084148146e-04 2.7291584199e+00 -4.7270410452e+00 2.7291584199e+00 4.7270410452e+00 
661500 4.6780980368e+00 -1.3077033425e-04 2.7291608170e+00 -4.7270451971e+00 2.7291608170e+00 4.7270451971e+00 
661600 4.6780980364e+00 -1.3069922540e-04 2.7291632128e+00 -4.7270493468e+00 2.7291632128e+00 4.7270493468e+00 
661700 4.6780980361e+00 -1.3062815488e-04 2.7291656073e+00 -4.7270534942e+00 2.7291656073e+00 4.7270534942e+00 
661800 4.6780980358e+00 -1.3055712268e-04 2.7291680005e+00 -4.7270576393e+00 2.7291680005e+00 4.7270576393e+00 
661900 4.6780980355e+00 -1.3048612877e-04 2.7291703924e+00 -4.7270617822e+00 2.7291703924e+00 4.7270617822e+00 
662000 4.6780980351e+00 -1.3041517314e-04 2.7291727830e+00 -4.7270659228e+00 2.7291727830e+00 4.7270659228e+00 
662100 4.6780980348e+00 -1.3034425577e-04 2.7291751723e+00 -4.7270700611e+00 2.7291751723e+00 4.7270700611e+00 
662200 4.6780980345e+00 -1.3027337663e-04 2.7291775602e+00 -4.7270741972e+00 2.7291775602e+00 4.7270741972e+00 
662300 4.6780980342e+00 -1.3020253570e-04 2.7291799469e+00 -4.7270783311e+00 2.7291799469e+00 4.7270783311e+00 
662400 4.6780980338e+00 -1.3013173297e-04 2.7291823323e+00 -4.7270824627e+00 2.7291823323e+00 4.7270824627e+00 
662500 4.6780980335e+00 -1.3006096842e-04 2.7291847164e+00 -4.7270865920e+00 2.7291847164e+00 4.7270865920e+00 
662600 4.6780980332e+00 -1.2999024202e-04 2.7291870992e+00 -4.7270907191e+00 2.7291870992e+00 4.7270907191e+00 
662700 4.6780980328e+00 -1.2991955375e-04 2.7291894806e+00 -4.7270948440e+00 2.7291894806e+00 4.7270948440e+00 
662800 4.6780980325e+00 -1.2984890359e-04 2.7291918608e+00 -4.7270989666e+00 2.7291918608e+00 4.7270989666e+00 
662900 4.6780980322e+00 -1.2977829153e-04 2.7291942397e+00 -4.7271030869e+00 2.7291942397e+00 4.7271030869e+00 
663000 4.6780980319e+00 -1.2970771755e-04 2.7291966173e+00 -4.7271072050e+00 2.7291966173e+00 4.7271072050e+00 
663100 4.6780980316e+00 -1.2963718162e-04 2.7291989936e+00 -4.7271113209e+00 2.7291989936e+00 4.7271113209e+00 
663200 4.6780980312e+00 -1.2956668372e-04 2.7292013686e+00 -4.7271154345e+00 2.7292013686e+00 4.7271154345e+00 
663300 4.6780980309e+00 -1.2949622383e-04 2.7292037423e+00 -4.7271195459e+00 2.7292037423e+00 4.7271195459e+00 
663400 4.6780980306e+00 -1.2942580194e-04 2.7292061147e+00 -4.7271236551e+00 2.7292061147e+00 4.7271236551e+00 
663500 4.6780980303e+00 -1.2935541802e-04 2.7292084859e+00 -4.7271277620e+00 2.7292084859e+00 4.7271277620e+00 
663600 4.6780980299e+00 -1.2928507205e-04 2.7292108557e+00 -4.7271318667e+00 2.7292108557e+00 4.7271318667e+00 
663700 4.6780980296e+00 -1.2921476401e-04 2.7292132243e+00 -4.7271359691e+00 2.7292132243e+00 4.7271359691e+00 
663800 4.6780980293e+00 -1.2914449389e-04 2.7292155915e+00 -4.7271400693e+00 2.7292155915e+00 4.7271400693e+00 
663900 4.6780980290e+00 -1.2907426167e-04 2.7292179575e+00 -4.7271441673e+00 2.7292179575e+00 4.7271441673e+00 
664000 4.6780980286e+00 -1.2900406731e-04 2.7292203221e+00 -4.7271482630e+00 2.7292203221e+00 4.7271482630e+00 
664100 4.6780980283e+00 -1.2893391081e-04 2.7292226855e+00 -4.7271523565e+00 2.7292226855e+00 4.7271523565e+00 
664200 4.6780980280e+00 -1.2886379214e-04 2.7292250476e+00 -4.7271564478e+00 2.7292250476e+00 4.7271564478e+00 
664300 4.6780980277e+00 -1.2879371128e-04 2.7292274084e+00 -4.7271605368e+00 2.7292274084e+00 4.7271605368e+00 
664400 4.6780980274e+00 -1.2872366821e-04 2.7292297680e+00 -4.7271646237e+00 2.7292297680e+00 4.7271646237e+00 
664500 4.6780980271e+00 -1.2865366292e-04 2.7292321262e+00 -4.7271687083e+00 2.7292321262e+00 4.7271687083e+00 
664600 4.6780980267e+00 -1.2858369538e-04 2.7292344832e+00 -4.7271727906e+00 2.7292344832e+00 4.7271727906e+00 
664700 4.6780980264e+00 -1.2851376557e-04 2.7292368388e+00 -4.7271768708e+00 2.7292368388e+00 4.7271768708e+00 
664800 4.6780980261e+00 -1.2844387348e-04 2.7292391932e+00 -4.7271809487e+00 2.7292391932e+00 4.7271809487e+00 
664900 4.6780980258e+00 -1.2837401908e-04 2.7292415463e+00 -4.7271850244e+00 2.7292415463e+00 4.7271850244e+00 
665000 4.6780980255e+00 -1.2830420235e-04 2.7292438982e+00 -4.7271890979e+00 2.7292438982e+00 4.7271890979e+00 
665100 4.6780980251e+00 -1.2823442327e-04 2.7292462487e+00 -4.7271931691e+00 2.7292462487e+00 4.7271931691e+00 
665200 4.6780980248e+00 -1.2816468183e-04 2.7292485980e+00 -4.7271972382e+00 2.7292485980e+00 4.7271972382e+00 
665300 4.6780980245e+00 -1.2809497800e-04 2.7292509460e+00 -4.7272013050e+00 2.7292509460e+00 4.7272013050e+00 
665400 4.6780980242e+00 -1.2802531177e-04 2.7292532927e+00 -4.7272053696e+00 2.7292532927e+00 4.7272053696e+00 
665500 4.6780980239e+00 -1.2795568310e-04 2.7292556381e+00 -4.7272094320e+00 2.7292556381e+00 4.7272094320e+00 
665600 4.6780980236e+00 -1.2788609199e-04 2.7292579822e+00 -4.7272134922e+00 2.7292579822e+00 4.7272134922e+00 
665700 4.6780980232e+00 -1.2781653842e-04 2.7292603251e+00 -4.7272175502e+00 2.7292603251e+00 4.7272175502e+00 
665800 4.6780980229e+00 -1.2774702236e-04 2.7292626667e+00 -4.7272216060e+00 2.7292626667e+00 4.7272216060e+00 
665900 4.6780980226e+00 -1.2767754379e-04 2.7292650070e+00 -4.7272256595e+00 2.7292650070e+00 4.7272256595e+00 
666000 4.6780980223e+00 -1.2760810269e-04 2.7292673461e+00 -4.7272297109e+00 2.7292673461e+00 4.7272297109e+00 
666100 4.6780980220e+00 -1.2753869905e-04 2.7292696839e+00 -4.7272337600e+00 2.7292696839e+00 4.7272337600e+00 
666200 4.6780980217e+00 -1.2746933285e-04 2.7292720204e+00 -4.7272378069e+00 2.7292720204e+00 4.7272378069e+00 
666300 4.6780980214e+00 -1.2740000406e-04 2.7292743556e+00 -4.7272418517e+00 2.7292743556e+00 4.7272418517e+00 
666400 4.6780980211e+00 -1.2733071266e-04 2.7292766895e+00 -4.7272458942e+00 2.7292766895e+00 4.7272458942e+00 
666500 4.6780980207e+00 -1.2726145864e-04 2.7292790222e+00 -4.7272499345e+00 2.7292790222e+00 4.7272499345e+00 
666600 4.6780980204e+00 -1.2719224198e-04 2.7292813536e+00 -4.7272539726e+00 2.7292813536e+00 4.7272539726e+00 
666700 4.6780980201e+00 -1.2712306265e-04 2.7292836838e+00 -4.7272580086e+00 2.7292836838e+00 4.7272580086e+00 
666800 4.6780980198e+00 -1.2705392063e-04 2.7292860126e+00 -4.7272620423e+00 2.7292860126e+00 4.7272620423e+00 
666900 4.6780980195e+00 -1.2698481591e-04 2.7292883403e+00 -4.7272660738e+00 2.7292883403e+00 4.7272660738e+00 
667000 4.6780980192e+00 -1.2691574847e-04 2.7292906666e+00 -4.7272701032e+00 2.7292906666e+00 4.7272701032e+00 
667100 4.6780980189e+00 -1.2684671829e-04 2.7292929917e+00 -4.7272741303e+00 2.7292929917e+00 4.7272741303e+00 
667200 4.6780980186e+00 -1.2677772534e-04 2.7292953155e+00 -4.7272781552e+00 2.7292953155e+00 4.7272781552e+00 
667300 4.6780980183e+00 -1.2670876961e-04 2.7292976380e+00 -4.7272821780e+00 2.7292976380e+00 4.7272821780e+00 
667400 4.6780980179e+00 -1.2663985107e-04 2.7292999593e+00 -4.7272861985e+00 2.7292999593e+00 4.7272861985e+00 
667500 4.6780980176e+00 -1.2657096971e-04 2.7293022793e+00 -4.7272902169e+00 2.7293022793e+00 4.7272902169e+00 
667600 4.6780980173e+00 -1.2650212552e-04 2.7293045980e+00 -4.7272942331e+00 2.7293045980e+00 4.7272942331e+00 
667700 4.6780980170e+00 -1.2643331845e-04 2.7293069155e+00 -4.7272982471e+00 2.7293069155e+00 4.7272982471e+00 
667800 4.6780980167e+00 -1.2636454851e-04 2.7293092317e+00 -4.7273022589e+00 2.7293092317e+00 4.7273022589e+00 
667900 4.6780980164e+00 -1.2629581567e-04 2.7293115467e+00 -4.7273062685e+00 2.7293115467e+00 4.7273062685e+00 
668000 4.6780980161e+00 -1.2622711991e-04 2.7293138604e+00 -4.7273102759e+00 2.7293138604e+00 4.7273102759e+00 
668100 4.6780980158e+00 -1.2615846120e-04 2.7293161728e+00 -4.7273142812e+00 2.7293161728e+00 4.7273142812e+00 
668200 4.6780980155e+00 -1.2608983954e-04 2.7293184840e+00 -4.7273182843e+00 2.7293184840e+00 4.7273182843e+00 
668300 4.6780980152e+00 -1.2602125490e-04 2.7293207939e+00 -4.7273222852e+00 2.7293207939e+00 4.7273222852e+00 
668400 4.6780980149e+00 -1.2595270726e-04 2.7293231025e+00 -4.7273262839e+00 2.7293231025e+00 4.7273262839e+00 
668500 4.6780980146e+00 -1.2588419660e-04 2.7293254099e+00 -4.7273302804e+00 2.7293254099e+00 4.7273302804e+00 
668600 4.6780980143e+00 -1.2581572290e-04 2.7293277161e+00 -4.7273342748e+00 2.7293277161e+00 4.7273342748e+00 
668700 4.6780980140e+00 -1.2574728614e-04 2.7293300210e+00 -4.7273382669e+00 2.7293300210e+00 4.7273382669e+00 
668800 4.6780980136e+00 -1.2567888631e-04 2.7293323246e+00 -4.7273422569e+00 2.7293323246e+00 4.7273422569e+00 
668900 4.6780980133e+00 -1.2561052337e-04 2.7293346270e+00 -4.7273462448e+00 2.7293346270e+00 4.7273462448e+00 
669000 4.6780980130e+00 -1.2554219733e-04 2.7293369281e+00 -4.7273502304e+00 2.7293369281e+00 4.7273502304e+00 
669100 4.6780980127e+00 -1.2547390814e-04 2.7293392280e+00 -4.7273542139e+00 2.7293392280e+00 4.7273542139e+00 
669200 4.6780980124e+00 -1.2540565581e-04 2.7293415266e+00 -4.7273581952e+00 2.7293415266e+00 4.7273581952e+00 
669300 4.6780980121e+00 -1.2533744029e-04 2.7293438239e+00 -4.7273621744e+00 2.7293438239e+00 4.7273621744e+00 
669400 4.6780980118e+00 -1.2526926158e-04 2.7293461200e+00 -4.7273661513e+00 2.7293461200e+00 4.7273661513e+00 
669500 4.6780980115e+00 -1.2520111966e-04 2.7293484149e+00 -4.7273701262e+00 2.7293484149e+00 4.7273701262e+00 
669600 4.6780980112e+00 -1.2513301451e-04 2.7293507085e+00 -4.7273740988e+00 2.7293507085e+00 4.7273740988e+00 
669700 4.6780980109e+00 -1.2506494610e-04 2.7293530009e+00 -4.7273780693e+00 2.7293530009e+00 4.7273780693e+00 
669800 4.6780980106e+00 -1.2499691441e-04 2.7293552920e+00 -4.7273820376e+00 2.7293552920e+00 4.7273820376e+00 
669900 4.6780980103e+00 -1.2492891944e-04 2.7293575818e+00 -4.7273860038e+00 2.7293575818e+00 4.7273860038e+00 
670000 4.6780980100e+00 -1.2486096116e-04 2.7293598705e+00 -4.7273899678e+00 2.7293598705e+00 4.7273899678e+00 
670100 4.6780980097e+00 -1.2479303954e-04 2.7293621578e+00 -4.7273939296e+00 2.7293621578e+00 4.7273939296e+00 
670200 4.6780980094e+00 -1.2472515458e-04 2.7293644439e+00 -4.7273978893e+00 2.7293644439e+00 4.7273978893e+00 
670300 4.6780980091e+00 -1.2465730624e-04 2.7293667288e+00 -4.7274018468e+00 2.7293667288e+00 4.7274018468e+00 
670400 4.6780980088e+00 -1.2458949452e-04 2.7293690124e+00 -4.7274058022e+00 2.7293690124e+00 4.7274058022e+00 
670500 4.6780980085e+00 -1.2452171939e-04 2.7293712948e+00 -4.7274097554e+00 2.7293712948e+00 4.7274097554e+00 
670600 4.6780980082e+00 -1.2445398083e-04 2.7293735760e+00 -4.7274137064e+00 2.7293735760e+00 4.7274137064e+00 
670700 4.6780980079e+00 -1.2438627882e-04 2.7293758559e+00 -4.7274176553e+00 2.7293758559e+00 4.7274176553e+00 
670800 4.6780980076e+00 -1.2431861335e-04 2.7293781345e+00 -4.7274216021e+00 2.7293781345e+00 4.7274216021e+00 
670900 4.6780980073e+00 -1.2425098439e-04 2.7293804120e+00 -4.7274255467e+00 2.7293804120e+00 4.7274255467e+00 
671000 4.6780980070e+00 -1.2418339192e-04 2.7293826881e+00 -4.7274294891e+00 2.7293826881e+00 4.7274294891e+00 
671100 4.6780980067e+00 -1.2411583593e-04 2.7293849631e+00 -4.7274334294e+00 2.7293849631e+00 4.7274334294e+00 
671200 4.6780980064e+00 -1.2404831640e-04 2.7293872368e+00 -4.7274373676e+00 2.7293872368e+00 4.7274373676e+00 
671300 4.6780980061e+00 -1.2398083330e-04 2.7293895092e+00 -4.7274413036e+00 2.7293895092e+00 4.7274413036e+00 
671400 4.6780980058e+00 -1.2391338662e-04 2.7293917804e+00 -4.7274452375e+00 2.7293917804e+00 4.7274452375e+00 
671500 4.6780980055e+00 -1.2384597634e-04 2.7293940504e+00 -4.7274491692e+00 2.7293940504e+00 4.7274491692e+00 
671600 4.6780980053e+00 -1.2377860244e-04 2.7293963192e+00 -4.7274530988e+00 2.7293963192e+00 4.7274530988e+00 
671700 4.6780980050e+00 -1.2371126490e-04 2.7293985867e+00 -4.7274570262e+00 2.7293985867e+00 4.7274570262e+00 
671800 4.6780980047e+00 -1.2364396370e-04 2.7294008529e+00 -4.7274609515e+00 2.7294008529e+00 4.7274609515e+00 
671900 4.6780980044e+00 -1.2357669882e-04 2.7294031180e+00 -4.7274648747e+00 2.7294031180e+00 4.7274648747e+00 
672000 4.6780980041e+00 -1.2350947024e-04 2.7294053818e+00 -4.7274687957e+00 2.7294053818e+00 4.7274687957e+00 
672100 4.6780980038e+00 -1.2344227795e-04 2.7294076444e+00 -4.7274727146e+00 2.7294076444e+00 4.7274727146e+00 
672200 4.6780980035e+00 -1.2337512191e-04 2.7294099057e+00 -4.7274766314e+00 2.7294099057e+00 4.7274766314e+00 
672300 4.6780980032e+00 -1.2330800213e-04 2.7294121658e+00 -4.7274805460e+00 2.7294121658e+00 4.7274805460e+00 
672400 4.6780980029e+00 -1.2324091856e-04 2.7294144247e+00 -4.7274844585e+00 2.7294144247e+00 4.7274844585e+00 
672500 4.6780980026e+00 -1.2317387121e-04 2.7294166823e+00 -4.7274883688e+00 2.7294166823e+00 4.7274883688e+00 
672600 4.6780980023e+00 -1.2310686003e-04 2.7294189387e+00 -4.7274922770e+00 2.7294189387e+00 4.7274922770e+00 
672700 4.6780980020e+00 -1.2303988503e-04 2.7294211939e+00 -4.7274961831e+00 2.7294211939e+00 4.7274961831e+00 
672800 4.6780980017e+00 -1.2297294618e-04 2.7294234479e+00 -4.7275000871e+00 2.7294234479e+00 4.7275000871e+00 
672900 4.6780980014e+00 -1.2290604345e-04 2.7294257006e+00 -4.7275039889e+00 2.7294257006e+00 4.7275039889e+00 
673000 4.6780980012e+00 -1.2283917684e-04 2.7294279521e+00 -4.7275078887e+00 2.7294279521e+00 4.7275078887e+00 
673100 4.6780980009e+00 -1.2277234631e-04 2.7294302024e+00 -4.7275117862e+00 2.7294302024e+00 4.7275117862e+00 
673200 4.6780980006e+00 -1.2270555186e-04 2.7294324514e+00 -4.7275156817e+00 2.7294324514e+00 4.7275156817e+00 
673300 4.6780980003e+00 -1.2263879346e-04 2.7294346993e+00 -4.7275195750e+00 2.7294346993e+00 4.7275195750e+00 
673400 4.6780980000e+00 -1.2257207109e-04 2.7294369458e+00 -4.7275234663e+00 2.7294369458e+00 4.7275234663e+00 
673500 4.6780979997e+00 -1.2250538474e-04 2.7294391912e+00 -4.7275273554e+00 2.7294391912e+00 4.7275273554e+00 
673600 4.6780979994e+00 -1.2243873438e-04 2.7294414354e+00 -4.7275312423e+00 2.7294414354e+00 4.7275312423e+00 
673700 4.6780979991e+00 -1.2237212000e-04 2.7294436783e+00 -4.7275351272e+00 2.7294436783e+00 4.7275351272e+00 
673800 4.6780979988e+00 -1.2230554158e-04 2.7294459200e+00 -4.7275390100e+00 2.7294459200e+00 4.7275390100e+00 
673900 4.6780979985e+00 -1.2223899909e-04 2.7294481605e+00 -4.7275428906e+00 2.7294481605e+00 4.7275428906e+00 
674000 4.6780979983e+00 -1.2217249253e-04 2.7294503998e+00 -4.7275467691e+00 2.7294503998e+00 4.7275467691e+00 
674100 4.6780979980e+00 -1.2210602186e-04 2.7294526378e+00 -4.7275506455e+00 2.7294526378e+00 4.7275506455e+00 
674200 4.6780979977e+00 -1.2203958707e-04 2.7294548746e+00 -4.7275545198e+00 2.7294548746e+00 4.7275545198e+00 
674300 4.6780979974e+00 -1.2197318815e-04 2.7294571102e+00 -4.7275583920e+00 2.7294571102e+00 4.7275583920e+00 
674400 4.6780979971e+00 -1.2190682507e-04 2.7294593446e+00 -4.7275622620e+00 2.7294593446e+00 4.7275622620e+00 
674500 4.6780979968e+00 -1.2184049781e-04 2.7294615778e+00 -4.7275661300e+00 2.7294615778e+00 4.7275661300e+00 
674600 4.6780979965e+00 -1.2177420636e-04 2.7294638097e+00 -4.7275699959e+00 2.7294638097e+00 4.7275699959e+00 
674700 4.6780979963e+00 -1.2170795069e-04 2.7294660405e+00 -4.7275738596e+00 2.7294660405e+00 4.7275738596e+00 
674800 4.6780979960e+00 -1.2164173080e-04 2.7294682700e+00 -4.7275777213e+00 2.7294682700e+00 4.7275777213e+00 
674900 4.6780979957e+00 -1.2157554664e-04 2.7294704983e+00 -4.7275815808e+00 2.7294704983e+00 4.7275815808e+00 
675000 4.6780979954e+00 -1.2150939822e-04 2.7294727254e+00 -4.7275854382e+00 2.7294727254e+00 4.7275854382e+00 
675100 4.6780979951e+00 -1.2144328551e-04 2.7294749513e+00 -4.7275892936e+00 2.7294749513e+00 4.7275892936e+00 
675200 4.6780979948e+00 -1.2137720849e-04 2.7294771759e+00 -4.7275931468e+00 2.7294771759e+00 4.7275931468e+00 
675300 4.6780979945e+00 -1.2131116714e-04 2.7294793994e+00 -4.7275969979e+00 2.7294793994e+00 4.7275969979e+00 
675400 4.6780979943e+00 -1.2124516145e-04 2.7294816216e+00 -4.7276008470e+00 2.7294816216e+00 4.7276008470e+00 
675500 4.6780979940e+00 -1.2117919139e-04 2.7294838426e+00 -4.7276046939e+00 2.7294838426e+00 4.7276046939e+00 
675600 4.6780979937e+00 -1.2111325694e-04 2.7294860625e+00 -4.7276085387e+00 2.7294860625e+00 4.7276085387e+00 
675700 4.6780979934e+00 -1.2104735809e-04 2.7294882811e+00 -4.7276123815e+00 2.7294882811e+00 4.7276123815e+00 
675800 4.6780979931e+00 -1.2098149482e-04 2.7294904985e+00 -4.7276162221e+00 2.7294904985e+00 4.7276162221e+00 
675900 4.6780979928e+00 -1.2091566711e-04 2.7294927147e+00 -4.7276200607e+00 2.7294927147e+00 4.7276200607e+00 
676000 4.6780979926e+00 -1.2084987494e-04 2.7294949296e+00 -4.7276238971e+00 2.7294949296e+00 4.7276238971e+00 
676100 4.6780979923e+00 -1.2078411829e-04 2.7294971434e+00 -4.7276277315e+00 2.7294971434e+00 4.7276277315e+00 
676200 4.6780979920e+00 -1.2071839714e-04 2.7294993560e+00 -4.7276315638e+00 2.7294993560e+00 4.7276315638e+00 
676300 4.6780979917e+00 -1.2065271148e-04 2.7295015674e+00 -4.7276353940e+00 2.7295015674e+00 4.7276353940e+00 
676400 4.6780979914e+00 -1.2058706128e-04 2.7295037775e+00 -4.7276392221e+00 2.7295037775e+00 4.7276392221e+00 
676500 4.6780979912e+00 -1.2052144652e-04 2.7295059865e+00 -4.7276430481e+00 2.7295059865e+00 4.7276430481e+00 
676600 4.6780979909e+00 -1.2045586719e-04 2.7295081942e+00 -4.7276468721e+00 2.7295081942e+00 4.7276468721e+00 
676700 4.6780979906e+00 -1.2039032328e-04 2.7295104008e+00 -4.7276506939e+00 2.7295104008e+00 4.7276506939e+00 
676800 4.6780979903e+00 -1.2032481475e-04 2.7295126061e+00 -4.7276545137e+00 2.7295126061e+00 4.7276545137e+00 
676900 4.6780979900e+00 -1.2025934159e-04 2.7295148103e+00 -4.7276583314e+00 2.7295148103e+00 4.7276583314e+00 
677000 4.6780979898e+00 -1.2019390378e-04 2.7295170132e+00 -4.7276621470e+00 2.7295170132e+00 4.7276621470e+00 
677100 4.6780979895e+00 -1.2012850131e-04 2.7295192150e+00 -4.7276659605e+00 2.7295192150e+00 4.7276659605e+00 
677200 4.6780979892e+00 -1.2006313415e-04 2.7295214155e+00 -4.7276697720e+00 2.7295214155e+00 4.7276697720e+00 
677300 4.6780979889e+00 -1.1999780229e-04 2.7295236148e+00 -4.7276735814e+00 2.7295236148e+00 4.7276735814e+00 
677400 4.6780979887e+00 -1.1993250570e-04 2.7295258130e+00 -4.7276773887e+00 2.7295258130e+00 4.7276773887e+00 
677500 4.6780979884e+00 -1.1986724437e-04 2.7295280099e+00 -4.7276811939e+00 2.7295280099e+00 4.7276811939e+00 
677600 4.6780979881e+00 -1.1980201828e-04 2.7295302057e+00 -4.7276849970e+00 2.7295302057e+00 4.7276849970e+00 
677700 4.6780979878e+00 -1.1973682742e-04 2.7295324002e+00 -4.7276887981e+00 2.7295324002e+00 4.7276887981e+00 
677800 4.6780979876e+00 -1.1967167175e-04 2.7295345936e+00 -4.7276925971e+00 2.7295345936e+00 4.7276925971e+00 
677900 4.6780979873e+00 -1.1960655127e-04 2.7295367858e+00 -4.7276963941e+00 2.7295367858e+00 4.7276963941e+00 
678000 4.6780979870e+00 -1.1954146595e-04 2.7295389767e+00 -4.7277001889e+00 2.7295389767e+00 4.7277001889e+00 
678100 4.6780979867e+00 -1.1947641578e-04 2.7295411665e+00 -4.7277039817e+00 2.7295411665e+00 4.7277039817e+00 
678200 4.6780979864e+00 -1.1941140074e-04 2.7295433551e+00 -4.7277077725e+00 2.7295433551e+00 4.7277077725e+00 
678300 4.6780979862e+00 -1.1934642081e-04 2.7295455425e+00 -4.7277115611e+00 2.7295455425e+00 4.7277115611e+00 
678400 4.6780979859e+00 -1.1928147596e-04 2.7295477287e+00 -4.7277153477e+00 2.7295477287e+00 4.7277153477e+00 
678500 4.6780979856e+00 -1.1921656619e-04 2.7295499137e+00 -4.7277191323e+00 2.7295499137e+00 4.7277191323e+00 
678600 4.6780979854e+00 -1.1915169147e-04 2.7295520975e+00 -4.7277229148e+00 2.7295520975e+00 4.7277229148e+00 
678700 4.6780979851e+00 -1.1908685179e-04 2.7295542801e+00 -4.7277266952e+00 2.7295542801e+00 4.7277266952e+00 
678800 4.6780979848e+00 -1.1902204712e-04 2.7295564615e+00 -4.7277304735e+00 2.7295564615e+00 4.7277304735e+00 
678900 4.6780979845e+00 -1.1895727745e-04 2.7295586418e+00 -4.7277342498e+00 2.7295586418e+00 4.7277342498e+00 
679000 4.6780979843e+00 -1.1889254275e-04 2.7295608208e+00 -4.7277380241e+00 2.7295608208e+00 4.7277380241e+00 
679100 4.6780979840e+00 -1.1882784302e-04 2.7295629987e+00 -4.7277417962e+00 2.7295629987e+00 4.7277417962e+00 
679200 4.6780979837e+00 -1.1876317823e-04 2.7295651754e+00 -4.7277455664e+00 2.7295651754e+00 4.7277455664e+00 
679300 4.6780979834e+00 -1.1869854836e-04 2.7295673509e+00 -4.7277493344e+00 2.7295673509e+00 4.7277493344e+00 
679400 4.6780979832e+00 -1.1863395340e-04 2.7295695252e+00 -4.7277531005e+00 2.7295695252e+00 4.7277531005e+00 
679500 4.6780979829e+00 -1.1856939332e-04 2.7295716983e+00 -4.7277568644e+00 2.7295716983e+00 4.7277568644e+00 
679600 4.6780979826e+00 -1.1850486811e-04 2.7295738703e+00 -4.7277606263e+00 2.7295738703e+00 4.7277606263e+00 
679700 4.6780979824e+00 -1.1844037775e-04 2.7295760410e+00 -4.7277643862e+00 2.7295760410e+00 4.7277643862e+00 
679800 4.6780979821e+00 -1.1837592222e-04 2.7295782106e+00 -4.7277681440e+00 2.7295782106e+00 4.7277681440e+00 
679900 4.6780979818e+00 -1.1831150150e-04 2.7295803790e+00 -4.7277718998e+00 2.7295803790e+00 4.7277718998e+00 
680000 4.6780979816e+00 -1.1824711557e-04 2.7295825462e+00 -4.7277756535e+00 2.7295825462e+00 4.7277756535e+00 
680100 4.6780979813e+00 -1.1818276442e-04 2.7295847122e+00 -4.7277794052e+00 2.7295847122e+00 4.7277794052e+00 
680200 4.6780979810e+00 -1.1811844803e-04 2.7295868771e+00 -4.7277831548e+00 2.7295868771e+00 4.7277831548e+00 
680300 4.6780979807e+00 -1.1805416637e-04 2.7295890408e+00 -4.7277869024e+00 2.7295890408e+00 4.7277869024e+00 
680400 4.6780979805e+00 -1.1798991944e-04 2.7295912033e+00 -4.7277906479e+00 2.7295912033e+00 4.7277906479e+00 
680500 4.6780979802e+00 -1.1792570720e-04 2.7295933646e+00 -4.7277943914e+00 2.7295933646e+00 4.7277943914e+00 
680600 4.6780979799e+00 -1.1786152965e-04 2.7295955247e+00 -4.7277981329e+00 2.7295955247e+00 4.7277981329e+00 
680700 4.6780979797e+00 -1.1779738676e-04 2.7295976837e+00 -4.7278018723e+00 2.7295976837e+00 4.7278018723e+00 
680800 4.6780979794e+00 -1.1773327852e-04 2.7295998414e+00 -4.7278056097e+00 2.7295998414e+00 4.7278056097e+00 
680900 4.6780979791e+00 -1.1766920491e-04 2.7296019980e+00 -4.7278093450e+00 2.7296019980e+00 4.7278093450e+00 
681000 4.6780979789e+00 -1.1760516590e-04 2.7296041535e+00 -4.7278130784e+00 2.7296041535e+00 4.7278130784e+00 
681100 4.6780979786e+00 -1.1754116149e-04 2.7296063077e+00 -4.7278168096e+00 2.7296063077e+00 4.7278168096e+00 
681200 4.6780979783e+00 -1.1747719164e-04 2.7296084608e+00 -4.7278205389e+00 2.7296084608e+00 4.7278205389e+00 
681300 4.6780979781e+00 -1.1741325636e-04 2.7296106127e+00 -4.7278242661e+00 2.7296106127e+00 4.7278242661e+00 
681400 4.6780979778e+00 -1.1734935561e-04 2.7296127634e+00 -4.7278279913e+00 2.7296127634e+00 4.7278279913e+00 
681500 4.6780979775e+00 -1.1728548937e-04 2.7296149130e+00 -4.7278317144e+00 2.7296149130e+00 4.7278317144e+00 
681600 4.6780979773e+00 -1.1722165764e-04 2.7296170614e+00 -4.7278354355e+00 2.7296170614e+00 4.7278354355e+00 
681700 4.6780979770e+00 -1.1715786038e-04 2.7296192086e+00 -4.7278391546e+00 2.7296192086e+00 4.7278391546e+00 
681800 4.6780979767e+00 -1.1709409759e-04 2.7296213547e+00 -4.7278428717e+00 2.7296213547e+00 4.7278428717e+00 
681900 4.6780979765e+00 -1.1703036924e-04 2.7296234995e+00 -4.7278465867e+00 2.7296234995e+00 4.7278465867e+00 
682000 4.6780979762e+00 -1.1696667532e-04 2.7296256432e+00 -4.7278502997e+00 2.7296256432e+00 4.7278502997e+00 
682100 4.6780979760e+00 -1.1690301580e-04 2.7296277858e+00 -4.7278540107e+00 2.7296277858e+00 4.7278540107e+00 
682200 4.6780979757e+00 -1.1683939068e-04 2.7296299272e+00 -4.7278577197e+00 2.7296299272e+00 4.7278577197e+00 
682300 4.6780979754e+00 -1.1677579992e-04 2.7296320674e+00 -4.7278614266e+00 2.7296320674e+00 4.7278614266e+00 
682400 4.6780979752e+00 -1.1671224352e-04 2.7296342064e+00 -4.7278651316e+00 2.7296342064e+00 4.7278651316e+00 
682500 4.6780979749e+00 -1.1664872145e-04 2.7296363443e+00 -4.7278688345e+00 2.7296363443e+00 4.7278688345e+00 
682600 4.6780979746e+00 -1.1658523370e-04 2.7296384810e+00 -4.7278725354e+00 2.7296384810e+00 4.7278725354e+00 
682700 4.6780979744e+00 -1.1652178025e-04 2.7296406165e+00 -4.7278762342e+00 2.7296406165e+00 4.7278762342e+00 
682800 4.6780979741e+00 -1.1645836108e-04 2.7296427509e+00 -4.7278799311e+00 2.7296427509e+00 4.7278799311e+00 
682900 4.6780979739e+00 -1.1639497617e-04 2.7296448841e+00 -4.7278836259e+00 2.7296448841e+00 4.7278836259e+00 
683000 4.6780979736e+00 -1.1633162550e-04 2.7296470162e+00 -4.7278873187e+00 2.7296470162e+00 4.7278873187e+00 
683100 4.6780979733e+00 -1.1626830906e-04 2.7296491471e+00 -4.7278910096e+00 2.7296491471e+00 4.7278910096e+00 
683200 4.6780979731e+00 -1.1620502682e-04 2.7296512768e+00 -4.7278946984e+00 2.7296512768e+00 4.7278946984e+00 
683300 4.6780979728e+00 -1.1614177877e-04 2.7296534054e+00 -4.7278983851e+00 2.7296534054e+00 4.7278983851e+00 
683400 4.6780979726e+00 -1.1607856490e-04 2.7296555328e+00 -4.7279020699e+00 2.7296555328e+00 4.7279020699e+00 
683500 4.6780979723e+00 -1.1601538518e-04 2.7296576590e+00 -4.7279057527e+00 2.7296576590e+00 4.7279057527e+00 
683600 4.6780979720e+00 -1.1595223959e-04 2.7296597841e+00 -4.7279094335e+00 2.7296597841e+00 4.7279094335e+00 
683700 4.6780979718e+00 -1.1588912811e-04 2.7296619080e+00 -4.7279131122e+00 2.7296619080e+00 4.7279131122e+00 
683800 4.6780979715e+00 -1.1582605074e-04 2.7296640308e+00 -4.7279167890e+00 2.7296640308e+00 4.7279167890e+00 
683900 4.6780979713e+00 -1.1576300745e-04 2.7296661524e+00 -4.7279204637e+00 2.7296661524e+00 4.7279204637e+00 
684000 4.6780979710e+00 -1.1569999821e-04 2.7296682729e+00 -4.7279241365e+00 2.7296682729e+00 4.7279241365e+00 
684100 4.6780979707e+00 -1.1563702302e-04 2.7296703922e+00 -4.7279278072e+00 2.7296703922e+00 4.7279278072e+00 
684200 4.6780979705e+00 -1.1557408186e-04 2.7296725104e+00 -4.7279314760e+00 2.7296725104e+00 4.7279314760e+00 
684300 4.6780979702e+00 -1.1551117471e-04 2.7296746274e+00 -4.7279351427e+00 2.7296746274e+00 4.7279351427e+00 
684400 4.6780979700e+00 -1.1544830154e-04 2.7296767432e+00 -4.7279388075e+00 2.7296767432e+00 4.7279388075e+00 
684500 4.6780979697e+00 -1.1538546235e-04 2.7296788579e+00 -4.7279424702e+00 2.7296788579e+00 4.7279424702e+00 
684600 4.6780979695e+00 -1.1532265711e-04 2.7296809714e+00 -4.7279461310e+00 2.7296809714e+00 4.7279461310e+00 
684700 4.6780979692e+00 -1.1525988580e-04 2.7296830838e+00 -4.7279497897e+00 2.7296830838e+00 4.7279497897e+00 
684800 4.6780979690e+00 -1.1519714841e-04 2.7296851950e+00 -4.7279534465e+00 2.7296851950e+00 4.7279534465e+00 
684900 4.6780979687e+00 -1.1513444493e-04 2.7296873051e+00 -4.7279571012e+00 2.7296873051e+00 4.7279571012e+00 
685000 4.6780979684e+00 -1.1507177532e-04 2.7296894140e+00 -4.7279607540e+00 2.7296894140e+00 4.7279607540e+00 
685100 4.6780979682e+00 -1.1500913958e-04 2.7296915218e+00 -4.7279644048e+00 2.7296915218e+00 4.7279644048e+00 
685200 4.6780979679e+00 -1.1494653768e-04 2.7296936285e+00 -4.7279680536e+00 2.7296936285e+00 4.7279680536e+00 
685300 4.6780979677e+00 -1.1488396961e-04 2.7296957339e+00 -4.7279717004e+00 2.7296957339e+00 4.7279717004e+00 
685400 4.6780979674e+00 -1.1482143535e-04 2.7296978383e+00 -4.7279753452e+00 2.7296978383e+00 4.7279753452e+00 
685500 4.6780979672e+00 -1.1475893488e-04 2.7296999415e+00 -4.7279789880e+00 2.7296999415e+00 4.7279789880e+00 
685600 4.6780979669e+00 -1.1469646818e-04 2.7297020435e+00 -4.7279826289e+00 2.7297020435e+00 4.7279826289e+00 
685700 4.6780979667e+00 -1.1463403524e-04 2.7297041444e+00 -4.7279862678e+00 2.7297041444e+00 4.7279862678e+00 
685800 4.6780979664e+00 -1.1457163604e-04 2.7297062442e+00 -4.7279899046e+00 2.7297062442e+00 4.7279899046e+00 
685900 4.6780979662e+00 -1.1450927055e-04 2.7297083428e+00 -4.7279935395e+00 2.7297083428e+00 4.7279935395e+00 
686000 4.6780979659e+00 -1.1444693877e-04 2.7297104402e+00 -4.7279971724e+00 2.7297104402e+00 4.7279971724e+00 
686100 4.6780979656e+00 -1.1438464068e-04 2.7297125366e+00 -4.7280008034e+00 2.7297125366e+00 4.7280008034e+00 
686200 4.6780979654e+00 -1.1432237624e-04 2.7297146317e+00 -4.7280044323e+00 2.7297146317e+00 4.7280044323e+00 
686300 4.6780979651e+00 -1.1426014546e-04 2.7297167258e+00 -4.7280080593e+00 2.7297167258e+00 4.7280080593e+00 
686400 4.6780979649e+00 -1.1419794831e-04 2.7297188187e+00 -4.7280116843e+00 2.7297188187e+00 4.7280116843e+00 
686500 4.6780979646e+00 -1.1413578477e-04 2.7297209104e+00 -4.7280153073e+00 2.7297209104e+00 4.7280153073e+00 
686600 4.6780979644e+00 -1.1407365482e-04 2.7297230010e+00 -4.7280189284e+00 2.7297230010e+00 4.7280189284e+00 
686700 4.6780979641e+00 -1.1401155845e-04 2.7297250905e+00 -4.7280225474e+00 2.7297250905e+00 4.7280225474e+00 
686800 4.6780979639e+00 -1.1394949564e-04 2.7297271788e+00 -4.7280261646e+00 2.7297271788e+00 4.7280261646e+00 
686900 4.6780979636e+00 -1.1388746637e-04 2.7297292660e+00 -4.7280297797e+00 2.7297292660e+00 4.7280297797e+00 
687000 4.6780979634e+00 -1.1382547062e-04 2.7297313521e+00 -4.7280333928e+00 2.7297313521e+00 4.7280333928e+00 
687100 4.6780979631e+00 -1.1376350838e-04 2.7297334370e+00 -4.7280370040e+00 2.7297334370e+00 4.7280370040e+00 
687200 4.6780979629e+00 -1.1370157962e-04 2.7297355208e+00 -4.7280406132e+00 2.7297355208e+00 4.7280406132e+00 
687300 4.6780979626e+00 -1.1363968433e-04 2.7297376034e+00 -4.7280442205e+00 2.7297376034e+00 4.7280442205e+00 
687400 4.6780979624e+00 -1.1357782250e-04 2.7297396850e+00 -4.7280478258e+00 2.7297396850e+00 4.7280478258e+00 
687500 4.6780979621e+00 -1.1351599410e-04 2.7297417653e+00 -4.7280514291e+00 2.7297417653e+00 4.7280514291e+00 
687600 4.6780979619e+00 -1.1345419912e-04 2.7297438446e+00 -4.7280550305e+00 2.7297438446e+00 4.7280550305e+00 
687700 4.6780979617e+00 -1.1339243753e-04 2.7297459227e+00 -4.7280586299e+00 2.7297459227e+00 4.7280586299e+00 
687800 4.6780979614e+00 -1.1333070933e-04 2.7297479997e+00 -4.7280622273e+00 2.7297479997e+00 4.7280622273e+00 
687900 4.6780979612e+00 -1.1326901449e-04 2.7297500755e+00 -4.7280658228e+00 2.7297500755e+00 4.7280658228e+00 
688000 4.6780979609e+00 -1.1320735299e-04 2.7297521502e+00 -4.7280694163e+00 2.7297521502e+00 4.7280694163e+00 
688100 4.6780979607e+00 -1.1314572482e-04 2.7297542238e+00 -4.7280730078e+00 2.7297542238e+00 4.7280730078e+00 
688200 4.6780979604e+00 -1.1308412996e-04 2.7297562963e+00 -4.7280765974e+00 2.7297562963e+00 4.7280765974e+00 
688300 4.6780979602e+00 -1.1302256840e-04 2.7297583676e+00 -4.7280801851e+00 2.7297583676e+00 4.7280801851e+00 
688400 4.6780979599e+00 -1.1296104010e-04 2.7297604378e+00 -4.7280837707e+00 2.7297604378e+00 4.7280837707e+00 
688500 4.6780979597e+00 -1.1289954507e-04 2.7297625069e+00 -4.7280873545e+00 2.7297625069e+00 4.7280873545e+00 
688600 4.6780979594e+00 -1.1283808327e-04 2.7297645748e+00 -4.7280909362e+00 2.7297645748e+00 4.7280909362e+00 
688700 4.6780979592e+00 -1.1277665470e-04 2.7297666416e+00 -4.7280945161e+00 2.7297666416e+00 4.7280945161e+00 
688800 4.6780979589e+00 -1.1271525932e-04 2.7297687073e+00 -4.7280980939e+00 2.7297687073e+00 4.7280980939e+00 
688900 4.6780979587e+00 -1.1265389714e-04 2.7297707718e+00 -4.7281016698e+00 2.7297707718e+00 4.7281016698e+00 
689000 4.6780979585e+00 -1.1259256812e-04 2.7297728353e+00 -4.7281052438e+00 2.7297728353e+00 4.7281052438e+00 
689100 4.6780979582e+00 -1.1253127225e-04 2.7297748976e+00 -4.7281088158e+00 2.7297748976e+00 4.7281088158e+00 
689200 4.6780979580e+00 -1.1247000952e-04 2.7297769588e+00 -4.7281123859e+00 2.7297769588e+00 4.7281123859e+00 
689300 4.6780979577e+00 -1.1240877990e-04 2.7297790188e+00 -4.7281159540e+00 2.7297790188e+00 4.7281159540e+00 
689400 4.6780979575e+00 -1.1234758338e-04 2.7297810778e+00 -4.7281195202e+00 2.7297810778e+00 4.7281195202e+00 
689500 4.6780979572e+00 -1.1228641994e-04 2.7297831356e+00 -4.7281230844e+00 2.7297831356e+00 4.7281230844e+00 
689600 4.6780979570e+00 -1.1222528956e-04 2.7297851923e+00 -4.7281266467e+00 2.7297851923e+00 4.7281266467e+00 
689700 4.6780979567e+00 -1.1216419223e-04 2.7297872478e+00 -4.7281302071e+00 2.7297872478e+00 4.7281302071e+00 
689800 4.6780979565e+00 -1.1210312792e-04 2.7297893023e+00 -4.7281337655e+00 2.7297893023e+00 4.7281337655e+00 
689900 4.6780979563e+00 -1.1204209662e-04 2.7297913556e+00 -4.7281373220e+00 2.7297913556e+00 4.7281373220e+00 
690000 4.6780979560e+00 -1.1198109832e-04 2.7297934078e+00 -4.7281408765e+00 2.7297934078e+00 4.7281408765e+00 
690100 4.6780979558e+00 -1.1192013299e-04 2.7297954589e+00 -4.7281444291e+00 2.7297954589e+00 4.7281444291e+00 
690200 4.6780979555e+00 -1.1185920062e-04 2.7297975089e+00 -4.7281479798e+00 2.7297975089e+00 4.7281479798e+00 
690300 4.6780979553e+00 -1.1179830119e-04 2.7297995577e+00 -4.7281515285e+00 2.7297995577e+00 4.7281515285e+00 
690400 4.6780979551e+00 -1.1173743468e-04 2.7298016055e+00 -4.7281550753e+00 2.7298016055e+00 4.7281550753e+00 
690500 4.6780979548e+00 -1.1167660107e-04 2.7298036521e+00 -4.7281586201e+00 2.7298036521e+00 4.7281586201e+00 
690600 4.6780979546e+00 -1.1161580036e-04 2.7298056976e+00 -4.7281621630e+00 2.7298056976e+00 4.7281621630e+00 
690700 4.6780979543e+00 -1.1155503251e-04 2.7298077420e+00 -4.7281657040e+00 2.7298077420e+00 4.7281657040e+00 
690800 4.6780979541e+00 -1.1149429751e-04 2.7298097853e+00 -4.7281692431e+00 2.7298097853e+00 4.7281692431e+00 
690900 4.6780979539e+00 -1.1143359535e-04 2.7298118274e+00 -4.7281727802e+00 2.7298118274e+00 4.7281727802e+00 
691000 4.6780979536e+00 -1.1137292601e-04 2.7298138685e+00 -4.7281763154e+00 2.7298138685e+00 4.7281763154e+00 
691100 4.6780979534e+00 -1.1131228946e-04 2.7298159084e+00 -4.7281798487e+00 2.7298159084e+00 4.7281798487e+00 
691200 4.6780979531e+00 -1.1125168570e-04 2.7298179472e+00 -4.7281833800e+00 2.7298179472e+00 4.7281833800e+00 
691300 4.6780979529e+00 -1.1119111470e-04 2.7298199850e+00 -4.7281869095e+00 2.7298199850e+00 4.7281869095e+00 
691400 4.6780979527e+00 -1.1113057645e-04 2.7298220216e+00 -4.7281904370e+00 2.7298220216e+00 4.7281904370e+00 
691500 4.6780979524e+00 -1.1107007093e-04 2.7298240571e+00 -4.7281939625e+00 2.7298240571e+00 4.7281939625e+00 
691600 4.6780979522e+00 -1.1100959812e-04 2.7298260914e+00 -4.7281974862e+00 2.7298260914e+00 4.7281974862e+00 
691700 4.6780979520e+00 -1.1094915801e-04 2.7298281247e+00 -4.7282010079e+00 2.7298281247e+00 4.7282010079e+00 
691800 4.6780979517e+00 -1.1088875058e-04 2.7298301569e+00 -4.7282045277e+00 2.7298301569e+00 4.7282045277e+00 
691900 4.6780979515e+00 -1.1082837580e-04 2.7298321879e+00 -4.7282080456e+00 2.7298321879e+00 4.7282080456e+00 
692000 4.6780979512e+00 -1.1076803367e-04 2.7298342179e+00 -4.7282115616e+00 2.7298342179e+00 4.7282115616e+00 
692100 4.6780979510e+00 -1.1070772416e-04 2.7298362467e+00 -4.7282150757e+00 2.7298362467e+00 4.7282150757e+00 
692200 4.6780979508e+00 -1.1064744727e-04 2.7298382745e+00 -4.7282185878e+00 2.7298382745e+00 4.7282185878e+00 
692300 4.6780979505e+00 -1.1058720296e-04 2.7298403011e+00 -4.7282220980e+00 2.7298403011e+00 4.7282220980e+00 
692400 4.6780979503e+00 -1.1052699123e-04 2.7298423266e+00 -4.7282256063e+00 2.7298423266e+00 4.7282256063e+00 
692500 4.6780979501e+00 -1.1046681205e-04 2.7298443510e+00 -4.7282291127e+00 2.7298443510e+00 4.7282291127e+00 
692600 4.6780979498e+00 -1.1040666541e-04 2.7298463743e+00 -4.7282326172e+00 2.7298463743e+00 4.7282326172e+00 
692700 4.6780979496e+00 -1.1034655130e-04 2.7298483966e+00 -4.7282361198e+00 2.7298483966e+00 4.7282361198e+00 
692800 4.6780979494e+00 -1.1028646968e-04 2.7298504177e+00 -4.7282396205e+00 2.7298504177e+00 4.7282396205e+00 
692900 4.6780979491e+00 -1.1022642056e-04 2.7298524377e+00 -4.7282431192e+00 2.7298524377e+00 4.7282431192e+00 
693000 4.6780979489e+00 -1.1016640390e-04 2.7298544566e+00 -4.7282466161e+00 2.7298544566e+00 4.7282466161e+00 
693100 4.6780979487e+00 -1.1010641970e-04 2.7298564744e+00 -4.7282501110e+00 2.7298564744e+00 4.7282501110e+00 
693200 4.6780979484e+00 -1.1004646793e-04 2.7298584911e+00 -4.7282536041e+00 2.7298584911e+00 4.7282536041e+00 
693300 4.6780979482e+00 -1.0998654858e-04 2.7298605067e+00 -4.7282570952e+00 2.7298605067e+00 4.7282570952e+00 
693400 4.6780979480e+00 -1.0992666163e-04 2.7298625212e+00 -4.7282605844e+00 2.7298625212e+00 4.7282605844e+00 
693500 4.6780979477e+00 -1.0986680706e-04 2.7298645346e+00 -4.7282640718e+00 2.7298645346e+00 4.7282640718e+00 
693600 4.6780979475e+00 -1.0980698486e-04 2.7298665469e+00 -4.7282675572e+00 2.7298665469e+00 4.7282675572e+00 
693700 4.6780979473e+00 -1.0974719501e-04 2.7298685582e+00 -4.7282710407e+00 2.7298685582e+00 4.7282710407e+00 
693800 4.6780979470e+00 -1.0968743749e-04 2.7298705683e+00 -4.7282745223e+00 2.7298705683e+00 4.7282745223e+00 
693900 4.6780979468e+00 -1.0962771229e-04 2.7298725773e+00 -4.7282780021e+00 2.7298725773e+00 4.7282780021e+00 
694000 4.6780979466e+00 -1.0956801938e-04 2.7298745852e+00 -4.7282814799e+00 2.7298745852e+00 4.7282814799e+00 
694100 4.6780979463e+00 -1.0950835875e-04 2.7298765921e+00 -4.7282849558e+00 2.7298765921e+00 4.7282849558e+00 
694200 4.6780979461e+00 -1.0944873038e-04 2.7298785978e+00 -4.7282884299e+00 2.7298785978e+00 4.7282884299e+00 
694300 4.6780979459e+00 -1.0938913426e-04 2.7298806024e+00 -4.7282919020e+00 2.7298806024e+00 4.7282919020e+00 
694400 4.6780979456e+00 -1.0932957037e-04 2.7298826060e+00 -4.7282953723e+00 2.7298826060e+00 4.7282953723e+00 
694500 4.6780979454e+00 -1.0927003869e-04 2.7298846085e+00 -4.7282988407e+00 2.7298846085e+00 4.7282988407e+00 
694600 4.6780979452e+00 -1.0921053921e-04 2.7298866098e+00 -4.7283023071e+00 2.7298866098e+00 4.7283023071e+00 
694700 4.6780979450e+00 -1.0915107190e-04 2.7298886101e+00 -4.7283057717e+00 2.7298886101e+00 4.7283057717e+00 
694800 4.6780979447e+00 -1.0909163675e-04 2.7298906093e+00 -4.7283092344e+00 2.7298906093e+00 4.7283092344e+00 
694900 4.6780979445e+00 -1.0903223374e-04 2.7298926074e+00 -4.7283126952e+00 2.7298926074e+00 4.7283126952e+00 
695000 4.6780979443e+00 -1.0897286286e-04 2.7298946044e+00 -4.7283161541e+00 2.7298946044e+00 4.7283161541e+00 
695100 4.6780979440e+00 -1.0891352409e-04 2.7298966003e+00 -4.7283196111e+00 2.7298966003e+00 4.7283196111e+00 
695200 4.6780979438e+00 -1.0885421741e-04 2.7298985951e+00 -4.7283230663e+00 2.7298985951e+00 4.7283230663e+00 
695300 4.6780979436e+00 -1.0879494281e-04 2.7299005889e+00 -4.7283265195e+00 2.7299005889e+00 4.7283265195e+00 
695400 4.6780979434e+00 -1.0873570026e-04 2.7299025815e+00 -4.7283299709e+00 2.7299025815e+00 4.7283299709e+00 
695500 4.6780979431e+00 -1.0867648975e-04 2.7299045731e+00 -4.7283334204e+00 2.7299045731e+00 4.7283334204e+00 
695600 4.6780979429e+00 -1.0861731126e-04 2.7299065636e+00 -4.7283368680e+00 2.7299065636e+00 4.7283368680e+00 
695700 4.6780979427e+00 -1.0855816478e-04 2.7299085530e+00 -4.7283403138e+00 2.7299085530e+00 4.7283403138e+00 
695800 4.6780979424e+00 -1.0849905029e-04 2.7299105413e+00 -4.7283437576e+00 2.7299105413e+00 4.7283437576e+00 
695900 4.6780979422e+00 -1.0843996778e-04 2.7299125285e+00 -4.7283471996e+00 2.7299125285e+00 4.7283471996e+00 
696000 4.6780979420e+00 -1.0838091721e-04 2.7299145147e+00 -4.7283506397e+00 2.7299145147e+00 4.7283506397e+00 
696100 4.6780979418e+00 -1.0832189859e-04 2.7299164997e+00 -4.7283540779e+00 2.7299164997e+00 4.7283540779e+00 
696200 4.6780979415e+00 -1.0826291188e-04 2.7299184837e+00 -4.7283575143e+00 2.7299184837e+00 4.7283575143e+00 
696300 4.6780979413e+00 -1.0820395708e-04 2.7299204666e+00 -4.7283609488e+00 2.7299204666e+00 4.7283609488e+00 
696400 4.6780979411e+00 -1.0814503417e-04 2.7299224484e+00 -4.7283643814e+00 2.7299224484e+00 4.7283643814e+00 
696500 4.6780979409e+00 -1.0808614313e-04 2.7299244291e+00 -4.7283678121e+00 2.7299244291e+00 4.7283678121e+00 
696600 4.6780979406e+00 -1.0802728394e-04 2.7299264088e+00 -4.7283712410e+00 2.7299264088e+00 4.7283712410e+00 
696700 4.6780979404e+00 -1.0796845658e-04 2.7299283874e+00 -4.7283746680e+00 2.7299283874e+00 4.7283746680e+00 
696800 4.6780979402e+00 -1.0790966105e-04 2.7299303649e+00 -4.7283780931e+00 2.7299303649e+00 4.7283780931e+00 
696900 4.6780979400e+00 -1.0785089731e-04 2.7299323413e+00 -4.7283815163e+00 2.7299323413e+00 4.7283815163e+00 
697000 4.6780979397e+00 -1.0779216537e-04 2.7299343166e+00 -4.7283849377e+00 2.7299343166e+00 4.7283849377e+00 
697100 4.6780979395e+00 -1.0773346519e-04 2.7299362909e+00 -4.7283883573e+00 2.7299362909e+00 4.7283883573e+00 
697200 4.6780979393e+00 -1.0767479676e-04 2.7299382641e+00 -4.7283917749e+00 2.7299382641e+00 4.7283917749e+00 
697300 4.6780979391e+00 -1.0761616006e-04 2.7299402362e+00 -4.7283951907e+00 2.7299402362e+00 4.7283951907e+00 
697400 4.6780979388e+00 -1.0755755509e-04 2.7299422072e+00 -4.7283986046e+00 2.7299422072e+00 4.7283986046e+00 
697500 4.6780979386e+00 -1.0749898181e-04 2.7299441772e+00 -4.7284020167e+00 2.7299441772e+00 4.7284020167e+00 
697600 4.6780979384e+00 -1.0744044022e-04 2.7299461461e+00 -4.7284054269e+00 2.7299461461e+00 4.7284054269e+00 
697700 4.6780979382e+00 -1.0738193029e-04 2.7299481139e+00 -4.7284088353e+00 2.7299481139e+00 4.7284088353e+00 
697800 4.6780979380e+00 -1.0732345202e-04 2.7299500806e+00 -4.7284122418e+00 2.7299500806e+00 4.7284122418e+00 
697900 4.6780979377e+00 -1.0726500538e-04 2.7299520463e+00 -4.7284156464e+00 2.7299520463e+00 4.7284156464e+00 
698000 4.6780979375e+00 -1.0720659035e-04 2.7299540109e+00 -4.7284190492e+00 2.7299540109e+00 4.7284190492e+00 
698100 4.6780979373e+00 -1.0714820692e-04 2.7299559744e+00 -4.7284224501e+00 2.7299559744e+00 4.7284224501e+00 
698200 4.6780979371e+00 -1.0708985508e-04 2.7299579369e+00 -4.7284258492e+00 2.7299579369e+00 4.7284258492e+00 
698300 4.6780979368e+00 -1.0703153480e-04 2.7299598982e+00 -4.7284292464e+00 2.7299598982e+00 4.7284292464e+00 
698400 4.6780979366e+00 -1.0697324607e-04 2.7299618586e+00 -4.7284326418e+00 2.7299618586e+00 4.7284326418e+00 
698500 4.6780979364e+00 -1.0691498888e-04 2.7299638178e+00 -4.7284360353e+00 2.7299638178e+00 4.7284360353e+00 
698600 4.6780979362e+00 -1.0685676319e-04 2.7299657760e+00 -4.7284394269e+00 2.7299657760e+00 4.7284394269e+00 
698700 4.6780979360e+00 -1.0679856901e-04 2.7299677331e+00 -4.7284428167e+00 2.7299677331e+00 4.7284428167e+00 
698800 4.6780979357e+00 -1.0674040631e-04 2.7299696891e+00 -4.7284462047e+00 2.7299696891e+00 4.7284462047e+00 
698900 4.6780979355e+00 -1.0668227507e-04 2.7299716441e+00 -4.7284495908e+00 2.7299716441e+00 4.7284495908e+00 
699000 4.6780979353e+00 -1.0662417528e-04 2.7299735980e+00 -4.7284529751e+00 2.7299735980e+00 4.7284529751e+00 
699100 4.6780979351e+00 -1.0656610693e-04 2.7299755509e+00 -4.7284563575e+00 2.7299755509e+00 4.7284563575e+00 
699200 4.6780979349e+00 -1.0650806998e-04 2.7299775026e+00 -4.7284597381e+00 2.7299775026e+00 4.7284597381e+00 
699300 4.6780979347e+00 -1.0645006444e-04 2.7299794534e+00 -4.7284631168e+00 2.7299794534e+00 4.7284631168e+00 
699400 4.6780979344e+00 -1.0639209028e-04 2.7299814030e+00 -4.7284664937e+00 2.7299814030e+00 4.7284664937e+00 
699500 4.6780979342e+00 -1.0633414748e-04 2.7299833516e+00 -4.7284698688e+00 2.7299833516e+00 4.7284698688e+00 
699600 4.6780979340e+00 -1.0627623603e-04 2.7299852991e+00 -4.7284732420e+00 2.7299852991e+00 4.7284732420e+00 
699700 4.6780979338e+00 -1.0621835591e-04 2.7299872456e+00 -4.7284766133e+00 2.7299872456e+00 4.7284766133e+00 
699800 4.6780979336e+00 -1.0616050710e-04 2.7299891910e+00 -4.7284799829e+00 2.7299891910e+00 4.7284799829e+00 
699900 4.6780979333e+00 -1.0610268959e-04 2.7299911353e+00 -4.7284833506e+00 2.7299911353e+00 4.7284833506e+00 
700000 4.6780979331e+00 -1.0604490337e-04 2.7299930786e+00 -4.7284867164e+00 2.7299930786e+00 4.7284867164e+00 
700100 4.6780979329e+00 -1.0598714840e-04 2.7299950208e+00 -4.7284900805e+00 2.7299950208e+00 4.7284900805e+00 
700200 4.6780979327e+00 -1.0592942469e-04 2.7299969620e+00 -4.7284934426e+00 2.7299969620e+00 4.7284934426e+00 
700300 4.6780979325e+00 -1.0587173220e-04 2.7299989021e+00 -4.7284968030e+00 2.7299989021e+00 4.7284968030e+00 
700400 4.6780979323e+00 -1.0581407093e-04 2.7300008411e+00 -4.7285001615e+00 2.7300008411e+00 4.7285001615e+00 
700500 4.6780979321e+00 -1.0575644086e-04 2.7300027791e+00 -4.7285035182e+00 2.7300027791e+00 4.7285035182e+00 
700600 4.6780979318e+00 -1.0569884197e-04 2.7300047160e+00 -4.7285068731e+00 2.7300047160e+00 4.7285068731e+00 
700700 4.6780979316e+00 -1.0564127424e-04 2.7300066519e+00 -4.7285102261e+00 2.7300066519e+00 4.7285102261e+00 
700800 4.6780979314e+00 -1.0558373767e-04 2.7300085867e+00 -4.7285135773e+00 2.7300085867e+00 4.7285135773e+00 
700900 4.6780979312e+00 -1.0552623222e-04 2.7300105205e+00 -4.7285169267e+00 2.7300105205e+00 4.7285169267e+00 
701000 4.6780979310e+00 -1.0546875789e-04 2.7300124532e+00 -4.7285202742e+00 2.7300124532e+00 4.7285202742e+00 
701100 4.6780979308e+00 -1.0541131465e-04 2.7300143848e+00 -4.7285236199e+00 2.7300143848e+00 4.7285236199e+00 
701200 4.6780979305e+00 -1.0535390250e-04 2.7300163154e+00 -4.7285269638e+00 2.7300163154e+00 4.7285269638e+00 
701300 4.6780979303e+00 -1.0529652141e-04 2.7300182450e+00 -4.7285303059e+00 2.7300182450e+00 4.7285303059e+00 
701400 4.6780979301e+00 -1.0523917137e-04 2.7300201735e+00 -4.7285336462e+00 2.7300201735e+00 4.7285336462e+00 
701500 4.6780979299e+00 -1.0518185236e-04 2.7300221009e+00 -4.7285369846e+00 2.7300221009e+00 4.7285369846e+00 
701600 4.6780979297e+00 -1.0512456437e-04 2.7300240273e+00 -4.7285403212e+00 2.7300240273e+00 4.7285403212e+00 
701700 4.6780979295e+00 -1.0506730737e-04 2.7300259527e+00 -4.7285436560e+00 2.7300259527e+00 4.7285436560e+00 
701800 4.6780979293e+00 -1.0501008136e-04 2.7300278770e+00 -4.7285469890e+00 2.7300278770e+00 4.7285469890e+00 
701900 4.6780979291e+00 -1.0495288631e-04 2.7300298002e+00 -4.7285503201e+00 2.7300298002e+00 4.7285503201e+00 
702000 4.6780979288e+00 -1.0489572222e-04 2.7300317224e+00 -4.7285536495e+00 2.7300317224e+00 4.7285536495e+00 
702100 4.6780979286e+00 -1.0483858905e-04 2.7300336435e+00 -4.7285569770e+00 2.7300336435e+00 4.7285569770e+00 
702200 4.6780979284e+00 -1.0478148680e-04 2.7300355636e+00 -4.7285603027e+00 2.7300355636e+00 4.7285603027e+00 
702300 4.6780979282e+00 -1.0472441545e-04 2.7300374827e+00 -4.7285636266e+00 2.7300374827e+00 4.7285636266e+00 
702400 4.6780979280e+00 -1.0466737499e-04 2.7300394007e+00 -4.7285669487e+00 2.7300394007e+00 4.7285669487e+00 
702500 4.6780979278e+00 -1.0461036539e-04 2.7300413176e+00 -4.7285702689e+00 2.7300413176e+00 4.7285702689e+00 
702600 4.6780979276e+00 -1.0455338664e-04 2.7300432336e+00 -4.7285735874e+00 2.7300432336e+00 4.7285735874e+00 
702700 4.6780979274e+00 -1.0449643873e-04 2.7300451484e+00 -4.7285769040e+00 2.7300451484e+00 4.7285769040e+00 
702800 4.6780979272e+00 -1.0443952163e-04 2.7300470622e+00 -4.7285802189e+00 2.7300470622e+00 4.7285802189e+00 
702900 4.6780979269e+00 -1.0438263533e-04 2.7300489750e+00 -4.7285835319e+00 2.7300489750e+00 4.7285835319e+00 
703000 4.6780979267e+00 -1.0432577982e-04 2.7300508868e+00 -4.7285868431e+00 2.7300508868e+00 4.7285868431e+00 
703100 4.6780979265e+00 -1.0426895507e-04 2.7300527975e+00 -4.7285901525e+00 2.7300527975e+00 4.7285901525e+00 
703200 4.6780979263e+00 -1.0421216108e-04 2.7300547071e+00 -4.7285934602e+00 2.7300547071e+00 4.7285934602e+00 
703300 4.6780979261e+00 -1.0415539782e-04 2.7300566157e+00 -4.7285967660e+00 2.7300566157e+00 4.7285967660e+00 
703400 4.6780979259e+00 -1.0409866529e-04 2.7300585233e+00 -4.7286000700e+00 2.7300585233e+00 4.7286000700e+00 
703500 4.6780979257e+00 -1.0404196345e-04 2.7300604298e+00 -4.7286033722e+00 2.7300604298e+00 4.7286033722e+00 
703600 4.6780979255e+00 -1.0398529230e-04 2.7300623353e+00 -4.7286066726e+00 2.7300623353e+00 4.7286066726e+00 
703700 4.6780979253e+00 -1.0392865182e-04 2.7300642398e+00 -4.7286099712e+00 2.7300642398e+00 4.7286099712e+00 
703800 4.6780979251e+00 -1.0387204199e-04 2.7300661432e+00 -4.7286132680e+00 2.7300661432e+00 4.7286132680e+00 
703900 4.6780979249e+00 -1.0381546280e-04 2.7300680455e+00 -4.7286165630e+00 2.7300680455e+00 4.7286165630e+00 
704000 4.6780979247e+00 -1.0375891423e-04 2.7300699469e+00 -4.7286198562e+00 2.7300699469e+00 4.7286198562e+00 
704100 4.6780979244e+00 -1.0370239627e-04 2.7300718472e+00 -4.7286231476e+00 2.7300718472e+00 4.7286231476e+00 
704200 4.6780979242e+00 -1.0364590889e-04 2.7300737464e+00 -4.7286264372e+00 2.7300737464e+00 4.7286264372e+00 
704300 4.6780979240e+00 -1.0358945209e-04 2.7300756447e+00 -4.7286297250e+00 2.7300756447e+00 4.7286297250e+00 
704400 4.6780979238e+00 -1.0353302584e-04 2.7300775418e+00 -4.7286330111e+00 2.7300775418e+00 4.7286330111e+00 
704500 4.6780979236e+00 -1.0347663013e-04 2.7300794380e+00 -4.7286362953e+00 2.7300794380e+00 4.7286362953e+00 
704600 4.6780979234e+00 -1.0342026494e-04 2.7300813331e+00 -4.7286395778e+00 2.7300813331e+00 4.7286395778e+00 
704700 4.6780979232e+00 -1.0336393026e-04 2.7300832272e+00 -4.7286428584e+00 2.7300832272e+00 4.7286428584e+00 
704800 4.6780979230e+00 -1.0330762607e-04 2.7300851203e+00 -4.7286461373e+00 2.7300851203e+00 4.7286461373e+00 
704900 4.6780979228e+00 -1.0325135235e-04 2.7300870123e+00 -4.7286494144e+00 2.7300870123e+00 4.7286494144e+00 
705000 4.6780979226e+00 -1.0319510909e-04 2.7300889033e+00 -4.7286526897e+00 2.7300889033e+00 4.7286526897e+00 
705100 4.6780979224e+00 -1.0313889628e-04 2.7300907932e+00 -4.7286559632e+00 2.7300907932e+00 4.7286559632e+00 
705200 4.6780979222e+00 -1.0308271388e-04 2.7300926822e+00 -4.7286592349e+00 2.7300926822e+00 4.7286592349e+00 
705300 4.6780979220e+00 -1.0302656190e-04 2.7300945701e+00 -4.7286625048e+00 2.7300945701e+00 4.7286625048e+00 
705400 4.6780979218e+00 -1.0297044031e-04 2.7300964569e+00 -4.7286657730e+00 2.7300964569e+00 4.7286657730e+00 
705500 4.6780979216e+00 -1.0291434910e-04 2.7300983428e+00 -4.7286690393e+00 2.7300983428e+00 4.7286690393e+00 
705600 4.6780979214e+00 -1.0285828824e-04 2.7301002276e+00 -4.7286723039e+00 2.7301002276e+00 4.7286723039e+00 
705700 4.6780979212e+00 -1.0280225773e-04 2.7301021114e+00 -4.7286755667e+00 2.7301021114e+00 4.7286755667e+00 
705800 4.6780979210e+00 -1.0274625755e-04 2.7301039941e+00 -4.7286788278e+00 2.7301039941e+00 4.7286788278e+00 
705900 4.6780979208e+00 -1.0269028768e-04 2.7301058758e+00 -4.7286820870e+00 2.7301058758e+00 4.7286820870e+00 
706000 4.6780979205e+00 -1.0263434811e-04 2.7301077565e+00 -4.7286853445e+00 2.7301077565e+00 4.7286853445e+00 
706100 4.6780979203e+00 -1.0257843881e-04 2.7301096362e+00 -4.7286886002e+00 2.7301096362e+00 4.7286886002e+00 
706200 4.6780979201e+00 -1.0252255978e-04 2.7301115149e+00 -4.7286918541e+00 2.7301115149e+00 4.7286918541e+00 
706300 4.6780979199e+00 -1.0246671100e-04 2.7301133925e+00 -4.7286951062e+00 2.7301133925e+00 4.7286951062e+00 
706400 4.6780979197e+00 -1.0241089245e-04 2.7301152691e+00 -4.7286983566e+00 2.7301152691e+00 4.7286983566e+00 
706500 4.6780979195e+00 -1.0235510411e-04 2.7301171447e+00 -4.7287016052e+00 2.7301171447e+00 4.7287016052e+00 
706600 4.6780979193e+00 -1.0229934597e-04 2.7301190192e+00 -4.7287048520e+00 2.7301190192e+00 4.7287048520e+00 
706700 4.6780979191e+00 -1.0224361801e-04 2.7301208928e+00 -4.7287080971e+00 2.7301208928e+00 4.7287080971e+00 
706800 4.6780979189e+00 -1.0218792022e-04 2.7301227653e+00 -4.7287113404e+00 2.7301227653e+00 4.7287113404e+00 
706900 4.6780979187e+00 -1.0213225258e-04 2.7301246368e+00 -4.7287145819e+00 2.7301246368e+00 4.7287145819e+00 
707000 4.6780979185e+00 -1.0207661508e-04 2.7301265072e+00 -4.7287178216e+00 2.7301265072e+00 4.7287178216e+00 
707100 4.6780979183e+00 -1.0202100769e-04 2.7301283767e+00 -4.7287210596e+00 2.7301283767e+00 4.7287210596e+00 
707200 4.6780979181e+00 -1.0196543040e-04 2.7301302451e+00 -4.7287242958e+00 2.7301302451e+00 4.7287242958e+00 
707300 4.6780979179e+00 -1.0190988321e-04 2.7301321125e+00 -4.7287275303e+00 2.7301321125e+00 4.7287275303e+00 
707400 4.6780979177e+00 -1.0185436608e-04 2.7301339789e+00 -4.7287307630e+00 2.7301339789e+00 4.7287307630e+00 
707500 4.6780979175e+00 -1.0179887900e-04 2.7301358443e+00 -4.7287339939e+00 2.7301358443e+00 4.7287339939e+00 
707600 4.6780979173e+00 -1.0174342197e-04 2.7301377086e+00 -4.7287372230e+00 2.7301377086e+00 4.7287372230e+00 
707700 4.6780979171e+00 -1.0168799495e-04 2.7301395720e+00 -4.7287404504e+00 2.7301395720e+00 4.7287404504e+00 
707800 4.6780979169e+00 -1.0163259794e-04 2.7301414343e+00 -4.7287436761e+00 2.7301414343e+00 4.7287436761e+00 
707900 4.6780979167e+00 -1.0157723092e-04 2.7301432956e+00 -4.7287468999e+00 2.7301432956e+00 4.7287468999e+00 
708000 4.6780979165e+00 -1.0152189388e-04 2.7301451559e+00 -4.7287501221e+00 2.7301451559e+00 4.7287501221e+00 
708100 4.6780979163e+00 -1.0146658679e-04 2.7301470152e+00 -4.7287533424e+00 2.7301470152e+00 4.7287533424e+00 
708200 4.6780979161e+00 -1.0141130964e-04 2.7301488734e+00 -4.7287565610e+00 2.7301488734e+00 4.7287565610e+00 
708300 4.6780979159e+00 -1.0135606242e-04 2.7301507307e+00 -4.7287597779e+00 2.7301507307e+00 4.7287597779e+00 
708400 4.6780979157e+00 -1.0130084512e-04 2.7301525869e+00 -4.7287629930e+00 2.7301525869e+00 4.7287629930e+00 
708500 4.6780979155e+00 -1.0124565770e-04 2.7301544422e+00 -4.7287662063e+00 2.7301544422e+00 4.7287662063e+00 
708600 4.6780979153e+00 -1.0119050016e-04 2.7301562964e+00 -4.7287694179e+00 2.7301562964e+00 4.7287694179e+00 
708700 4.6780979151e+00 -1.0113537249e-04 2.7301581496e+00 -4.7287726277e+00 2.7301581496e+00 4.7287726277e+00 
708800 4.6780979150e+00 -1.0108027466e-04 2.7301600018e+00 -4.7287758358e+00 2.7301600018e+00 4.7287758358e+00 
708900 4.6780979148e+00 -1.0102520666e-04 2.7301618529e+00 -4.7287790422e+00 2.7301618529e+00 4.7287790422e+00 
709000 4.6780979146e+00 -1.0097016847e-04 2.7301637031e+00 -4.7287822468e+00 2.7301637031e+00 4.7287822468e+00 
709100 4.6780979144e+00 -1.0091516009e-04 2.7301655523e+00 -4.7287854496e+00 2.7301655523e+00 4.7287854496e+00 
709200 4.6780979142e+00 -1.0086018148e-04 2.7301674004e+00 -4.7287886507e+00 2.7301674004e+00 4.7287886507e+00 
709300 4.6780979140e+00 -1.0080523264e-04 2.7301692476e+00 -4.7287918500e+00 2.7301692476e+00 4.7287918500e+00 
709400 4.6780979138e+00 -1.0075031356e-04 2.7301710937e+00 -4.7287950476e+00 2.7301710937e+00 4.7287950476e+00 
709500 4.6780979136e+00 -1.0069542420e-04 2.7301729388e+00 -4.7287982435e+00 2.7301729388e+00 4.7287982435e+00 
709600 4.6780979134e+00 -1.0064056457e-04 2.7301747829e+00 -4.7288014376e+00 2.7301747829e+00 4.7288014376e+00 
709700 4.6780979132e+00 -1.0058573464e-04 2.7301766261e+00 -4.7288046300e+00 2.7301766261e+00 4.7288046300e+00 
709800 4.6780979130e+00 -1.0053093440e-04 2.7301784682e+00 -4.7288078206e+00 2.7301784682e+00 4.7288078206e+00 
709900 4.6780979128e+00 -1.0047616382e-04 2.7301803093e+00 -4.7288110095e+00 2.7301803093e+00 4.7288110095e+00 
710000 4.6780979126e+00 -1.0042142291e-04 2.7301821494e+00 -4.7288141966e+00 2.7301821494e+00 4.7288141966e+00 
710100 4.6780979124e+00 -1.0036671163e-04 2.7301839885e+00 -4.7288173820e+00 2.7301839885e+00 4.7288173820e+00 
710200 4.6780979122e+00 -1.0031202998e-04 2.7301858266e+00 -4.7288205657e+00 2.7301858266e+00 4.7288205657e+00 
710300 4.6780979120e+00 -1.0025737793e-04 2.7301876637e+00 -4.7288237477e+00 2.7301876637e+00 4.7288237477e+00 
710400 4.6780979118e+00 -1.0020275548e-04 2.7301894997e+00 -4.7288269279e+00 2.7301894997e+00 4.7288269279e+00 
710500 4.6780979116e+00 -1.0014816260e-04 2.7301913348e+00 -4.7288301063e+00 2.7301913348e+00 4.7288301063e+00 
710600 4.6780979114e+00 -1.0009359929e-04 2.7301931689e+00 -4.7288332831e+00 2.7301931689e+00 4.7288332831e+00 
710700 4.6780979113e+00 -1.0003906551e-04 2.7301950020e+00 -4.7288364581e+00 2.7301950020e+00 4.7288364581e+00 
710800 4.6780979111e+00 -9.9984561273e-05 2.7301968341e+00 -4.7288396313e+00 2.7301968341e+00 4.7288396313e+00 
710900 4.6780979109e+00 -9.9930086543e-05 2.7301986652e+00 -4.7288428029e+00 2.7301986652e+00 4.7288428029e+00 
711000 4.6780979107e+00 -9.9875641312e-05 2.7302004953e+00 -4.7288459727e+00 2.7302004953e+00 4.7288459727e+00 
711100 4.6780979105e+00 -9.9821225562e-05 2.7302023244e+00 -4.7288491407e+00 2.7302023244e+00 4.7288491407e+00 
711200 4.6780979103e+00 -9.9766839277e-05 2.7302041525e+00 -4.7288523071e+00 2.7302041525e+00 4.7288523071e+00 
711300 4.6780979101e+00 -9.9712482444e-05 2.7302059796e+00 -4.7288554717e+00 2.7302059796e+00 4.7288554717e+00 
711400 4.6780979099e+00 -9.9658155044e-05 2.7302078056e+00 -4.7288586346e+00 2.7302078056e+00 4.7288586346e+00 
711500 4.6780979097e+00 -9.9603857064e-05 2.7302096308e+00 -4.7288617958e+00 2.7302096308e+00 4.7288617958e+00 
711600 4.6780979095e+00 -9.9549588486e-05 2.7302114549e+00 -4.7288649552e+00 2.7302114549e+00 4.7288649552e+00 
711700 4.6780979093e+00 -9.9495349296e-05 2.7302132780e+00 -4.7288681129e+00 2.7302132780e+00 4.7288681129e+00 
711800 4.6780979091e+00 -9.9441139478e-05 2.7302151001e+00 -4.7288712689e+00 2.7302151001e+00 4.7288712689e+00 
711900 4.6780979090e+00 -9.9386959015e-05 2.7302169212e+00 -4.7288744232e+00 2.7302169212e+00 4.7288744232e+00 
712000 4.6780979088e+00 -9.9332807893e-05 2.7302187413e+00 -4.7288775758e+00 2.7302187413e+00 4.7288775758e+00 
712100 4.6780979086e+00 -9.9278686095e-05 2.7302205605e+00 -4.7288807266e+00 2.7302205605e+00 4.7288807266e+00 
712200 4.6780979084e+00 -9.9224593607e-05 2.7302223786e+00 -4.7288838757e+00 2.7302223786e+00 4.7288838757e+00 
712300 4.6780979082e+00 -9.9170530411e-05 2.7302241958e+00 -4.7288870231e+00 2.7302241958e+00 4.7288870231e+00 
712400 4.6780979080e+00 -9.9116496494e-05 2.7302260119e+00 -4.7288901688e+00 2.7302260119e+00 4.7288901688e+00 
712500 4.6780979078e+00 -9.9062491838e-05 2.7302278271e+00 -4.7288933128e+00 2.7302278271e+00 4.7288933128e+00 
712600 4.6780979076e+00 -9.9008516429e-05 2.7302296413e+00 -4.7288964550e+00 2.7302296413e+00 4.7288964550e+00 
712700 4.6780979074e+00 -9.8954570250e-05 2.7302314545e+00 -4.7288995956e+00 2.7302314545e+00 4.7288995956e+00 
712800 4.6780979072e+00 -9.8900653287e-05 2.7302332667e+00 -4.7289027344e+00 2.7302332667e+00 4.7289027344e+00 
712900 4.6780979071e+00 -9.8846765523e-05 2.7302350779e+00 -4.7289058715e+00 2.7302350779e+00 4.7289058715e+00 
713000 4.6780979069e+00 -9.8792906943e-05 2.7302368881e+00 -4.7289090069e+00 2.7302368881e+00 4.7289090069e+00 
713100 4.6780979067e+00 -9.8739077531e-05 2.7302386974e+00 -4.7289121406e+00 2.7302386974e+00 4.7289121406e+00 
713200 4.6780979065e+00 -9.8685277272e-05 2.7302405056e+00 -4.7289152726e+00 2.7302405056e+00 4.7289152726e+00 
713300 4.6780979063e+00 -9.8631506151e-05 2.7302423129e+00 -4.7289184029e+00 2.7302423129e+00 4.7289184029e+00 
713400 4.6780979061e+00 -9.8577764150e-05 2.7302441191e+00 -4.7289215314e+00 2.7302441191e+00 4.7289215314e+00 
713500 4.6780979059e+00 -9.8524051256e-05 2.7302459244e+00 -4.7289246583e+00 2.7302459244e+00 4.7289246583e+00 
713600 4.6780979057e+00 -9.8470367453e-05 2.7302477287e+00 -4.7289277834e+00 2.7302477287e+00 4.7289277834e+00 
713700 4.6780979056e+00 -9.8416712724e-05 2.7302495321e+00 -4.7289309069e+00 2.7302495321e+00 4.7289309069e+00 
713800 4.6780979054e+00 -9.8363087055e-05 2.7302513344e+00 -4.7289340286e+00 2.7302513344e+00 4.7289340286e+00 
713900 4.6780979052e+00 -9.8309490430e-05 2.7302531358e+00 -4.7289371487e+00 2.7302531358e+00 4.7289371487e+00 
714000 4.6780979050e+00 -9.8255922833e-05 2.7302549361e+00 -4.7289402670e+00 2.7302549361e+00 4.7289402670e+00 
714100 4.6780979048e+00 -9.8202384249e-05 2.7302567355e+00 -4.7289433836e+00 2.7302567355e+00 4.7289433836e+00 
714200 4.6780979046e+00 -9.8148874662e-05 2.7302585339e+00 -4.7289464986e+00 2.7302585339e+00 4.7289464986e+00 
714300 4.6780979044e+00 -9.8095394057e-05 2.7302603314e+00 -4.7289496118e+00 2.7302603314e+00 4.7289496118e+00 
714400 4.6780979043e+00 -9.8041942419e-05 2.7302621278e+00 -4.7289527233e+00 2.7302621278e+00 4.7289527233e+00 
714500 4.6780979041e+00 -9.7988519731e-05 2.7302639233e+00 -4.7289558332e+00 2.7302639233e+00 4.7289558332e+00 
714600 4.6780979039e+00 -9.7935125979e-05 2.7302657178e+00 -4.7289589413e+00 2.7302657178e+00 4.7289589413e+00 
714700 4.6780979037e+00 -9.7881761147e-05 2.7302675113e+00 -4.7289620478e+00 2.7302675113e+00 4.7289620478e+00 
714800 4.6780979035e+00 -9.7828425219e-05 2.7302693038e+00 -4.7289651525e+00 2.7302693038e+00 4.7289651525e+00 
714900 4.6780979033e+00 -9.7775118181e-05 2.7302710954e+00 -4.7289682556e+00 2.7302710954e+00 4.7289682556e+00 
715000 4.6780979032e+00 -9.7721840016e-05 2.7302728859e+00 -4.7289713570e+00 2.7302728859e+00 4.7289713570e+00 
715100 4.6780979030e+00 -9.7668590709e-05 2.7302746755e+00 -4.7289744566e+00 2.7302746755e+00 4.7289744566e+00 
715200 4.6780979028e+00 -9.7615370245e-05 2.7302764642e+00 -4.7289775546e+00 2.7302764642e+00 4.7289775546e+00 
715300 4.6780979026e+00 -9.7562178608e-05 2.7302782518e+00 -4.7289806509e+00 2.7302782518e+00 4.7289806509e+00 
715400 4.6780979024e+00 -9.7509015784e-05 2.7302800385e+00 -4.7289837455e+00 2.7302800385e+00 4.7289837455e+00 
715500 4.6780979022e+00 -9.7455881756e-05 2.7302818242e+00 -4.7289868384e+00 2.7302818242e+00 4.7289868384e+00 
715600 4.6780979021e+00 -9.7402776509e-05 2.7302836089e+00 -4.7289899297e+00 2.7302836089e+00 4.7289899297e+00 
715700 4.6780979019e+00 -9.7349700027e-05 2.7302853926e+00 -4.7289930192e+00 2.7302853926e+00 4.7289930192e+00 
715800 4.6780979017e+00 -9.7296652297e-05 2.7302871754e+00 -4.7289961071e+00 2.7302871754e+00 4.7289961071e+00 
715900 4.6780979015e+00 -9.7243633301e-05 2.7302889572e+00 -4.7289991932e+00 2.7302889572e+00 4.7289991932e+00 
716000 4.6780979013e+00 -9.7190643025e-05 2.7302907380e+00 -4.7290022777e+00 2.7302907380e+00 4.7290022777e+00 
716100 4.6780979011e+00 -9.7137681453e-05 2.7302925179e+00 -4.7290053605e+00 2.7302925179e+00 4.7290053605e+00 
716200 4.6780979010e+00 -9.7084748570e-05 2.7302942968e+00 -4.7290084417e+00 2.7302942968e+00 4.7290084417e+00 
716300 4.6780979008e+00 -9.7031844361e-05 2.7302960747e+00 -4.7290115211e+00 2.7302960747e+00 4.7290115211e+00 
716400 4.6780979006e+00 -9.6978968810e-05 2.7302978517e+00 -4.7290145989e+00 2.7302978517e+00 4.7290145989e+00 
716500 4.6780979004e+00 -9.6926121902e-05 2.7302996276e+00 -4.7290176750e+00 2.7302996276e+00 4.7290176750e+00 
716600 4.6780979002e+00 -9.6873303621e-05 2.7303014026e+00 -4.7290207494e+00 2.7303014026e+00 4.7290207494e+00 
716700 4.6780979001e+00 -9.6820513954e-05 2.7303031767e+00 -4.7290238221e+00 2.7303031767e+00 4.7290238221e+00 
716800 4.6780978999e+00 -9.6767752883e-05 2.7303049498e+00 -4.7290268931e+00 2.7303049498e+00 4.7290268931e+00 
716900 4.6780978997e+00 -9.6715020394e-05 2.7303067219e+00 -4.7290299625e+00 2.7303067219e+00 4.7290299625e+00 
717000 4.6780978995e+00 -9.6662316471e-05 2.7303084930e+00 -4.7290330302e+00 2.7303084930e+00 4.7290330302e+00 
717100 4.6780978993e+00 -9.6609641100e-05 2.7303102632e+00 -4.7290360963e+00 2.7303102632e+00 4.7290360963e+00 
717200 4.6780978992e+00 -9.6556994265e-05 2.7303120324e+00 -4.7290391606e+00 2.7303120324e+00 4.7290391606e+00 
717300 4.6780978990e+00 -9.6504375950e-05 2.7303138006e+00 -4.7290422233e+00 2.7303138006e+00 4.7290422233e+00 
717400 4.6780978988e+00 -9.6451786141e-05 2.7303155679e+00 -4.7290452843e+00 2.7303155679e+00 4.7290452843e+00 
717500 4.6780978986e+00 -9.6399224823e-05 2.7303173342e+00 -4.7290483436e+00 2.7303173342e+00 4.7290483436e+00 
717600 4.6780978984e+00 -9.6346691979e-05 2.7303190996e+00 -4.7290514013e+00 2.7303190996e+00 4.7290514013e+00 
717700 4.6780978983e+00 -9.6294187595e-05 2.7303208639e+00 -4.7290544573e+00 2.7303208639e+00 4.7290544573e+00 
717800 4.6780978981e+00 -9.6241711655e-05 2.7303226274e+00 -4.7290575117e+00 2.7303226274e+00 4.7290575117e+00 
717900 4.6780978979e+00 -9.6189264145e-05 2.7303243898e+00 -4.7290605643e+00 2.7303243898e+00 4.7290605643e+00 
718000 4.6780978977e+00 -9.6136845049e-05 2.7303261513e+00 -4.7290636153e+00 2.7303261513e+00 4.7290636153e+00 
718100 4.6780978975e+00 -9.6084454352e-05 2.7303279119e+00 -4.7290666647e+00 2.7303279119e+00 4.7290666647e+00 
718200 4.6780978974e+00 -9.6032092039e-05 2.7303296714e+00 -4.7290697124e+00 2.7303296714e+00 4.7290697124e+00 
718300 4.6780978972e+00 -9.5979758094e-05 2.7303314301e+00 -4.7290727584e+00 2.7303314301e+00 4.7290727584e+00 
718400 4.6780978970e+00 -9.5927452503e-05 2.7303331877e+00 -4.7290758027e+00 2.7303331877e+00 4.7290758027e+00 
718500 4.6780978968e+00 -9.5875175250e-05 2.7303349444e+00 -4.7290788454e+00 2.7303349444e+00 4.7290788454e+00 
718600 4.6780978967e+00 -9.5822926320e-05 2.7303367002e+00 -4.7290818864e+00 2.7303367002e+00 4.7290818864e+00 
718700 4.6780978965e+00 -9.5770705698e-05 2.7303384549e+00 -4.7290849258e+00 2.7303384549e+00 4.7290849258e+00 
718800 4.6780978963e+00 -9.5718513368e-05 2.7303402088e+00 -4.7290879635e+00 2.7303402088e+00 4.7290879635e+00 
718900 4.6780978961e+00 -9.5666349317e-05 2.7303419616e+00 -4.7290909996e+00 2.7303419616e+00 4.7290909996e+00 
719000 4.6780978960e+00 -9.5614213528e-05 2.7303437135e+00 -4.7290940340e+00 2.7303437135e+00 4.7290940340e+00 
719100 4.6780978958e+00 -9.5562105987e-05 2.7303454645e+00 -4.7290970667e+00 2.7303454645e+00 4.7290970667e+00 
719200 4.6780978956e+00 -9.5510026678e-05 2.7303472145e+00 -4.7291000978e+00 2.7303472145e+00 4.7291000978e+00 
719300 4.6780978954e+00 -9.5457975586e-05 2.7303489635e+00 -4.7291031273e+00 2.7303489635e+00 4.7291031273e+00 
719400 4.6780978952e+00 -9.5405952696e-05 2.7303507116e+00 -4.7291061550e+00 2.7303507116e+00 4.7291061550e+00 
719500 4.6780978951e+00 -9.5353957993e-05 2.7303524588e+00 -4.7291091812e+00 2.7303524588e+00 4.7291091812e+00 
719600 4.6780978949e+00 -9.5301991463e-05 2.7303542050e+00 -4.7291122057e+00 2.7303542050e+00 4.7291122057e+00 
719700 4.6780978947e+00 -9.5250053089e-05 2.7303559502e+00 -4.7291152285e+00 2.7303559502e+00 4.7291152285e+00 
719800 4.6780978945e+00 -9.5198142858e-05 2.7303576945e+00 -4.7291182497e+00 2.7303576945e+00 4.7291182497e+00 
719900 4.6780978944e+00 -9.5146260753e-05 2.7303594378e+00 -4.7291212692e+00 2.7303594378e+00 4.7291212692e+00 
720000 4.6780978942e+00 -9.5094406759e-05 2.7303611802e+00 -4.7291242871e+00 2.7303611802e+00 4.7291242871e+00 
720100 4.6780978940e+00 -9.5042580863e-05 2.7303629216e+00 -4.7291273033e+00 2.7303629216e+00 4.7291273033e+00 
720200 4.6780978939e+00 -9.4990783048e-05 2.7303646621e+00 -4.7291303179e+00 2.7303646621e+00 4.7291303179e+00 
720300 4.6780978937e+00 -9.4939013300e-05 2.7303664016e+00 -4.7291333309e+00 2.7303664016e+00 4.7291333309e+00 
720400 4.6780978935e+00 -9.4887271604e-05 2.7303681402e+00 -4.7291363422e+00 2.7303681402e+00 4.7291363422e+00 
720500 4.6780978933e+00 -9.4835557944e-05 2.7303698778e+00 -4.7291393518e+00 2.7303698778e+00 4.7291393518e+00 
720600 4.6780978932e+00 -9.4783872306e-05 2.7303716145e+00 -4.7291423598e+00 2.7303716145e+00 4.7291423598e+00 
720700 4.6780978930e+00 -9.4732214675e-05 2.7303733502e+00 -4.7291453662e+00 2.7303733502e+00 4.7291453662e+00 
720800 4.6780978928e+00 -9.4680585035e-05 2.7303750850e+00 -4.7291483710e+00 2.7303750850e+00 4.7291483710e+00 
720900 4.6780978926e+00 -9.4628983372e-05 2.7303768188e+00 -4.7291513740e+00 2.7303768188e+00 4.7291513740e+00 
721000 4.6780978925e+00 -9.4577409671e-05 2.7303785517e+00 -4.7291543755e+00 2.7303785517e+00 4.7291543755e+00 
721100 4.6780978923e+00 -9.4525863917e-05 2.7303802837e+00 -4.7291573753e+00 2.7303802837e+00 4.7291573753e+00 
721200 4.6780978921e+00 -9.4474346094e-05 2.7303820147e+00 -4.7291603735e+00 2.7303820147e+00 4.7291603735e+00 
721300 4.6780978920e+00 -9.4422856188e-05 2.7303837447e+00 -4.7291633701e+00 2.7303837447e+00 4.7291633701e+00 
721400 4.6780978918e+00 -9.4371394185e-05 2.7303854739e+00 -4.7291663650e+00 2.7303854739e+00 4.7291663650e+00 
721500 4.6780978916e+00 -9.4319960068e-05 2.7303872020e+00 -4.7291693582e+00 2.7303872020e+00 4.7291693582e+00 
721600 4.6780978914e+00 -9.4268553824e-05 2.7303889293e+00 -4.7291723499e+00 2.7303889293e+00 4.7291723499e+00 
721700 4.6780978913e+00 -9.4217175437e-05 2.7303906555e+00 -4.7291753399e+00 2.7303906555e+00 4.7291753399e+00 
721800 4.6780978911e+00 -9.4165824892e-05 2.7303923809e+00 -4.7291783283e+00 2.7303923809e+00 4.7291783283e+00 
721900 4.6780978909e+00 -9.4114502174e-05 2.7303941053e+00 -4.7291813150e+00 2.7303941053e+00 4.7291813150e+00 
722000 4.6780978908e+00 -9.4063207269e-05 2.7303958287e+00 -4.7291843002e+00 2.7303958287e+00 4.7291843002e+00 
722100 4.6780978906e+00 -9.4011940162e-05 2.7303975513e+00 -4.7291872836e+00 2.7303975513e+00 4.7291872836e+00 
722200 4.6780978904e+00 -9.3960700837e-05 2.7303992728e+00 -4.7291902655e+00 2.7303992728e+00 4.7291902655e+00 
722300 4.6780978902e+00 -9.3909489281e-05 2.7304009935e+00 -4.7291932457e+00 2.7304009935e+00 4.7291932457e+00 
722400 4.6780978901e+00 -9.3858305477e-05 2.7304027132e+00 -4.7291962244e+00 2.7304027132e+00 4.7291962244e+00 
722500 4.6780978899e+00 -9.3807149412e-05 2.7304044319e+00 -4.7291992013e+00 2.7304044319e+00 4.7291992013e+00 
722600 4.6780978897e+00 -9.3756021070e-05 2.7304061498e+00 -4.7292021767e+00 2.7304061498e+00 4.7292021767e+00 
722700 4.6780978896e+00 -9.3704920436e-05 2.7304078667e+00 -4.7292051504e+00 2.7304078667e+00 4.7292051504e+00 
722800 4.6780978894e+00 -9.3653847496e-05 2.7304095826e+00 -4.7292081226e+00 2.7304095826e+00 4.7292081226e+00 
722900 4.6780978892e+00 -9.3602802235e-05 2.7304112976e+00 -4.7292110930e+00 2.7304112976e+00 4.7292110930e+00 
723000 4.6780978891e+00 -9.3551784638e-05 2.7304130117e+00 -4.7292140619e+00 2.7304130117e+00 4.7292140619e+00 
723100 4.6780978889e+00 -9.3500794691e-05 2.7304147248e+00 -4.7292170292e+00 2.7304147248e+00 4.7292170292e+00 
723200 4.6780978887e+00 -9.3449832378e-05 2.7304164371e+00 -4.7292199948e+00 2.7304164371e+00 4.7292199948e+00 
723300 4.6780978886e+00 -9.3398897684e-05 2.7304181483e+00 -4.7292229588e+00 2.7304181483e+00 4.7292229588e+00 
723400 4.6780978884e+00 -9.3347990596e-05 2.7304198587e+00 -4.7292259212e+00 2.7304198587e+00 4.7292259212e+00 
723500 4.6780978882e+00 -9.3297111097e-05 2.7304215681e+00 -4.7292288820e+00 2.7304215681e+00 4.7292288820e+00 
723600 4.6780978881e+00 -9.3246259174e-05 2.7304232766e+00 -4.7292318412e+00 2.7304232766e+00 4.7292318412e+00 
723700 4.6780978879e+00 -9.3195434812e-05 2.7304249841e+00 -4.7292347987e+00 2.7304249841e+00 4.7292347987e+00 
723800 4.6780978877e+00 -9.3144637995e-05 2.7304266907e+00 -4.7292377546e+00 2.7304266907e+00 4.7292377546e+00 
723900 4.6780978875e+00 -9.3093868709e-05 2.7304283964e+00 -4.7292407090e+00 2.7304283964e+00 4.7292407090e+00 
724000 4.6780978874e+00 -9.3043126940e-05 2.7304301011e+00 -4.7292436617e+00 2.7304301011e+00 4.7292436617e+00 
724100 4.6780978872e+00 -9.2992412673e-05 2.7304318050e+00 -4.7292466128e+00 2.7304318050e+00 4.7292466128e+00 
724200 4.6780978870e+00 -9.2941725892e-05 2.7304335078e+00 -4.7292495623e+00 2.7304335078e+00 4.7292495623e+00 
724300 4.6780978869e+00 -9.2891066584e-05 2.7304352098e+00 -4.7292525102e+00 2.7304352098e+00 4.7292525102e+00 
724400 4.6780978867e+00 -9.2840434733e-05 2.7304369108e+00 -4.7292554564e+00 2.7304369108e+00 4.7292554564e+00 
724500 4.6780978866e+00 -9.2789830324e-05 2.7304386109e+00 -4.7292584011e+00 2.7304386109e+00 4.7292584011e+00 
724600 4.6780978864e+00 -9.2739253345e-05 2.7304403101e+00 -4.7292613441e+00 2.7304403101e+00 4.7292613441e+00 
724700 4.6780978862e+00 -9.2688703778e-05 2.7304420084e+00 -4.7292642856e+00 2.7304420084e+00 4.7292642856e+00 
724800 4.6780978861e+00 -9.2638181610e-05 2.7304437057e+00 -4.7292672254e+00 2.7304437057e+00 4.7292672254e+00 
724900 4.6780978859e+00 -9.2587686826e-05 2.7304454021e+00 -4.7292701637e+00 2.7304454021e+00 4.7292701637e+00 
725000 4.6780978857e+00 -9.2537219412e-05 2.7304470975e+00 -4.7292731003e+00 2.7304470975e+00 4.7292731003e+00 
725100 4.6780978856e+00 -9.2486779353e-05 2.7304487921e+00 -4.7292760354e+00 2.7304487921e+00 4.7292760354e+00 
725200 4.6780978854e+00 -9.2436366633e-05 2.7304504857e+00 -4.7292789688e+00 2.7304504857e+00 4.7292789688e+00 
725300 4.6780978852e+00 -9.2385981240e-05 2.7304521784e+00 -4.7292819006e+00 2.7304521784e+00 4.7292819006e+00 
725400 4.6780978851e+00 -9.2335623157e-05 2.7304538702e+00 -4.7292848309e+00 2.7304538702e+00 4.7292848309e+00 
725500 4.6780978849e+00 -9.2285292370e-05 2.7304555610e+00 -4.7292877595e+00 2.7304555610e+00 4.7292877595e+00 
725600 4.6780978847e+00 -9.2234988865e-05 2.7304572509e+00 -4.7292906865e+00 2.7304572509e+00 4.7292906865e+00 
725700 4.6780978846e+00 -9.2184712627e-05 2.7304589399e+00 -4.7292936120e+00 2.7304589399e+00 4.7292936120e+00 
725800 4.6780978844e+00 -9.2134463642e-05 2.7304606280e+00 -4.7292965358e+00 2.7304606280e+00 4.7292965358e+00 
725900 4.6780978842e+00 -9.2084241894e-05 2.7304623152e+00 -4.7292994581e+00 2.7304623152e+00 4.7292994581e+00 
726000 4.6780978841e+00 -9.2034047370e-05 2.7304640014e+00 -4.7293023787e+00 2.7304640014e+00 4.7293023787e+00 
726100 4.6780978839e+00 -9.1983880054e-05 2.7304656867e+00 -4.7293052978e+00 2.7304656867e+00 4.7293052978e+00 
726200 4.6780978838e+00 -9.1933739932e-05 2.7304673711e+00 -4.7293082152e+00 2.7304673711e+00 4.7293082152e+00 
726300 4.6780978836e+00 -9.1883626990e-05 2.7304690546e+00 -4.7293111311e+00 2.7304690546e+00 4.7293111311e+00 
726400 4.6780978834e+00 -9.1833541213e-05 2.7304707372e+00 -4.7293140454e+00 2.7304707372e+00 4.7293140454e+00 
726500 4.6780978833e+00 -9.1783482587e-05 2.7304724188e+00 -4.7293169581e+00 2.7304724188e+00 4.7293169581e+00 
726600 4.6780978831e+00 -9.1733451096e-05 2.7304740996e+00 -4.7293198692e+00 2.7304740996e+00 4.7293198692e+00 
726700 4.6780978829e+00 -9.1683446727e-05 2.7304757794e+00 -4.7293227787e+00 2.7304757794e+00 4.7293227787e+00 
726800 4.6780978828e+00 -9.1633469465e-05 2.7304774583e+00 -4.7293256866e+00 2.7304774583e+00 4.7293256866e+00 
726900 4.6780978826e+00 -9.1583519295e-05 2.7304791362e+00 -4.7293285930e+00 2.7304791362e+00 4.7293285930e+00 
727000 4.6780978825e+00 -9.1533596203e-05 2.7304808133e+00 -4.7293314977e+00 2.7304808133e+00 4.7293314977e+00 
727100 4.6780978823e+00 -9.1483700174e-05 2.7304824894e+00 -4.7293344009e+00 2.7304824894e+00 4.7293344009e+00 
727200 4.6780978821e+00 -9.1433831194e-05 2.7304841647e+00 -4.7293373025e+00 2.7304841647e+00 4.7293373025e+00 
727300 4.6780978820e+00 -9.1383989249e-05 2.7304858390e+00 -4.7293402025e+00 2.7304858390e+00 4.7293402025e+00 
727400 4.6780978818e+00 -9.1334174324e-05 2.7304875124e+00 -4.7293431009e+00 2.7304875124e+00 4.7293431009e+00 
727500 4.6780978817e+00 -9.1284386404e-05 2.7304891849e+00 -4.7293459977e+00 2.7304891849e+00 4.7293459977e+00 
727600 4.6780978815e+00 -9.1234625475e-05 2.7304908564e+00 -4.7293488930e+00 2.7304908564e+00 4.7293488930e+00 
727700 4.6780978813e+00 -9.1184891522e-05 2.7304925271e+00 -4.7293517866e+00 2.7304925271e+00 4.7293517866e+00 
727800 4.6780978812e+00 -9.1135184532e-05 2.7304941969e+00 -4.7293546787e+00 2.7304941969e+00 4.7293546787e+00 
727900 4.6780978810e+00 -9.1085504489e-05 2.7304958657e+00 -4.7293575692e+00 2.7304958657e+00 4.7293575692e+00 
728000 4.6780978809e+00 -9.1035851379e-05 2.7304975336e+00 -4.7293604582e+00 2.7304975336e+00 4.7293604582e+00 
728100 4.6780978807e+00 -9.0986225188e-05 2.7304992006e+00 -4.7293633456e+00 2.7304992006e+00 4.7293633456e+00 
728200 4.6780978805e+00 -9.0936625902e-05 2.7305008668e+00 -4.7293662313e+00 2.7305008668e+00 4.7293662313e+00 
728300 4.6780978804e+00 -9.0887053506e-05 2.7305025320e+00 -4.7293691156e+00 2.7305025320e+00 4.7293691156e+00 
728400 4.6780978802e+00 -9.0837507985e-05 2.7305041963e+00 -4.7293719982e+00 2.7305041963e+00 4.7293719982e+00 
728500 4.6780978801e+00 -9.0787989325e-05 2.7305058596e+00 -4.7293748793e+00 2.7305058596e+00 4.7293748793e+00 
728600 4.6780978799e+00 -9.0738497512e-05 2.7305075221e+00 -4.7293777587e+00 2.7305075221e+00 4.7293777587e+00 
728700 4.6780978797e+00 -9.0689032531e-05 2.7305091837e+00 -4.7293806367e+00 2.7305091837e+00 4.7293806367e+00 
728800 4.6780978796e+00 -9.0639594369e-05 2.7305108443e+00 -4.7293835130e+00 2.7305108443e+00 4.7293835130e+00 
728900 4.6780978794e+00 -9.0590183010e-05 2.7305125041e+00 -4.7293863878e+00 2.7305125041e+00 4.7293863878e+00 
729000 4.6780978793e+00 -9.0540798441e-05 2.7305141629e+00 -4.7293892610e+00 2.7305141629e+00 4.7293892610e+00 
729100 4.6780978791e+00 -9.0491440646e-05 2.7305158209e+00 -4.7293921327e+00 2.7305158209e+00 4.7293921327e+00 
729200 4.6780978790e+00 -9.0442109612e-05 2.7305174779e+00 -4.7293950027e+00 2.7305174779e+00 4.7293950027e+00 
729300 4.6780978788e+00 -9.0392805324e-05 2.7305191341e+00 -4.7293978712e+00 2.7305191341e+00 4.7293978712e+00 
729400 4.6780978786e+00 -9.0343527769e-05 2.7305207893e+00 -4.7294007382e+00 2.7305207893e+00 4.7294007382e+00 
729500 4.6780978785e+00 -9.0294276930e-05 2.7305224436e+00 -4.7294036036e+00 2.7305224436e+00 4.7294036036e+00 
729600 4.6780978783e+00 -9.0245052796e-05 2.7305240971e+00 -4.7294064674e+00 2.7305240971e+00 4.7294064674e+00 
729700 4.6780978782e+00 -9.0195855350e-05 2.7305257496e+00 -4.7294093296e+00 2.7305257496e+00 4.7294093296e+00 
729800 4.6780978780e+00 -9.0146684579e-05 2.7305274012e+00 -4.7294121903e+00 2.7305274012e+00 4.7294121903e+00 
729900 4.6780978779e+00 -9.0097540468e-05 2.7305290519e+00 -4.7294150495e+00 2.7305290519e+00 4.7294150495e+00 
730000 4.6780978777e+00 -9.0048423004e-05 2.7305307017e+00 -4.7294179070e+00 2.7305307017e+00 4.7294179070e+00 
730100 4.6780978775e+00 -8.9999332171e-05 2.7305323506e+00 -4.7294207630e+00 2.7305323506e+00 4.7294207630e+00 
730200 4.6780978774e+00 -8.9950267957e-05 2.7305339987e+00 -4.7294236175e+00 2.7305339987e+00 4.7294236175e+00 
730300 4.6780978772e+00 -8.9901230345e-05 2.7305356458e+00 -4.7294264704e+00 2.7305356458e+00 4.7294264704e+00 
730400 4.6780978771e+00 -8.9852219322e-05 2.7305372920e+00 -4.7294293217e+00 2.7305372920e+00 4.7294293217e+00 
730500 4.6780978769e+00 -8.9803234875e-05 2.7305389373e+00 -4.7294321715e+00 2.7305389373e+00 4.7294321715e+00 
730600 4.6780978768e+00 -8.9754276988e-05 2.7305405818e+00 -4.7294350197e+00 2.7305405818e+00 4.7294350197e+00 
730700 4.6780978766e+00 -8.9705345647e-05 2.7305422253e+00 -4.7294378664e+00 2.7305422253e+00 4.7294378664e+00 
730800 4.6780978765e+00 -8.9656440839e-05 2.7305438679e+00 -4.7294407115e+00 2.7305438679e+00 4.7294407115e+00 
730900 4.6780978763e+00 -8.9607562548e-05 2.7305455096e+00 -4.7294435551e+00 2.7305455096e+00 4.7294435551e+00 
731000 4.6780978761e+00 -8.9558710762e-05 2.7305471505e+00 -4.7294463971e+00 2.7305471505e+00 4.7294463971e+00 
731100 4.6780978760e+00 -8.9509885465e-05 2.7305487904e+00 -4.7294492375e+00 2.7305487904e+00 4.7294492375e+00 
731200 4.6780978758e+00 -8.9461086643e-05 2.7305504295e+00 -4.7294520765e+00 2.7305504295e+00 4.7294520765e+00 
731300 4.6780978757e+00 -8.9412314282e-05 2.7305520676e+00 -4.7294549138e+00 2.7305520676e+00 4.7294549138e+00 
731400 4.6780978755e+00 -8.9363568368e-05 2.7305537049e+00 -4.7294577496e+00 2.7305537049e+00 4.7294577496e+00 
731500 4.6780978754e+00 -8.9314848887e-05 2.7305553412e+00 -4.7294605839e+00 2.7305553412e+00 4.7294605839e+00 
731600 4.6780978752e+00 -8.9266155825e-05 2.7305569767e+00 -4.7294634166e+00 2.7305569767e+00 4.7294634166e+00 
731700 4.6780978751e+00 -8.9217489167e-05 2.7305586113e+00 -4.7294662478e+00 2.7305586113e+00 4.7294662478e+00 
731800 4.6780978749e+00 -8.9168848900e-05 2.7305602450e+00 -4.7294690774e+00 2.7305602450e+00 4.7294690774e+00 
731900 4.6780978748e+00 -8.9120235009e-05 2.7305618778e+00 -4.7294719055e+00 2.7305618778e+00 4.7294719055e+00 
732000 4.6780978746e+00 -8.9071647480e-05 2.7305635097e+00 -4.7294747320e+00 2.7305635097e+00 4.7294747320e+00 
732100 4.6780978745e+00 -8.9023086299e-05 2.7305651407e+00 -4.7294775570e+00 2.7305651407e+00 4.7294775570e+00 
732200 4.6780978743e+00 -8.8974551451e-05 2.7305667708e+00 -4.7294803805e+00 2.7305667708e+00 4.7294803805e+00 
732300 4.6780978741e+00 -8.8926042924e-05 2.7305684000e+00 -4.7294832024e+00 2.7305684000e+00 4.7294832024e+00 
732400 4.6780978740e+00 -8.8877560702e-05 2.7305700284e+00 -4.7294860228e+00 2.7305700284e+00 4.7294860228e+00 
732500 4.6780978738e+00 -8.8829104771e-05 2.7305716558e+00 -4.7294888416e+00 2.7305716558e+00 4.7294888416e+00 
732600 4.6780978737e+00 -8.8780675118e-05 2.7305732824e+00 -4.7294916589e+00 2.7305732824e+00 4.7294916589e+00 
732700 4.6780978735e+00 -8.8732271728e-05 2.7305749081e+00 -4.7294944747e+00 2.7305749081e+00 4.7294944747e+00 
732800 4.6780978734e+00 -8.8683894588e-05 2.7305765329e+00 -4.7294972889e+00 2.7305765329e+00 4.7294972889e+00 
732900 4.6780978732e+00 -8.8635543682e-05 2.7305781568e+00 -4.7295001016e+00 2.7305781568e+00 4.7295001016e+00 
733000 4.6780978731e+00 -8.8587218998e-05 2.7305797798e+00 -4.7295029127e+00 2.7305797798e+00 4.7295029127e+00 
733100 4.6780978729e+00 -8.8538920521e-05 2.7305814019e+00 -4.7295057223e+00 2.7305814019e+00 4.7295057223e+00 
733200 4.6780978728e+00 -8.8490648237e-05 2.7305830232e+00 -4.7295085304e+00 2.7305830232e+00 4.7295085304e+00 
733300 4.6780978726e+00 -8.8442402132e-05 2.7305846435e+00 -4.7295113370e+00 2.7305846435e+00 4.7295113370e+00 
733400 4.6780978725e+00 -8.8394182192e-05 2.7305862630e+00 -4.7295141420e+00 2.7305862630e+00 4.7295141420e+00 
733500 4.6780978723e+00 -8.8345988403e-05 2.7305878816e+00 -4.7295169455e+00 2.7305878816e+00 4.7295169455e+00 
733600 4.6780978722e+00 -8.8297820751e-05 2.7305894993e+00 -4.7295197474e+00 2.7305894993e+00 4.7295197474e+00 
733700 4.6780978720e+00 -8.8249679221e-05 2.7305911161e+00 -4.7295225478e+00 2.7305911161e+00 4.7295225478e+00 
733800 4.6780978719e+00 -8.8201563801e-05 2.7305927321e+00 -4.7295253467e+00 2.7305927321e+00 4.7295253467e+00 
733900 4.6780978717e+00 -8.8153474476e-05 2.7305943471e+00 -4.7295281441e+00 2.7305943471e+00 4.7295281441e+00 
734000 4.6780978716e+00 -8.8105411231e-05 2.7305959613e+00 -4.7295309400e+00 2.7305959613e+00 4.7295309400e+00 
734100 4.6780978714e+00 -8.8057374053e-05 2.7305975746e+00 -4.7295337343e+00 2.7305975746e+00 4.7295337343e+00 
734200 4.6780978713e+00 -8.8009362929e-05 2.7305991870e+00 -4.7295365271e+00 2.7305991870e+00 4.7295365271e+00 
734300 4.6780978711e+00 -8.7953229641e-05 2.7306007986e+00 -4.7295393183e+00 2.7306007986e+00 4.7295393183e+00 
734400 4.6780978710e+00 -8.7891045897e-05 2.7306024091e+00 -4.7295421078e+00 2.7306024091e+00 4.7295421078e+00 
734500 4.6780978709e+00 -8.7826909117e-05 2.7306040185e+00 -4.7295448953e+00 2.7306040185e+00 4.7295448953e+00 
734600 4.6780978707e+00 -8.7764900047e-05 2.7306056267e+00 -4.7295476808e+00 2.7306056267e+00 4.7295476808e+00 
734700 4.6780978706e+00 -8.7700941994e-05 2.7306072337e+00 -4.7295504643e+00 2.7306072337e+00 4.7295504643e+00 
734800 4.6780978704e+00 -8.7637078504e-05 2.7306088396e+00 -4.7295532458e+00 2.7306088396e+00 4.7295532458e+00 
734900 4.6780978703e+00 -8.7573310776e-05 2.7306104443e+00 -4.7295560253e+00 2.7306104443e+00 4.7295560253e+00 
735000 4.6780978701e+00 -8.7509639846e-05 2.7306120479e+00 -4.7295588027e+00 2.7306120479e+00 4.7295588027e+00 
735100 4.6780978700e+00 -8.7446066618e-05 2.7306136503e+00 -4.7295615781e+00 2.7306136503e+00 4.7295615781e+00 
735200 4.6780978699e+00 -8.7382591877e-05 2.7306152515e+00 -4.7295643515e+00 2.7306152515e+00 4.7295643515e+00 
735300 4.6780978697e+00 -8.7319216306e-05 2.7306168515e+00 -4.7295671228e+00 2.7306168515e+00 4.7295671228e+00 
735400 4.6780978696e+00 -8.7255940497e-05 2.7306184504e+00 -4.7295698922e+00 2.7306184504e+00 4.7295698922e+00 
735500 4.6780978694e+00 -8.7192764962e-05 2.7306200482e+00 -4.7295726596e+00 2.7306200482e+00 4.7295726596e+00 
735600 4.6780978693e+00 -8.7127656836e-05 2.7306216447e+00 -4.7295754249e+00 2.7306216447e+00 4.7295754249e+00 
735700 4.6780978692e+00 -8.7064689555e-05 2.7306232401e+00 -4.7295781882e+00 2.7306232401e+00 4.7295781882e+00 
735800 4.6780978690e+00 -8.6999790865e-05 2.7306248343e+00 -4.7295809495e+00 2.7306248343e+00 4.7295809495e+00 
735900 4.6780978689e+00 -8.6937033612e-05 2.7306264274e+00 -4.7295837087e+00 2.7306264274e+00 4.7295837087e+00 
736000 4.6780978688e+00 -8.6872345806e-05 2.7306280193e+00 -4.7295864659e+00 2.7306280193e+00 4.7295864659e+00 
736100 4.6780978686e+00 -8.6809799840e-05 2.7306296100e+00 -4.7295892211e+00 2.7306296100e+00 4.7295892211e+00 
736200 4.6780978685e+00 -8.6745323920e-05 2.7306311995e+00 -4.7295919743e+00 2.7306311995e+00 4.7295919743e+00 
736300 4.6780978683e+00 -8.6682990093e-05 2.7306327879e+00 -4.7295947255e+00 2.7306327879e+00 4.7295947255e+00 
736400 4.6780978682e+00 -8.6618726704e-05 2.7306343751e+00 -4.7295974746e+00 2.7306343751e+00 4.7295974746e+00 
736500 4.6780978681e+00 -8.6554572791e-05 2.7306359612e+00 -4.7296002217e+00 2.7306359612e+00 4.7296002217e+00 
736600 4.6780978679e+00 -8.6490528555e-05 2.7306375461e+00 -4.7296029668e+00 2.7306375461e+00 4.7296029668e+00 
736700 4.6780978678e+00 -8.6426594145e-05 2.7306391298e+00 -4.7296057099e+00 2.7306391298e+00 4.7296057099e+00 
736800 4.6780978676e+00 -8.6362769671e-05 2.7306407123e+00 -4.7296084509e+00 2.7306407123e+00 4.7296084509e+00 
736900 4.6780978675e+00 -8.6301088034e-05 2.7306422937e+00 -4.7296111899e+00 2.7306422937e+00 4.7296111899e+00 
737000 4.6780978674e+00 -8.6237477373e-05 2.7306438739e+00 -4.7296139270e+00 2.7306438739e+00 4.7296139270e+00 
737100 4.6780978672e+00 -8.6173976484e-05 2.7306454530e+00 -4.7296166620e+00 2.7306454530e+00 4.7296166620e+00 
737200 4.6780978671e+00 -8.6110585383e-05 2.7306470309e+00 -4.7296193950e+00 2.7306470309e+00 4.7296193950e+00 
737300 4.6780978670e+00 -8.6047304057e-05 2.7306486076e+00 -4.7296221260e+00 2.7306486076e+00 4.7296221260e+00 
737400 4.6780978668e+00 -8.5982099443e-05 2.7306501832e+00 -4.7296248550e+00 2.7306501832e+00 4.7296248550e+00 
737500 4.6780978667e+00 -8.5919043719e-05 2.7306517576e+00 -4.7296275819e+00 2.7306517576e+00 4.7296275819e+00 
737600 4.6780978666e+00 -8.5856097851e-05 2.7306533308e+00 -4.7296303068e+00 2.7306533308e+00 4.7296303068e+00 
737700 4.6780978664e+00 -8.5793261691e-05 2.7306549029e+00 -4.7296330298e+00 2.7306549029e+00 4.7296330298e+00 
737800 4.6780978663e+00 -8.5730535083e-05 2.7306564738e+00 -4.7296357507e+00 2.7306564738e+00 4.7296357507e+00 
737900 4.6780978662e+00 -8.5665884487e-05 2.7306580436e+00 -4.7296384696e+00 2.7306580436e+00 4.7296384696e+00 
738000 4.6780978660e+00 -8.5603382646e-05 2.7306596122e+00 -4.7296411865e+00 2.7306596122e+00 4.7296411865e+00 
738100 4.6780978659e+00 -8.5540990094e-05 2.7306611797e+00 -4.7296439014e+00 2.7306611797e+00 4.7296439014e+00 
738200 4.6780978657e+00 -8.5476672966e-05 2.7306627460e+00 -4.7296466143e+00 2.7306627460e+00 4.7296466143e+00 
738300 4.6780978656e+00 -8.5414504447e-05 2.7306643111e+00 -4.7296493252e+00 2.7306643111e+00 4.7296493252e+00 
738400 4.6780978655e+00 -8.5350410943e-05 2.7306658751e+00 -4.7296520341e+00 2.7306658751e+00 4.7296520341e+00 
738500 4.6780978653e+00 -8.5288465985e-05 2.7306674379e+00 -4.7296547410e+00 2.7306674379e+00 4.7296547410e+00 
738600 4.6780978652e+00 -8.5224595543e-05 2.7306689996e+00 -4.7296574459e+00 2.7306689996e+00 4.7296574459e+00 
738700 4.6780978651e+00 -8.5162873514e-05 2.7306705601e+00 -4.7296601488e+00 2.7306705601e+00 4.7296601488e+00 
738800 4.6780978649e+00 -8.5099225430e-05 2.7306721195e+00 -4.7296628497e+00 2.7306721195e+00 4.7296628497e+00 
738900 4.6780978648e+00 -8.5035691198e-05 2.7306736777e+00 -4.7296655486e+00 2.7306736777e+00 4.7296655486e+00 
739000 4.6780978647e+00 -8.4974305248e-05 2.7306752347e+00 -4.7296682455e+00 2.7306752347e+00 4.7296682455e+00 
739100 4.6780978645e+00 -8.4910992387e-05 2.7306767906e+00 -4.7296709404e+00 2.7306767906e+00 4.7296709404e+00 
739200 4.6780978644e+00 -8.4847792802e-05 2.7306783454e+00 -4.7296736333e+00 2.7306783454e+00 4.7296736333e+00 
739300 4.6780978643e+00 -8.4784706377e-05 2.7306798990e+00 -4.7296763243e+00 2.7306798990e+00 4.7296763243e+00 
739400 4.6780978641e+00 -8.4721732971e-05 2.7306814514e+00 -4.7296790132e+00 2.7306814514e+00 4.7296790132e+00 
739500 4.6780978640e+00 -8.4660907536e-05 2.7306830027e+00 -4.7296817001e+00 2.7306830027e+00 4.7296817001e+00 
739600 4.6780978639e+00 -8.4598153581e-05 2.7306845529e+00 -4.7296843851e+00 2.7306845529e+00 4.7296843851e+00 
739700 4.6780978637e+00 -8.4535511825e-05 2.7306861019e+00 -4.7296870681e+00 2.7306861019e+00 4.7296870681e+00 
739800 4.6780978636e+00 -8.4472982090e-05 2.7306876498e+00 -4.7296897491e+00 2.7306876498e+00 4.7296897491e+00 
739900 4.6780978635e+00 -8.4410564177e-05 2.7306891966e+00 -4.7296924281e+00 2.7306891966e+00 4.7296924281e+00 
740000 4.6780978633e+00 -8.4348257870e-05 2.7306907421e+00 -4.7296951052e+00 2.7306907421e+00 4.7296951052e+00 
740100 4.6780978632e+00 -8.4286062938e-05 2.7306922866e+00 -4.7296977802e+00 2.7306922866e+00 4.7296977802e+00 
740200 4.6780978631e+00 -8.4223979140e-05 2.7306938299e+00 -4.7297004533e+00 2.7306938299e+00 4.7297004533e+00 
740300 4.6780978630e+00 -8.4162006219e-05 2.7306953721e+00 -4.7297031244e+00 2.7306953721e+00 4.7297031244e+00 
740400 4.6780978628e+00 -8.4098107652e-05 2.7306969131e+00 -4.7297057936e+00 2.7306969131e+00 4.7297057936e+00 
740500 4.6780978627e+00 -8.4036361756e-05 2.7306984530e+00 -4.7297084607e+00 2.7306984530e+00 4.7297084607e+00 
740600 4.6780978626e+00 -8.3974726193e-05 2.7306999917e+00 -4.7297111259e+00 2.7306999917e+00 4.7297111259e+00 
740700 4.6780978624e+00 -8.3913200637e-05 2.7307015293e+00 -4.7297137891e+00 2.7307015293e+00 4.7297137891e+00 
740800 4.6780978623e+00 -8.3849747952e-05 2.7307030658e+00 -4.7297164503e+00 2.7307030658e+00 4.7297164503e+00 
740900 4.6780978622e+00 -8.3788447503e-05 2.7307046011e+00 -4.7297191096e+00 2.7307046011e+00 4.7297191096e+00 
741000 4.6780978620e+00 -8.3727256356e-05 2.7307061353e+00 -4.7297217669e+00 2.7307061353e+00 4.7297217669e+00 
741100 4.6780978619e+00 -8.3664136921e-05 2.7307076684e+00 -4.7297244222e+00 2.7307076684e+00 4.7297244222e+00 
741200 4.6780978618e+00 -8.3603169350e-05 2.7307092003e+00 -4.7297270756e+00 2.7307092003e+00 4.7297270756e+00 
741300 4.6780978617e+00 -8.3540272757e-05 2.7307107311e+00 -4.7297297270e+00 2.7307107311e+00 4.7297297270e+00 
741400 4.6780978615e+00 -8.3479527833e-05 2.7307122607e+00 -4.7297323764e+00 2.7307122607e+00 4.7297323764e+00 
741500 4.6780978614e+00 -8.3416853099e-05 2.7307137893e+00 -4.7297350239e+00 2.7307137893e+00 4.7297350239e+00 
741600 4.6780978613e+00 -8.3356329785e-05 2.7307153166e+00 -4.7297376694e+00 2.7307153166e+00 4.7297376694e+00 
741700 4.6780978611e+00 -8.3293875837e-05 2.7307168429e+00 -4.7297403130e+00 2.7307168429e+00 4.7297403130e+00 
741800 4.6780978610e+00 -8.3233573010e-05 2.7307183680e+00 -4.7297429546e+00 2.7307183680e+00 4.7297429546e+00 
741900 4.6780978609e+00 -8.3171338702e-05 2.7307198921e+00 -4.7297455943e+00 2.7307198921e+00 4.7297455943e+00 
742000 4.6780978608e+00 -8.3109216698e-05 2.7307214149e+00 -4.7297482320e+00 2.7307214149e+00 4.7297482320e+00 
742100 4.6780978606e+00 -8.3047206831e-05 2.7307229367e+00 -4.7297508677e+00 2.7307229367e+00 4.7297508677e+00 
742200 4.6780978605e+00 -8.2987347710e-05 2.7307244573e+00 -4.7297535015e+00 2.7307244573e+00 4.7297535015e+00 
742300 4.6780978604e+00 -8.2925555529e-05 2.7307259768e+00 -4.7297561334e+00 2.7307259768e+00 4.7297561334e+00 
742400 4.6780978602e+00 -8.2863874598e-05 2.7307274952e+00 -4.7297587633e+00 2.7307274952e+00 4.7297587633e+00 
742500 4.6780978601e+00 -8.2802304709e-05 2.7307290124e+00 -4.7297613912e+00 2.7307290124e+00 4.7297613912e+00 
742600 4.6780978600e+00 -8.2740845635e-05 2.7307305286e+00 -4.7297640172e+00 2.7307305286e+00 4.7297640172e+00 
742700 4.6780978599e+00 -8.2679497134e-05 2.7307320436e+00 -4.7297666413e+00 2.7307320436e+00 4.7297666413e+00 
742800 4.6780978597e+00 -8.2618258952e-05 2.7307335574e+00 -4.7297692634e+00 2.7307335574e+00 4.7297692634e+00 
742900 4.6780978596e+00 -8.2557130820e-05 2.7307350702e+00 -4.7297718836e+00 2.7307350702e+00 4.7297718836e+00 
743000 4.6780978595e+00 -8.2496112463e-05 2.7307365818e+00 -4.7297745018e+00 2.7307365818e+00 4.7297745018e+00 
743100 4.6780978594e+00 -8.2435203594e-05 2.7307380923e+00 -4.7297771181e+00 2.7307380923e+00 4.7297771181e+00 
743200 4.6780978592e+00 -8.2374403920e-05 2.7307396017e+00 -4.7297797324e+00 2.7307396017e+00 4.7297797324e+00 
743300 4.6780978591e+00 -8.2313713139e-05 2.7307411100e+00 -4.7297823448e+00 2.7307411100e+00 4.7297823448e+00 
743400 4.6780978590e+00 -8.2253130946e-05 2.7307426172e+00 -4.7297849553e+00 2.7307426172e+00 4.7297849553e+00 
743500 4.6780978589e+00 -8.2192657028e-05 2.7307441232e+00 -4.7297875639e+00 2.7307441232e+00 4.7297875639e+00 
743600 4.6780978587e+00 -8.2132291068e-05 2.7307456282e+00 -4.7297901705e+00 2.7307456282e+00 4.7297901705e+00 
743700 4.6780978586e+00 -8.2069991869e-05 2.7307471320e+00 -4.7297927753e+00 2.7307471320e+00 4.7297927753e+00 
743800 4.6780978585e+00 -8.2009846864e-05 2.7307486347e+00 -4.7297953780e+00 2.7307486347e+00 4.7297953780e+00 
743900 4.6780978583e+00 -8.1949809101e-05 2.7307501363e+00 -4.7297979789e+00 2.7307501363e+00 4.7297979789e+00 
744000 4.6780978582e+00 -8.1889878216e-05 2.7307516368e+00 -4.7298005778e+00 2.7307516368e+00 4.7298005778e+00 
744100 4.6780978581e+00 -8.1828012448e-05 2.7307531362e+00 -4.7298031748e+00 2.7307531362e+00 4.7298031748e+00 
744200 4.6780978580e+00 -8.1768300241e-05 2.7307546345e+00 -4.7298057699e+00 2.7307546345e+00 4.7298057699e+00 
744300 4.6780978579e+00 -8.1706652414e-05 2.7307561317e+00 -4.7298083631e+00 2.7307561317e+00 4.7298083631e+00 
744400 4.6780978577e+00 -8.1647157935e-05 2.7307576277e+00 -4.7298109543e+00 2.7307576277e+00 4.7298109543e+00 
744500 4.6780978576e+00 -8.1585727048e-05 2.7307591227e+00 -4.7298135437e+00 2.7307591227e+00 4.7298135437e+00 
744600 4.6780978575e+00 -8.1526449239e-05 2.7307606165e+00 -4.7298161311e+00 2.7307606165e+00 4.7298161311e+00 
744700 4.6780978574e+00 -8.1465234201e-05 2.7307621092e+00 -4.7298187166e+00 2.7307621092e+00 4.7298187166e+00 
744800 4.6780978572e+00 -8.1406171926e-05 2.7307636008e+00 -4.7298213001e+00 2.7307636008e+00 4.7298213001e+00 
744900 4.6780978571e+00 -8.1345171579e-05 2.7307650914e+00 -4.7298238818e+00 2.7307650914e+00 4.7298238818e+00 
745000 4.6780978570e+00 -8.1286323643e-05 2.7307665808e+00 -4.7298264616e+00 2.7307665808e+00 4.7298264616e+00 
745100 4.6780978569e+00 -8.1225536781e-05 2.7307680691e+00 -4.7298290395e+00 2.7307680691e+00 4.7298290395e+00 
745200 4.6780978567e+00 -8.1164859104e-05 2.7307695564e+00 -4.7298316154e+00 2.7307695564e+00 4.7298316154e+00 
745300 4.6780978566e+00 -8.1104290431e-05 2.7307710425e+00 -4.7298341894e+00 2.7307710425e+00 4.7298341894e+00 
745400 4.6780978565e+00 -8.1045873684e-05 2.7307725275e+00 -4.7298367615e+00 2.7307725275e+00 4.7298367615e+00 
745500 4.6780978564e+00 -8.0985516440e-05 2.7307740114e+00 -4.7298393318e+00 2.7307740114e+00 4.7298393318e+00 
745600 4.6780978562e+00 -8.0925267291e-05 2.7307754943e+00 -4.7298419001e+00 2.7307754943e+00 4.7298419001e+00 
745700 4.6780978561e+00 -8.0865126021e-05 2.7307769760e+00 -4.7298444666e+00 2.7307769760e+00 4.7298444666e+00 
745800 4.6780978560e+00 -8.0805092396e-05 2.7307784566e+00 -4.7298470311e+00 2.7307784566e+00 4.7298470311e+00 
745900 4.6780978559e+00 -8.0745166169e-05 2.7307799361e+00 -4.7298495937e+00 2.7307799361e+00 4.7298495937e+00 
746000 4.6780978558e+00 -8.0685347083e-05 2.7307814146e+00 -4.7298521544e+00 2.7307814146e+00 4.7298521544e+00 
746100 4.6780978556e+00 -8.0625634868e-05 2.7307828919e+00 -4.7298547132e+00 2.7307828919e+00 4.7298547132e+00 
746200 4.6780978555e+00 -8.0566029249e-05 2.7307843681e+00 -4.7298572701e+00 2.7307843681e+00 4.7298572701e+00 
746300 4.6780978554e+00 -8.0506529939e-05 2.7307858433e+00 -4.7298598252e+00 2.7307858433e+00 4.7298598252e+00 
746400 4.6780978553e+00 -8.0447136648e-05 2.7307873173e+00 -4.7298623783e+00 2.7307873173e+00 4.7298623783e+00 
746500 4.6780978552e+00 -8.0387849079e-05 2.7307887903e+00 -4.7298649296e+00 2.7307887903e+00 4.7298649296e+00 
746600 4.6780978550e+00 -8.0328666928e-05 2.7307902622e+00 -4.7298674789e+00 2.7307902622e+00 4.7298674789e+00 
746700 4.6780978549e+00 -8.0269589888e-05 2.7307917330e+00 -4.7298700264e+00 2.7307917330e+00 4.7298700264e+00 
746800 4.6780978548e+00 -8.0210617649e-05 2.7307932027e+00 -4.7298725720e+00 2.7307932027e+00 4.7298725720e+00 
746900 4.6780978547e+00 -8.0149704933e-05 2.7307946713e+00 -4.7298751158e+00 2.7307946713e+00 4.7298751158e+00 
747000 4.6780978546e+00 -8.0090947309e-05 2.7307961388e+00 -4.7298776576e+00 2.7307961388e+00 4.7298776576e+00 
747100 4.6780978544e+00 -8.0032293781e-05 2.7307976053e+00 -4.7298801975e+00 2.7307976053e+00 4.7298801975e+00 
747200 4.6780978543e+00 -7.9973743994e-05 2.7307990706e+00 -4.7298827356e+00 2.7307990706e+00 4.7298827356e+00 
747300 4.6780978542e+00 -7.9913252180e-05 2.7308005349e+00 -4.7298852719e+00 2.7308005349e+00 4.7298852719e+00 
747400 4.6780978541e+00 -7.9854914787e-05 2.7308019981e+00 -4.7298878062e+00 2.7308019981e+00 4.7298878062e+00 
747500 4.6780978540e+00 -7.9796680334e-05 2.7308034602e+00 -4.7298903386e+00 2.7308034602e+00 4.7298903386e+00 
747600 4.6780978538e+00 -7.9736502699e-05 2.7308049213e+00 -4.7298928692e+00 2.7308049213e+00 4.7298928692e+00 
747700 4.6780978537e+00 -7.9678478964e-05 2.7308063812e+00 -4.7298953979e+00 2.7308063812e+00 4.7298953979e+00 
747800 4.6780978536e+00 -7.9618511330e-05 2.7308078401e+00 -4.7298979248e+00 2.7308078401e+00 4.7298979248e+00 
747900 4.6780978535e+00 -7.9560697309e-05 2.7308092979e+00 -4.7299004497e+00 2.7308092979e+00 4.7299004497e+00 
748000 4.6780978534e+00 -7.9500938637e-05 2.7308107546e+00 -4.7299029729e+00 2.7308107546e+00 4.7299029729e+00 
748100 4.6780978532e+00 -7.9441286922e-05 2.7308122103e+00 -4.7299054941e+00 2.7308122103e+00 4.7299054941e+00 
748200 4.6780978531e+00 -7.9383788470e-05 2.7308136648e+00 -4.7299080134e+00 2.7308136648e+00 4.7299080134e+00 
748300 4.6780978530e+00 -7.9324344282e-05 2.7308151183e+00 -4.7299105309e+00 2.7308151183e+00 4.7299105309e+00 
748400 4.6780978529e+00 -7.9267052946e-05 2.7308165707e+00 -4.7299130465e+00 2.7308165707e+00 4.7299130465e+00 
748500 4.6780978528e+00 -7.9207815056e-05 2.7308180220e+00 -4.7299155603e+00 2.7308180220e+00 4.7299155603e+00 
748600 4.6780978526e+00 -7.9148682740e-05 2.7308194723e+00 -4.7299180723e+00 2.7308194723e+00 4.7299180723e+00 
748700 4.6780978525e+00 -7.9089655810e-05 2.7308209214e+00 -4.7299205823e+00 2.7308209214e+00 4.7299205823e+00 
748800 4.6780978524e+00 -7.9032781157e-05 2.7308223695e+00 -4.7299230905e+00 2.7308223695e+00 4.7299230905e+00 
748900 4.6780978523e+00 -7.8973958470e-05 2.7308238166e+00 -4.7299255968e+00 2.7308238166e+00 4.7299255968e+00 
749000 4.6780978522e+00 -7.8915240279e-05 2.7308252626e+00 -4.7299281013e+00 2.7308252626e+00 4.7299281013e+00 
749100 4.6780978521e+00 -7.8856626371e-05 2.7308267075e+00 -4.7299306040e+00 2.7308267075e+00 4.7299306040e+00 
749200 4.6780978519e+00 -7.8798116519e-05 2.7308281513e+00 -4.7299331048e+00 2.7308281513e+00 4.7299331048e+00 
749300 4.6780978518e+00 -7.8739710481e-05 2.7308295940e+00 -4.7299356037e+00 2.7308295940e+00 4.7299356037e+00 
749400 4.6780978517e+00 -7.8681408008e-05 2.7308310357e+00 -4.7299381007e+00 2.7308310357e+00 4.7299381007e+00 
749500 4.6780978516e+00 -7.8623208843e-05 2.7308324763e+00 -4.7299405959e+00 2.7308324763e+00 4.7299405959e+00 
749600 4.6780978515e+00 -7.8565112717e-05 2.7308339159e+00 -4.7299430893e+00 2.7308339159e+00 4.7299430893e+00 
749700 4.6780978514e+00 -7.8507119357e-05 2.7308353544e+00 -4.7299455808e+00 2.7308353544e+00 4.7299455808e+00 
749800 4.6780978512e+00 -7.8449228485e-05 2.7308367918e+00 -4.7299480705e+00 2.7308367918e+00 4.7299480705e+00 
749900 4.6780978511e+00 -7.8391439816e-05 2.7308382281e+00 -4.7299505584e+00 2.7308382281e+00 4.7299505584e+00 
750000 4.6780978510e+00 -7.8333753062e-05 2.7308396634e+00 -4.7299530444e+00 2.7308396634e+00 4.7299530444e+00 
750100 4.6780978509e+00 -7.8276167929e-05 2.7308410977e+00 -4.7299555286e+00 2.7308410977e+00 4.7299555286e+00 
750200 4.6780978508e+00 -7.8216635613e-05 2.7308425309e+00 -4.7299580109e+00 2.7308425309e+00 4.7299580109e+00 
750300 4.6780978507e+00 -7.8159258746e-05 2.7308439630e+00 -4.7299604914e+00 2.7308439630e+00 4.7299604914e+00 
750400 4.6780978506e+00 -7.8101982840e-05 2.7308453940e+00 -4.7299629700e+00 2.7308453940e+00 4.7299629700e+00 
750500 4.6780978504e+00 -7.8044807561e-05 2.7308468240e+00 -4.7299654469e+00 2.7308468240e+00 4.7299654469e+00 
750600 4.6780978503e+00 -7.7985683684e-05 2.7308482529e+00 -4.7299679219e+00 2.7308482529e+00 4.7299679219e+00 
750700 4.6780978502e+00 -7.7928714583e-05 2.7308496808e+00 -4.7299703950e+00 2.7308496808e+00 4.7299703950e+00 
750800 4.6780978501e+00 -7.7871845356e-05 2.7308511076e+00 -4.7299728663e+00 2.7308511076e+00 4.7299728663e+00 
750900 4.6780978500e+00 -7.7813026477e-05 2.7308525334e+00 -4.7299753359e+00 2.7308525334e+00 4.7299753359e+00 
751000 4.6780978499e+00 -7.7756361853e-05 2.7308539581e+00 -4.7299778035e+00 2.7308539581e+00 4.7299778035e+00 
751100 4.6780978498e+00 -7.7697746922e-05 2.7308553818e+00 -4.7299802694e+00 2.7308553818e+00 4.7299802694e+00 
751200 4.6780978496e+00 -7.7641285955e-05 2.7308568044e+00 -4.7299827334e+00 2.7308568044e+00 4.7299827334e+00 
751300 4.6780978495e+00 -7.7582873995e-05 2.7308582259e+00 -4.7299851956e+00 2.7308582259e+00 4.7299851956e+00 
751400 4.6780978494e+00 -7.7526615668e-05 2.7308596464e+00 -4.7299876559e+00 2.7308596464e+00 4.7299876559e+00 
751500 4.6780978493e+00 -7.7468405640e-05 2.7308610659e+00 -4.7299901145e+00 2.7308610659e+00 4.7299901145e+00 
751600 4.6780978492e+00 -7.7410299040e-05 2.7308624843e+00 -4.7299925712e+00 2.7308624843e+00 4.7299925712e+00 
751700 4.6780978491e+00 -7.7354345670e-05 2.7308639016e+00 -4.7299950261e+00 2.7308639016e+00 4.7299950261e+00 
751800 4.6780978490e+00 -7.7296439590e-05 2.7308653179e+00 -4.7299974792e+00 2.7308653179e+00 4.7299974792e+00 
751900 4.6780978488e+00 -7.7238636193e-05 2.7308667331e+00 -4.7299999305e+00 2.7308667331e+00 4.7299999305e+00 
752000 4.6780978487e+00 -7.7182985525e-05 2.7308681473e+00 -4.7300023799e+00 2.7308681473e+00 4.7300023799e+00 
752100 4.6780978486e+00 -7.7125381091e-05 2.7308695605e+00 -4.7300048275e+00 2.7308695605e+00 4.7300048275e+00 
752200 4.6780978485e+00 -7.7067878538e-05 2.7308709726e+00 -4.7300072734e+00 2.7308709726e+00 4.7300072734e+00 
752300 4.6780978484e+00 -7.7010477675e-05 2.7308723836e+00 -4.7300097174e+00 2.7308723836e+00 4.7300097174e+00 
752400 4.6780978483e+00 -7.6955228860e-05 2.7308737936e+00 -4.7300121596e+00 2.7308737936e+00 4.7300121596e+00 
752500 4.6780978482e+00 -7.6898024885e-05 2.7308752026e+00 -4.7300146000e+00 2.7308752026e+00 4.7300146000e+00 
752600 4.6780978481e+00 -7.6840921720e-05 2.7308766105e+00 -4.7300170386e+00 2.7308766105e+00 4.7300170386e+00 
752700 4.6780978480e+00 -7.6783919155e-05 2.7308780174e+00 -4.7300194754e+00 2.7308780174e+00 4.7300194754e+00 
752800 4.6780978478e+00 -7.6727016968e-05 2.7308794233e+00 -4.7300219104e+00 2.7308794233e+00 4.7300219104e+00 
752900 4.6780978477e+00 -7.6670214925e-05 2.7308808281e+00 -4.7300243436e+00 2.7308808281e+00 4.7300243436e+00 
753000 4.6780978476e+00 -7.6613512784e-05 2.7308822318e+00 -4.7300267750e+00 2.7308822318e+00 4.7300267750e+00 
753100 4.6780978475e+00 -7.6556910296e-05 2.7308836346e+00 -4.7300292046e+00 2.7308836346e+00 4.7300292046e+00 
753200 4.6780978474e+00 -7.6500407206e-05 2.7308850362e+00 -4.7300316324e+00 2.7308850362e+00 4.7300316324e+00 
753300 4.6780978473e+00 -7.6444003250e-05 2.7308864369e+00 -4.7300340584e+00 2.7308864369e+00 4.7300340584e+00 
753400 4.6780978472e+00 -7.6387698163e-05 2.7308878365e+00 -4.7300364826e+00 2.7308878365e+00 4.7300364826e+00 
753500 4.6780978471e+00 -7.6331491672e-05 2.7308892351e+00 -4.7300389050e+00 2.7308892351e+00 4.7300389050e+00 
753600 4.6780978470e+00 -7.6273331961e-05 2.7308906327e+00 -4.7300413257e+00 2.7308906327e+00 4.7300413257e+00 
753700 4.6780978468e+00 -7.6217327703e-05 2.7308920292e+00 -4.7300437445e+00 2.7308920292e+00 4.7300437445e+00 
753800 4.6780978467e+00 -7.6161421433e-05 2.7308934246e+00 -4.7300461615e+00 2.7308934246e+00 4.7300461615e+00 
753900 4.6780978466e+00 -7.6105612839e-05 2.7308948191e+00 -4.7300485767e+00 2.7308948191e+00 4.7300485767e+00 
754000 4.6780978465e+00 -7.6047849744e-05 2.7308962125e+00 -4.7300509902e+00 2.7308962125e+00 4.7300509902e+00 
754100 4.6780978464e+00 -7.5992241444e-05 2.7308976048e+00 -4.7300534019e+00 2.7308976048e+00 4.7300534019e+00 
754200 4.6780978463e+00 -7.5936730119e-05 2.7308989962e+00 -4.7300558117e+00 2.7308989962e+00 4.7300558117e+00 
754300 4.6780978462e+00 -7.5879263333e-05 2.7309003865e+00 -4.7300582198e+00 2.7309003865e+00 4.7300582198e+00 
754400 4.6780978461e+00 -7.5823950833e-05 2.7309017758e+00 -4.7300606261e+00 2.7309017758e+00 4.7300606261e+00 
754500 4.6780978460e+00 -7.5768734546e-05 2.7309031640e+00 -4.7300630307e+00 2.7309031640e+00 4.7300630307e+00 
754600 4.6780978459e+00 -7.5711561801e-05 2.7309045513e+00 -4.7300654334e+00 2.7309045513e+00 4.7300654334e+00 
754700 4.6780978457e+00 -7.5656542765e-05 2.7309059375e+00 -4.7300678344e+00 2.7309059375e+00 4.7300678344e+00 
754800 4.6780978456e+00 -7.5599566664e-05 2.7309073227e+00 -4.7300702336e+00 2.7309073227e+00 4.7300702336e+00 
754900 4.6780978455e+00 -7.5544743950e-05 2.7309087068e+00 -4.7300726310e+00 2.7309087068e+00 4.7300726310e+00 
755000 4.6780978454e+00 -7.5487963539e-05 2.7309100900e+00 -4.7300750267e+00 2.7309100900e+00 4.7300750267e+00 
755100 4.6780978453e+00 -7.5433336156e-05 2.7309114721e+00 -4.7300774206e+00 2.7309114721e+00 4.7300774206e+00 
755200 4.6780978452e+00 -7.5376750428e-05 2.7309128532e+00 -4.7300798127e+00 2.7309128532e+00 4.7300798127e+00 
755300 4.6780978451e+00 -7.5320264499e-05 2.7309142332e+00 -4.7300822031e+00 2.7309142332e+00 4.7300822031e+00 
755400 4.6780978450e+00 -7.5265931157e-05 2.7309156123e+00 -4.7300845916e+00 2.7309156123e+00 4.7300845916e+00 
755500 4.6780978449e+00 -7.5209638553e-05 2.7309169903e+00 -4.7300869785e+00 2.7309169903e+00 4.7300869785e+00 
755600 4.6780978448e+00 -7.5153445036e-05 2.7309183673e+00 -4.7300893635e+00 2.7309183673e+00 4.7300893635e+00 
755700 4.6780978447e+00 -7.5097350434e-05 2.7309197433e+00 -4.7300917468e+00 2.7309197433e+00 4.7300917468e+00 
755800 4.6780978446e+00 -7.5043407795e-05 2.7309211182e+00 -4.7300941282e+00 2.7309211182e+00 4.7300941282e+00 
755900 4.6780978445e+00 -7.4987504655e-05 2.7309224922e+00 -4.7300965080e+00 2.7309224922e+00 4.7300965080e+00 
756000 4.6780978443e+00 -7.4931699630e-05 2.7309238651e+00 -4.7300988860e+00 2.7309238651e+00 4.7300988860e+00 
756100 4.6780978442e+00 -7.4875992528e-05 2.7309252370e+00 -4.7301012622e+00 2.7309252370e+00 4.7301012622e+00 
756200 4.6780978441e+00 -7.4820383146e-05 2.7309266079e+00 -4.7301036367e+00 2.7309266079e+00 4.7301036367e+00 
756300 4.6780978440e+00 -7.4764871270e-05 2.7309279778e+00 -4.7301060093e+00 2.7309279778e+00 4.7301060093e+00 
756400 4.6780978439e+00 -7.4709456679e-05 2.7309293466e+00 -4.7301083803e+00 2.7309293466e+00 4.7301083803e+00 
756500 4.6780978438e+00 -7.4654139142e-05 2.7309307145e+00 -4.7301107494e+00 2.7309307145e+00 4.7301107494e+00 
756600 4.6780978437e+00 -7.4598918422e-05 2.7309320813e+00 -4.7301131169e+00 2.7309320813e+00 4.7301131169e+00 
756700 4.6780978436e+00 -7.4543794277e-05 2.7309334471e+00 -4.7301154825e+00 2.7309334471e+00 4.7301154825e+00 
756800 4.6780978435e+00 -7.4488766458e-05 2.7309348119e+00 -4.7301178464e+00 2.7309348119e+00 4.7301178464e+00 
756900 4.6780978434e+00 -7.4433834714e-05 2.7309361757e+00 -4.7301202086e+00 2.7309361757e+00 4.7301202086e+00 
757000 4.6780978433e+00 -7.4378998788e-05 2.7309375385e+00 -4.7301225690e+00 2.7309375385e+00 4.7301225690e+00 
757100 4.6780978432e+00 -7.4324258420e-05 2.7309389003e+00 -4.7301249277e+00 2.7309389003e+00 4.7301249277e+00 
757200 4.6780978431e+00 -7.4269613347e-05 2.7309402611e+00 -4.7301272846e+00 2.7309402611e+00 4.7301272846e+00 
757300 4.6780978430e+00 -7.4215063302e-05 2.7309416209e+00 -4.7301296398e+00 2.7309416209e+00 4.7301296398e+00 
757400 4.6780978429e+00 -7.4158553704e-05 2.7309429796e+00 -4.7301319933e+00 2.7309429796e+00 4.7301319933e+00 
757500 4.6780978428e+00 -7.4104198724e-05 2.7309443374e+00 -4.7301343450e+00 2.7309443374e+00 4.7301343450e+00 
757600 4.6780978426e+00 -7.4049938174e-05 2.7309456941e+00 -4.7301366950e+00 2.7309456941e+00 4.7301366950e+00 
757700 4.6780978425e+00 -7.3995771754e-05 2.7309470499e+00 -4.7301390432e+00 2.7309470499e+00 4.7301390432e+00 
757800 4.6780978424e+00 -7.3939644606e-05 2.7309484047e+00 -4.7301413897e+00 2.7309484047e+00 4.7301413897e+00 
757900 4.6780978423e+00 -7.3885671373e-05 2.7309497584e+00 -4.7301437345e+00 2.7309497584e+00 4.7301437345e+00 
758000 4.6780978422e+00 -7.3831791596e-05 2.7309511111e+00 -4.7301460775e+00 2.7309511111e+00 4.7301460775e+00 
758100 4.6780978421e+00 -7.3775950215e-05 2.7309524629e+00 -4.7301484188e+00 2.7309524629e+00 4.7301484188e+00 
758200 4.6780978420e+00 -7.3722262216e-05 2.7309538136e+00 -4.7301507584e+00 2.7309538136e+00 4.7301507584e+00 
758300 4.6780978419e+00 -7.3666612070e-05 2.7309551634e+00 -4.7301530962e+00 2.7309551634e+00 4.7301530962e+00 
758400 4.6780978418e+00 -7.3613115008e-05 2.7309565121e+00 -4.7301554323e+00 2.7309565121e+00 4.7301554323e+00 
758500 4.6780978417e+00 -7.3557655229e-05 2.7309578599e+00 -4.7301577666e+00 2.7309578599e+00 4.7301577666e+00 
758600 4.6780978416e+00 -7.3504348198e-05 2.7309592066e+00 -4.7301600993e+00 2.7309592066e+00 4.7301600993e+00 
758700 4.6780978415e+00 -7.3449077863e-05 2.7309605524e+00 -4.7301624302e+00 2.7309605524e+00 4.7301624302e+00 
758800 4.6780978414e+00 -7.3395959911e-05 2.7309618971e+00 -4.7301647594e+00 2.7309618971e+00 4.7301647594e+00 
758900 4.6780978413e+00 -7.3340878056e-05 2.7309632409e+00 -4.7301670868e+00 2.7309632409e+00 4.7301670868e+00 
759000 4.6780978412e+00 -7.3285892890e-05 2.7309645837e+00 -4.7301694126e+00 2.7309645837e+00 4.7301694126e+00 
759100 4.6780978411e+00 -7.3233059656e-05 2.7309659254e+00 -4.7301717366e+00 2.7309659254e+00 4.7301717366e+00 
759200 4.6780978410e+00 -7.3178261674e-05 2.7309672662e+00 -4.7301740589e+00 2.7309672662e+00 4.7301740589e+00 
759300 4.6780978409e+00 -7.3123559703e-05 2.7309686060e+00 -4.7301763795e+00 2.7309686060e+00 4.7301763795e+00 
759400 4.6780978408e+00 -7.3071009132e-05 2.7309699448e+00 -4.7301786983e+00 2.7309699448e+00 4.7301786983e+00 
759500 4.6780978407e+00 -7.3016492935e-05 2.7309712826e+00 -4.7301810155e+00 2.7309712826e+00 4.7301810155e+00 
759600 4.6780978406e+00 -7.2962072024e-05 2.7309726194e+00 -4.7301833309e+00 2.7309726194e+00 4.7301833309e+00 
759700 4.6780978405e+00 -7.2907746228e-05 2.7309739553e+00 -4.7301856447e+00 2.7309739553e+00 4.7301856447e+00 
759800 4.6780978404e+00 -7.2853515362e-05 2.7309752901e+00 -4.7301879567e+00 2.7309752901e+00 4.7301879567e+00 
759900 4.6780978403e+00 -7.2799379230e-05 2.7309766239e+00 -4.7301902669e+00 2.7309766239e+00 4.7301902669e+00 
760000 4.6780978402e+00 -7.2747393522e-05 2.7309779568e+00 -4.7301925755e+00 2.7309779568e+00 4.7301925755e+00 
760100 4.6780978401e+00 -7.2693440484e-05 2.7309792887e+00 -4.7301948824e+00 2.7309792887e+00 4.7301948824e+00 
760200 4.6780978400e+00 -7.2639581342e-05 2.7309806196e+00 -4.7301971876e+00 2.7309806196e+00 4.7301971876e+00 
760300 4.6780978399e+00 -7.2585815895e-05 2.7309819495e+00 -4.7301994911e+00 2.7309819495e+00 4.7301994911e+00 
760400 4.6780978398e+00 -7.2532143934e-05 2.7309832784e+00 -4.7302017928e+00 2.7309832784e+00 4.7302017928e+00 
760500 4.6780978397e+00 -7.2478565240e-05 2.7309846064e+00 -4.7302040929e+00 2.7309846064e+00 4.7302040929e+00 
760600 4.6780978396e+00 -7.2425079590e-05 2.7309859333e+00 -4.7302063913e+00 2.7309859333e+00 4.7302063913e+00 
760700 4.6780978395e+00 -7.2371686753e-05 2.7309872593e+00 -4.7302086880e+00 2.7309872593e+00 4.7302086880e+00 
760800 4.6780978394e+00 -7.2316330190e-05 2.7309885843e+00 -4.7302109830e+00 2.7309885843e+00 4.7302109830e+00 
760900 4.6780978393e+00 -7.2263128030e-05 2.7309899083e+00 -4.7302132762e+00 2.7309899083e+00 4.7302132762e+00 
761000 4.6780978392e+00 -7.2210018171e-05 2.7309912314e+00 -4.7302155677e+00 2.7309912314e+00 4.7302155677e+00 
761100 4.6780978391e+00 -7.2157000344e-05 2.7309925534e+00 -4.7302178576e+00 2.7309925534e+00 4.7302178576e+00 
761200 4.6780978390e+00 -7.2104074280e-05 2.7309938745e+00 -4.7302201458e+00 2.7309938745e+00 4.7302201458e+00 
761300 4.6780978389e+00 -7.2051239710e-05 2.7309951946e+00 -4.7302224322e+00 2.7309951946e+00 4.7302224322e+00 
761400 4.6780978388e+00 -7.1996439752e-05 2.7309965137e+00 -4.7302247171e+00 2.7309965137e+00 4.7302247171e+00 
761500 4.6780978387e+00 -7.1943793124e-05 2.7309978319e+00 -4.7302270001e+00 2.7309978319e+00 4.7302270001e+00 
761600 4.6780978386e+00 -7.1891237386e-05 2.7309991490e+00 -4.7302292815e+00 2.7309991490e+00 4.7302292815e+00 
761700 4.6780978385e+00 -7.1836715475e-05 2.7310004652e+00 -4.7302315613e+00 2.7310004652e+00 4.7302315613e+00 
761800 4.6780978384e+00 -7.1784346404e-05 2.7310017804e+00 -4.7302338393e+00 2.7310017804e+00 4.7302338393e+00 
761900 4.6780978383e+00 -7.1732067556e-05 2.7310030947e+00 -4.7302361156e+00 2.7310030947e+00 4.7302361156e+00 
762000 4.6780978382e+00 -7.1677821711e-05 2.7310044080e+00 -4.7302383903e+00 2.7310044080e+00 4.7302383903e+00 
762100 4.6780978381e+00 -7.1625728151e-05 2.7310057203e+00 -4.7302406633e+00 2.7310057203e+00 4.7302406633e+00 
762200 4.6780978380e+00 -7.1571667089e-05 2.7310070316e+00 -4.7302429346e+00 2.7310070316e+00 4.7302429346e+00 
762300 4.6780978379e+00 -7.1519758001e-05 2.7310083420e+00 -4.7302452042e+00 2.7310083420e+00 4.7302452042e+00 
762400 4.6780978378e+00 -7.1465880882e-05 2.7310096514e+00 -4.7302474722e+00 2.7310096514e+00 4.7302474722e+00 
762500 4.6780978377e+00 -7.1414155393e-05 2.7310109598e+00 -4.7302497384e+00 2.7310109598e+00 4.7302497384e+00 
762600 4.6780978376e+00 -7.1360461333e-05 2.7310122673e+00 -4.7302520030e+00 2.7310122673e+00 4.7302520030e+00 
762700 4.6780978375e+00 -7.1306861253e-05 2.7310135737e+00 -4.7302542659e+00 2.7310135737e+00 4.7302542659e+00 
762800 4.6780978374e+00 -7.1255412375e-05 2.7310148793e+00 -4.7302565271e+00 2.7310148793e+00 4.7302565271e+00 
762900 4.6780978373e+00 -7.1201994155e-05 2.7310161838e+00 -4.7302587867e+00 2.7310161838e+00 4.7302587867e+00 
763000 4.6780978372e+00 -7.1150726716e-05 2.7310174874e+00 -4.7302610445e+00 2.7310174874e+00 4.7302610445e+00 
763100 4.6780978371e+00 -7.1097489354e-05 2.7310187900e+00 -4.7302633008e+00 2.7310187900e+00 4.7302633008e+00 
763200 4.6780978370e+00 -7.1044344839e-05 2.7310200917e+00 -4.7302655553e+00 2.7310200917e+00 4.7302655553e+00 
763300 4.6780978369e+00 -7.0991293022e-05 2.7310213924e+00 -4.7302678082e+00 2.7310213924e+00 4.7302678082e+00 
763400 4.6780978368e+00 -7.0940391358e-05 2.7310226921e+00 -4.7302700594e+00 2.7310226921e+00 4.7302700594e+00 
763500 4.6780978367e+00 -7.0887518736e-05 2.7310239909e+00 -4.7302723089e+00 2.7310239909e+00 4.7302723089e+00 
763600 4.6780978366e+00 -7.0834738095e-05 2.7310252887e+00 -4.7302745568e+00 2.7310252887e+00 4.7302745568e+00 
763700 4.6780978365e+00 -7.0782049265e-05 2.7310265856e+00 -4.7302768030e+00 2.7310265856e+00 4.7302768030e+00 
763800 4.6780978364e+00 -7.0729452063e-05 2.7310278815e+00 -4.7302790476e+00 2.7310278815e+00 4.7302790476e+00 
763900 4.6780978363e+00 -7.0676946300e-05 2.7310291764e+00 -4.7302812904e+00 2.7310291764e+00 4.7302812904e+00 
763900 4.6780978363e+00 -7.0676946300e-05 2.7310291764e+00 -4.7302812904e+00 2.7310291764e+00 4.7302812904e+00 
