# step Hamiltonian StressXX CellTensor1 CellTensor2 CellTensor3 CellTensor4 
0 6.1261665341e+00 -4.4568349872e-02 2.5594246509e+00 -4.4330535334e+00 2.5594246509e+00 4.4330535334e+00 
100 6.1100923418e+00 -4.0960116332e-02 2.5594246509e+00 -4.4330535334e+00 2.5594246509e+00 4.4330535334e+00 
200 6.0940614102e+00 -3.7297236528e-02 2.5602248746e+00 -4.4344395617e+00 2.5602248746e+00 4.4344395617e+00 
300 6.0781624228e+00 -3.3860777960e-02 2.5609533068e+00 -4.4357012433e+00 2.5609533068e+00 4.4357012433e+00 
400 6.0624482947e+00 -3.0655492855e-02 2.5616144324e+00 -4.4368463463e+00 2.5616144324e+00 4.4368463463e+00 
500 6.0469670440e+00 -2.7685812336e-02 2.5622128184e+00 -4.4378827814e+00 2.5622128184e+00 4.4378827814e+00 
600 6.0317619875e+00 -2.4955789542e-02 2.5627531090e+00 -4.4388185920e+00 2.5627531090e+00 4.4388185920e+00 
700 6.0168719279e+00 -2.2469047233e-02 2.5632400185e+00 -4.4396619441e+00 2.5632400185e+00 4.4396619441e+00 
800 6.0023313314e+00 -2.0228730004e-02 2.5636783249e+00 -4.4404211129e+00 2.5636783249e+00 4.4404211129e+00 
900 5.9881705001e+00 -1.8237461456e-02 2.5640728605e+00 -4.4411044687e+00 2.5640728605e+00 4.4411044687e+00 
1000 5.9744157361e+00 -1.6497306715e-02 2.5644285033e+00 -4.4417204601e+00 2.5644285033e+00 4.4417204601e+00 
1100 5.9610895030e+00 -1.5009740675e-02 2.5647501666e+00 -4.4422775973e+00 2.5647501666e+00 4.4422775973e+00 
1200 5.9482105824e+00 -1.3775622230e-02 2.5650427882e+00 -4.4427844328e+00 2.5650427882e+00 4.4427844328e+00 
1300 5.9357942288e+00 -1.2795174608e-02 2.5653113191e+00 -4.4432495419e+00 2.5653113191e+00 4.4432495419e+00 
1400 5.9238523240e+00 -1.2067971805e-02 2.5655607115e+00 -4.4436815022e+00 2.5655607115e+00 4.4436815022e+00 
1500 5.9123935314e+00 -1.1592930942e-02 2.5657959068e+00 -4.4440888724e+00 2.5657959068e+00 4.4440888724e+00 
1600 5.9014234524e+00 -1.1368310271e-02 2.5660218230e+00 -4.4444801708e+00 2.5660218230e+00 4.4444801708e+00 
1700 5.8909447854e+00 -1.1391712454e-02 2.5662433425e+00 -4.4448638538e+00 2.5662433425e+00 4.4448638538e+00 
1800 5.8809574873e+00 -1.1660092661e-02 2.5664652988e+00 -4.4452482933e+00 2.5664652988e+00 4.4452482933e+00 
1900 5.8714589404e+00 -1.2169770977e-02 2.5666924646e+00 -4.4456417561e+00 2.5666924646e+00 4.4456417561e+00 
2000 5.8624441219e+00 -1.2916448613e-02 2.5669295393e+00 -4.4460523816e+00 2.5669295393e+00 4.4460523816e+00 
2100 5.8539057786e+00 -1.3895227387e-02 2.5671811368e+00 -4.4464881612e+00 2.5671811368e+00 4.4464881612e+00 
2200 5.8458346048e+00 -1.5100631971e-02 2.5674517735e+00 -4.4469569178e+00 2.5674517735e+00 4.4469569178e+00 
2300 5.8382194246e+00 -1.6526634428e-02 2.5677458574e+00 -4.4474662859e+00 2.5677458574e+00 4.4474662859e+00 
2400 5.8310473763e+00 -1.8166680599e-02 2.5680676762e+00 -4.4480236924e+00 2.5680676762e+00 4.4480236924e+00 
2500 5.8243040989e+00 -2.0013717950e-02 2.5684213876e+00 -4.4486363386e+00 2.5684213876e+00 4.4486363386e+00 
2600 5.8179739201e+00 -2.2060224535e-02 2.5688110087e+00 -4.4493111822e+00 2.5688110087e+00 4.4493111822e+00 
2700 5.8120400438e+00 -2.4298238776e-02 2.5692404066e+00 -4.4500549211e+00 2.5692404066e+00 4.4500549211e+00 
2800 5.8064847367e+00 -2.6719389818e-02 2.5697132892e+00 -4.4508739778e+00 2.5697132892e+00 4.4508739778e+00 
2900 5.8012895122e+00 -2.9314928255e-02 2.5702331973e+00 -4.4517744849e+00 2.5702331973e+00 4.4517744849e+00 
3000 5.7964353103e+00 -3.2075757045e-02 2.5708034959e+00 -4.4527622712e+00 2.5708034959e+00 4.4527622712e+00 
3100 5.7919026736e+00 -3.4992462518e-02 2.5714273681e+00 -4.4538428495e+00 2.5714273681e+00 4.4538428495e+00 
3200 5.7876719156e+00 -3.8055345333e-02 2.5721078074e+00 -4.4550214049e+00 2.5721078074e+00 4.4550214049e+00 
3300 5.7837232828e+00 -4.1254451336e-02 2.5728476125e+00 -4.4563027850e+00 2.5728476125e+00 4.4563027850e+00 
3400 5.7800371081e+00 -4.4579602250e-02 2.5736493816e+00 -4.4576914897e+00 2.5736493816e+00 4.4576914897e+00 
3500 5.7765939541e+00 -4.8020426133e-02 2.5745155077e+00 -4.4591916643e+00 2.5745155077e+00 4.4591916643e+00 
3600 5.7733747474e+00 -5.1566387594e-02 2.5754481749e+00 -4.4608070913e+00 2.5754481749e+00 4.4608070913e+00 
3700 5.7703609004e+00 -5.5206817699e-02 2.5764493546e+00 -4.4625411853e+00 2.5764493546e+00 4.4625411853e+00 
3800 5.7675344228e+00 -5.8930943562e-02 2.5775208029e+00 -4.4643969881e+00 2.5775208029e+00 4.4643969881e+00 
3900 5.7648780202e+00 -6.2727917565e-02 2.5786640584e+00 -4.4663771648e+00 2.5786640584e+00 4.4663771648e+00 
4000 5.7623751805e+00 -6.6586846182e-02 2.5798804411e+00 -4.4684840014e+00 2.5798804411e+00 4.4684840014e+00 
4100 5.7600102477e+00 -7.0496818365e-02 2.5811710512e+00 -4.4707194036e+00 2.5811710512e+00 4.4707194036e+00 
4200 5.7577684834e+00 -7.4446933433e-02 2.5825367691e+00 -4.4730848965e+00 2.5825367691e+00 4.4730848965e+00 
4300 5.7556361153e+00 -7.8426328434e-02 2.5839782559e+00 -4.4755816249e+00 2.5839782559e+00 4.4755816249e+00 
4400 5.7536003736e+00 -8.2424204907e-02 2.5854959544e+00 -4.4782103559e+00 2.5854959544e+00 4.4782103559e+00 
4500 5.7516495159e+00 -8.6429854995e-02 2.5870900909e+00 -4.4809714813e+00 2.5870900909e+00 4.4809714813e+00 
4600 5.7497728399e+00 -9.0432686846e-02 2.5887606773e+00 -4.4838650218e+00 2.5887606773e+00 4.4838650218e+00 
4700 5.7479606860e+00 -9.4422249247e-02 2.5905075141e+00 -4.4868906319e+00 2.5905075141e+00 4.4868906319e+00 
4800 5.7462044287e+00 -9.8388255413e-02 2.5923301939e+00 -4.4900476058e+00 2.5923301939e+00 4.4900476058e+00 
4900 5.7444964599e+00 -1.0232060590e-01 2.5942281051e+00 -4.4933348845e+00 2.5942281051e+00 4.4933348845e+00 
5000 5.7428301617e+00 -1.0620941058e-01 2.5962004367e+00 -4.4967510630e+00 2.5962004367e+00 4.4967510630e+00 
5100 5.7411998728e+00 -1.1004500956e-01 2.5982461829e+00 -4.5002943994e+00 2.5982461829e+00 4.5002943994e+00 
5200 5.7396008473e+00 -1.1381799321e-01 2.6003641490e+00 -4.5039628243e+00 2.6003641490e+00 4.5039628243e+00 
5300 5.7380292070e+00 -1.1751922093e-01 2.6025529568e+00 -4.5077539505e+00 2.6025529568e+00 4.5077539505e+00 
5400 5.7364818886e+00 -1.2113983901e-01 2.6048110510e+00 -4.5116650845e+00 2.6048110510e+00 4.5116650845e+00 
5500 5.7349565874e+00 -1.2467129723e-01 2.6071367062e+00 -4.5156932375e+00 2.6071367062e+00 4.5156932375e+00 
5600 5.7334516958e+00 -1.2810536448e-01 2.6095280334e+00 -4.5198351376e+00 2.6095280334e+00 4.5198351376e+00 
5700 5.7319662411e+00 -1.3143414316e-01 2.6119829874e+00 -4.5240872427e+00 2.6119829874e+00 4.5240872427e+00 
5800 5.7304998194e+00 -1.3465008253e-01 2.6144993749e+00 -4.5284457536e+00 2.6144993749e+00 4.5284457536e+00 
5900 5.7290525304e+00 -1.3774599103e-01 2.6170748615e+00 -4.5329066273e+00 2.6170748615e+00 4.5329066273e+00 
6000 5.7276249109e+00 -1.4071504748e-01 2.6197069806e+00 -4.5374655913e+00 2.6197069806e+00 4.5374655913e+00 
6100 5.7262178685e+00 -1.4355081134e-01 2.6223931410e+00 -4.5421181577e+00 2.6223931410e+00 4.5421181577e+00 
6200 5.7248326174e+00 -1.4624723199e-01 2.6251306359e+00 -4.5468596379e+00 2.6251306359e+00 4.5468596379e+00 
6300 5.7234706149e+00 -1.4879865712e-01 2.6279166510e+00 -4.5516851575e+00 2.6279166510e+00 4.5516851575e+00 
6400 5.7221335003e+00 -1.5119984029e-01 2.6307482732e+00 -4.5565896711e+00 2.6307482732e+00 4.5565896711e+00 
6500 5.7208230373e+00 -1.5344594763e-01 2.6336224999e+00 -4.5615679778e+00 2.6336224999e+00 4.5615679778e+00 
6600 5.7195410586e+00 -1.5553256389e-01 2.6365362471e+00 -4.5666147360e+00 2.6365362471e+00 4.5666147360e+00 
6700 5.7182894144e+00 -1.5745569782e-01 2.6394863589e+00 -4.5717244795e+00 2.6394863589e+00 4.5717244795e+00 
6800 5.7170699248e+00 -1.5921178682e-01 2.6424696158e+00 -4.5768916320e+00 2.6424696158e+00 4.5768916320e+00 
6900 5.7158843363e+00 -1.6079770117e-01 2.6454827442e+00 -4.5821105235e+00 2.6454827442e+00 4.5821105235e+00 
7000 5.7147342827e+00 -1.6221074762e-01 2.6485224248e+00 -4.5873754048e+00 2.6485224248e+00 4.5873754048e+00 
7100 5.7136212502e+00 -1.6344867255e-01 2.6515853019e+00 -4.5926804634e+00 2.6515853019e+00 4.5926804634e+00 
7200 5.7125465476e+00 -1.6450966465e-01 2.6546679917e+00 -4.5980198388e+00 2.6546679917e+00 4.5980198388e+00 
7300 5.7115112806e+00 -1.6539235720e-01 2.6577670916e+00 -4.6033876374e+00 2.6577670916e+00 4.6033876374e+00 
7400 5.7105163312e+00 -1.6609582985e-01 2.6608791888e+00 -4.6087779479e+00 2.6608791888e+00 4.6087779479e+00 
7500 5.7095623420e+00 -1.6661961000e-01 2.6640008688e+00 -4.6141848561e+00 2.6640008688e+00 4.6141848561e+00 
7600 5.7086497041e+00 -1.6696367376e-01 2.6671287238e+00 -4.6196024599e+00 2.6671287238e+00 4.6196024599e+00 
7700 5.7077785509e+00 -1.6712844637e-01 2.6702593618e+00 -4.6250248841e+00 2.6702593618e+00 4.6250248841e+00 
7800 5.7069487552e+00 -1.6711480214e-01 2.6733894146e+00 -4.6304462944e+00 2.6733894146e+00 4.6304462944e+00 
7900 5.7061599309e+00 -1.6692406380e-01 2.6765155459e+00 -4.6358609127e+00 2.6765155459e+00 4.6358609127e+00 
8000 5.7054114385e+00 -1.6655800118e-01 2.6796344599e+00 -4.6412630303e+00 2.6796344599e+00 4.6412630303e+00 
8100 5.7047023948e+00 -1.6601882922e-01 2.6827429093e+00 -4.6466470225e+00 2.6827429093e+00 4.6466470225e+00 
8200 5.7040316851e+00 -1.6530920513e-01 2.6858377028e+00 -4.6520073621e+00 2.6858377028e+00 4.6520073621e+00 
8300 5.7033979798e+00 -1.6443222462e-01 2.6889157133e+00 -4.6573386328e+00 2.6889157133e+00 4.6573386328e+00 
8400 5.7027997530e+00 -1.6339141719e-01 2.6919738857e+00 -4.6626355426e+00 2.6919738857e+00 4.6626355426e+00 
8500 5.7022353034e+00 -1.6219074018e-01 2.6950092435e+00 -4.6678929367e+00 2.6950092435e+00 4.6678929367e+00 
8600 5.7017027783e+00 -1.6083457166e-01 2.6980188972e+00 -4.6731058097e+00 2.6980188972e+00 4.6731058097e+00 
8700 5.7012001981e+00 -1.5932770193e-01 2.7010000504e+00 -4.6782693185e+00 2.7010000504e+00 4.6782693185e+00 
8800 5.7007254834e+00 -1.5767532354e-01 2.7039500071e+00 -4.6833787935e+00 2.7039500071e+00 4.6833787935e+00 
8900 5.7002764819e+00 -1.5588301970e-01 2.7068661785e+00 -4.6884297504e+00 2.7068661785e+00 4.6884297504e+00 
9000 5.6998509968e+00 -1.5395675104e-01 2.7097460886e+00 -4.6934179011e+00 2.7097460886e+00 4.6934179011e+00 
9100 5.6994468142e+00 -1.5190284051e-01 2.7125873811e+00 -4.6983391640e+00 2.7125873811e+00 4.6983391640e+00 
9200 5.6990617316e+00 -1.4972795655e-01 2.7153878244e+00 -4.7031896742e+00 2.7153878244e+00 4.7031896742e+00 
9300 5.6986935840e+00 -1.4743909416e-01 2.7181453176e+00 -4.7079657925e+00 2.7181453176e+00 4.7079657925e+00 
9400 5.6983402708e+00 -1.4504355416e-01 2.7208578950e+00 -4.7126641143e+00 2.7208578950e+00 4.7126641143e+00 
9500 5.6979997795e+00 -1.4254892035e-01 2.7235237308e+00 -4.7172814774e+00 2.7235237308e+00 4.7172814774e+00 
9600 5.6976702088e+00 -1.3996303478e-01 2.7261411438e+00 -4.7218149697e+00 2.7261411438e+00 4.7218149697e+00 
9700 5.6973497889e+00 -1.3729397099e-01 2.7287086004e+00 -4.7262619349e+00 2.7287086004e+00 4.7262619349e+00 
9800 5.6970368995e+00 -1.3455000543e-01 2.7312247182e+00 -4.7306199789e+00 2.7312247182e+00 4.7306199789e+00 
9900 5.6967300856e+00 -1.3173958704e-01 2.7336882689e+00 -4.7348869739e+00 2.7336882689e+00 4.7348869739e+00 
10000 5.6964280696e+00 -1.2887130525e-01 2.7360981802e+00 -4.7390610626e+00 2.7360981802e+00 4.7390610626e+00 
10100 5.6961297611e+00 -1.2595385630e-01 2.7384535375e+00 -4.7431406611e+00 2.7384535375e+00 4.7431406611e+00 
10200 5.6958342634e+00 -1.2299600842e-01 2.7407535851e+00 -4.7471244605e+00 2.7407535851e+00 4.7471244605e+00 
10300 5.6955408764e+00 -1.2000656574e-01 2.7429977266e+00 -4.7510114276e+00 2.7429977266e+00 4.7510114276e+00 
10400 5.6952490969e+00 -1.1699433139e-01 2.7451855247e+00 -4.7548008050e+00 2.7451855247e+00 4.7548008050e+00 
10500 5.6949586152e+00 -1.1396806994e-01 2.7473167005e+00 -4.7584921097e+00 2.7473167005e+00 4.7584921097e+00 
10600 5.6946693093e+00 -1.1093646950e-01 2.7493911318e+00 -4.7620851302e+00 2.7493911318e+00 4.7620851302e+00 
10700 5.6943812354e+00 -1.0790810378e-01 2.7514088518e+00 -4.7655799237e+00 2.7514088518e+00 4.7655799237e+00 
10800 5.6940946167e+00 -1.0489139440e-01 2.7533700455e+00 -4.7689768108e+00 2.7533700455e+00 4.7689768108e+00 
10900 5.6938098290e+00 -1.0189457372e-01 2.7552750469e+00 -4.7722763701e+00 2.7552750469e+00 4.7722763701e+00 
11000 5.6935273844e+00 -9.8925648638e-02 2.7571243353e+00 -4.7754794316e+00 2.7571243353e+00 4.7754794316e+00 
11100 5.6932479133e+00 -9.5992365494e-02 2.7589185303e+00 -4.7785870683e+00 2.7589185303e+00 4.7785870683e+00 
11200 5.6929721452e+00 -9.3102176542e-02 2.7606583868e+00 -4.7816005882e+00 2.7606583868e+00 4.7816005882e+00 
11300 5.6927008875e+00 -9.0262208159e-02 2.7623447897e+00 -4.7845215238e+00 2.7623447897e+00 4.7845215238e+00 
11400 5.6924350048e+00 -8.7479231139e-02 2.7639787476e+00 -4.7873516219e+00 2.7639787476e+00 4.7873516219e+00 
11500 5.6921753971e+00 -8.4759633295e-02 2.7655613859e+00 -4.7900928318e+00 2.7655613859e+00 4.7900928318e+00 
11600 5.6919229786e+00 -8.2109394585e-02 2.7670939401e+00 -4.7927472937e+00 2.7670939401e+00 4.7927472937e+00 
11700 5.6916786562e+00 -7.9534064983e-02 2.7685777483e+00 -4.7953173247e+00 2.7685777483e+00 4.7953173247e+00 
11800 5.6914433101e+00 -7.7038745230e-02 2.7700142428e+00 -4.7978054063e+00 2.7700142428e+00 4.7978054063e+00 
11900 5.6912177743e+00 -7.4628070615e-02 2.7714049430e+00 -4.8002141697e+00 2.7714049430e+00 4.8002141697e+00 
12000 5.6910028196e+00 -7.2306197868e-02 2.7727514462e+00 -4.8025463816e+00 2.7727514462e+00 4.8025463816e+00 
12100 5.6907991375e+00 -7.0076795225e-02 2.7740554192e+00 -4.8048049291e+00 2.7740554192e+00 4.8048049291e+00 
12200 5.6906073269e+00 -6.7943035694e-02 2.7753185899e+00 -4.8069928050e+00 2.7753185899e+00 4.8069928050e+00 
12300 5.6904278825e+00 -6.5907593495e-02 2.7765427382e+00 -4.8091130919e+00 2.7765427382e+00 4.8091130919e+00 
12400 5.6902611853e+00 -6.3972643636e-02 2.7777296871e+00 -4.8111689477e+00 2.7777296871e+00 4.8111689477e+00 
12500 5.6901074962e+00 -6.2139864547e-02 2.7788812941e+00 -4.8131635896e+00 2.7788812941e+00 4.8131635896e+00 
12600 5.6899669517e+00 -6.0410443658e-02 2.7799994425e+00 -4.8151002794e+00 2.7799994425e+00 4.8151002794e+00 
12700 5.6898395612e+00 -5.8785085781e-02 2.7810860322e+00 -4.8169823080e+00 2.7810860322e+00 4.8169823080e+00 
12800 5.6897252084e+00 -5.7264024154e-02 2.7821429720e+00 -4.8188129814e+00 2.7821429720e+00 4.8188129814e+00 
12900 5.6896236533e+00 -5.5847033946e-02 2.7831721706e+00 -4.8205956056e+00 2.7831721706e+00 4.8205956056e+00 
13000 5.6895345371e+00 -5.4533448043e-02 2.7841755290e+00 -4.8223334735e+00 2.7841755290e+00 4.8223334735e+00 
13100 5.6894573892e+00 -5.3322174888e-02 2.7851549329e+00 -4.8240298507e+00 2.7851549329e+00 4.8240298507e+00 
13200 5.6893916355e+00 -5.2211718178e-02 2.7861122446e+00 -4.8256879632e+00 2.7861122446e+00 4.8256879632e+00 
13300 5.6893366084e+00 -5.1200198169e-02 2.7870492966e+00 -4.8273109850e+00 2.7870492966e+00 4.8273109850e+00 
13400 5.6892915581e+00 -5.0285374369e-02 2.7879678848e+00 -4.8289020263e+00 2.7879678848e+00 4.8289020263e+00 
13500 5.6892556651e+00 -4.9464669386e-02 2.7888697618e+00 -4.8304641232e+00 2.7888697618e+00 4.8304641232e+00 
13600 5.6892280532e+00 -4.8735193716e-02 2.7897566317e+00 -4.8320002268e+00 2.7897566317e+00 4.8320002268e+00 
13700 5.6892078027e+00 -4.8093771221e-02 2.7906301440e+00 -4.8335131946e+00 2.7906301440e+00 4.8335131946e+00 
13800 5.6891939648e+00 -4.7536965108e-02 2.7914918893e+00 -4.8350057811e+00 2.7914918893e+00 4.8350057811e+00 
13900 5.6891855749e+00 -4.7061104197e-02 2.7923433942e+00 -4.8364806309e+00 2.7923433942e+00 4.8364806309e+00 
14000 5.6891816666e+00 -4.6662309266e-02 2.7931861177e+00 -4.8379402709e+00 2.7931861177e+00 4.8379402709e+00 
14100 5.6891812841e+00 -4.6336519321e-02 2.7940214476e+00 -4.8393871046e+00 2.7940214476e+00 4.8393871046e+00 
14200 5.6891834954e+00 -4.6079517589e-02 2.7948506969e+00 -4.8408234067e+00 2.7948506969e+00 4.8408234067e+00 
14300 5.6891874031e+00 -4.5886957107e-02 2.7956751020e+00 -4.8422513181e+00 2.7956751020e+00 4.8422513181e+00 
14400 5.6891921557e+00 -4.5754385753e-02 2.7964958197e+00 -4.8436728429e+00 2.7964958197e+00 4.8436728429e+00 
14500 5.6891969563e+00 -4.5677270588e-02 2.7973139260e+00 -4.8450898446e+00 2.7973139260e+00 4.8450898446e+00 
14600 5.6892010713e+00 -4.5651021419e-02 2.7981304145e+00 -4.8465040441e+00 2.7981304145e+00 4.8465040441e+00 
14700 5.6892038372e+00 -4.5671013468e-02 2.7989461956e+00 -4.8479170184e+00 2.7989461956e+00 4.8479170184e+00 
14800 5.6892046662e+00 -4.5732609079e-02 2.7997620961e+00 -4.8493301995e+00 2.7997620961e+00 4.8493301995e+00 
14900 5.6892030503e+00 -4.5831178391e-02 2.8005788589e+00 -4.8507448742e+00 2.8005788589e+00 4.8507448742e+00 
15000 5.6891985643e+00 -4.5962118926e-02 2.8013971435e+00 -4.8521621847e+00 2.8013971435e+00 4.8521621847e+00 
15100 5.6891908676e+00 -4.6120874050e-02 2.8022175263e+00 -4.8535831294e+00 2.8022175263e+00 4.8535831294e+00 
15200 5.6891797039e+00 -4.6302950290e-02 2.8030405019e+00 -4.8550085649e+00 2.8030405019e+00 4.8550085649e+00 
15300 5.6891649006e+00 -4.6503933469e-02 2.8038664839e+00 -4.8564392078e+00 2.8038664839e+00 4.8564392078e+00 
15400 5.6891463666e+00 -4.6719503674e-02 2.8046958070e+00 -4.8578756375e+00 2.8046958070e+00 4.8578756375e+00 
15500 5.6891240892e+00 -4.6945449053e-02 2.8055287283e+00 -4.8593182995e+00 2.8055287283e+00 4.8593182995e+00 
15600 5.6890981301e+00 -4.7177678441e-02 2.8063654294e+00 -4.8607675084e+00 2.8063654294e+00 4.8607675084e+00 
15700 5.6890686199e+00 -4.7412232854e-02 2.8072060190e+00 -4.8622234523e+00 2.8072060190e+00 4.8622234523e+00 
15800 5.6890357531e+00 -4.7645295862e-02 2.8080505351e+00 -4.8636861970e+00 2.8080505351e+00 4.8636861970e+00 
15900 5.6889997815e+00 -4.7873202871e-02 2.8088989474e+00 -4.8651556902e+00 2.8088989474e+00 4.8651556902e+00 
16000 5.6889610071e+00 -4.8092449362e-02 2.8097511607e+00 -4.8666317670e+00 2.8097511607e+00 4.8666317670e+00 
16100 5.6889197756e+00 -4.8299698111e-02 2.8106070175e+00 -4.8681141544e+00 2.8106070175e+00 4.8681141544e+00 
16200 5.6888764685e+00 -4.8491785442e-02 2.8114663009e+00 -4.8696024769e+00 2.8114663009e+00 4.8696024769e+00 
16300 5.6888314958e+00 -4.8665726551e-02 2.8123287381e+00 -4.8710962620e+00 2.8123287381e+00 4.8710962620e+00 
16400 5.6887852882e+00 -4.8818719956e-02 2.8131940036e+00 -4.8725949458e+00 2.8131940036e+00 4.8725949458e+00 
16500 5.6887382900e+00 -4.8948151101e-02 2.8140617224e+00 -4.8740978789e+00 2.8140617224e+00 4.8740978789e+00 
16600 5.6886909516e+00 -4.9051595182e-02 2.8149314737e+00 -4.8756043322e+00 2.8149314737e+00 4.8756043322e+00 
16700 5.6886437224e+00 -4.9126819226e-02 2.8158027937e+00 -4.8771135028e+00 2.8158027937e+00 4.8771135028e+00 
16800 5.6885970443e+00 -4.9171783471e-02 2.8166751800e+00 -4.8786245202e+00 2.8166751800e+00 4.8786245202e+00 
16900 5.6885513453e+00 -4.9184642100e-02 2.8175480943e+00 -4.8801364521e+00 2.8175480943e+00 4.8801364521e+00 
17000 5.6885070337e+00 -4.9163743350e-02 2.8184209664e+00 -4.8816483109e+00 2.8184209664e+00 4.8816483109e+00 
17100 5.6884644932e+00 -4.9107629064e-02 2.8192931973e+00 -4.8831590592e+00 2.8192931973e+00 4.8831590592e+00 
17200 5.6884240777e+00 -4.9015033702e-02 2.8201641631e+00 -4.8846676161e+00 2.8201641631e+00 4.8846676161e+00 
17300 5.6883861077e+00 -4.8884882851e-02 2.8210332180e+00 -4.8861728634e+00 2.8210332180e+00 4.8861728634e+00 
17400 5.6883508665e+00 -4.8716291280e-02 2.8218996981e+00 -4.8876736510e+00 2.8218996981e+00 4.8876736510e+00 
17500 5.6883185979e+00 -4.8508560548e-02 2.8227629246e+00 -4.8891688032e+00 2.8227629246e+00 4.8891688032e+00 
17600 5.6882895036e+00 -4.8261176216e-02 2.8236222072e+00 -4.8906571243e+00 2.8236222072e+00 4.8906571243e+00 
17700 5.6882637418e+00 -4.7973804671e-02 2.8244768472e+00 -4.8921374042e+00 2.8244768472e+00 4.8921374042e+00 
17800 5.6882414269e+00 -4.7646289589e-02 2.8253261409e+00 -4.8936084241e+00 2.8253261409e+00 4.8936084241e+00 
17900 5.6882226285e+00 -4.7278648068e-02 2.8261693827e+00 -4.8950689616e+00 2.8261693827e+00 4.8950689616e+00 
18000 5.6882073725e+00 -4.6871066430e-02 2.8270058679e+00 -4.8965177965e+00 2.8270058679e+00 4.8965177965e+00 
18100 5.6881956416e+00 -4.6423895720e-02 2.8278348962e+00 -4.8979537157e+00 2.8278348962e+00 4.8979537157e+00 
18200 5.6881873769e+00 -4.5937646913e-02 2.8286557741e+00 -4.8993755178e+00 2.8286557741e+00 4.8993755178e+00 
18300 5.6881824804e+00 -4.5412985842e-02 2.8294678178e+00 -4.9007820188e+00 2.8294678178e+00 4.9007820188e+00 
18400 5.6881808166e+00 -4.4850727850e-02 2.8302703562e+00 -4.9021720561e+00 2.8302703562e+00 4.9021720561e+00 
18500 5.6881822161e+00 -4.4251832185e-02 2.8310627332e+00 -4.9035444933e+00 2.8310627332e+00 4.9035444933e+00 
18600 5.6881864783e+00 -4.3617396134e-02 2.8318443101e+00 -4.9048982242e+00 2.8318443101e+00 4.9048982242e+00 
18700 5.6881933755e+00 -4.2948648920e-02 2.8326144685e+00 -4.9062321777e+00 2.8326144685e+00 4.9062321777e+00 
18800 5.6882026560e+00 -4.2246945344e-02 2.8333726120e+00 -4.9075453207e+00 2.8333726120e+00 4.9075453207e+00 
18900 5.6882140485e+00 -4.1513759200e-02 2.8341181687e+00 -4.9088366628e+00 2.8341181687e+00 4.9088366628e+00 
19000 5.6882272659e+00 -4.0750676462e-02 2.8348505931e+00 -4.9101052591e+00 2.8348505931e+00 4.9101052591e+00 
19100 5.6882420098e+00 -3.9959388240e-02 2.8355693681e+00 -4.9113502140e+00 2.8355693681e+00 4.9113502140e+00 
19200 5.6882579743e+00 -3.9141683528e-02 2.8362740069e+00 -4.9125706842e+00 2.8362740069e+00 4.9125706842e+00 
19300 5.6882748503e+00 -3.8299441739e-02 2.8369640543e+00 -4.9137658813e+00 2.8369640543e+00 4.9137658813e+00 
19400 5.6882923298e+00 -3.7434625043e-02 2.8376390886e+00 -4.9149350750e+00 2.8376390886e+00 4.9149350750e+00 
19500 5.6883101092e+00 -3.6549270517e-02 2.8382987228e+00 -4.9160775949e+00 2.8382987228e+00 4.9160775949e+00 
19600 5.6883278938e+00 -3.5645482113e-02 2.8389426059e+00 -4.9171928332e+00 2.8389426059e+00 4.9171928332e+00 
19700 5.6883454008e+00 -3.4725422464e-02 2.8395704241e+00 -4.9182802462e+00 2.8395704241e+00 4.9182802462e+00 
19800 5.6883623624e+00 -3.3791304549e-02 2.8401819016e+00 -4.9193393563e+00 2.8401819016e+00 4.9193393563e+00 
19900 5.6883785296e+00 -3.2845383213e-02 2.8407768016e+00 -4.9203697533e+00 2.8407768016e+00 4.9203697533e+00 
20000 5.6883936739e+00 -3.1889946587e-02 2.8413549268e+00 -4.9213710956e+00 2.8413549268e+00 4.9213710956e+00 
20100 5.6884075899e+00 -3.0927307408e-02 2.8419161203e+00 -4.9223431112e+00 2.8419161203e+00 4.9223431112e+00 
20200 5.6884200974e+00 -2.9959794281e-02 2.8424602654e+00 -4.9232855981e+00 2.8424602654e+00 4.9232855981e+00 
20300 5.6884310426e+00 -2.8989742890e-02 2.8429872863e+00 -4.9241984251e+00 2.8429872863e+00 4.9241984251e+00 
20400 5.6884402996e+00 -2.8019487202e-02 2.8434971480e+00 -4.9250815316e+00 2.8434971480e+00 4.9250815316e+00 
20500 5.6884477703e+00 -2.7051350679e-02 2.8439898564e+00 -4.9259349275e+00 2.8439898564e+00 4.9259349275e+00 
20600 5.6884533859e+00 -2.6087637548e-02 2.8444654577e+00 -4.9267586931e+00 2.8444654577e+00 4.9267586931e+00 
20700 5.6884571057e+00 -2.5130624135e-02 2.8449240384e+00 -4.9275529781e+00 2.8449240384e+00 4.9275529781e+00 
20800 5.6884589171e+00 -2.4182550326e-02 2.8453657246e+00 -4.9283180011e+00 2.8453657246e+00 4.9283180011e+00 
20900 5.6884588350e+00 -2.3245611171e-02 2.8457906814e+00 -4.9290540479e+00 2.8457906814e+00 4.9290540479e+00 
21000 5.6884569001e+00 -2.2321948669e-02 2.8461991121e+00 -4.9297614707e+00 2.8461991121e+00 4.9297614707e+00 
21100 5.6884531777e+00 -2.1413643785e-02 2.8465912572e+00 -4.9304406859e+00 2.8465912572e+00 4.9304406859e+00 
21200 5.6884477559e+00 -2.0522708714e-02 2.8469673934e+00 -4.9310921728e+00 2.8469673934e+00 4.9310921728e+00 
21300 5.6884407435e+00 -1.9651079451e-02 2.8473278320e+00 -4.9317164708e+00 2.8473278320e+00 4.9317164708e+00 
21400 5.6884322676e+00 -1.8800608683e-02 2.8476729183e+00 -4.9323141778e+00 2.8476729183e+00 4.9323141778e+00 
21500 5.6884224715e+00 -1.7973059059e-02 2.8480030295e+00 -4.9328859471e+00 2.8480030295e+00 4.9328859471e+00 
21600 5.6884115119e+00 -1.7170096848e-02 2.8483185732e+00 -4.9334324849e+00 2.8483185732e+00 4.9334324849e+00 
21700 5.6883995559e+00 -1.6393286048e-02 2.8486199861e+00 -4.9339545474e+00 2.8486199861e+00 4.9339545474e+00 
21800 5.6883867789e+00 -1.5644082942e-02 2.8489077318e+00 -4.9344529375e+00 2.8489077318e+00 4.9344529375e+00 
21900 5.6883733614e+00 -1.4923831165e-02 2.8491822990e+00 -4.9349285019e+00 2.8491822990e+00 4.9349285019e+00 
22000 5.6883594864e+00 -1.4233757277e-02 2.8494441998e+00 -4.9353821274e+00 2.8494441998e+00 4.9353821274e+00 
22100 5.6883453367e+00 -1.3574966886e-02 2.8496939672e+00 -4.9358147372e+00 2.8496939672e+00 4.9358147372e+00 
22200 5.6883310921e+00 -1.2948441333e-02 2.8499321534e+00 -4.9362272878e+00 2.8499321534e+00 4.9362272878e+00 
22300 5.6883169275e+00 -1.2355034954e-02 2.8501593274e+00 -4.9366207648e+00 2.8501593274e+00 4.9366207648e+00 
22400 5.6883030101e+00 -1.1795472937e-02 2.8503760731e+00 -4.9369961792e+00 2.8503760731e+00 4.9369961792e+00 
22500 5.6882894976e+00 -1.1270349776e-02 2.8505829864e+00 -4.9373545636e+00 2.8505829864e+00 4.9373545636e+00 
22600 5.6882765363e+00 -1.0780128340e-02 2.8507806737e+00 -4.9376969680e+00 2.8507806737e+00 4.9376969680e+00 
22700 5.6882642594e+00 -1.0325139540e-02 2.8509697490e+00 -4.9380244562e+00 2.8509697490e+00 4.9380244562e+00 
22800 5.6882527855e+00 -9.9055826136e-03 2.8511508321e+00 -4.9383381013e+00 2.8511508321e+00 4.9383381013e+00 
22900 5.6882422181e+00 -9.5215260012e-03 2.8513245459e+00 -4.9386389824e+00 2.8513245459e+00 4.9386389824e+00 
23000 5.6882326439e+00 -9.1729088148e-03 2.8514915143e+00 -4.9389281800e+00 2.8514915143e+00 4.9389281800e+00 
23100 5.6882241331e+00 -8.8595428832e-03 2.8516523598e+00 -4.9392067727e+00 2.8516523598e+00 4.9392067727e+00 
23200 5.6882167383e+00 -8.5811153551e-03 2.8518077017e+00 -4.9394758328e+00 2.8518077017e+00 4.9394758328e+00 
23300 5.6882104953e+00 -8.3371918398e-03 2.8519581535e+00 -4.9397364230e+00 2.8519581535e+00 4.9397364230e+00 
23400 5.6882054227e+00 -8.1272200617e-03 2.8521043209e+00 -4.9399895922e+00 2.8521043209e+00 4.9399895922e+00 
23500 5.6882015229e+00 -7.9505340000e-03 2.8522467997e+00 -4.9402363727e+00 2.8522467997e+00 4.9402363727e+00 
23600 5.6881987823e+00 -7.8063584871e-03 2.8523861740e+00 -4.9404777761e+00 2.8523861740e+00 4.9404777761e+00 
23700 5.6881971727e+00 -7.6938142293e-03 2.8525230142e+00 -4.9407147903e+00 2.8525230142e+00 4.9407147903e+00 
23800 5.6881966520e+00 -7.6119232195e-03 2.8526578750e+00 -4.9409483762e+00 2.8526578750e+00 4.9409483762e+00 
23900 5.6881971658e+00 -7.5596145035e-03 2.8527912942e+00 -4.9411794649e+00 2.8527912942e+00 4.9411794649e+00 
24000 5.6881986486e+00 -7.5357302634e-03 2.8529237902e+00 -4.9414089548e+00 2.8529237902e+00 4.9414089548e+00 
24100 5.6882010253e+00 -7.5390321789e-03 2.8530558616e+00 -4.9416377090e+00 2.8530558616e+00 4.9416377090e+00 
24200 5.6882042128e+00 -7.5682080292e-03 2.8531879846e+00 -4.9418665529e+00 2.8531879846e+00 4.9418665529e+00 
24300 5.6882081217e+00 -7.6218784926e-03 2.8533206129e+00 -4.9420962718e+00 2.8533206129e+00 4.9420962718e+00 
24400 5.6882126577e+00 -7.6986041076e-03 2.8534541755e+00 -4.9423276090e+00 2.8534541755e+00 4.9423276090e+00 
24500 5.6882177236e+00 -7.7968923526e-03 2.8535890763e+00 -4.9425612640e+00 2.8535890763e+00 4.9425612640e+00 
24600 5.6882232205e+00 -7.9152048078e-03 2.8537256929e+00 -4.9427978910e+00 2.8537256929e+00 4.9427978910e+00 
24700 5.6882290496e+00 -8.0519643596e-03 2.8538643760e+00 -4.9430380971e+00 2.8538643760e+00 4.9430380971e+00 
24800 5.6882351136e+00 -8.2055624096e-03 2.8540054484e+00 -4.9432824417e+00 2.8540054484e+00 4.9432824417e+00 
24900 5.6882413181e+00 -8.3743660544e-03 2.8541492048e+00 -4.9435314351e+00 2.8541492048e+00 4.9435314351e+00 
25000 5.6882475727e+00 -8.5567251990e-03 2.8542959112e+00 -4.9437855380e+00 2.8542959112e+00 4.9437855380e+00 
25100 5.6882537926e+00 -8.7509795728e-03 2.8544458045e+00 -4.9440451609e+00 2.8544458045e+00 4.9440451609e+00 
25200 5.6882598987e+00 -8.9554656163e-03 2.8545990927e+00 -4.9443106639e+00 2.8545990927e+00 4.9443106639e+00 
25300 5.6882658196e+00 -9.1685232090e-03 2.8547559545e+00 -4.9445823564e+00 2.8547559545e+00 4.9445823564e+00 
25400 5.6882714911e+00 -9.3885022121e-03 2.8549165393e+00 -4.9448604974e+00 2.8549165393e+00 4.9448604974e+00 
25500 5.6882768578e+00 -9.6137688006e-03 2.8550809678e+00 -4.9451452959e+00 2.8550809678e+00 4.9451452959e+00 
25600 5.6882818727e+00 -9.8427115620e-03 2.8552493319e+00 -4.9454369111e+00 2.8552493319e+00 4.9454369111e+00 
25700 5.6882864978e+00 -1.0073747341e-02 2.8554216953e+00 -4.9457354533e+00 2.8554216953e+00 4.9457354533e+00 
25800 5.6882907043e+00 -1.0305326812e-02 2.8555980940e+00 -4.9460409848e+00 2.8555980940e+00 4.9460409848e+00 
25900 5.6882944718e+00 -1.0535939762e-02 2.8557785366e+00 -4.9463535206e+00 2.8557785366e+00 4.9463535206e+00 
26000 5.6882977892e+00 -1.0764120073e-02 2.8559630057e+00 -4.9466730303e+00 2.8559630057e+00 4.9466730303e+00 
26100 5.6883006534e+00 -1.0988450390e-02 2.8561514577e+00 -4.9469994388e+00 2.8561514577e+00 4.9469994388e+00 
26200 5.6883030694e+00 -1.1207566461e-02 2.8563438244e+00 -4.9473326278e+00 2.8563438244e+00 4.9473326278e+00 
26300 5.6883050494e+00 -1.1420161153e-02 2.8565400140e+00 -4.9476724381e+00 2.8565400140e+00 4.9476724381e+00 
26400 5.6883066125e+00 -1.1624988122e-02 2.8567399113e+00 -4.9480186704e+00 2.8567399113e+00 4.9480186704e+00 
26500 5.6883077839e+00 -1.1820865148e-02 2.8569433797e+00 -4.9483710880e+00 2.8569433797e+00 4.9483710880e+00 
26600 5.6883085938e+00 -1.2006677124e-02 2.8571502618e+00 -4.9487294183e+00 2.8571502618e+00 4.9487294183e+00 
26700 5.6883090772e+00 -1.2181378702e-02 2.8573603807e+00 -4.9490933548e+00 2.8573603807e+00 4.9490933548e+00 
26800 5.6883092725e+00 -1.2343996595e-02 2.8575735412e+00 -4.9494625597e+00 2.8575735412e+00 4.9494625597e+00 
26900 5.6883092210e+00 -1.2493631540e-02 2.8577895313e+00 -4.9498366656e+00 2.8577895313e+00 4.9498366656e+00 
27000 5.6883089660e+00 -1.2629459922e-02 2.8580081232e+00 -4.9502152778e+00 2.8580081232e+00 4.9502152778e+00 
27100 5.6883085516e+00 -1.2750735068e-02 2.8582290747e+00 -4.9505979770e+00 2.8582290747e+00 4.9505979770e+00 
27200 5.6883080227e+00 -1.2856788217e-02 2.8584521306e+00 -4.9509843213e+00 2.8584521306e+00 4.9509843213e+00 
27300 5.6883074232e+00 -1.2947029167e-02 2.8586770243e+00 -4.9513738485e+00 2.8586770243e+00 4.9513738485e+00 
27400 5.6883067963e+00 -1.3020946611e-02 2.8589034787e+00 -4.9517660791e+00 2.8589034787e+00 4.9517660791e+00 
27500 5.6883061829e+00 -1.3078108181e-02 2.8591312080e+00 -4.9521605177e+00 2.8591312080e+00 4.9521605177e+00 
27600 5.6883056218e+00 -1.3118160181e-02 2.8593599188e+00 -4.9525566564e+00 2.8593599188e+00 4.9525566564e+00 
27700 5.6883051486e+00 -1.3140827058e-02 2.8595893116e+00 -4.9529539765e+00 2.8595893116e+00 4.9529539765e+00 
27800 5.6883047956e+00 -1.3145910583e-02 2.8598190824e+00 -4.9533519512e+00 2.8598190824e+00 4.9533519512e+00 
27900 5.6883045911e+00 -1.3133288780e-02 2.8600489237e+00 -4.9537500479e+00 2.8600489237e+00 4.9537500479e+00 
28000 5.6883045594e+00 -1.3102914605e-02 2.8602785258e+00 -4.9541477304e+00 2.8602785258e+00 4.9541477304e+00 
28100 5.6883047204e+00 -1.3054814384e-02 2.8605075784e+00 -4.9545444613e+00 2.8605075784e+00 4.9545444613e+00 
28200 5.6883050896e+00 -1.2989086025e-02 2.8607357720e+00 -4.9549397041e+00 2.8607357720e+00 4.9549397041e+00 
28300 5.6883056779e+00 -1.2905897019e-02 2.8609627985e+00 -4.9553329256e+00 2.8609627985e+00 4.9553329256e+00 
28400 5.6883064917e+00 -1.2805482232e-02 2.8611883531e+00 -4.9557235976e+00 2.8611883531e+00 4.9557235976e+00 
28500 5.6883075329e+00 -1.2688141521e-02 2.8614121351e+00 -4.9561111994e+00 2.8614121351e+00 4.9561111994e+00 
28600 5.6883087991e+00 -1.2554237160e-02 2.8616338492e+00 -4.9564952194e+00 2.8616338492e+00 4.9564952194e+00 
28700 5.6883102841e+00 -1.2404191109e-02 2.8618532063e+00 -4.9568751572e+00 2.8618532063e+00 4.9568751572e+00 
28800 5.6883119774e+00 -1.2238482134e-02 2.8620699251e+00 -4.9572505251e+00 2.8620699251e+00 4.9572505251e+00 
28900 5.6883138656e+00 -1.2057642785e-02 2.8622837325e+00 -4.9576208504e+00 2.8622837325e+00 4.9576208504e+00 
29000 5.6883159318e+00 -1.1862256252e-02 2.8624943649e+00 -4.9579856763e+00 2.8624943649e+00 4.9579856763e+00 
29100 5.6883181565e+00 -1.1652953108e-02 2.8627015688e+00 -4.9583445640e+00 2.8627015688e+00 4.9583445640e+00 
29200 5.6883205180e+00 -1.1430407953e-02 2.8629051019e+00 -4.9586970937e+00 2.8629051019e+00 4.9586970937e+00 
29300 5.6883229925e+00 -1.1195335976e-02 2.8631047337e+00 -4.9590428662e+00 2.8631047337e+00 4.9590428662e+00 
29400 5.6883255551e+00 -1.0948489434e-02 2.8633002464e+00 -4.9593815040e+00 2.8633002464e+00 4.9593815040e+00 
29500 5.6883281797e+00 -1.0690654087e-02 2.8634914350e+00 -4.9597126525e+00 2.8634914350e+00 4.9597126525e+00 
29600 5.6883308399e+00 -1.0422645569e-02 2.8636781087e+00 -4.9600359808e+00 2.8636781087e+00 4.9600359808e+00 
29700 5.6883335091e+00 -1.0145305735e-02 2.8638600907e+00 -4.9603511829e+00 2.8638600907e+00 4.9603511829e+00 
29800 5.6883361612e+00 -9.8594989886e-03 2.8640372189e+00 -4.9606579780e+00 2.8640372189e+00 4.9606579780e+00 
29900 5.6883387708e+00 -9.5661085892e-03 2.8642093466e+00 -4.9609561118e+00 2.8642093466e+00 4.9609561118e+00 
30000 5.6883413138e+00 -9.2660329741e-03 2.8643763421e+00 -4.9612453565e+00 2.8643763421e+00 4.9612453565e+00 
30100 5.6883437672e+00 -8.9601820910e-03 2.8645380897e+00 -4.9615255115e+00 2.8645380897e+00 4.9615255115e+00 
30200 5.6883461104e+00 -8.6494737594e-03 2.8646944895e+00 -4.9617964039e+00 2.8646944895e+00 4.9617964039e+00 
30300 5.6883483243e+00 -8.3348300727e-03 2.8648454576e+00 -4.9620578883e+00 2.8648454576e+00 4.9620578883e+00 
30400 5.6883503925e+00 -8.0171738514e-03 2.8649909262e+00 -4.9623098473e+00 2.8649909262e+00 4.9623098473e+00 
30500 5.6883523009e+00 -7.6974251598e-03 2.8651308435e+00 -4.9625521913e+00 2.8651308435e+00 4.9625521913e+00 
30600 5.6883540381e+00 -7.3764978974e-03 2.8652651739e+00 -4.9627848584e+00 2.8652651739e+00 4.9627848584e+00 
30700 5.6883555953e+00 -7.0552964745e-03 2.8653938977e+00 -4.9630078145e+00 2.8653938977e+00 4.9630078145e+00 
30800 5.6883569665e+00 -6.7347125847e-03 2.8655170107e+00 -4.9632210525e+00 2.8655170107e+00 4.9632210525e+00 
30900 5.6883581485e+00 -6.4156220824e-03 2.8656345246e+00 -4.9634245925e+00 2.8656345246e+00 4.9634245925e+00 
31000 5.6883591408e+00 -6.0988819761e-03 2.8657464660e+00 -4.9636184807e+00 2.8657464660e+00 4.9636184807e+00 
31100 5.6883599456e+00 -5.7853275457e-03 2.8658528767e+00 -4.9638027894e+00 2.8658528767e+00 4.9638027894e+00 
31200 5.6883605676e+00 -5.4757695938e-03 2.8659538128e+00 -4.9639776159e+00 2.8659538128e+00 4.9639776159e+00 
31300 5.6883610138e+00 -5.1709918376e-03 2.8660493447e+00 -4.9641430820e+00 2.8660493447e+00 4.9641430820e+00 
31400 5.6883612934e+00 -4.8717484497e-03 2.8661395563e+00 -4.9642993331e+00 2.8661395563e+00 4.9642993331e+00 
31500 5.6883614178e+00 -4.5787617554e-03 2.8662245447e+00 -4.9644465373e+00 2.8662245447e+00 4.9644465373e+00 
31600 5.6883613999e+00 -4.2927200905e-03 2.8663044195e+00 -4.9645848845e+00 2.8663044195e+00 4.9645848845e+00 
31700 5.6883612543e+00 -4.0142758282e-03 2.8663793023e+00 -4.9647145854e+00 2.8663793023e+00 4.9647145854e+00 
31800 5.6883609968e+00 -3.7440435772e-03 2.8664493261e+00 -4.9648358701e+00 2.8664493261e+00 4.9648358701e+00 
31900 5.6883606441e+00 -3.4825985575e-03 2.8665146344e+00 -4.9649489873e+00 2.8665146344e+00 4.9649489873e+00 
32000 5.6883602137e+00 -3.2304751548e-03 2.8665753808e+00 -4.9650542032e+00 2.8665753808e+00 4.9650542032e+00 
32100 5.6883597235e+00 -2.9881656591e-03 2.8666317283e+00 -4.9651517999e+00 2.8666317283e+00 4.9651517999e+00 
32200 5.6883591916e+00 -2.7561191871e-03 2.8666838482e+00 -4.9652420744e+00 2.8666838482e+00 4.9652420744e+00 
32300 5.6883586360e+00 -2.5347407901e-03 2.8667319199e+00 -4.9653253370e+00 2.8667319199e+00 4.9653253370e+00 
32400 5.6883580743e+00 -2.3243907487e-03 2.8667761296e+00 -4.9654019104e+00 2.8667761296e+00 4.9654019104e+00 
32500 5.6883575233e+00 -2.1253840528e-03 2.8668166699e+00 -4.9654721282e+00 2.8668166699e+00 4.9654721282e+00 
32600 5.6883569994e+00 -1.9379900658e-03 2.8668537387e+00 -4.9655363332e+00 2.8668537387e+00 4.9655363332e+00 
32700 5.6883565177e+00 -1.7624323723e-03 2.8668875387e+00 -4.9655948766e+00 2.8668875387e+00 4.9655948766e+00 
32800 5.6883560921e+00 -1.5988888044e-03 2.8669182765e+00 -4.9656481160e+00 2.8669182765e+00 4.9656481160e+00 
32900 5.6883557352e+00 -1.4474916461e-03 2.8669461616e+00 -4.9656964145e+00 2.8669461616e+00 4.9656964145e+00 
33000 5.6883554581e+00 -1.3083280087e-03 2.8669714062e+00 -4.9657401393e+00 2.8669714062e+00 4.9657401393e+00 
33100 5.6883552702e+00 -1.1814403747e-03 2.8669942235e+00 -4.9657796600e+00 2.8669942235e+00 4.9657796600e+00 
33200 5.6883551794e+00 -1.0668273043e-03 2.8670148276e+00 -4.9658153475e+00 2.8670148276e+00 4.9658153475e+00 
33300 5.6883551918e+00 -9.6444429722e-04 2.8670334329e+00 -4.9658475727e+00 2.8670334329e+00 4.9658475727e+00 
33400 5.6883553118e+00 -8.7420480550e-04 2.8670502524e+00 -4.9658767050e+00 2.8670502524e+00 4.9658767050e+00 
33500 5.6883555419e+00 -7.9598138835e-04 2.8670654982e+00 -4.9659031114e+00 2.8670654982e+00 4.9659031114e+00 
33600 5.6883558832e+00 -7.2960700243e-04 2.8670793796e+00 -4.9659271549e+00 2.8670793796e+00 4.9659271549e+00 
33700 5.6883563347e+00 -6.7487641946e-04 2.8670921035e+00 -4.9659491933e+00 2.8670921035e+00 4.9659491933e+00 
33800 5.6883568943e+00 -6.3154776264e-04 2.8671038729e+00 -4.9659695784e+00 2.8671038729e+00 4.9659695784e+00 
33900 5.6883575581e+00 -5.9934415340e-04 2.8671148866e+00 -4.9659886547e+00 2.8671148866e+00 4.9659886547e+00 
34000 5.6883583209e+00 -5.7795545928e-04 2.8671253386e+00 -4.9660067582e+00 2.8671253386e+00 4.9660067582e+00 
34100 5.6883591763e+00 -5.6704013397e-04 2.8671354176e+00 -4.9660242155e+00 2.8671354176e+00 4.9660242155e+00 
34200 5.6883601168e+00 -5.6622713984e-04 2.8671453063e+00 -4.9660413431e+00 2.8671453063e+00 4.9660413431e+00 
34300 5.6883611338e+00 -5.7511794373e-04 2.8671551807e+00 -4.9660584461e+00 2.8671551807e+00 4.9660584461e+00 
34400 5.6883622182e+00 -5.9328857612e-04 2.8671652101e+00 -4.9660758176e+00 2.8671652101e+00 4.9660758176e+00 
34500 5.6883633599e+00 -6.2029174411e-04 2.8671755564e+00 -4.9660937378e+00 2.8671755564e+00 4.9660937378e+00 
34600 5.6883645486e+00 -6.5565898856e-04 2.8671863735e+00 -4.9661124736e+00 2.8671863735e+00 4.9661124736e+00 
34700 5.6883657736e+00 -6.9890287580e-04 2.8671978073e+00 -4.9661322776e+00 2.8671978073e+00 4.9661322776e+00 
34800 5.6883670242e+00 -7.4951921433e-04 2.8672099952e+00 -4.9661533877e+00 2.8672099952e+00 4.9661533877e+00 
34900 5.6883682896e+00 -8.0698928719e-04 2.8672230658e+00 -4.9661760266e+00 2.8672230658e+00 4.9661760266e+00 
35000 5.6883695591e+00 -8.7078209081e-04 2.8672371385e+00 -4.9662004012e+00 2.8672371385e+00 4.9662004012e+00 
35100 5.6883708224e+00 -9.4035657133e-04 2.8672523235e+00 -4.9662267024e+00 2.8672523235e+00 4.9662267024e+00 
35200 5.6883720699e+00 -1.0151638496e-03 2.8672687217e+00 -4.9662551050e+00 2.8672687217e+00 4.9662551050e+00 
35300 5.6883732921e+00 -1.0946494267e-03 2.8672864244e+00 -4.9662857669e+00 2.8672864244e+00 4.9662857669e+00 
35400 5.6883744805e+00 -1.1782553612e-03 2.8673055130e+00 -4.9663188294e+00 2.8673055130e+00 4.9663188294e+00 
35500 5.6883756273e+00 -1.2654224111e-03 2.8673260594e+00 -4.9663544168e+00 2.8673260594e+00 4.9663544168e+00 
35600 5.6883767256e+00 -1.3555921327e-03 2.8673481257e+00 -4.9663926367e+00 2.8673481257e+00 4.9663926367e+00 
35700 5.6883777692e+00 -1.4482089290e-03 2.8673717642e+00 -4.9664335797e+00 2.8673717642e+00 4.9664335797e+00 
35800 5.6883787532e+00 -1.5427220415e-03 2.8673970174e+00 -4.9664773197e+00 2.8673970174e+00 4.9664773197e+00 
35900 5.6883796734e+00 -1.6385874785e-03 2.8674239186e+00 -4.9665239138e+00 2.8674239186e+00 4.9665239138e+00 
36000 5.6883805267e+00 -1.7352698755e-03 2.8674524911e+00 -4.9665734028e+00 2.8674524911e+00 4.9665734028e+00 
36100 5.6883813110e+00 -1.8322442796e-03 2.8674827492e+00 -4.9666258114e+00 2.8674827492e+00 4.9666258114e+00 
36200 5.6883820252e+00 -1.9289978563e-03 2.8675146979e+00 -4.9666811482e+00 2.8675146979e+00 4.9666811482e+00 
36300 5.6883826692e+00 -2.0250315113e-03 2.8675483333e+00 -4.9667394065e+00 2.8675483333e+00 4.9667394065e+00 
36400 5.6883832436e+00 -2.1198614251e-03 2.8675836428e+00 -4.9668005644e+00 2.8675836428e+00 4.9668005644e+00 
36500 5.6883837501e+00 -2.2130204957e-03 2.8676206054e+00 -4.9668645854e+00 2.8676206054e+00 4.9668645854e+00 
36600 5.6883841912e+00 -2.3040596870e-03 2.8676591919e+00 -4.9669314191e+00 2.8676591919e+00 4.9669314191e+00 
36700 5.6883845700e+00 -2.3925492797e-03 2.8676993651e+00 -4.9670010013e+00 2.8676993651e+00 4.9670010013e+00 
36800 5.6883848902e+00 -2.4780800225e-03 2.8677410807e+00 -4.9670732548e+00 2.8677410807e+00 4.9670732548e+00 
36900 5.6883851562e+00 -2.5602641819e-03 2.8677842870e+00 -4.9671480902e+00 2.8677842870e+00 4.9671480902e+00 
37000 5.6883853730e+00 -2.6387364891e-03 2.8678289255e+00 -4.9672254063e+00 2.8678289255e+00 4.9672254063e+00 
37100 5.6883855456e+00 -2.7131549829e-03 2.8678749314e+00 -4.9673050909e+00 2.8678749314e+00 4.9673050909e+00 
37200 5.6883856797e+00 -2.7832017480e-03 2.8679222341e+00 -4.9673870215e+00 2.8679222341e+00 4.9673870215e+00 
37300 5.6883857808e+00 -2.8485835490e-03 2.8679707572e+00 -4.9674710660e+00 2.8679707572e+00 4.9674710660e+00 
37400 5.6883858549e+00 -2.9090323591e-03 2.8680204193e+00 -4.9675570834e+00 2.8680204193e+00 4.9675570834e+00 
37500 5.6883859078e+00 -2.9643057854e-03 2.8680711344e+00 -4.9676449246e+00 2.8680711344e+00 4.9676449246e+00 
37600 5.6883859452e+00 -3.0141873907e-03 2.8681228123e+00 -4.9677344332e+00 2.8681228123e+00 4.9677344332e+00 
37700 5.6883859728e+00 -3.0584869137e-03 2.8681753588e+00 -4.9678254464e+00 2.8681753588e+00 4.9678254464e+00 
37800 5.6883859960e+00 -3.0970403881e-03 2.8682286766e+00 -4.9679177956e+00 2.8682286766e+00 4.9679177956e+00 
37900 5.6883860197e+00 -3.1297101641e-03 2.8682826655e+00 -4.9680113071e+00 2.8682826655e+00 4.9680113071e+00 
38000 5.6883860489e+00 -3.1563848330e-03 2.8683372229e+00 -4.9681058033e+00 2.8683372229e+00 4.9681058033e+00 
38100 5.6883860878e+00 -3.1769790577e-03 2.8683922442e+00 -4.9682011030e+00 2.8683922442e+00 4.9682011030e+00 
38200 5.6883861404e+00 -3.1914333126e-03 2.8684476235e+00 -4.9682970227e+00 2.8684476235e+00 4.9682970227e+00 
38300 5.6883862100e+00 -3.1997135346e-03 2.8685032536e+00 -4.9683933770e+00 2.8685032536e+00 4.9683933770e+00 
38400 5.6883862995e+00 -3.2018106892e-03 2.8685590270e+00 -4.9684899794e+00 2.8685590270e+00 4.9684899794e+00 
38500 5.6883864114e+00 -3.1977402550e-03 2.8686148359e+00 -4.9685866432e+00 2.8686148359e+00 4.9685866432e+00 
38600 5.6883865475e+00 -3.1875416298e-03 2.8686705728e+00 -4.9686831822e+00 2.8686705728e+00 4.9686831822e+00 
38700 5.6883867091e+00 -3.1712774626e-03 2.8687261308e+00 -4.9687794115e+00 2.8687261308e+00 4.9687794115e+00 
38800 5.6883868969e+00 -3.1490329151e-03 2.8687814042e+00 -4.9688751479e+00 2.8687814042e+00 4.9688751479e+00 
38900 5.6883871112e+00 -3.1209148568e-03 2.8688362889e+00 -4.9689702110e+00 2.8688362889e+00 4.9689702110e+00 
39000 5.6883873518e+00 -3.0870509981e-03 2.8688906825e+00 -4.9690644234e+00 2.8688906825e+00 4.9690644234e+00 
39100 5.6883876180e+00 -3.0475889661e-03 2.8689444848e+00 -4.9691576118e+00 2.8689444848e+00 4.9691576118e+00 
39200 5.6883879086e+00 -3.0026953265e-03 2.8689975984e+00 -4.9692496072e+00 2.8689975984e+00 4.9692496072e+00 
39300 5.6883882221e+00 -2.9525545572e-03 2.8690499286e+00 -4.9693402458e+00 2.8690499286e+00 4.9693402458e+00 
39400 5.6883885566e+00 -2.8973679782e-03 2.8691013840e+00 -4.9694293692e+00 2.8691013840e+00 4.9694293692e+00 
39500 5.6883889099e+00 -2.8373526418e-03 2.8691518768e+00 -4.9695168252e+00 2.8691518768e+00 4.9695168252e+00 
39600 5.6883892797e+00 -2.7727401883e-03 2.8692013227e+00 -4.9696024681e+00 2.8692013227e+00 4.9696024681e+00 
39700 5.6883896632e+00 -2.7037756722e-03 2.8692496419e+00 -4.9696861594e+00 2.8692496419e+00 4.9696861594e+00 
39800 5.6883900577e+00 -2.6307163632e-03 2.8692967585e+00 -4.9697677676e+00 2.8692967585e+00 4.9697677676e+00 
39900 5.6883904603e+00 -2.5538305273e-03 2.8693426011e+00 -4.9698471694e+00 2.8693426011e+00 4.9698471694e+00 
40000 5.6883908679e+00 -2.4733961924e-03 2.8693871032e+00 -4.9699242494e+00 2.8693871032e+00 4.9699242494e+00 
40100 5.6883912776e+00 -2.3896999033e-03 2.8694302031e+00 -4.9699989005e+00 2.8694302031e+00 4.9699989005e+00 
40200 5.6883916866e+00 -2.3030354712e-03 2.8694718438e+00 -4.9700710244e+00 2.8694718438e+00 4.9700710244e+00 
40300 5.6883920919e+00 -2.2137027212e-03 2.8695119739e+00 -4.9701405317e+00 2.8695119739e+00 4.9701405317e+00 
40400 5.6883924909e+00 -2.1220062441e-03 2.8695505468e+00 -4.9702073419e+00 2.8695505468e+00 4.9702073419e+00 
40500 5.6883928810e+00 -2.0282541553e-03 2.8695875214e+00 -4.9702713838e+00 2.8695875214e+00 4.9702713838e+00 
40600 5.6883932598e+00 -1.9327568666e-03 2.8696228620e+00 -4.9703325955e+00 2.8696228620e+00 4.9703325955e+00 
40700 5.6883936253e+00 -1.8358258741e-03 2.8696565382e+00 -4.9703909244e+00 2.8696565382e+00 4.9703909244e+00 
40800 5.6883939755e+00 -1.7377725671e-03 2.8696885251e+00 -4.9704463274e+00 2.8696885251e+00 4.9704463274e+00 
40900 5.6883943088e+00 -1.6389070614e-03 2.8697188032e+00 -4.9704987707e+00 2.8697188032e+00 4.9704987707e+00 
41000 5.6883946239e+00 -1.5395370613e-03 2.8697473585e+00 -4.9705482298e+00 2.8697473585e+00 4.9705482298e+00 
41100 5.6883949198e+00 -1.4399667540e-03 2.8697741821e+00 -4.9705946896e+00 2.8697741821e+00 4.9705946896e+00 
41200 5.6883951956e+00 -1.3404957394e-03 2.8697992706e+00 -4.9706381442e+00 2.8697992706e+00 4.9706381442e+00 
41300 5.6883954509e+00 -1.2414179995e-03 2.8698226259e+00 -4.9706785967e+00 2.8698226259e+00 4.9706785967e+00 
41400 5.6883956856e+00 -1.1430209089e-03 2.8698442547e+00 -4.9707160590e+00 2.8698442547e+00 4.9707160590e+00 
41500 5.6883958997e+00 -1.0455842918e-03 2.8698641691e+00 -4.9707505517e+00 2.8698641691e+00 4.9707505517e+00 
41600 5.6883960937e+00 -9.4937952549e-04 2.8698823857e+00 -4.9707821038e+00 2.8698823857e+00 4.9707821038e+00 
41700 5.6883962681e+00 -8.5466869485e-04 2.8698989261e+00 -4.9708107526e+00 2.8698989261e+00 4.9708107526e+00 
41800 5.6883964238e+00 -7.6170379878e-04 2.8699138164e+00 -4.9708365433e+00 2.8699138164e+00 4.9708365433e+00 
41900 5.6883965619e+00 -6.7072601139e-04 2.8699270869e+00 -4.9708595285e+00 2.8699270869e+00 4.9708595285e+00 
42000 5.6883966835e+00 -5.8196499913e-04 2.8699387723e+00 -4.9708797682e+00 2.8699387723e+00 4.9708797682e+00 
42100 5.6883967902e+00 -4.9563829569e-04 2.8699489113e+00 -4.9708973295e+00 2.8699489113e+00 4.9708973295e+00 
42200 5.6883968834e+00 -4.1195073576e-04 2.8699575463e+00 -4.9709122857e+00 2.8699575463e+00 4.9709122857e+00 
42300 5.6883969647e+00 -3.3109394866e-04 2.8699647232e+00 -4.9709247165e+00 2.8699647232e+00 4.9709247165e+00 
42400 5.6883970360e+00 -2.5324591262e-04 2.8699704915e+00 -4.9709347075e+00 2.8699704915e+00 4.9709347075e+00 
42500 5.6883970989e+00 -1.7857057018e-04 2.8699749035e+00 -4.9709423493e+00 2.8699749035e+00 4.9709423493e+00 
42600 5.6883971551e+00 -1.0721750498e-04 2.8699780145e+00 -4.9709477377e+00 2.8699780145e+00 4.9709477377e+00 
42700 5.6883972066e+00 -3.9321679861e-05 2.8699798824e+00 -4.9709509730e+00 2.8699798824e+00 4.9709509730e+00 
42800 5.6883972548e+00 2.4829268046e-05 2.8699798824e+00 -4.9709509730e+00 2.8699798824e+00 4.9709509730e+00 
42900 5.6883973017e+00 8.5565717676e-05 2.8699798824e+00 -4.9709509730e+00 2.8699798824e+00 4.9709509730e+00 
43000 5.6883973487e+00 1.4242630196e-04 2.8699783917e+00 -4.9709483910e+00 2.8699783917e+00 4.9709483910e+00 
43100 5.6883973973e+00 1.9543888726e-04 2.8699759104e+00 -4.9709440933e+00 2.8699759104e+00 4.9709440933e+00 
43200 5.6883974488e+00 2.4454343908e-04 2.8699725055e+00 -4.9709381958e+00 2.8699725055e+00 4.9709381958e+00 
43300 5.6883975046e+00 2.8969485781e-04 2.8699682451e+00 -4.9709308166e+00 2.8699682451e+00 4.9709308166e+00 
43400 5.6883975656e+00 3.3086283086e-04 2.8699631981e+00 -4.9709220750e+00 2.8699631981e+00 4.9709220750e+00 
43500 5.6883976328e+00 3.6803163150e-04 2.8699574339e+00 -4.9709120910e+00 2.8699574339e+00 4.9709120910e+00 
43600 5.6883977070e+00 4.0119986677e-04 2.8699510221e+00 -4.9709009855e+00 2.8699510221e+00 4.9709009855e+00 
43700 5.6883977887e+00 4.3038017603e-04 2.8699440324e+00 -4.9708888790e+00 2.8699440324e+00 4.9708888790e+00 
43800 5.6883978784e+00 4.5559888286e-04 2.8699365344e+00 -4.9708758920e+00 2.8699365344e+00 4.9708758920e+00 
43900 5.6883979762e+00 4.7689560244e-04 2.8699285969e+00 -4.9708621440e+00 2.8699285969e+00 4.9708621440e+00 
44000 5.6883980824e+00 4.9432280693e-04 2.8699202884e+00 -4.9708477533e+00 2.8699202884e+00 4.9708477533e+00 
44100 5.6883981968e+00 5.0794535157e-04 2.8699116763e+00 -4.9708328366e+00 2.8699116763e+00 4.9708328366e+00 
44200 5.6883983192e+00 5.1783996419e-04 2.8699028268e+00 -4.9708175088e+00 2.8699028268e+00 4.9708175088e+00 
44300 5.6883984493e+00 5.2409470090e-04 2.8698938049e+00 -4.9708018825e+00 2.8698938049e+00 4.9708018825e+00 
44400 5.6883985865e+00 5.2680837082e-04 2.8698846740e+00 -4.9707860673e+00 2.8698846740e+00 4.9707860673e+00 
44500 5.6883987303e+00 5.2608993290e-04 2.8698754958e+00 -4.9707701701e+00 2.8698754958e+00 4.9707701701e+00 
44600 5.6883988800e+00 5.2205786768e-04 2.8698663301e+00 -4.9707542946e+00 2.8698663301e+00 4.9707542946e+00 
44700 5.6883990347e+00 5.1483952709e-04 2.8698572346e+00 -4.9707385408e+00 2.8698572346e+00 4.9707385408e+00 
44800 5.6883991936e+00 5.0457046520e-04 2.8698482648e+00 -4.9707230047e+00 2.8698482648e+00 4.9707230047e+00 
44900 5.6883993558e+00 4.9139375314e-04 2.8698394739e+00 -4.9707077784e+00 2.8698394739e+00 4.9707077784e+00 
45000 5.6883995204e+00 4.7545928097e-04 2.8698309126e+00 -4.9706929497e+00 2.8698309126e+00 4.9706929497e+00 
45100 5.6883996863e+00 4.5692304971e-04 2.8698226288e+00 -4.9706786019e+00 2.8698226288e+00 4.9706786019e+00 
45200 5.6883998527e+00 4.3594645632e-04 2.8698146680e+00 -4.9706648133e+00 2.8698146680e+00 4.9706648133e+00 
45300 5.6884000185e+00 4.1269557469e-04 2.8698070726e+00 -4.9706516577e+00 2.8698070726e+00 4.9706516577e+00 
45400 5.6884001828e+00 3.8734043538e-04 2.8697998823e+00 -4.9706392038e+00 2.8697998823e+00 4.9706392038e+00 
45500 5.6884003447e+00 3.6005430699e-04 2.8697931338e+00 -4.9706275149e+00 2.8697931338e+00 4.9706275149e+00 
45600 5.6884005033e+00 3.3101298182e-04 2.8697868606e+00 -4.9706166495e+00 2.8697868606e+00 4.9706166495e+00 
45700 5.6884006579e+00 3.0039406847e-04 2.8697810934e+00 -4.9706066604e+00 2.8697810934e+00 4.9706066604e+00 
45800 5.6884008077e+00 2.6837629399e-04 2.8697758597e+00 -4.9705975953e+00 2.8697758597e+00 4.9705975953e+00 
45900 5.6884009522e+00 2.3513881782e-04 2.8697711838e+00 -4.9705894964e+00 2.8697711838e+00 4.9705894964e+00 
46000 5.6884010907e+00 2.0086056013e-04 2.8697670869e+00 -4.9705824005e+00 2.8697670869e+00 4.9705824005e+00 
46100 5.6884012228e+00 1.6571954652e-04 2.8697635873e+00 -4.9705763390e+00 2.8697635873e+00 4.9705763390e+00 
46200 5.6884013481e+00 1.2989227128e-04 2.8697607000e+00 -4.9705713380e+00 2.8697607000e+00 4.9705713380e+00 
46300 5.6884014664e+00 9.3553081338e-05 2.8697584369e+00 -4.9705674181e+00 2.8697584369e+00 4.9705674181e+00 
46400 5.6884015774e+00 5.6873582343e-05 2.8697568069e+00 -4.9705645949e+00 2.8697568069e+00 4.9705645949e+00 
46500 5.6884016811e+00 2.0264726439e-05 2.8697568069e+00 -4.9705645949e+00 2.8697568069e+00 4.9705645949e+00 
46600 5.6884017775e+00 -1.6500392112e-05 2.8697568069e+00 -4.9705645949e+00 2.8697568069e+00 4.9705645949e+00 
46700 5.6884018666e+00 -5.3266218463e-05 2.8697568069e+00 -4.9705645949e+00 2.8697568069e+00 4.9705645949e+00 
46800 5.6884019488e+00 -8.9882081608e-05 2.8697568069e+00 -4.9705645949e+00 2.8697568069e+00 4.9705645949e+00 
46900 5.6884020243e+00 -1.2581918246e-04 2.8697583729e+00 -4.9705673074e+00 2.8697583729e+00 4.9705673074e+00 
47000 5.6884020932e+00 -1.6115456865e-04 2.8697605651e+00 -4.9705711043e+00 2.8697605651e+00 4.9705711043e+00 
47100 5.6884021562e+00 -1.9575026752e-04 2.8697633729e+00 -4.9705759675e+00 2.8697633729e+00 4.9705759675e+00 
47200 5.6884022136e+00 -2.2947481512e-04 2.8697667835e+00 -4.9705818748e+00 2.8697667835e+00 4.9705818748e+00 
47300 5.6884022658e+00 -2.6220358814e-04 2.8697707816e+00 -4.9705887998e+00 2.8697707816e+00 4.9705887998e+00 
47400 5.6884023135e+00 -2.9381910276e-04 2.8697753500e+00 -4.9705967125e+00 2.8697753500e+00 4.9705967125e+00 
47500 5.6884023572e+00 -3.2421127974e-04 2.8697804692e+00 -4.9706055792e+00 2.8697804692e+00 4.9706055792e+00 
47600 5.6884023974e+00 -3.5327767584e-04 2.8697861179e+00 -4.9706153630e+00 2.8697861179e+00 4.9706153630e+00 
47700 5.6884024348e+00 -3.8092368137e-04 2.8697922730e+00 -4.9706260240e+00 2.8697922730e+00 4.9706260240e+00 
47800 5.6884024699e+00 -4.0706268401e-04 2.8697989098e+00 -4.9706375193e+00 2.8697989098e+00 4.9706375193e+00 
47900 5.6884025034e+00 -4.3161619899e-04 2.8698060020e+00 -4.9706498033e+00 2.8698060020e+00 4.9706498033e+00 
48000 5.6884025356e+00 -4.5451396597e-04 2.8698135219e+00 -4.9706628282e+00 2.8698135219e+00 4.9706628282e+00 
48100 5.6884025673e+00 -4.7569401313e-04 2.8698214408e+00 -4.9706765441e+00 2.8698214408e+00 4.9706765441e+00 
48200 5.6884025989e+00 -4.9510268880e-04 2.8698297287e+00 -4.9706908992e+00 2.8698297287e+00 4.9706908992e+00 
48300 5.6884026309e+00 -5.1269466146e-04 2.8698383547e+00 -4.9707058398e+00 2.8698383547e+00 4.9707058398e+00 
48400 5.6884026637e+00 -5.2843288869e-04 2.8698472872e+00 -4.9707213113e+00 2.8698472872e+00 4.9707213113e+00 
48500 5.6884026976e+00 -5.4228855604e-04 2.8698564938e+00 -4.9707372577e+00 2.8698564938e+00 4.9707372577e+00 
48600 5.6884027330e+00 -5.5424098654e-04 2.8698659418e+00 -4.9707536221e+00 2.8698659418e+00 4.9707536221e+00 
48700 5.6884027702e+00 -5.6427752212e-04 2.8698755980e+00 -4.9707703472e+00 2.8698755980e+00 4.9707703472e+00 
48800 5.6884028095e+00 -5.7239337775e-04 2.8698854291e+00 -4.9707873751e+00 2.8698854291e+00 4.9707873751e+00 
48900 5.6884028508e+00 -5.7859146958e-04 2.8698954015e+00 -4.9708046478e+00 2.8698954015e+00 4.9708046478e+00 
49000 5.6884028945e+00 -5.8288221844e-04 2.8699054819e+00 -4.9708221075e+00 2.8699054819e+00 4.9708221075e+00 
49100 5.6884029405e+00 -5.8528332964e-04 2.8699156369e+00 -4.9708396966e+00 2.8699156369e+00 4.9708396966e+00 
49200 5.6884029888e+00 -5.8581955078e-04 2.8699258338e+00 -4.9708573581e+00 2.8699258338e+00 4.9708573581e+00 
49300 5.6884030395e+00 -5.8452240870e-04 2.8699360400e+00 -4.9708750358e+00 2.8699360400e+00 4.9708750358e+00 
49400 5.6884030923e+00 -5.8142992713e-04 2.8699462236e+00 -4.9708926742e+00 2.8699462236e+00 4.9708926742e+00 
49500 5.6884031472e+00 -5.7658632649e-04 2.8699563532e+00 -4.9709102192e+00 2.8699563532e+00 4.9709102192e+00 
49600 5.6884032040e+00 -5.7004170736e-04 2.8699663984e+00 -4.9709276181e+00 2.8699663984e+00 4.9709276181e+00 
49700 5.6884032625e+00 -5.6185171909e-04 2.8699763296e+00 -4.9709448193e+00 2.8699763296e+00 4.9709448193e+00 
49800 5.6884033224e+00 -5.5207721516e-04 2.8699861180e+00 -4.9709617734e+00 2.8699861180e+00 4.9709617734e+00 
49900 5.6884033835e+00 -5.4078389689e-04 2.8699957361e+00 -4.9709784325e+00 2.8699957361e+00 4.9709784325e+00 
50000 5.6884034454e+00 -5.2804194696e-04 2.8700051575e+00 -4.9709947507e+00 2.8700051575e+00 4.9709947507e+00 
50100 5.6884035080e+00 -5.1392565449e-04 2.8700143568e+00 -4.9710106844e+00 2.8700143568e+00 4.9710106844e+00 
50200 5.6884035708e+00 -4.9851303307e-04 2.8700233102e+00 -4.9710261921e+00 2.8700233102e+00 4.9710261921e+00 
50300 5.6884036336e+00 -4.8188543349e-04 2.8700319950e+00 -4.9710412347e+00 2.8700319950e+00 4.9710412347e+00 
50400 5.6884036961e+00 -4.6412715261e-04 2.8700403901e+00 -4.9710557755e+00 2.8700403901e+00 4.9710557755e+00 
50500 5.6884037579e+00 -4.4532503990e-04 2.8700484759e+00 -4.9710697804e+00 2.8700484759e+00 4.9710697804e+00 
50600 5.6884038187e+00 -4.2556810333e-04 2.8700562340e+00 -4.9710832179e+00 2.8700562340e+00 4.9710832179e+00 
50700 5.6884038783e+00 -4.0494711586e-04 2.8700636479e+00 -4.9710960592e+00 2.8700636479e+00 4.9710960592e+00 
50800 5.6884039364e+00 -3.8355422419e-04 2.8700707026e+00 -4.9711082783e+00 2.8700707026e+00 4.9711082783e+00 
50900 5.6884039928e+00 -3.6148256109e-04 2.8700773846e+00 -4.9711198518e+00 2.8700773846e+00 4.9711198518e+00 
51000 5.6884040472e+00 -3.3882586265e-04 2.8700836820e+00 -4.9711307592e+00 2.8700836820e+00 4.9711307592e+00 
51100 5.6884040994e+00 -3.1567809194e-04 2.8700895847e+00 -4.9711409831e+00 2.8700895847e+00 4.9711409831e+00 
51200 5.6884041493e+00 -2.9213307010e-04 2.8700950842e+00 -4.9711505084e+00 2.8700950842e+00 4.9711505084e+00 
51300 5.6884041968e+00 -2.6828411636e-04 2.8701001735e+00 -4.9711593232e+00 2.8701001735e+00 4.9711593232e+00 
51400 5.6884042418e+00 -2.4422369801e-04 2.8701048472e+00 -4.9711674185e+00 2.8701048472e+00 4.9711674185e+00 
51500 5.6884042841e+00 -2.2004309136e-04 2.8701091018e+00 -4.9711747877e+00 2.8701091018e+00 4.9711747877e+00 
51600 5.6884043238e+00 -1.9583205497e-04 2.8701129352e+00 -4.9711814272e+00 2.8701129352e+00 4.9711814272e+00 
51700 5.6884043609e+00 -1.7167851583e-04 2.8701163468e+00 -4.9711873363e+00 2.8701163468e+00 4.9711873363e+00 
51800 5.6884043953e+00 -1.4766826962e-04 2.8701193376e+00 -4.9711925165e+00 2.8701193376e+00 4.9711925165e+00 
51900 5.6884044271e+00 -1.2388469584e-04 2.8701219101e+00 -4.9711969722e+00 2.8701219101e+00 4.9711969722e+00 
52000 5.6884044565e+00 -1.0040848843e-04 2.8701240683e+00 -4.9712007103e+00 2.8701240683e+00 4.9712007103e+00 
52100 5.6884044834e+00 -7.7317402859e-05 2.8701258175e+00 -4.9712037400e+00 2.8701258175e+00 4.9712037400e+00 
52200 5.6884045082e+00 -5.4686019910e-05 2.8701271644e+00 -4.9712060729e+00 2.8701271644e+00 4.9712060729e+00 
52300 5.6884045308e+00 -3.2818632629e-05 2.8701271644e+00 -4.9712060729e+00 2.8701271644e+00 4.9712060729e+00 
52400 5.6884045514e+00 -1.1463759418e-05 2.8701271644e+00 -4.9712060729e+00 2.8701271644e+00 4.9712060729e+00 
52500 5.6884045702e+00 9.3145530727e-06 2.8701271644e+00 -4.9712060729e+00 2.8701271644e+00 4.9712060729e+00 
52600 5.6884045875e+00 2.9456269058e-05 2.8701271644e+00 -4.9712060729e+00 2.8701271644e+00 4.9712060729e+00 
52700 5.6884046034e+00 4.8905500266e-05 2.8701271644e+00 -4.9712060729e+00 2.8701271644e+00 4.9712060729e+00 
52800 5.6884046182e+00 6.7610621297e-05 2.8701271644e+00 -4.9712060729e+00 2.8701271644e+00 4.9712060729e+00 
52900 5.6884046320e+00 8.5524363834e-05 2.8701271644e+00 -4.9712060729e+00 2.8701271644e+00 4.9712060729e+00 
53000 5.6884046451e+00 1.0223929546e-04 2.8701256745e+00 -4.9712034923e+00 2.8701256745e+00 4.9712034923e+00 
53100 5.6884046575e+00 1.1799751422e-04 2.8701238934e+00 -4.9712004074e+00 2.8701238934e+00 4.9712004074e+00 
53200 5.6884046696e+00 1.3276516329e-04 2.8701218378e+00 -4.9711968470e+00 2.8701218378e+00 4.9711968470e+00 
53300 5.6884046814e+00 1.4651293457e-04 2.8701195249e+00 -4.9711928409e+00 2.8701195249e+00 4.9711928409e+00 
53400 5.6884046932e+00 1.5921608264e-04 2.8701169725e+00 -4.9711884201e+00 2.8701169725e+00 4.9711884201e+00 
53500 5.6884047052e+00 1.7085442076e-04 2.8701141988e+00 -4.9711836159e+00 2.8701141988e+00 4.9711836159e+00 
53600 5.6884047174e+00 1.8141229923e-04 2.8701112224e+00 -4.9711784606e+00 2.8701112224e+00 4.9711784606e+00 
53700 5.6884047300e+00 1.9087856668e-04 2.8701080620e+00 -4.9711729866e+00 2.8701080620e+00 4.9711729866e+00 
53800 5.6884047432e+00 1.9924651478e-04 2.8701047367e+00 -4.9711672271e+00 2.8701047367e+00 4.9711672271e+00 
53900 5.6884047569e+00 2.0651380694e-04 2.8701012657e+00 -4.9711612150e+00 2.8701012657e+00 4.9711612150e+00 
54000 5.6884047713e+00 2.1268239162e-04 2.8700976680e+00 -4.9711549837e+00 2.8700976680e+00 4.9711549837e+00 
54100 5.6884047865e+00 2.1775840100e-04 2.8700939629e+00 -4.9711485662e+00 2.8700939629e+00 4.9711485662e+00 
54200 5.6884048024e+00 2.2175203558e-04 2.8700901693e+00 -4.9711419955e+00 2.8700901693e+00 4.9711419955e+00 
54300 5.6884048192e+00 2.2467743563e-04 2.8700863061e+00 -4.9711353043e+00 2.8700863061e+00 4.9711353043e+00 
54400 5.6884048367e+00 2.2655254011e-04 2.8700823920e+00 -4.9711285249e+00 2.8700823920e+00 4.9711285249e+00 
54500 5.6884048550e+00 2.2739893414e-04 2.8700784452e+00 -4.9711216888e+00 2.8700784452e+00 4.9711216888e+00 
54600 5.6884048741e+00 2.2724168546e-04 2.8700744837e+00 -4.9711148272e+00 2.8700744837e+00 4.9711148272e+00 
54700 5.6884048939e+00 2.2610917122e-04 2.8700705249e+00 -4.9711079704e+00 2.8700705249e+00 4.9711079704e+00 
54800 5.6884049143e+00 2.2403289563e-04 2.8700665858e+00 -4.9711011477e+00 2.8700665858e+00 4.9711011477e+00 
54900 5.6884049354e+00 2.2104729954e-04 2.8700626828e+00 -4.9710943876e+00 2.8700626828e+00 4.9710943876e+00 
55000 5.6884049569e+00 2.1718956287e-04 2.8700588319e+00 -4.9710877176e+00 2.8700588319e+00 4.9710877176e+00 
55100 5.6884049789e+00 2.1249940068e-04 2.8700550482e+00 -4.9710811640e+00 2.8700550482e+00 4.9710811640e+00 
55200 5.6884050012e+00 2.0701885405e-04 2.8700513462e+00 -4.9710747520e+00 2.8700513462e+00 4.9710747520e+00 
55300 5.6884050238e+00 2.0079207647e-04 2.8700477397e+00 -4.9710685053e+00 2.8700477397e+00 4.9710685053e+00 
55400 5.6884050464e+00 1.9386511669e-04 2.8700442416e+00 -4.9710624465e+00 2.8700442416e+00 4.9710624465e+00 
55500 5.6884050691e+00 1.8628569919e-04 2.8700408642e+00 -4.9710565966e+00 2.8700408642e+00 4.9710565966e+00 
55600 5.6884050918e+00 1.7810300275e-04 2.8700376189e+00 -4.9710509755e+00 2.8700376189e+00 4.9710509755e+00 
55700 5.6884051142e+00 1.6936743855e-04 2.8700345161e+00 -4.9710456013e+00 2.8700345161e+00 4.9710456013e+00 
55800 5.6884051364e+00 1.6013042802e-04 2.8700315655e+00 -4.9710404907e+00 2.8700315655e+00 4.9710404907e+00 
55900 5.6884051583e+00 1.5044418201e-04 2.8700287758e+00 -4.9710356588e+00 2.8700287758e+00 4.9710356588e+00 
56000 5.6884051797e+00 1.4036148150e-04 2.8700261548e+00 -4.9710311192e+00 2.8700261548e+00 4.9710311192e+00 
56100 5.6884052005e+00 1.2993546106e-04 2.8700237095e+00 -4.9710268838e+00 2.8700237095e+00 4.9710268838e+00 
56200 5.6884052208e+00 1.1921939557e-04 2.8700214459e+00 -4.9710229630e+00 2.8700214459e+00 4.9710229630e+00 
56300 5.6884052404e+00 1.0826649118e-04 2.8700193689e+00 -4.9710193656e+00 2.8700193689e+00 4.9710193656e+00 
56400 5.6884052593e+00 9.7129681045e-05 2.8700174827e+00 -4.9710160987e+00 2.8700174827e+00 4.9710160987e+00 
56500 5.6884052774e+00 8.5861426563e-05 2.8700157906e+00 -4.9710131678e+00 2.8700157906e+00 4.9710131678e+00 
56600 5.6884052947e+00 7.4513524794e-05 2.8700142947e+00 -4.9710105769e+00 2.8700142947e+00 4.9710105769e+00 
56700 5.6884053113e+00 6.3136922672e-05 2.8700129966e+00 -4.9710083285e+00 2.8700129966e+00 4.9710083285e+00 
56800 5.6884053270e+00 5.2050773559e-05 2.8700129966e+00 -4.9710083285e+00 2.8700129966e+00 4.9710083285e+00 
56900 5.6884053419e+00 4.0995645177e-05 2.8700129966e+00 -4.9710083285e+00 2.8700129966e+00 4.9710083285e+00 
57000 5.6884053559e+00 3.0018648021e-05 2.8700129966e+00 -4.9710083285e+00 2.8700129966e+00 4.9710083285e+00 
57100 5.6884053691e+00 1.9165351749e-05 2.8700129966e+00 -4.9710083285e+00 2.8700129966e+00 4.9710083285e+00 
57200 5.6884053815e+00 8.4796416210e-06 2.8700129966e+00 -4.9710083285e+00 2.8700129966e+00 4.9710083285e+00 
57300 5.6884053931e+00 -1.9964138612e-06 2.8700129966e+00 -4.9710083285e+00 2.8700129966e+00 4.9710083285e+00 
57400 5.6884054041e+00 -1.2222684002e-05 2.8700129966e+00 -4.9710083285e+00 2.8700129966e+00 4.9710083285e+00 
57500 5.6884054143e+00 -2.2161085507e-05 2.8700129966e+00 -4.9710083285e+00 2.8700129966e+00 4.9710083285e+00 
57600 5.6884054240e+00 -3.1775680552e-05 2.8700129966e+00 -4.9710083285e+00 2.8700129966e+00 4.9710083285e+00 
57700 5.6884054331e+00 -4.1032763336e-05 2.8700129966e+00 -4.9710083285e+00 2.8700129966e+00 4.9710083285e+00 
57800 5.6884054417e+00 -4.9900935079e-05 2.8700129966e+00 -4.9710083285e+00 2.8700129966e+00 4.9710083285e+00 
57900 5.6884054498e+00 -5.8351167586e-05 2.8700129966e+00 -4.9710083285e+00 2.8700129966e+00 4.9710083285e+00 
58000 5.6884054576e+00 -6.6356855423e-05 2.8700129966e+00 -4.9710083285e+00 2.8700129966e+00 4.9710083285e+00 
58100 5.6884054651e+00 -7.3893856890e-05 2.8700129966e+00 -4.9710083285e+00 2.8700129966e+00 4.9710083285e+00 
58200 5.6884054723e+00 -8.0625425224e-05 2.8700142839e+00 -4.9710105582e+00 2.8700142839e+00 4.9710105582e+00 
58300 5.6884054792e+00 -8.6807690650e-05 2.8700156886e+00 -4.9710129911e+00 2.8700156886e+00 4.9710129911e+00 
58400 5.6884054860e+00 -9.2424004968e-05 2.8700172009e+00 -4.9710156105e+00 2.8700172009e+00 4.9710156105e+00 
58500 5.6884054927e+00 -9.7460302437e-05 2.8700188110e+00 -4.9710183994e+00 2.8700188110e+00 4.9710183994e+00 
58600 5.6884054993e+00 -1.0190510009e-04 2.8700205089e+00 -4.9710213403e+00 2.8700205089e+00 4.9710213403e+00 
58700 5.6884055060e+00 -1.0574948794e-04 2.8700222843e+00 -4.9710244152e+00 2.8700222843e+00 4.9710244152e+00 
58800 5.6884055126e+00 -1.0898710966e-04 2.8700241266e+00 -4.9710276062e+00 2.8700241266e+00 4.9710276062e+00 
58900 5.6884055193e+00 -1.1161413373e-04 2.8700260253e+00 -4.9710308949e+00 2.8700260253e+00 4.9710308949e+00 
59000 5.6884055262e+00 -1.1362921558e-04 2.8700279698e+00 -4.9710342628e+00 2.8700279698e+00 4.9710342628e+00 
59100 5.6884055331e+00 -1.1503345104e-04 2.8700299494e+00 -4.9710376916e+00 2.8700299494e+00 4.9710376916e+00 
59200 5.6884055403e+00 -1.1583032129e-04 2.8700319534e+00 -4.9710411627e+00 2.8700319534e+00 4.9710411627e+00 
59300 5.6884055476e+00 -1.1602562997e-04 2.8700339713e+00 -4.9710446578e+00 2.8700339713e+00 4.9710446578e+00 
59400 5.6884055550e+00 -1.1562743267e-04 2.8700359927e+00 -4.9710481589e+00 2.8700359927e+00 4.9710481589e+00 
59500 5.6884055627e+00 -1.1464595930e-04 2.8700380071e+00 -4.9710516479e+00 2.8700380071e+00 4.9710516479e+00 
59600 5.6884055705e+00 -1.1309352979e-04 2.8700400044e+00 -4.9710551073e+00 2.8700400044e+00 4.9710551073e+00 
59700 5.6884055785e+00 -1.1098446358e-04 2.8700419746e+00 -4.9710585199e+00 2.8700419746e+00 4.9710585199e+00 
59800 5.6884055867e+00 -1.0833498337e-04 2.8700439081e+00 -4.9710618688e+00 2.8700439081e+00 4.9710618688e+00 
59900 5.6884055950e+00 -1.0516311361e-04 2.8700457954e+00 -4.9710651377e+00 2.8700457954e+00 4.9710651377e+00 
60000 5.6884056035e+00 -1.0148857429e-04 2.8700476275e+00 -4.9710683110e+00 2.8700476275e+00 4.9710683110e+00 
60100 5.6884056121e+00 -9.7332670436e-05 2.8700493956e+00 -4.9710713734e+00 2.8700493956e+00 4.9710713734e+00 
60200 5.6884056207e+00 -9.2718177932e-05 2.8700510912e+00 -4.9710743104e+00 2.8700510912e+00 4.9710743104e+00 
60300 5.6884056295e+00 -8.7669226048e-05 2.8700527065e+00 -4.9710771081e+00 2.8700527065e+00 4.9710771081e+00 
60400 5.6884056382e+00 -8.2211177332e-05 2.8700542338e+00 -4.9710797535e+00 2.8700542338e+00 4.9710797535e+00 
60500 5.6884056470e+00 -7.6370505294e-05 2.8700556661e+00 -4.9710822342e+00 2.8700556661e+00 4.9710822342e+00 
60600 5.6884056557e+00 -7.0174670406e-05 2.8700569965e+00 -4.9710845386e+00 2.8700569965e+00 4.9710845386e+00 
60700 5.6884056644e+00 -6.3951260290e-05 2.8700569965e+00 -4.9710845386e+00 2.8700569965e+00 4.9710845386e+00 
60800 5.6884056731e+00 -5.7412826807e-05 2.8700569965e+00 -4.9710845386e+00 2.8700569965e+00 4.9710845386e+00 
60900 5.6884056816e+00 -5.0588078539e-05 2.8700569965e+00 -4.9710845386e+00 2.8700569965e+00 4.9710845386e+00 
61000 5.6884056899e+00 -4.3506137806e-05 2.8700569965e+00 -4.9710845386e+00 2.8700569965e+00 4.9710845386e+00 
61100 5.6884056980e+00 -3.6196412753e-05 2.8700569965e+00 -4.9710845386e+00 2.8700569965e+00 4.9710845386e+00 
61200 5.6884057059e+00 -2.8688472090e-05 2.8700569965e+00 -4.9710845386e+00 2.8700569965e+00 4.9710845386e+00 
61300 5.6884057136e+00 -2.1011922916e-05 2.8700569965e+00 -4.9710845386e+00 2.8700569965e+00 4.9710845386e+00 
61400 5.6884057211e+00 -1.3196291983e-05 2.8700569965e+00 -4.9710845386e+00 2.8700569965e+00 4.9710845386e+00 
61500 5.6884057283e+00 -5.2709107937e-06 2.8700569965e+00 -4.9710845386e+00 2.8700569965e+00 4.9710845386e+00 
61600 5.6884057352e+00 2.7351952593e-06 2.8700569965e+00 -4.9710845386e+00 2.8700569965e+00 4.9710845386e+00 
61700 5.6884057419e+00 1.0793413291e-05 2.8700569965e+00 -4.9710845386e+00 2.8700569965e+00 4.9710845386e+00 
61800 5.6884057482e+00 1.8875644665e-05 2.8700569965e+00 -4.9710845386e+00 2.8700569965e+00 4.9710845386e+00 
61900 5.6884057543e+00 2.6954401780e-05 2.8700569965e+00 -4.9710845386e+00 2.8700569965e+00 4.9710845386e+00 
62000 5.6884057602e+00 3.5002899693e-05 2.8700569965e+00 -4.9710845386e+00 2.8700569965e+00 4.9710845386e+00 
62100 5.6884057657e+00 4.2995142391e-05 2.8700569965e+00 -4.9710845386e+00 2.8700569965e+00 4.9710845386e+00 
62200 5.6884057710e+00 5.0906003496e-05 2.8700569965e+00 -4.9710845386e+00 2.8700569965e+00 4.9710845386e+00 
62300 5.6884057761e+00 5.8711301298e-05 2.8700569965e+00 -4.9710845386e+00 2.8700569965e+00 4.9710845386e+00 
62400 5.6884057809e+00 6.6387867929e-05 2.8700569965e+00 -4.9710845386e+00 2.8700569965e+00 4.9710845386e+00 
62500 5.6884057855e+00 7.3913612657e-05 2.8700569965e+00 -4.9710845386e+00 2.8700569965e+00 4.9710845386e+00 
62600 5.6884057898e+00 8.0952302744e-05 2.8700557089e+00 -4.9710823083e+00 2.8700557089e+00 4.9710823083e+00 
62700 5.6884057938e+00 8.7758278842e-05 2.8700542986e+00 -4.9710798656e+00 2.8700542986e+00 4.9710798656e+00 
62800 5.6884057977e+00 9.4311569907e-05 2.8700527697e+00 -4.9710772175e+00 2.8700527697e+00 4.9710772175e+00 
62900 5.6884058014e+00 1.0059349875e-04 2.8700511267e+00 -4.9710743717e+00 2.8700511267e+00 4.9710743717e+00 
63000 5.6884058049e+00 1.0658672738e-04 2.8700493742e+00 -4.9710713364e+00 2.8700493742e+00 4.9710713364e+00 
63100 5.6884058083e+00 1.1227529626e-04 2.8700475173e+00 -4.9710681201e+00 2.8700475173e+00 4.9710681201e+00 
63200 5.6884058116e+00 1.1764465752e-04 2.8700455613e+00 -4.9710647323e+00 2.8700455613e+00 4.9710647323e+00 
63300 5.6884058147e+00 1.2268170206e-04 2.8700435118e+00 -4.9710611824e+00 2.8700435118e+00 4.9710611824e+00 
63400 5.6884058178e+00 1.2737478061e-04 2.8700413745e+00 -4.9710574805e+00 2.8700413745e+00 4.9710574805e+00 
63500 5.6884058208e+00 1.3171371875e-04 2.8700391555e+00 -4.9710536370e+00 2.8700391555e+00 4.9710536370e+00 
63600 5.6884058238e+00 1.3568982612e-04 2.8700368609e+00 -4.9710496626e+00 2.8700368609e+00 4.9710496626e+00 
63700 5.6884058267e+00 1.3929589969e-04 2.8700344970e+00 -4.9710455682e+00 2.8700344970e+00 4.9710455682e+00 
63800 5.6884058296e+00 1.4252622130e-04 2.8700320702e+00 -4.9710413650e+00 2.8700320702e+00 4.9710413650e+00 
63900 5.6884058325e+00 1.4537654973e-04 2.8700295872e+00 -4.9710370643e+00 2.8700295872e+00 4.9710370643e+00 
64000 5.6884058354e+00 1.4784410720e-04 2.8700270546e+00 -4.9710326776e+00 2.8700270546e+00 4.9710326776e+00 
64100 5.6884058384e+00 1.4992756068e-04 2.8700244789e+00 -4.9710282164e+00 2.8700244789e+00 4.9710282164e+00 
64200 5.6884058414e+00 1.5162699810e-04 2.8700218669e+00 -4.9710236924e+00 2.8700218669e+00 4.9710236924e+00 
64300 5.6884058444e+00 1.5294389963e-04 2.8700192254e+00 -4.9710191171e+00 2.8700192254e+00 4.9710191171e+00 
64400 5.6884058475e+00 1.5388110434e-04 2.8700165609e+00 -4.9710145020e+00 2.8700165609e+00 4.9710145020e+00 
64500 5.6884058506e+00 1.5444277241e-04 2.8700138800e+00 -4.9710098586e+00 2.8700138800e+00 4.9710098586e+00 
64600 5.6884058538e+00 1.5463434306e-04 2.8700111894e+00 -4.9710051983e+00 2.8700111894e+00 4.9710051983e+00 
64700 5.6884058571e+00 1.5446248863e-04 2.8700084954e+00 -4.9710005323e+00 2.8700084954e+00 4.9710005323e+00 
64800 5.6884058604e+00 1.5393506487e-04 2.8700058045e+00 -4.9709958713e+00 2.8700058045e+00 4.9709958713e+00 
64900 5.6884058638e+00 1.5306105780e-04 2.8700031227e+00 -4.9709912264e+00 2.8700031227e+00 4.9709912264e+00 
65000 5.6884058672e+00 1.5185052750e-04 2.8700004561e+00 -4.9709866077e+00 2.8700004561e+00 4.9709866077e+00 
65100 5.6884058706e+00 1.5031454888e-04 2.8699978106e+00 -4.9709820256e+00 2.8699978106e+00 4.9709820256e+00 
65200 5.6884058741e+00 1.4846515001e-04 2.8699951919e+00 -4.9709774899e+00 2.8699951919e+00 4.9709774899e+00 
65300 5.6884058777e+00 1.4631524798e-04 2.8699926054e+00 -4.9709730099e+00 2.8699926054e+00 4.9709730099e+00 
65400 5.6884058812e+00 1.4387858292e-04 2.8699900563e+00 -4.9709685948e+00 2.8699900563e+00 4.9709685948e+00 
65500 5.6884058848e+00 1.4116965015e-04 2.8699875497e+00 -4.9709642532e+00 2.8699875497e+00 4.9709642532e+00 
65600 5.6884058884e+00 1.3820363101e-04 2.8699850903e+00 -4.9709599934e+00 2.8699850903e+00 4.9709599934e+00 
65700 5.6884058919e+00 1.3499632247e-04 2.8699826826e+00 -4.9709558231e+00 2.8699826826e+00 4.9709558231e+00 
65800 5.6884058955e+00 1.3156406598e-04 2.8699803307e+00 -4.9709517495e+00 2.8699803307e+00 4.9709517495e+00 
65900 5.6884058990e+00 1.2792367568e-04 2.8699780387e+00 -4.9709477796e+00 2.8699780387e+00 4.9709477796e+00 
66000 5.6884059025e+00 1.2409236639e-04 2.8699758100e+00 -4.9709439194e+00 2.8699758100e+00 4.9709439194e+00 
66100 5.6884059060e+00 1.2008768161e-04 2.8699736481e+00 -4.9709401749e+00 2.8699736481e+00 4.9709401749e+00 
66200 5.6884059094e+00 1.1592742173e-04 2.8699715560e+00 -4.9709365512e+00 2.8699715560e+00 4.9709365512e+00 
66300 5.6884059127e+00 1.1162957285e-04 2.8699695363e+00 -4.9709330530e+00 2.8699695363e+00 4.9709330530e+00 
66400 5.6884059160e+00 1.0721223639e-04 2.8699675915e+00 -4.9709296846e+00 2.8699675915e+00 4.9709296846e+00 
66500 5.6884059192e+00 1.0269355969e-04 2.8699657237e+00 -4.9709264494e+00 2.8699657237e+00 4.9709264494e+00 
66600 5.6884059224e+00 9.8091667927e-05 2.8699639346e+00 -4.9709233506e+00 2.8699639346e+00 4.9709233506e+00 
66700 5.6884059254e+00 9.3424597596e-05 2.8699622256e+00 -4.9709203906e+00 2.8699622256e+00 4.9709203906e+00 
66800 5.6884059283e+00 8.8710231657e-05 2.8699605980e+00 -4.9709175715e+00 2.8699605980e+00 4.9709175715e+00 
66900 5.6884059312e+00 8.3966236638e-05 2.8699590525e+00 -4.9709148946e+00 2.8699590525e+00 4.9709148946e+00 
67000 5.6884059339e+00 7.9210001892e-05 2.8699575897e+00 -4.9709123609e+00 2.8699575897e+00 4.9709123609e+00 
67100 5.6884059366e+00 7.4458581157e-05 2.8699562097e+00 -4.9709099707e+00 2.8699562097e+00 4.9709099707e+00 
67200 5.6884059392e+00 6.9728636622e-05 2.8699549125e+00 -4.9709077238e+00 2.8699549125e+00 4.9709077238e+00 
67300 5.6884059417e+00 6.5333877389e-05 2.8699549125e+00 -4.9709077238e+00 2.8699549125e+00 4.9709077238e+00 
67400 5.6884059441e+00 6.0983020738e-05 2.8699549125e+00 -4.9709077238e+00 2.8699549125e+00 4.9709077238e+00 
67500 5.6884059464e+00 5.6692051627e-05 2.8699549125e+00 -4.9709077238e+00 2.8699549125e+00 4.9709077238e+00 
67600 5.6884059486e+00 5.2476322256e-05 2.8699549125e+00 -4.9709077238e+00 2.8699549125e+00 4.9709077238e+00 
67700 5.6884059507e+00 4.8350506620e-05 2.8699549125e+00 -4.9709077238e+00 2.8699549125e+00 4.9709077238e+00 
67800 5.6884059527e+00 4.4328559296e-05 2.8699549125e+00 -4.9709077238e+00 2.8699549125e+00 4.9709077238e+00 
67900 5.6884059547e+00 4.0423678566e-05 2.8699549125e+00 -4.9709077238e+00 2.8699549125e+00 4.9709077238e+00 
68000 5.6884059565e+00 3.6648273758e-05 2.8699549125e+00 -4.9709077238e+00 2.8699549125e+00 4.9709077238e+00 
68100 5.6884059583e+00 3.3013936877e-05 2.8699549125e+00 -4.9709077238e+00 2.8699549125e+00 4.9709077238e+00 
68200 5.6884059600e+00 2.9531418428e-05 2.8699549125e+00 -4.9709077238e+00 2.8699549125e+00 4.9709077238e+00 
68300 5.6884059617e+00 2.6210607404e-05 2.8699549125e+00 -4.9709077238e+00 2.8699549125e+00 4.9709077238e+00 
68400 5.6884059634e+00 2.3060515383e-05 2.8699549125e+00 -4.9709077238e+00 2.8699549125e+00 4.9709077238e+00 
68500 5.6884059650e+00 2.0089264637e-05 2.8699549125e+00 -4.9709077238e+00 2.8699549125e+00 4.9709077238e+00 
68600 5.6884059666e+00 1.7304080216e-05 2.8699549125e+00 -4.9709077238e+00 2.8699549125e+00 4.9709077238e+00 
68700 5.6884059681e+00 1.4711285844e-05 2.8699549125e+00 -4.9709077238e+00 2.8699549125e+00 4.9709077238e+00 
68800 5.6884059697e+00 1.2316303582e-05 2.8699549125e+00 -4.9709077238e+00 2.8699549125e+00 4.9709077238e+00 
68900 5.6884059712e+00 1.0123657097e-05 2.8699549125e+00 -4.9709077238e+00 2.8699549125e+00 4.9709077238e+00 
69000 5.6884059727e+00 8.1369784422e-06 2.8699549125e+00 -4.9709077238e+00 2.8699549125e+00 4.9709077238e+00 
69100 5.6884059742e+00 6.3590181910e-06 2.8699549125e+00 -4.9709077238e+00 2.8699549125e+00 4.9709077238e+00 
69200 5.6884059758e+00 4.7916587715e-06 2.8699549125e+00 -4.9709077238e+00 2.8699549125e+00 4.9709077238e+00 
69300 5.6884059773e+00 3.4359309048e-06 2.8699549125e+00 -4.9709077238e+00 2.8699549125e+00 4.9709077238e+00 
69400 5.6884059789e+00 2.2920329117e-06 2.8699549125e+00 -4.9709077238e+00 2.8699549125e+00 4.9709077238e+00 
69500 5.6884059804e+00 1.3593527998e-06 2.8699549125e+00 -4.9709077238e+00 2.8699549125e+00 4.9709077238e+00 
69600 5.6884059820e+00 6.3649288362e-07 2.8699549125e+00 -4.9709077238e+00 2.8699549125e+00 4.9709077238e+00 
69700 5.6884059836e+00 1.2129684060e-07 2.8699549125e+00 -4.9709077238e+00 2.8699549125e+00 4.9709077238e+00 
69800 5.6884059852e+00 -1.8912101838e-07 2.8699549125e+00 -4.9709077238e+00 2.8699549125e+00 4.9709077238e+00 
69900 5.6884059868e+00 -2.9834445868e-07 2.8699549125e+00 -4.9709077238e+00 2.8699549125e+00 4.9709077238e+00 
70000 5.6884059884e+00 -2.1062214272e-07 2.8699549125e+00 -4.9709077238e+00 2.8699549125e+00 4.9709077238e+00 
70100 5.6884059901e+00 6.9167199475e-08 2.8699549125e+00 -4.9709077238e+00 2.8699549125e+00 4.9709077238e+00 
70200 5.6884059917e+00 5.3555110015e-07 2.8699549125e+00 -4.9709077238e+00 2.8699549125e+00 4.9709077238e+00 
70300 5.6884059934e+00 1.1825009827e-06 2.8699549125e+00 -4.9709077238e+00 2.8699549125e+00 4.9709077238e+00 
70400 5.6884059950e+00 2.0034709039e-06 2.8699549125e+00 -4.9709077238e+00 2.8699549125e+00 4.9709077238e+00 
70500 5.6884059967e+00 2.9914372194e-06 2.8699549125e+00 -4.9709077238e+00 2.8699549125e+00 4.9709077238e+00 
70600 5.6884059984e+00 4.1389390136e-06 2.8699549125e+00 -4.9709077238e+00 2.8699549125e+00 4.9709077238e+00 
70700 5.6884060000e+00 5.4381190926e-06 2.8699549125e+00 -4.9709077238e+00 2.8699549125e+00 4.9709077238e+00 
70800 5.6884060017e+00 6.8807653611e-06 2.8699549125e+00 -4.9709077238e+00 2.8699549125e+00 4.9709077238e+00 
70900 5.6884060033e+00 8.4583524193e-06 2.8699549125e+00 -4.9709077238e+00 2.8699549125e+00 4.9709077238e+00 
71000 5.6884060049e+00 1.0162083239e-05 2.8699549125e+00 -4.9709077238e+00 2.8699549125e+00 4.9709077238e+00 
71100 5.6884060065e+00 1.1982930667e-05 2.8699549125e+00 -4.9709077238e+00 2.8699549125e+00 4.9709077238e+00 
71200 5.6884060081e+00 1.3911678693e-05 2.8699549125e+00 -4.9709077238e+00 2.8699549125e+00 4.9709077238e+00 
71300 5.6884060097e+00 1.5938963285e-05 2.8699549125e+00 -4.9709077238e+00 2.8699549125e+00 4.9709077238e+00 
71400 5.6884060112e+00 1.8055312655e-05 2.8699549125e+00 -4.9709077238e+00 2.8699549125e+00 4.9709077238e+00 
71500 5.6884060128e+00 2.0251186778e-05 2.8699549125e+00 -4.9709077238e+00 2.8699549125e+00 4.9709077238e+00 
71600 5.6884060142e+00 2.2517016083e-05 2.8699549125e+00 -4.9709077238e+00 2.8699549125e+00 4.9709077238e+00 
71700 5.6884060157e+00 2.4843239177e-05 2.8699549125e+00 -4.9709077238e+00 2.8699549125e+00 4.9709077238e+00 
71800 5.6884060171e+00 2.7220339447e-05 2.8699549125e+00 -4.9709077238e+00 2.8699549125e+00 4.9709077238e+00 
71900 5.6884060185e+00 2.9638880442e-05 2.8699549125e+00 -4.9709077238e+00 2.8699549125e+00 4.9709077238e+00 
72000 5.6884060199e+00 3.2089539993e-05 2.8699549125e+00 -4.9709077238e+00 2.8699549125e+00 4.9709077238e+00 
72100 5.6884060212e+00 3.4563142882e-05 2.8699549125e+00 -4.9709077238e+00 2.8699549125e+00 4.9709077238e+00 
72200 5.6884060225e+00 3.7050692008e-05 2.8699549125e+00 -4.9709077238e+00 2.8699549125e+00 4.9709077238e+00 
72300 5.6884060238e+00 3.9543398002e-05 2.8699549125e+00 -4.9709077238e+00 2.8699549125e+00 4.9709077238e+00 
72400 5.6884060250e+00 4.2032707193e-05 2.8699549125e+00 -4.9709077238e+00 2.8699549125e+00 4.9709077238e+00 
72500 5.6884060262e+00 4.4510327841e-05 2.8699549125e+00 -4.9709077238e+00 2.8699549125e+00 4.9709077238e+00 
72600 5.6884060273e+00 4.6968254625e-05 2.8699549125e+00 -4.9709077238e+00 2.8699549125e+00 4.9709077238e+00 
72700 5.6884060285e+00 4.9398791318e-05 2.8699549125e+00 -4.9709077238e+00 2.8699549125e+00 4.9709077238e+00 
72800 5.6884060296e+00 5.1794571624e-05 2.8699549125e+00 -4.9709077238e+00 2.8699549125e+00 4.9709077238e+00 
72900 5.6884060306e+00 5.4148578107e-05 2.8699549125e+00 -4.9709077238e+00 2.8699549125e+00 4.9709077238e+00 
73000 5.6884060317e+00 5.6454159279e-05 2.8699549125e+00 -4.9709077238e+00 2.8699549125e+00 4.9709077238e+00 
73100 5.6884060327e+00 5.8705044710e-05 2.8699549125e+00 -4.9709077238e+00 2.8699549125e+00 4.9709077238e+00 
73200 5.6884060337e+00 6.0895358284e-05 2.8699549125e+00 -4.9709077238e+00 2.8699549125e+00 4.9709077238e+00 
73300 5.6884060347e+00 6.3019629525e-05 2.8699549125e+00 -4.9709077238e+00 2.8699549125e+00 4.9709077238e+00 
73400 5.6884060357e+00 6.5072802989e-05 2.8699549125e+00 -4.9709077238e+00 2.8699549125e+00 4.9709077238e+00 
73500 5.6884060366e+00 6.7050245826e-05 2.8699549125e+00 -4.9709077238e+00 2.8699549125e+00 4.9709077238e+00 
73600 5.6884060375e+00 6.8947753446e-05 2.8699549125e+00 -4.9709077238e+00 2.8699549125e+00 4.9709077238e+00 
73700 5.6884060385e+00 7.0761553343e-05 2.8699549125e+00 -4.9709077238e+00 2.8699549125e+00 4.9709077238e+00 
73800 5.6884060393e+00 7.2186407134e-05 2.8699536797e+00 -4.9709055886e+00 2.8699536797e+00 4.9709055886e+00 
73900 5.6884060401e+00 7.3504562985e-05 2.8699524221e+00 -4.9709034103e+00 2.8699524221e+00 4.9709034103e+00 
74000 5.6884060409e+00 7.4712486737e-05 2.8699511415e+00 -4.9709011923e+00 2.8699511415e+00 4.9709011923e+00 
74100 5.6884060417e+00 7.5807111182e-05 2.8699498398e+00 -4.9708989378e+00 2.8699498398e+00 4.9708989378e+00 
74200 5.6884060425e+00 7.6785839636e-05 2.8699485191e+00 -4.9708966502e+00 2.8699485191e+00 4.9708966502e+00 
74300 5.6884060433e+00 7.7646547472e-05 2.8699471814e+00 -4.9708943332e+00 2.8699471814e+00 4.9708943332e+00 
74400 5.6884060441e+00 7.8387581624e-05 2.8699458286e+00 -4.9708919901e+00 2.8699458286e+00 4.9708919901e+00 
74500 5.6884060449e+00 7.9007758192e-05 2.8699444630e+00 -4.9708896247e+00 2.8699444630e+00 4.9708896247e+00 
74600 5.6884060457e+00 7.9506358180e-05 2.8699430865e+00 -4.9708872406e+00 2.8699430865e+00 4.9708872406e+00 
74700 5.6884060464e+00 7.9883121388e-05 2.8699417013e+00 -4.9708848415e+00 2.8699417013e+00 4.9708848415e+00 
74800 5.6884060472e+00 8.0138238659e-05 2.8699403096e+00 -4.9708824309e+00 2.8699403096e+00 4.9708824309e+00 
74900 5.6884060480e+00 8.0272342477e-05 2.8699389134e+00 -4.9708800127e+00 2.8699389134e+00 4.9708800127e+00 
75000 5.6884060488e+00 8.0286495905e-05 2.8699375149e+00 -4.9708775904e+00 2.8699375149e+00 4.9708775904e+00 
75100 5.6884060495e+00 8.0182180231e-05 2.8699361162e+00 -4.9708751677e+00 2.8699361162e+00 4.9708751677e+00 
75200 5.6884060503e+00 7.9961281026e-05 2.8699347193e+00 -4.9708727482e+00 2.8699347193e+00 4.9708727482e+00 
75300 5.6884060511e+00 7.9626073075e-05 2.8699333262e+00 -4.9708703353e+00 2.8699333262e+00 4.9708703353e+00 
75400 5.6884060519e+00 7.9179204007e-05 2.8699319389e+00 -4.9708679325e+00 2.8699319389e+00 4.9708679325e+00 
75500 5.6884060526e+00 7.8623676844e-05 2.8699305595e+00 -4.9708655432e+00 2.8699305595e+00 4.9708655432e+00 
75600 5.6884060534e+00 7.7962831549e-05 2.8699291897e+00 -4.9708631707e+00 2.8699291897e+00 4.9708631707e+00 
75700 5.6884060542e+00 7.7200325656e-05 2.8699278314e+00 -4.9708608181e+00 2.8699278314e+00 4.9708608181e+00 
75800 5.6884060550e+00 7.6340114053e-05 2.8699264864e+00 -4.9708584885e+00 2.8699264864e+00 4.9708584885e+00 
75900 5.6884060557e+00 7.5386428072e-05 2.8699251564e+00 -4.9708561848e+00 2.8699251564e+00 4.9708561848e+00 
76000 5.6884060565e+00 7.4343753974e-05 2.8699238430e+00 -4.9708539100e+00 2.8699238430e+00 4.9708539100e+00 
76100 5.6884060573e+00 7.3216810874e-05 2.8699225478e+00 -4.9708516666e+00 2.8699225478e+00 4.9708516666e+00 
76200 5.6884060581e+00 7.2010528262e-05 2.8699212722e+00 -4.9708494572e+00 2.8699212722e+00 4.9708494572e+00 
76300 5.6884060588e+00 7.0730023194e-05 2.8699200177e+00 -4.9708472842e+00 2.8699200177e+00 4.9708472842e+00 
76400 5.6884060596e+00 6.9380577273e-05 2.8699187854e+00 -4.9708451499e+00 2.8699187854e+00 4.9708451499e+00 
76500 5.6884060604e+00 6.8263650662e-05 2.8699187854e+00 -4.9708451499e+00 2.8699187854e+00 4.9708451499e+00 
76600 5.6884060612e+00 6.7093177771e-05 2.8699187854e+00 -4.9708451499e+00 2.8699187854e+00 4.9708451499e+00 
76700 5.6884060619e+00 6.5875612349e-05 2.8699187854e+00 -4.9708451499e+00 2.8699187854e+00 4.9708451499e+00 
76800 5.6884060627e+00 6.4617437939e-05 2.8699187854e+00 -4.9708451499e+00 2.8699187854e+00 4.9708451499e+00 
76900 5.6884060634e+00 6.3325138853e-05 2.8699187854e+00 -4.9708451499e+00 2.8699187854e+00 4.9708451499e+00 
77000 5.6884060642e+00 6.2005172258e-05 2.8699187854e+00 -4.9708451499e+00 2.8699187854e+00 4.9708451499e+00 
77100 5.6884060649e+00 6.0663941349e-05 2.8699187854e+00 -4.9708451499e+00 2.8699187854e+00 4.9708451499e+00 
77200 5.6884060656e+00 5.9307769755e-05 2.8699187854e+00 -4.9708451499e+00 2.8699187854e+00 4.9708451499e+00 
77300 5.6884060662e+00 5.7942877138e-05 2.8699187854e+00 -4.9708451499e+00 2.8699187854e+00 4.9708451499e+00 
77400 5.6884060669e+00 5.6575356061e-05 2.8699187854e+00 -4.9708451499e+00 2.8699187854e+00 4.9708451499e+00 
77500 5.6884060675e+00 5.5211150203e-05 2.8699187854e+00 -4.9708451499e+00 2.8699187854e+00 4.9708451499e+00 
77600 5.6884060682e+00 5.3856033861e-05 2.8699187854e+00 -4.9708451499e+00 2.8699187854e+00 4.9708451499e+00 
77700 5.6884060688e+00 5.2515592880e-05 2.8699187854e+00 -4.9708451499e+00 2.8699187854e+00 4.9708451499e+00 
77800 5.6884060694e+00 5.1195206934e-05 2.8699187854e+00 -4.9708451499e+00 2.8699187854e+00 4.9708451499e+00 
77900 5.6884060700e+00 4.9900033255e-05 2.8699187854e+00 -4.9708451499e+00 2.8699187854e+00 4.9708451499e+00 
78000 5.6884060705e+00 4.8634991761e-05 2.8699187854e+00 -4.9708451499e+00 2.8699187854e+00 4.9708451499e+00 
78100 5.6884060711e+00 4.7404751644e-05 2.8699187854e+00 -4.9708451499e+00 2.8699187854e+00 4.9708451499e+00 
78200 5.6884060716e+00 4.6213719391e-05 2.8699187854e+00 -4.9708451499e+00 2.8699187854e+00 4.9708451499e+00 
78300 5.6884060721e+00 4.5066028238e-05 2.8699187854e+00 -4.9708451499e+00 2.8699187854e+00 4.9708451499e+00 
78400 5.6884060727e+00 4.3965529073e-05 2.8699187854e+00 -4.9708451499e+00 2.8699187854e+00 4.9708451499e+00 
78500 5.6884060732e+00 4.2915782734e-05 2.8699187854e+00 -4.9708451499e+00 2.8699187854e+00 4.9708451499e+00 
78600 5.6884060737e+00 4.1920053752e-05 2.8699187854e+00 -4.9708451499e+00 2.8699187854e+00 4.9708451499e+00 
78700 5.6884060742e+00 4.0981305444e-05 2.8699187854e+00 -4.9708451499e+00 2.8699187854e+00 4.9708451499e+00 
78800 5.6884060746e+00 4.0102196384e-05 2.8699187854e+00 -4.9708451499e+00 2.8699187854e+00 4.9708451499e+00 
78900 5.6884060751e+00 3.9285078201e-05 2.8699187854e+00 -4.9708451499e+00 2.8699187854e+00 4.9708451499e+00 
79000 5.6884060756e+00 3.8531994699e-05 2.8699187854e+00 -4.9708451499e+00 2.8699187854e+00 4.9708451499e+00 
79100 5.6884060761e+00 3.7844682204e-05 2.8699187854e+00 -4.9708451499e+00 2.8699187854e+00 4.9708451499e+00 
79200 5.6884060765e+00 3.7224571162e-05 2.8699187854e+00 -4.9708451499e+00 2.8699187854e+00 4.9708451499e+00 
79300 5.6884060770e+00 3.6672788901e-05 2.8699187854e+00 -4.9708451499e+00 2.8699187854e+00 4.9708451499e+00 
79400 5.6884060774e+00 3.6190163528e-05 2.8699187854e+00 -4.9708451499e+00 2.8699187854e+00 4.9708451499e+00 
79500 5.6884060779e+00 3.5777228923e-05 2.8699187854e+00 -4.9708451499e+00 2.8699187854e+00 4.9708451499e+00 
79600 5.6884060784e+00 3.5434230749e-05 2.8699187854e+00 -4.9708451499e+00 2.8699187854e+00 4.9708451499e+00 
79700 5.6884060788e+00 3.5161133438e-05 2.8699187854e+00 -4.9708451499e+00 2.8699187854e+00 4.9708451499e+00 
79800 5.6884060793e+00 3.4957628113e-05 2.8699187854e+00 -4.9708451499e+00 2.8699187854e+00 4.9708451499e+00 
79900 5.6884060797e+00 3.4823141345e-05 2.8699187854e+00 -4.9708451499e+00 2.8699187854e+00 4.9708451499e+00 
80000 5.6884060802e+00 3.4756844737e-05 2.8699187854e+00 -4.9708451499e+00 2.8699187854e+00 4.9708451499e+00 
80100 5.6884060806e+00 3.4757665224e-05 2.8699187854e+00 -4.9708451499e+00 2.8699187854e+00 4.9708451499e+00 
80200 5.6884060811e+00 3.4824296084e-05 2.8699187854e+00 -4.9708451499e+00 2.8699187854e+00 4.9708451499e+00 
80300 5.6884060815e+00 3.4955208516e-05 2.8699187854e+00 -4.9708451499e+00 2.8699187854e+00 4.9708451499e+00 
80400 5.6884060819e+00 3.5148663815e-05 2.8699187854e+00 -4.9708451499e+00 2.8699187854e+00 4.9708451499e+00 
80500 5.6884060824e+00 3.5402726005e-05 2.8699187854e+00 -4.9708451499e+00 2.8699187854e+00 4.9708451499e+00 
80600 5.6884060828e+00 3.5715274906e-05 2.8699187854e+00 -4.9708451499e+00 2.8699187854e+00 4.9708451499e+00 
80700 5.6884060833e+00 3.6084019541e-05 2.8699187854e+00 -4.9708451499e+00 2.8699187854e+00 4.9708451499e+00 
80800 5.6884060837e+00 3.6506511881e-05 2.8699187854e+00 -4.9708451499e+00 2.8699187854e+00 4.9708451499e+00 
80900 5.6884060841e+00 3.6980160768e-05 2.8699187854e+00 -4.9708451499e+00 2.8699187854e+00 4.9708451499e+00 
81000 5.6884060846e+00 3.7502246061e-05 2.8699187854e+00 -4.9708451499e+00 2.8699187854e+00 4.9708451499e+00 
81100 5.6884060850e+00 3.8069932845e-05 2.8699187854e+00 -4.9708451499e+00 2.8699187854e+00 4.9708451499e+00 
81200 5.6884060854e+00 3.8680285728e-05 2.8699187854e+00 -4.9708451499e+00 2.8699187854e+00 4.9708451499e+00 
81300 5.6884060858e+00 3.9330283118e-05 2.8699187854e+00 -4.9708451499e+00 2.8699187854e+00 4.9708451499e+00 
81400 5.6884060862e+00 4.0016831433e-05 2.8699187854e+00 -4.9708451499e+00 2.8699187854e+00 4.9708451499e+00 
81500 5.6884060867e+00 4.0736779212e-05 2.8699187854e+00 -4.9708451499e+00 2.8699187854e+00 4.9708451499e+00 
81600 5.6884060871e+00 4.1486931012e-05 2.8699187854e+00 -4.9708451499e+00 2.8699187854e+00 4.9708451499e+00 
81700 5.6884060875e+00 4.2264061160e-05 2.8699187854e+00 -4.9708451499e+00 2.8699187854e+00 4.9708451499e+00 
81800 5.6884060878e+00 4.3064927161e-05 2.8699187854e+00 -4.9708451499e+00 2.8699187854e+00 4.9708451499e+00 
81900 5.6884060882e+00 4.3886282868e-05 2.8699187854e+00 -4.9708451499e+00 2.8699187854e+00 4.9708451499e+00 
82000 5.6884060886e+00 4.4724891208e-05 2.8699187854e+00 -4.9708451499e+00 2.8699187854e+00 4.9708451499e+00 
82100 5.6884060890e+00 4.5577536611e-05 2.8699187854e+00 -4.9708451499e+00 2.8699187854e+00 4.9708451499e+00 
82200 5.6884060893e+00 4.6441036934e-05 2.8699187854e+00 -4.9708451499e+00 2.8699187854e+00 4.9708451499e+00 
82300 5.6884060897e+00 4.7312254964e-05 2.8699187854e+00 -4.9708451499e+00 2.8699187854e+00 4.9708451499e+00 
82400 5.6884060901e+00 4.8188109372e-05 2.8699187854e+00 -4.9708451499e+00 2.8699187854e+00 4.9708451499e+00 
82500 5.6884060904e+00 4.9065585196e-05 2.8699187854e+00 -4.9708451499e+00 2.8699187854e+00 4.9708451499e+00 
82600 5.6884060908e+00 4.9941743735e-05 2.8699187854e+00 -4.9708451499e+00 2.8699187854e+00 4.9708451499e+00 
82700 5.6884060911e+00 5.0813731870e-05 2.8699187854e+00 -4.9708451499e+00 2.8699187854e+00 4.9708451499e+00 
82800 5.6884060914e+00 5.1678790785e-05 2.8699187854e+00 -4.9708451499e+00 2.8699187854e+00 4.9708451499e+00 
82900 5.6884060917e+00 5.2534264089e-05 2.8699187854e+00 -4.9708451499e+00 2.8699187854e+00 4.9708451499e+00 
83000 5.6884060921e+00 5.3377605294e-05 2.8699187854e+00 -4.9708451499e+00 2.8699187854e+00 4.9708451499e+00 
83100 5.6884060924e+00 5.4206384657e-05 2.8699187854e+00 -4.9708451499e+00 2.8699187854e+00 4.9708451499e+00 
83200 5.6884060927e+00 5.5018295366e-05 2.8699187854e+00 -4.9708451499e+00 2.8699187854e+00 4.9708451499e+00 
83300 5.6884060930e+00 5.5811159079e-05 2.8699187854e+00 -4.9708451499e+00 2.8699187854e+00 4.9708451499e+00 
83400 5.6884060933e+00 5.6582930802e-05 2.8699187854e+00 -4.9708451499e+00 2.8699187854e+00 4.9708451499e+00 
83500 5.6884060936e+00 5.7331703093e-05 2.8699187854e+00 -4.9708451499e+00 2.8699187854e+00 4.9708451499e+00 
83600 5.6884060938e+00 5.8055709646e-05 2.8699187854e+00 -4.9708451499e+00 2.8699187854e+00 4.9708451499e+00 
83700 5.6884060941e+00 5.8753328161e-05 2.8699187854e+00 -4.9708451499e+00 2.8699187854e+00 4.9708451499e+00 
83800 5.6884060944e+00 5.9423082638e-05 2.8699187854e+00 -4.9708451499e+00 2.8699187854e+00 4.9708451499e+00 
83900 5.6884060947e+00 6.0063644970e-05 2.8699187854e+00 -4.9708451499e+00 2.8699187854e+00 4.9708451499e+00 
84000 5.6884060950e+00 6.0673835974e-05 2.8699187854e+00 -4.9708451499e+00 2.8699187854e+00 4.9708451499e+00 
84100 5.6884060952e+00 6.1252625749e-05 2.8699187854e+00 -4.9708451499e+00 2.8699187854e+00 4.9708451499e+00 
84200 5.6884060955e+00 6.1799133477e-05 2.8699187854e+00 -4.9708451499e+00 2.8699187854e+00 4.9708451499e+00 
84300 5.6884060958e+00 6.2312626647e-05 2.8699187854e+00 -4.9708451499e+00 2.8699187854e+00 4.9708451499e+00 
84400 5.6884060960e+00 6.2792519689e-05 2.8699187854e+00 -4.9708451499e+00 2.8699187854e+00 4.9708451499e+00 
84500 5.6884060963e+00 6.3238372114e-05 2.8699187854e+00 -4.9708451499e+00 2.8699187854e+00 4.9708451499e+00 
84600 5.6884060965e+00 6.3649886100e-05 2.8699187854e+00 -4.9708451499e+00 2.8699187854e+00 4.9708451499e+00 
84700 5.6884060968e+00 6.4026903604e-05 2.8699187854e+00 -4.9708451499e+00 2.8699187854e+00 4.9708451499e+00 
84800 5.6884060970e+00 6.4369403023e-05 2.8699187854e+00 -4.9708451499e+00 2.8699187854e+00 4.9708451499e+00 
84900 5.6884060973e+00 6.4677495377e-05 2.8699187854e+00 -4.9708451499e+00 2.8699187854e+00 4.9708451499e+00 
85000 5.6884060975e+00 6.4951420128e-05 2.8699187854e+00 -4.9708451499e+00 2.8699187854e+00 4.9708451499e+00 
85100 5.6884060978e+00 6.5191540568e-05 2.8699187854e+00 -4.9708451499e+00 2.8699187854e+00 4.9708451499e+00 
85200 5.6884060980e+00 6.5398338886e-05 2.8699187854e+00 -4.9708451499e+00 2.8699187854e+00 4.9708451499e+00 
85300 5.6884060983e+00 6.5572410884e-05 2.8699187854e+00 -4.9708451499e+00 2.8699187854e+00 4.9708451499e+00 
85400 5.6884060985e+00 6.5714460429e-05 2.8699187854e+00 -4.9708451499e+00 2.8699187854e+00 4.9708451499e+00 
85500 5.6884060987e+00 6.5825293603e-05 2.8699187854e+00 -4.9708451499e+00 2.8699187854e+00 4.9708451499e+00 
85600 5.6884060990e+00 6.5905812642e-05 2.8699187854e+00 -4.9708451499e+00 2.8699187854e+00 4.9708451499e+00 
85700 5.6884060992e+00 6.5957009664e-05 2.8699187854e+00 -4.9708451499e+00 2.8699187854e+00 4.9708451499e+00 
85800 5.6884060994e+00 6.5979960203e-05 2.8699187854e+00 -4.9708451499e+00 2.8699187854e+00 4.9708451499e+00 
85900 5.6884060997e+00 6.5975816650e-05 2.8699187854e+00 -4.9708451499e+00 2.8699187854e+00 4.9708451499e+00 
86000 5.6884060999e+00 6.5945801514e-05 2.8699187854e+00 -4.9708451499e+00 2.8699187854e+00 4.9708451499e+00 
86100 5.6884061001e+00 6.5891200644e-05 2.8699187854e+00 -4.9708451499e+00 2.8699187854e+00 4.9708451499e+00 
86200 5.6884061003e+00 6.5813356385e-05 2.8699187854e+00 -4.9708451499e+00 2.8699187854e+00 4.9708451499e+00 
86300 5.6884061005e+00 6.5713660689e-05 2.8699187854e+00 -4.9708451499e+00 2.8699187854e+00 4.9708451499e+00 
86400 5.6884061008e+00 6.5593548262e-05 2.8699187854e+00 -4.9708451499e+00 2.8699187854e+00 4.9708451499e+00 
86500 5.6884061010e+00 6.5454489686e-05 2.8699187854e+00 -4.9708451499e+00 2.8699187854e+00 4.9708451499e+00 
86600 5.6884061012e+00 6.5297984658e-05 2.8699187854e+00 -4.9708451499e+00 2.8699187854e+00 4.9708451499e+00 
86700 5.6884061014e+00 6.5125555251e-05 2.8699187854e+00 -4.9708451499e+00 2.8699187854e+00 4.9708451499e+00 
86800 5.6884061016e+00 6.4938739303e-05 2.8699187854e+00 -4.9708451499e+00 2.8699187854e+00 4.9708451499e+00 
86900 5.6884061018e+00 6.4739083952e-05 2.8699187854e+00 -4.9708451499e+00 2.8699187854e+00 4.9708451499e+00 
87000 5.6884061020e+00 6.4528139259e-05 2.8699187854e+00 -4.9708451499e+00 2.8699187854e+00 4.9708451499e+00 
87100 5.6884061022e+00 6.4307452067e-05 2.8699187854e+00 -4.9708451499e+00 2.8699187854e+00 4.9708451499e+00 
87200 5.6884061024e+00 6.4078560001e-05 2.8699187854e+00 -4.9708451499e+00 2.8699187854e+00 4.9708451499e+00 
87300 5.6884061026e+00 6.3842985709e-05 2.8699187854e+00 -4.9708451499e+00 2.8699187854e+00 4.9708451499e+00 
87400 5.6884061028e+00 6.3602231274e-05 2.8699187854e+00 -4.9708451499e+00 2.8699187854e+00 4.9708451499e+00 
87500 5.6884061030e+00 6.3357772931e-05 2.8699187854e+00 -4.9708451499e+00 2.8699187854e+00 4.9708451499e+00 
87600 5.6884061032e+00 6.3111055982e-05 2.8699187854e+00 -4.9708451499e+00 2.8699187854e+00 4.9708451499e+00 
87700 5.6884061033e+00 6.2863490009e-05 2.8699187854e+00 -4.9708451499e+00 2.8699187854e+00 4.9708451499e+00 
87800 5.6884061035e+00 6.2616444333e-05 2.8699187854e+00 -4.9708451499e+00 2.8699187854e+00 4.9708451499e+00 
87900 5.6884061037e+00 6.2371243800e-05 2.8699187854e+00 -4.9708451499e+00 2.8699187854e+00 4.9708451499e+00 
88000 5.6884061039e+00 6.2129164826e-05 2.8699187854e+00 -4.9708451499e+00 2.8699187854e+00 4.9708451499e+00 
88100 5.6884061040e+00 6.1891431762e-05 2.8699187854e+00 -4.9708451499e+00 2.8699187854e+00 4.9708451499e+00 
88200 5.6884061042e+00 6.1659213553e-05 2.8699187854e+00 -4.9708451499e+00 2.8699187854e+00 4.9708451499e+00 
88300 5.6884061044e+00 6.1433620737e-05 2.8699187854e+00 -4.9708451499e+00 2.8699187854e+00 4.9708451499e+00 
88400 5.6884061045e+00 6.1215702726e-05 2.8699187854e+00 -4.9708451499e+00 2.8699187854e+00 4.9708451499e+00 
88500 5.6884061047e+00 6.1006445414e-05 2.8699187854e+00 -4.9708451499e+00 2.8699187854e+00 4.9708451499e+00 
88600 5.6884061049e+00 6.0806769139e-05 2.8699187854e+00 -4.9708451499e+00 2.8699187854e+00 4.9708451499e+00 
88700 5.6884061050e+00 6.0617526887e-05 2.8699187854e+00 -4.9708451499e+00 2.8699187854e+00 4.9708451499e+00 
88800 5.6884061052e+00 6.0439502880e-05 2.8699187854e+00 -4.9708451499e+00 2.8699187854e+00 4.9708451499e+00 
88900 5.6884061053e+00 6.0273411448e-05 2.8699187854e+00 -4.9708451499e+00 2.8699187854e+00 4.9708451499e+00 
89000 5.6884061055e+00 6.0119896191e-05 2.8699187854e+00 -4.9708451499e+00 2.8699187854e+00 4.9708451499e+00 
89100 5.6884061056e+00 5.9979529481e-05 2.8699187854e+00 -4.9708451499e+00 2.8699187854e+00 4.9708451499e+00 
89200 5.6884061058e+00 5.9852812230e-05 2.8699187854e+00 -4.9708451499e+00 2.8699187854e+00 4.9708451499e+00 
89300 5.6884061059e+00 5.9740173950e-05 2.8699187854e+00 -4.9708451499e+00 2.8699187854e+00 4.9708451499e+00 
89400 5.6884061061e+00 5.9641973098e-05 2.8699187854e+00 -4.9708451499e+00 2.8699187854e+00 4.9708451499e+00 
89500 5.6884061062e+00 5.9558497678e-05 2.8699187854e+00 -4.9708451499e+00 2.8699187854e+00 4.9708451499e+00 
89600 5.6884061063e+00 5.9489966148e-05 2.8699187854e+00 -4.9708451499e+00 2.8699187854e+00 4.9708451499e+00 
89700 5.6884061065e+00 5.9436528501e-05 2.8699187854e+00 -4.9708451499e+00 2.8699187854e+00 4.9708451499e+00 
89800 5.6884061066e+00 5.9398267652e-05 2.8699187854e+00 -4.9708451499e+00 2.8699187854e+00 4.9708451499e+00 
89900 5.6884061067e+00 5.9375201008e-05 2.8699187854e+00 -4.9708451499e+00 2.8699187854e+00 4.9708451499e+00 
90000 5.6884061069e+00 5.9367282283e-05 2.8699187854e+00 -4.9708451499e+00 2.8699187854e+00 4.9708451499e+00 
90100 5.6884061070e+00 5.9374403476e-05 2.8699187854e+00 -4.9708451499e+00 2.8699187854e+00 4.9708451499e+00 
90200 5.6884061071e+00 5.9396397072e-05 2.8699187854e+00 -4.9708451499e+00 2.8699187854e+00 4.9708451499e+00 
90300 5.6884061073e+00 5.9433038403e-05 2.8699187854e+00 -4.9708451499e+00 2.8699187854e+00 4.9708451499e+00 
90400 5.6884061074e+00 5.9484048144e-05 2.8699187854e+00 -4.9708451499e+00 2.8699187854e+00 4.9708451499e+00 
90500 5.6884061075e+00 5.9549094998e-05 2.8699187854e+00 -4.9708451499e+00 2.8699187854e+00 4.9708451499e+00 
90600 5.6884061077e+00 5.9627798477e-05 2.8699187854e+00 -4.9708451499e+00 2.8699187854e+00 4.9708451499e+00 
90700 5.6884061078e+00 5.9719731799e-05 2.8699187854e+00 -4.9708451499e+00 2.8699187854e+00 4.9708451499e+00 
90800 5.6884061079e+00 5.9824424918e-05 2.8699187854e+00 -4.9708451499e+00 2.8699187854e+00 4.9708451499e+00 
90900 5.6884061080e+00 5.9941367583e-05 2.8699187854e+00 -4.9708451499e+00 2.8699187854e+00 4.9708451499e+00 
91000 5.6884061081e+00 6.0070012541e-05 2.8699187854e+00 -4.9708451499e+00 2.8699187854e+00 4.9708451499e+00 
91100 5.6884061083e+00 6.0209778730e-05 2.8699187854e+00 -4.9708451499e+00 2.8699187854e+00 4.9708451499e+00 
91200 5.6884061084e+00 6.0360054547e-05 2.8699187854e+00 -4.9708451499e+00 2.8699187854e+00 4.9708451499e+00 
91300 5.6884061085e+00 6.0520201137e-05 2.8699187854e+00 -4.9708451499e+00 2.8699187854e+00 4.9708451499e+00 
91400 5.6884061086e+00 6.0689555726e-05 2.8699187854e+00 -4.9708451499e+00 2.8699187854e+00 4.9708451499e+00 
91500 5.6884061087e+00 6.0867434894e-05 2.8699187854e+00 -4.9708451499e+00 2.8699187854e+00 4.9708451499e+00 
91600 5.6884061088e+00 6.1053137893e-05 2.8699187854e+00 -4.9708451499e+00 2.8699187854e+00 4.9708451499e+00 
91700 5.6884061089e+00 6.1245949911e-05 2.8699187854e+00 -4.9708451499e+00 2.8699187854e+00 4.9708451499e+00 
91800 5.6884061091e+00 6.1445145312e-05 2.8699187854e+00 -4.9708451499e+00 2.8699187854e+00 4.9708451499e+00 
91900 5.6884061092e+00 6.1649990824e-05 2.8699187854e+00 -4.9708451499e+00 2.8699187854e+00 4.9708451499e+00 
92000 5.6884061093e+00 6.1859748670e-05 2.8699187854e+00 -4.9708451499e+00 2.8699187854e+00 4.9708451499e+00 
92100 5.6884061094e+00 6.2073679625e-05 2.8699187854e+00 -4.9708451499e+00 2.8699187854e+00 4.9708451499e+00 
92200 5.6884061095e+00 6.2291045982e-05 2.8699187854e+00 -4.9708451499e+00 2.8699187854e+00 4.9708451499e+00 
92300 5.6884061096e+00 6.2511114473e-05 2.8699187854e+00 -4.9708451499e+00 2.8699187854e+00 4.9708451499e+00 
92400 5.6884061097e+00 6.2733159027e-05 2.8699187854e+00 -4.9708451499e+00 2.8699187854e+00 4.9708451499e+00 
92500 5.6884061098e+00 6.2956463477e-05 2.8699187854e+00 -4.9708451499e+00 2.8699187854e+00 4.9708451499e+00 
92600 5.6884061099e+00 6.3180324125e-05 2.8699187854e+00 -4.9708451499e+00 2.8699187854e+00 4.9708451499e+00 
92700 5.6884061100e+00 6.3404052192e-05 2.8699187854e+00 -4.9708451499e+00 2.8699187854e+00 4.9708451499e+00 
92800 5.6884061101e+00 6.3626976139e-05 2.8699187854e+00 -4.9708451499e+00 2.8699187854e+00 4.9708451499e+00 
92900 5.6884061102e+00 6.3848443859e-05 2.8699187854e+00 -4.9708451499e+00 2.8699187854e+00 4.9708451499e+00 
93000 5.6884061103e+00 6.4067824724e-05 2.8699187854e+00 -4.9708451499e+00 2.8699187854e+00 4.9708451499e+00 
93100 5.6884061104e+00 6.4284511512e-05 2.8699187854e+00 -4.9708451499e+00 2.8699187854e+00 4.9708451499e+00 
93200 5.6884061104e+00 6.4497922161e-05 2.8699187854e+00 -4.9708451499e+00 2.8699187854e+00 4.9708451499e+00 
93300 5.6884061105e+00 6.4707501382e-05 2.8699187854e+00 -4.9708451499e+00 2.8699187854e+00 4.9708451499e+00 
93400 5.6884061106e+00 6.4912722130e-05 2.8699187854e+00 -4.9708451499e+00 2.8699187854e+00 4.9708451499e+00 
93500 5.6884061107e+00 6.5113086929e-05 2.8699187854e+00 -4.9708451499e+00 2.8699187854e+00 4.9708451499e+00 
93600 5.6884061108e+00 6.5308129026e-05 2.8699187854e+00 -4.9708451499e+00 2.8699187854e+00 4.9708451499e+00 
93700 5.6884061109e+00 6.5497413385e-05 2.8699187854e+00 -4.9708451499e+00 2.8699187854e+00 4.9708451499e+00 
93800 5.6884061110e+00 6.5680537572e-05 2.8699187854e+00 -4.9708451499e+00 2.8699187854e+00 4.9708451499e+00 
93900 5.6884061110e+00 6.5857132443e-05 2.8699187854e+00 -4.9708451499e+00 2.8699187854e+00 4.9708451499e+00 
94000 5.6884061111e+00 6.6026862694e-05 2.8699187854e+00 -4.9708451499e+00 2.8699187854e+00 4.9708451499e+00 
94100 5.6884061112e+00 6.6189427273e-05 2.8699187854e+00 -4.9708451499e+00 2.8699187854e+00 4.9708451499e+00 
94200 5.6884061113e+00 6.6344559641e-05 2.8699187854e+00 -4.9708451499e+00 2.8699187854e+00 4.9708451499e+00 
94300 5.6884061114e+00 6.6492027876e-05 2.8699187854e+00 -4.9708451499e+00 2.8699187854e+00 4.9708451499e+00 
94400 5.6884061114e+00 6.6631634671e-05 2.8699187854e+00 -4.9708451499e+00 2.8699187854e+00 4.9708451499e+00 
94500 5.6884061115e+00 6.6763217151e-05 2.8699187854e+00 -4.9708451499e+00 2.8699187854e+00 4.9708451499e+00 
94600 5.6884061116e+00 6.6886646605e-05 2.8699187854e+00 -4.9708451499e+00 2.8699187854e+00 4.9708451499e+00 
94700 5.6884061117e+00 6.7001828055e-05 2.8699187854e+00 -4.9708451499e+00 2.8699187854e+00 4.9708451499e+00 
94800 5.6884061117e+00 6.7108699732e-05 2.8699187854e+00 -4.9708451499e+00 2.8699187854e+00 4.9708451499e+00 
94900 5.6884061118e+00 6.7207232414e-05 2.8699187854e+00 -4.9708451499e+00 2.8699187854e+00 4.9708451499e+00 
95000 5.6884061119e+00 6.7297428670e-05 2.8699187854e+00 -4.9708451499e+00 2.8699187854e+00 4.9708451499e+00 
95100 5.6884061120e+00 6.7379321991e-05 2.8699187854e+00 -4.9708451499e+00 2.8699187854e+00 4.9708451499e+00 
95200 5.6884061120e+00 6.7452975825e-05 2.8699187854e+00 -4.9708451499e+00 2.8699187854e+00 4.9708451499e+00 
95300 5.6884061121e+00 6.7518482539e-05 2.8699187854e+00 -4.9708451499e+00 2.8699187854e+00 4.9708451499e+00 
95400 5.6884061122e+00 6.7575962253e-05 2.8699187854e+00 -4.9708451499e+00 2.8699187854e+00 4.9708451499e+00 
95500 5.6884061122e+00 6.7625561645e-05 2.8699187854e+00 -4.9708451499e+00 2.8699187854e+00 4.9708451499e+00 
95600 5.6884061123e+00 6.7667452657e-05 2.8699187854e+00 -4.9708451499e+00 2.8699187854e+00 4.9708451499e+00 
95700 5.6884061124e+00 6.7701831161e-05 2.8699187854e+00 -4.9708451499e+00 2.8699187854e+00 4.9708451499e+00 
95800 5.6884061124e+00 6.7728915515e-05 2.8699187854e+00 -4.9708451499e+00 2.8699187854e+00 4.9708451499e+00 
95900 5.6884061125e+00 6.7748945153e-05 2.8699187854e+00 -4.9708451499e+00 2.8699187854e+00 4.9708451499e+00 
96000 5.6884061126e+00 6.7762179049e-05 2.8699187854e+00 -4.9708451499e+00 2.8699187854e+00 4.9708451499e+00 
96100 5.6884061126e+00 6.7768894210e-05 2.8699187854e+00 -4.9708451499e+00 2.8699187854e+00 4.9708451499e+00 
96200 5.6884061127e+00 6.7769384088e-05 2.8699187854e+00 -4.9708451499e+00 2.8699187854e+00 4.9708451499e+00 
96300 5.6884061127e+00 6.7763957030e-05 2.8699187854e+00 -4.9708451499e+00 2.8699187854e+00 4.9708451499e+00 
96400 5.6884061128e+00 6.7752934649e-05 2.8699187854e+00 -4.9708451499e+00 2.8699187854e+00 4.9708451499e+00 
96500 5.6884061129e+00 6.7736650242e-05 2.8699187854e+00 -4.9708451499e+00 2.8699187854e+00 4.9708451499e+00 
96600 5.6884061129e+00 6.7715447158e-05 2.8699187854e+00 -4.9708451499e+00 2.8699187854e+00 4.9708451499e+00 
96700 5.6884061130e+00 6.7689677225e-05 2.8699187854e+00 -4.9708451499e+00 2.8699187854e+00 4.9708451499e+00 
96800 5.6884061130e+00 6.7659699134e-05 2.8699187854e+00 -4.9708451499e+00 2.8699187854e+00 4.9708451499e+00 
96900 5.6884061131e+00 6.7625876877e-05 2.8699187854e+00 -4.9708451499e+00 2.8699187854e+00 4.9708451499e+00 
97000 5.6884061132e+00 6.7588578192e-05 2.8699187854e+00 -4.9708451499e+00 2.8699187854e+00 4.9708451499e+00 
97100 5.6884061132e+00 6.7548173032e-05 2.8699187854e+00 -4.9708451499e+00 2.8699187854e+00 4.9708451499e+00 
97200 5.6884061133e+00 6.7505032091e-05 2.8699187854e+00 -4.9708451499e+00 2.8699187854e+00 4.9708451499e+00 
97300 5.6884061133e+00 6.7459525344e-05 2.8699187854e+00 -4.9708451499e+00 2.8699187854e+00 4.9708451499e+00 
97400 5.6884061134e+00 6.7412020624e-05 2.8699187854e+00 -4.9708451499e+00 2.8699187854e+00 4.9708451499e+00 
97500 5.6884061134e+00 6.7362882287e-05 2.8699187854e+00 -4.9708451499e+00 2.8699187854e+00 4.9708451499e+00 
97600 5.6884061135e+00 6.7312469868e-05 2.8699187854e+00 -4.9708451499e+00 2.8699187854e+00 4.9708451499e+00 
97700 5.6884061135e+00 6.7261136855e-05 2.8699187854e+00 -4.9708451499e+00 2.8699187854e+00 4.9708451499e+00 
97800 5.6884061136e+00 6.7209229476e-05 2.8699187854e+00 -4.9708451499e+00 2.8699187854e+00 4.9708451499e+00 
97900 5.6884061136e+00 6.7157085555e-05 2.8699187854e+00 -4.9708451499e+00 2.8699187854e+00 4.9708451499e+00 
98000 5.6884061137e+00 6.7105033454e-05 2.8699187854e+00 -4.9708451499e+00 2.8699187854e+00 4.9708451499e+00 
98100 5.6884061137e+00 6.7053391057e-05 2.8699187854e+00 -4.9708451499e+00 2.8699187854e+00 4.9708451499e+00 
98200 5.6884061138e+00 6.7002464842e-05 2.8699187854e+00 -4.9708451499e+00 2.8699187854e+00 4.9708451499e+00 
98300 5.6884061138e+00 6.6954522655e-05 2.8699187854e+00 -4.9708451499e+00 2.8699187854e+00 4.9708451499e+00 
98300 5.6884061138e+00 6.6954522655e-05 2.8699187854e+00 -4.9708451499e+00 2.8699187854e+00 4.9708451499e+00 
