# step Hamiltonian StressXX CellTensor1 CellTensor2 CellTensor3 CellTensor4 
0 6.6249599278e+00 1.1544046961e-01 1.7439943123e+00 -3.0206867570e+00 1.7439943123e+00 3.0206867570e+00 
100 6.6186466919e+00 1.1857156263e-01 1.7439943123e+00 -3.0206867570e+00 1.7439943123e+00 3.0206867570e+00 
200 6.6116973025e+00 1.1882647555e-01 1.7405959937e+00 -3.0148006965e+00 1.7405959937e+00 3.0148006965e+00 
300 6.6046064157e+00 1.1862006310e-01 1.7371837268e+00 -3.0088904768e+00 1.7371837268e+00 3.0088904768e+00 
400 6.5974131805e+00 1.1799310580e-01 1.7337706988e+00 -3.0029789390e+00 1.7337706988e+00 3.0029789390e+00 
500 6.5901520225e+00 1.1698241247e-01 1.7303690254e+00 -2.9970870679e+00 1.7303690254e+00 2.9970870679e+00 
600 6.5828532973e+00 1.1562142366e-01 1.7269898546e+00 -2.9912341723e+00 1.7269898546e+00 2.9912341723e+00 
700 6.5755438336e+00 1.1394071663e-01 1.7236434540e+00 -2.9854380364e+00 1.7236434540e+00 2.9854380364e+00 
800 6.5682473826e+00 1.1196842501e-01 1.7203392836e+00 -2.9797150455e+00 1.7203392836e+00 2.9797150455e+00 
900 6.5609849910e+00 1.0973058509e-01 1.7170860574e+00 -2.9740802924e+00 1.7170860574e+00 2.9740802924e+00 
1000 6.5537753099e+00 1.0725141970e-01 1.7138917944e+00 -2.9685476666e+00 1.7138917944e+00 2.9685476666e+00 
1100 6.5466348529e+00 1.0455356926e-01 1.7107638628e+00 -2.9631299301e+00 1.7107638628e+00 2.9631299301e+00 
1200 6.5395782110e+00 1.0165827858e-01 1.7077090172e+00 -2.9578387823e+00 1.7077090172e+00 2.9578387823e+00 
1300 6.5326182345e+00 9.8585546883e-02 1.7047334313e+00 -2.9526849164e+00 1.7047334313e+00 2.9526849164e+00 
1400 6.5257661864e+00 9.5354247493e-02 1.7018427263e+00 -2.9476780685e+00 1.7018427263e+00 2.9476780685e+00 
1500 6.5190318751e+00 9.1982222807e-02 1.6990419962e+00 -2.9428270616e+00 1.6990419962e+00 2.9428270616e+00 
1600 6.5124237689e+00 8.8486359318e-02 1.6963358312e+00 -2.9381398464e+00 1.6963358312e+00 2.9381398464e+00 
1700 6.5059490972e+00 8.4882646784e-02 1.6937283390e+00 -2.9336235374e+00 1.6937283390e+00 2.9336235374e+00 
1800 6.4996139406e+00 8.1186224964e-02 1.6912231649e+00 -2.9292844486e+00 1.6912231649e+00 2.9292844486e+00 
1900 6.4934233130e+00 7.7411420836e-02 1.6888235114e+00 -2.9251281267e+00 1.6888235114e+00 2.9251281267e+00 
2000 6.4873812368e+00 7.3571778689e-02 1.6865321563e+00 -2.9211593832e+00 1.6865321563e+00 2.9211593832e+00 
2100 6.4814908126e+00 6.9680085078e-02 1.6843514715e+00 -2.9173823264e+00 1.6843514715e+00 2.9173823264e+00 
2200 6.4757542858e+00 6.5748390265e-02 1.6822834409e+00 -2.9138003924e+00 1.6822834409e+00 2.9138003924e+00 
2300 6.4701731087e+00 6.1788027428e-02 1.6803296784e+00 -2.9104163765e+00 1.6803296784e+00 2.9104163765e+00 
2400 6.4647480009e+00 5.7809630688e-02 1.6784914455e+00 -2.9072324636e+00 1.6784914455e+00 2.9072324636e+00 
2500 6.4594790068e+00 5.3823152711e-02 1.6767696692e+00 -2.9042502596e+00 1.6767696692e+00 2.9042502596e+00 
2600 6.4543655518e+00 4.9837882509e-02 1.6751649599e+00 -2.9014708216e+00 1.6751649599e+00 2.9014708216e+00 
2700 6.4494064959e+00 4.5862463828e-02 1.6736776287e+00 -2.8988946885e+00 1.6736776287e+00 2.8988946885e+00 
2800 6.4446001862e+00 4.1904914425e-02 1.6723077054e+00 -2.8965219116e+00 1.6723077054e+00 2.8965219116e+00 
2900 6.4399445077e+00 3.7972646379e-02 1.6710549551e+00 -2.8943520845e+00 1.6710549551e+00 2.8943520845e+00 
3000 6.4354369324e+00 3.4072487517e-02 1.6699188961e+00 -2.8923843726e+00 1.6699188961e+00 2.8923843726e+00 
3100 6.4310745663e+00 3.0210703919e-02 1.6688988162e+00 -2.8906175423e+00 1.6688988162e+00 2.8906175423e+00 
3200 6.4268541955e+00 2.6393023462e-02 1.6679937891e+00 -2.8890499895e+00 1.6679937891e+00 2.8890499895e+00 
3300 6.4227723298e+00 2.2624660253e-02 1.6672026910e+00 -2.8876797673e+00 1.6672026910e+00 2.8876797673e+00 
3400 6.4188252444e+00 1.8910339822e-02 1.6665242154e+00 -2.8865046132e+00 1.6665242154e+00 2.8865046132e+00 
3500 6.4150090206e+00 1.5254324893e-02 1.6659568889e+00 -2.8855219749e+00 1.6659568889e+00 2.8855219749e+00 
3600 6.4113195834e+00 1.1660441548e-02 1.6654990852e+00 -2.8847290355e+00 1.6654990852e+00 2.8847290355e+00 
3700 6.4077527376e+00 8.1321055840e-03 1.6651490390e+00 -2.8841227377e+00 1.6651490390e+00 2.8841227377e+00 
3800 6.4043042017e+00 4.6723488858e-03 1.6649048594e+00 -2.8836998063e+00 1.6649048594e+00 2.8836998063e+00 
3900 6.4009696401e+00 1.2838456119e-03 1.6647645426e+00 -2.8834567704e+00 1.6647645426e+00 2.8834567704e+00 
4000 6.3977446924e+00 -2.0310619727e-03 1.6647259834e+00 -2.8833899839e+00 1.6647259834e+00 2.8833899839e+00 
4100 6.3946250013e+00 -5.2703381865e-03 1.6647869866e+00 -2.8834956447e+00 1.6647869866e+00 2.8834956447e+00 
4200 6.3916062378e+00 -8.4322292904e-03 1.6649452778e+00 -2.8837698130e+00 1.6649452778e+00 2.8837698130e+00 
4300 6.3886841250e+00 -1.1515239652e-02 1.6651985127e+00 -2.8842084286e+00 1.6651985127e+00 2.8842084286e+00 
4400 6.3858544587e+00 -1.4518108826e-02 1.6655442864e+00 -2.8848073263e+00 1.6655442864e+00 2.8848073263e+00 
4500 6.3831131273e+00 -1.7439789654e-02 1.6659801422e+00 -2.8855622506e+00 1.6659801422e+00 2.8855622506e+00 
4600 6.3804561282e+00 -2.0279427462e-02 1.6665035789e+00 -2.8864688696e+00 1.6665035789e+00 2.8864688696e+00 
4700 6.3778795837e+00 -2.3036340416e-02 1.6671120582e+00 -2.8875227868e+00 1.6671120582e+00 2.8875227868e+00 
4800 6.3753797536e+00 -2.5710001085e-02 1.6678030115e+00 -2.8887195529e+00 1.6678030115e+00 2.8887195529e+00 
4900 6.3729530468e+00 -2.8300019249e-02 1.6685738454e+00 -2.8900546763e+00 1.6685738454e+00 2.8900546763e+00 
5000 6.3705960311e+00 -3.0806125957e-02 1.6694219473e+00 -2.8915236320e+00 1.6694219473e+00 2.8915236320e+00 
5100 6.3683054404e+00 -3.3228158847e-02 1.6703446907e+00 -2.8931218705e+00 1.6703446907e+00 2.8931218705e+00 
5200 6.3660781812e+00 -3.5566048723e-02 1.6713394392e+00 -2.8948448253e+00 1.6713394392e+00 2.8948448253e+00 
5300 6.3639113372e+00 -3.7819807359e-02 1.6724035503e+00 -2.8966879200e+00 1.6724035503e+00 2.8966879200e+00 
5400 6.3618021719e+00 -3.9989516522e-02 1.6735343799e+00 -2.8986465741e+00 1.6735343799e+00 2.8986465741e+00 
5500 6.3597481305e+00 -4.2075318153e-02 1.6747292842e+00 -2.9007162092e+00 1.6747292842e+00 2.9007162092e+00 
5600 6.3577468400e+00 -4.4077405691e-02 1.6759856238e+00 -2.9028922532e+00 1.6759856238e+00 2.9028922532e+00 
5700 6.3557961079e+00 -4.5996016472e-02 1.6773007653e+00 -2.9051701451e+00 1.6773007653e+00 2.9051701451e+00 
5800 6.3538939203e+00 -4.7831425160e-02 1.6786720840e+00 -2.9075453388e+00 1.6786720840e+00 2.9075453388e+00 
5900 6.3520384385e+00 -4.9583938159e-02 1.6800969658e+00 -2.9100133064e+00 1.6800969658e+00 2.9100133064e+00 
6000 6.3502279943e+00 -5.1253888933e-02 1.6815728089e+00 -2.9125695417e+00 1.6815728089e+00 2.9125695417e+00 
6100 6.3484610851e+00 -5.2841634194e-02 1.6830970255e+00 -2.9152095622e+00 1.6830970255e+00 2.9152095622e+00 
6200 6.3467363676e+00 -5.4347550881e-02 1.6846670431e+00 -2.9179289126e+00 1.6846670431e+00 2.9179289126e+00 
6300 6.3450526510e+00 -5.5772033881e-02 1.6862803060e+00 -2.9207231658e+00 1.6862803060e+00 2.9207231658e+00 
6400 6.3434088896e+00 -5.7115494423e-02 1.6879342760e+00 -2.9235879259e+00 1.6879342760e+00 2.9235879259e+00 
6500 6.3418041744e+00 -5.8378359094e-02 1.6896264339e+00 -2.9265188293e+00 1.6896264339e+00 2.9265188293e+00 
6600 6.3402377250e+00 -5.9561069409e-02 1.6913542802e+00 -2.9295115470e+00 1.6913542802e+00 2.9295115470e+00 
6700 6.3387088802e+00 -6.0664081890e-02 1.6931153363e+00 -2.9325617855e+00 1.6931153363e+00 2.9325617855e+00 
6800 6.3372170888e+00 -6.1687868591e-02 1.6949071448e+00 -2.9356652888e+00 1.6949071448e+00 2.9356652888e+00 
6900 6.3357619003e+00 -6.2632918014e-02 1.6967272709e+00 -2.9388178398e+00 1.6967272709e+00 2.9388178398e+00 
7000 6.3343429548e+00 -6.3499736377e-02 1.6985733030e+00 -2.9420152612e+00 1.6985733030e+00 2.9420152612e+00 
7100 6.3329599735e+00 -6.4288849176e-02 1.7004428535e+00 -2.9452534176e+00 1.7004428535e+00 2.9452534176e+00 
7200 6.3316127486e+00 -6.5000802999e-02 1.7023335594e+00 -2.9485282163e+00 1.7023335594e+00 2.9485282163e+00 
7300 6.3303011337e+00 -6.5636167552e-02 1.7042430835e+00 -2.9518356091e+00 1.7042430835e+00 2.9518356091e+00 
7400 6.3290250337e+00 -6.6195537851e-02 1.7061691149e+00 -2.9551715933e+00 1.7061691149e+00 2.9551715933e+00 
7500 6.3277843958e+00 -6.6679536545e-02 1.7081093700e+00 -2.9585322138e+00 1.7081093700e+00 2.9585322138e+00 
7600 6.3265791994e+00 -6.7088816335e-02 1.7100615934e+00 -2.9619135639e+00 1.7100615934e+00 2.9619135639e+00 
7700 6.3254094479e+00 -6.7424062461e-02 1.7120235586e+00 -2.9653117873e+00 1.7120235586e+00 2.9653117873e+00 
7800 6.3242751590e+00 -6.7685995215e-02 1.7139930693e+00 -2.9687230798e+00 1.7139930693e+00 2.9687230798e+00 
7900 6.3231763571e+00 -6.7875372458e-02 1.7159679599e+00 -2.9721436907e+00 1.7159679599e+00 2.9721436907e+00 
8000 6.3221130646e+00 -6.7992992123e-02 1.7179460969e+00 -2.9755699246e+00 1.7179460969e+00 2.9755699246e+00 
8100 6.3210852947e+00 -6.8039694664e-02 1.7199253800e+00 -2.9789981433e+00 1.7199253800e+00 2.9789981433e+00 
8200 6.3200930443e+00 -6.8016365439e-02 1.7219037426e+00 -2.9824247679e+00 1.7219037426e+00 2.9824247679e+00 
8300 6.3191362872e+00 -6.7923937008e-02 1.7238791536e+00 -2.9858462801e+00 1.7238791536e+00 2.9858462801e+00 
8400 6.3182149681e+00 -6.7763391319e-02 1.7258496183e+00 -2.9892592251e+00 1.7258496183e+00 2.9892592251e+00 
8500 6.3173289971e+00 -6.7535761774e-02 1.7278131794e+00 -2.9926602127e+00 1.7278131794e+00 2.9926602127e+00 
8600 6.3164782445e+00 -6.7242135154e-02 1.7297679185e+00 -2.9960459201e+00 1.7297679185e+00 2.9960459201e+00 
8700 6.3156625366e+00 -6.6883653388e-02 1.7317119571e+00 -2.9994130938e+00 1.7317119571e+00 2.9994130938e+00 
8800 6.3148816519e+00 -6.6461515158e-02 1.7336434582e+00 -3.0027585518e+00 1.7336434582e+00 3.0027585518e+00 
8900 6.3141353177e+00 -6.5976977324e-02 1.7355606272e+00 -3.0060791859e+00 1.7355606272e+00 3.0060791859e+00 
9000 6.3134232074e+00 -6.5431356160e-02 1.7374617134e+00 -3.0093719638e+00 1.7374617134e+00 3.0093719638e+00 
9100 6.3127449388e+00 -6.4826028388e-02 1.7393450113e+00 -3.0126339315e+00 1.7393450113e+00 3.0126339315e+00 
9200 6.3121000722e+00 -6.4162432008e-02 1.7412088621e+00 -3.0158622158e+00 1.7412088621e+00 3.0158622158e+00 
9300 6.3114881097e+00 -6.3442066904e-02 1.7430516547e+00 -3.0190540262e+00 1.7430516547e+00 3.0190540262e+00 
9400 6.3109084951e+00 -6.2666495238e-02 1.7448718273e+00 -3.0222066575e+00 1.7448718273e+00 3.0222066575e+00 
9500 6.3103606136e+00 -6.1837341600e-02 1.7466678684e+00 -3.0253174921e+00 1.7466678684e+00 3.0253174921e+00 
9600 6.3098437930e+00 -6.0956292929e-02 1.7484383188e+00 -3.0283840021e+00 1.7484383188e+00 3.0283840021e+00 
9700 6.3093573050e+00 -6.0025098195e-02 1.7501817721e+00 -3.0314037518e+00 1.7501817721e+00 3.0314037518e+00 
9800 6.3089003664e+00 -5.9045567822e-02 1.7518968766e+00 -3.0343743998e+00 1.7518968766e+00 3.0343743998e+00 
9900 6.3084721422e+00 -5.8019572879e-02 1.7535823361e+00 -3.0372937013e+00 1.7535823361e+00 3.0372937013e+00 
10000 6.3080717474e+00 -5.6949044002e-02 1.7552369116e+00 -3.0401595101e+00 1.7552369116e+00 3.0401595101e+00 
10100 6.3076982509e+00 -5.5835970063e-02 1.7568594221e+00 -3.0429697809e+00 1.7568594221e+00 3.0429697809e+00 
10200 6.3073506781e+00 -5.4682396593e-02 1.7584487462e+00 -3.0457225709e+00 1.7584487462e+00 3.0457225709e+00 
10300 6.3070280155e+00 -5.3490423926e-02 1.7600038227e+00 -3.0484160425e+00 1.7600038227e+00 3.0484160425e+00 
10400 6.3067292144e+00 -5.2262205101e-02 1.7615236522e+00 -3.0510484644e+00 1.7615236522e+00 3.0510484644e+00 
10500 6.3064531953e+00 -5.0999943498e-02 1.7630072978e+00 -3.0536182139e+00 1.7630072978e+00 3.0536182139e+00 
10600 6.3061988525e+00 -4.9705890217e-02 1.7644538860e+00 -3.0561237781e+00 1.7644538860e+00 3.0561237781e+00 
10700 6.3059650590e+00 -4.8382341201e-02 1.7658626079e+00 -3.0585637561e+00 1.7658626079e+00 3.0585637561e+00 
10800 6.3057506716e+00 -4.7031634114e-02 1.7672327200e+00 -3.0609368598e+00 1.7672327200e+00 3.0609368598e+00 
10900 6.3055545357e+00 -4.5656144963e-02 1.7685635445e+00 -3.0632419154e+00 1.7685635445e+00 3.0632419154e+00 
11000 6.3053754906e+00 -4.4258284491e-02 1.7698544705e+00 -3.0654778649e+00 1.7698544705e+00 3.0654778649e+00 
11100 6.3052123748e+00 -4.2840494320e-02 1.7711049544e+00 -3.0676437666e+00 1.7711049544e+00 3.0676437666e+00 
11200 6.3050640311e+00 -4.1405242887e-02 1.7723145204e+00 -3.0697387964e+00 1.7723145204e+00 3.0697387964e+00 
11300 6.3049293117e+00 -3.9955021148e-02 1.7734827608e+00 -3.0717622481e+00 1.7734827608e+00 3.0717622481e+00 
11400 6.3048070834e+00 -3.8492338082e-02 1.7746093364e+00 -3.0737135343e+00 1.7746093364e+00 3.0737135343e+00 
11500 6.3046962325e+00 -3.7019716005e-02 1.7756939767e+00 -3.0755921864e+00 1.7756939767e+00 3.0755921864e+00 
11600 6.3045956696e+00 -3.5539685701e-02 1.7767364800e+00 -3.0773978550e+00 1.7767364800e+00 3.0773978550e+00 
11700 6.3045043344e+00 -3.4054781382e-02 1.7777367133e+00 -3.0791303099e+00 1.7777367133e+00 3.0791303099e+00 
11800 6.3044211998e+00 -3.2567535514e-02 1.7786946121e+00 -3.0807894393e+00 1.7786946121e+00 3.0807894393e+00 
11900 6.3043452761e+00 -3.1080473495e-02 1.7796101804e+00 -3.0823752501e+00 1.7796101804e+00 3.0823752501e+00 
12000 6.3042756153e+00 -2.9596108235e-02 1.7804834900e+00 -3.0838878667e+00 1.7804834900e+00 3.0838878667e+00 
12100 6.3042113141e+00 -2.8116934635e-02 1.7813146802e+00 -3.0853275304e+00 1.7813146802e+00 3.0853275304e+00 
12200 6.3041515173e+00 -2.6645423998e-02 1.7821039571e+00 -3.0866945981e+00 1.7821039571e+00 3.0866945981e+00 
12300 6.3040954209e+00 -2.5184018397e-02 1.7828515927e+00 -3.0879895409e+00 1.7828515927e+00 3.0879895409e+00 
12400 6.3040422743e+00 -2.3735125012e-02 1.7835579241e+00 -3.0892129427e+00 1.7835579241e+00 3.0892129427e+00 
12500 6.3039913828e+00 -2.2301110470e-02 1.7842233524e+00 -3.0903654984e+00 1.7842233524e+00 3.0903654984e+00 
12600 6.3039421087e+00 -2.0884295209e-02 1.7848483418e+00 -3.0914480118e+00 1.7848483418e+00 3.0914480118e+00 
12700 6.3038938734e+00 -1.9486947898e-02 1.7854334177e+00 -3.0924613930e+00 1.7854334177e+00 3.0924613930e+00 
12800 6.3038461575e+00 -1.8111279924e-02 1.7859791659e+00 -3.0934066565e+00 1.7859791659e+00 3.0934066565e+00 
12900 6.3037985019e+00 -1.6759439993e-02 1.7864862305e+00 -3.0942849182e+00 1.7864862305e+00 3.0942849182e+00 
13000 6.3037505076e+00 -1.5433508858e-02 1.7869553125e+00 -3.0950973922e+00 1.7869553125e+00 3.0950973922e+00 
13100 6.3037018353e+00 -1.4135494197e-02 1.7873871681e+00 -3.0958453879e+00 1.7873871681e+00 3.0958453879e+00 
13200 6.3036522050e+00 -1.2867325680e-02 1.7877826060e+00 -3.0965303065e+00 1.7877826060e+00 3.0965303065e+00 
13300 6.3036013944e+00 -1.1630850243e-02 1.7881424864e+00 -3.0971536376e+00 1.7881424864e+00 3.0971536376e+00 
13400 6.3035492376e+00 -1.0427827590e-02 1.7884677178e+00 -3.0977169550e+00 1.7884677178e+00 3.0977169550e+00 
13500 6.3034956233e+00 -9.2599259574e-03 1.7887592554e+00 -3.0982219129e+00 1.7887592554e+00 3.0982219129e+00 
13600 6.3034404927e+00 -8.1287181459e-03 1.7890180982e+00 -3.0986702418e+00 1.7890180982e+00 3.0986702418e+00 
13700 6.3033838365e+00 -7.0356778631e-03 1.7892452868e+00 -3.0990637440e+00 1.7892452868e+00 3.0990637440e+00 
13800 6.3033256927e+00 -5.9821763777e-03 1.7894419006e+00 -3.0994042891e+00 1.7894419006e+00 3.0994042891e+00 
13900 6.3032661430e+00 -4.9694795116e-03 1.7896090552e+00 -3.0996938094e+00 1.7896090552e+00 3.0996938094e+00 
14000 6.3032053098e+00 -3.9987449841e-03 1.7897478996e+00 -3.0999342949e+00 1.7897478996e+00 3.0999342949e+00 
14100 6.3031433526e+00 -3.0710201222e-03 1.7898596133e+00 -3.1001277887e+00 1.7898596133e+00 3.1001277887e+00 
14200 6.3030804644e+00 -2.1872399473e-03 1.7899454034e+00 -3.1002763815e+00 1.7899454034e+00 3.1002763815e+00 
14300 6.3030168677e+00 -1.3482256489e-03 1.7900065017e+00 -3.1003822068e+00 1.7900065017e+00 3.1003822068e+00 
14400 6.3029528105e+00 -5.5468345145e-04 1.7900441616e+00 -3.1004474358e+00 1.7900441616e+00 3.1004474358e+00 
14500 6.3028885628e+00 1.9279612117e-04 1.7900596552e+00 -3.1004742714e+00 1.7900596552e+00 3.1004742714e+00 
14600 6.3028244121e+00 8.9373858143e-04 1.7900542701e+00 -3.1004649440e+00 1.7900542701e+00 3.1004649440e+00 
14700 6.3027606595e+00 1.5477854150e-03 1.7900293061e+00 -3.1004217052e+00 1.7900293061e+00 3.1004217052e+00 
14800 6.3026976156e+00 2.1546936213e-03 1.7899860728e+00 -3.1003468229e+00 1.7899860728e+00 3.1003468229e+00 
14900 6.3026355971e+00 2.7143348639e-03 1.7899258857e+00 -3.1002425757e+00 1.7899258857e+00 3.1002425757e+00 
15000 6.3025749221e+00 3.2266942373e-03 1.7898500636e+00 -3.1001112481e+00 1.7898500636e+00 3.1001112481e+00 
15100 6.3025159071e+00 3.6918686617e-03 1.7897599257e+00 -3.0999551247e+00 1.7897599257e+00 3.0999551247e+00 
15200 6.3024588633e+00 4.1100649169e-03 1.7896567881e+00 -3.0997764850e+00 1.7896567881e+00 3.0997764850e+00 
15300 6.3024040930e+00 4.4815973297e-03 1.7895419610e+00 -3.0995775987e+00 1.7895419610e+00 3.0995775987e+00 
15400 6.3023518867e+00 4.8068851312e-03 1.7894167461e+00 -3.0993607202e+00 1.7894167461e+00 3.0993607202e+00 
15500 6.3023025201e+00 5.0864495020e-03 1.7892824335e+00 -3.0991280839e+00 1.7892824335e+00 3.0991280839e+00 
15600 6.3022562512e+00 5.3209103236e-03 1.7891402988e+00 -3.0988818994e+00 1.7891402988e+00 3.0988818994e+00 
15700 6.3022133183e+00 5.5109826584e-03 1.7889916007e+00 -3.0986243467e+00 1.7889916007e+00 3.0986243467e+00 
15800 6.3021739375e+00 5.6574729780e-03 1.7888375780e+00 -3.0983575717e+00 1.7888375780e+00 3.0983575717e+00 
15900 6.3021383009e+00 5.7612751645e-03 1.7886794477e+00 -3.0980836819e+00 1.7886794477e+00 3.0980836819e+00 
16000 6.3021065752e+00 5.8233663065e-03 1.7885184018e+00 -3.0978047423e+00 1.7885184018e+00 3.0978047423e+00 
16100 6.3020789003e+00 5.8448023153e-03 1.7883556057e+00 -3.0975227711e+00 1.7883556057e+00 3.0975227711e+00 
16200 6.3020553884e+00 5.8267133844e-03 1.7881921954e+00 -3.0972397362e+00 1.7881921954e+00 3.0972397362e+00 
16300 6.3020361232e+00 5.7702993165e-03 1.7880292760e+00 -3.0969575515e+00 1.7880292760e+00 3.0969575515e+00 
16400 6.3020211595e+00 5.6768247434e-03 1.7878679192e+00 -3.0966780734e+00 1.7878679192e+00 3.0966780734e+00 
16500 6.3020105233e+00 5.5476142615e-03 1.7877091620e+00 -3.0964030977e+00 1.7877091620e+00 3.0964030977e+00 
16600 6.3020042121e+00 5.3840475067e-03 1.7875540043e+00 -3.0961343568e+00 1.7875540043e+00 3.0961343568e+00 
16700 6.3020021947e+00 5.1875541914e-03 1.7874034083e+00 -3.0958735168e+00 1.7874034083e+00 3.0958735168e+00 
16800 6.3020044128e+00 4.9596091263e-03 1.7872582960e+00 -3.0956221749e+00 1.7872582960e+00 3.0956221749e+00 
16900 6.3020107811e+00 4.7017272470e-03 1.7871195487e+00 -3.0953818576e+00 1.7871195487e+00 3.0953818576e+00 
17000 6.3020211890e+00 4.4154586659e-03 1.7869880055e+00 -3.0951540180e+00 1.7869880055e+00 3.0951540180e+00 
17100 6.3020355020e+00 4.1023837689e-03 1.7868644622e+00 -3.0949400347e+00 1.7868644622e+00 3.0949400347e+00 
17200 6.3020535628e+00 3.7641083739e-03 1.7867496706e+00 -3.0947412099e+00 1.7867496706e+00 3.0947412099e+00 
17300 6.3020751934e+00 3.4022589674e-03 1.7866443377e+00 -3.0945587679e+00 1.7866443377e+00 3.0945587679e+00 
17400 6.3021001967e+00 3.0184780358e-03 1.7865491249e+00 -3.0943938545e+00 1.7865491249e+00 3.0943938545e+00 
17500 6.3021283588e+00 2.6144195031e-03 1.7864646476e+00 -3.0942475356e+00 1.7864646476e+00 3.0942475356e+00 
17600 6.3021594505e+00 2.1917442889e-03 1.7863914751e+00 -3.0941207971e+00 1.7863914751e+00 3.0941207971e+00 
17700 6.3021932302e+00 1.7521159972e-03 1.7863301299e+00 -3.0940145441e+00 1.7863301299e+00 3.0940145441e+00 
17800 6.3022294452e+00 1.2971967458e-03 1.7862810878e+00 -3.0939296007e+00 1.7862810878e+00 3.0939296007e+00 
17900 6.3022678347e+00 8.2864314500e-04 1.7862447779e+00 -3.0938667101e+00 1.7862447779e+00 3.0938667101e+00 
18000 6.3023081315e+00 3.4810243154e-04 1.7862215829e+00 -3.0938265351e+00 1.7862215829e+00 3.0938265351e+00 
18100 6.3023500645e+00 -1.4279123486e-04 1.7862118388e+00 -3.0938096579e+00 1.7862118388e+00 3.0938096579e+00 
18200 6.3023933606e+00 -6.4242030887e-04 1.7862158358e+00 -3.0938165809e+00 1.7862158358e+00 3.0938165809e+00 
18300 6.3024377471e+00 -1.1491872269e-03 1.7862338186e+00 -3.0938477280e+00 1.7862338186e+00 3.0938477280e+00 
18400 6.3024829536e+00 -1.6615176022e-03 1.7862659866e+00 -3.0939034445e+00 1.7862659866e+00 3.0939034445e+00 
18500 6.3025287139e+00 -2.1778632457e-03 1.7863124949e+00 -3.0939839993e+00 1.7863124949e+00 3.0939839993e+00 
18600 6.3025747681e+00 -2.6967050128e-03 1.7863734550e+00 -3.0940895853e+00 1.7863734550e+00 3.0940895853e+00 
18700 6.3026208640e+00 -3.2165554767e-03 1.7864489354e+00 -3.0942203212e+00 1.7864489354e+00 3.0942203212e+00 
18800 6.3026667592e+00 -3.7359614272e-03 1.7865389627e+00 -3.0943762530e+00 1.7865389627e+00 3.0943762530e+00 
18900 6.3027122222e+00 -4.2535062001e-03 1.7866435223e+00 -3.0945573557e+00 1.7866435223e+00 3.0945573557e+00 
19000 6.3027570338e+00 -4.7678118365e-03 1.7867625599e+00 -3.0947635347e+00 1.7867625599e+00 3.0947635347e+00 
19100 6.3028009887e+00 -5.2775410763e-03 1.7868959819e+00 -3.0949946285e+00 1.7868959819e+00 3.0949946285e+00 
19200 6.3028438960e+00 -5.7813991897e-03 1.7870436574e+00 -3.0952504099e+00 1.7870436574e+00 3.0952504099e+00 
19300 6.3028855805e+00 -6.2781356493e-03 1.7872054186e+00 -3.0955305886e+00 1.7872054186e+00 3.0955305886e+00 
19400 6.3029258833e+00 -6.7665456469e-03 1.7873810626e+00 -3.0958348129e+00 1.7873810626e+00 3.0958348129e+00 
19500 6.3029646625e+00 -7.2454714604e-03 1.7875703525e+00 -3.0961626727e+00 1.7875703525e+00 3.0961626727e+00 
19600 6.3030017935e+00 -7.7138036745e-03 1.7877730189e+00 -3.0965137012e+00 1.7877730189e+00 3.0965137012e+00 
19700 6.3030371691e+00 -8.1704822593e-03 1.7879887610e+00 -3.0968873775e+00 1.7879887610e+00 3.0968873775e+00 
19800 6.3030707002e+00 -8.6144975127e-03 1.7882172484e+00 -3.0972831292e+00 1.7882172484e+00 3.0972831292e+00 
19900 6.3031023152e+00 -9.0448908710e-03 1.7884581221e+00 -3.0977003347e+00 1.7884581221e+00 3.0977003347e+00 
20000 6.3031319601e+00 -9.4607555912e-03 1.7887109965e+00 -3.0981383259e+00 1.7887109965e+00 3.0981383259e+00 
20100 6.3031595982e+00 -9.8612373121e-03 1.7889754603e+00 -3.0985963908e+00 1.7889754603e+00 3.0985963908e+00 
20200 6.3031852096e+00 -1.0245534497e-02 1.7892510787e+00 -3.0990737758e+00 1.7892510787e+00 3.0990737758e+00 
20300 6.3032087908e+00 -1.0612898764e-02 1.7895373943e+00 -3.0995696889e+00 1.7895373943e+00 3.0995696889e+00 
20400 6.3032303538e+00 -1.0962635105e-02 1.7898339288e+00 -3.1000833017e+00 1.7898339288e+00 3.1000833017e+00 
20500 6.3032499257e+00 -1.1294102005e-02 1.7901401848e+00 -3.1006137527e+00 1.7901401848e+00 3.1006137527e+00 
20600 6.3032675476e+00 -1.1606711458e-02 1.7904556470e+00 -3.1011601494e+00 1.7904556470e+00 3.1011601494e+00 
20700 6.3032832737e+00 -1.1899928890e-02 1.7907797841e+00 -3.1017215713e+00 1.7907797841e+00 3.1017215713e+00 
20800 6.3032971706e+00 -1.2173272985e-02 1.7911120499e+00 -3.1022970725e+00 1.7911120499e+00 3.1022970725e+00 
20900 6.3033093158e+00 -1.2426315428e-02 1.7914518851e+00 -3.1028856843e+00 1.7914518851e+00 3.1028856843e+00 
21000 6.3033197970e+00 -1.2658680563e-02 1.7917987187e+00 -3.1034864178e+00 1.7917987187e+00 3.1034864178e+00 
21100 6.3033287109e+00 -1.2870044969e-02 1.7921519698e+00 -3.1040982666e+00 1.7921519698e+00 3.1040982666e+00 
21200 6.3033361618e+00 -1.3060136960e-02 1.7925110486e+00 -3.1047202093e+00 1.7925110486e+00 3.1047202093e+00 
21300 6.3033422609e+00 -1.3228736004e-02 1.7928753582e+00 -3.1053512120e+00 1.7928753582e+00 3.1053512120e+00 
21400 6.3033471246e+00 -1.3375672086e-02 1.7932442960e+00 -3.1059902310e+00 1.7932442960e+00 3.1059902310e+00 
21500 6.3033508738e+00 -1.3500824982e-02 1.7936172551e+00 -3.1066362151e+00 1.7936172551e+00 3.1066362151e+00 
21600 6.3033536326e+00 -1.3604123490e-02 1.7939936257e+00 -3.1072881082e+00 1.7939936257e+00 3.1072881082e+00 
21700 6.3033555268e+00 -1.3685544578e-02 1.7943727966e+00 -3.1079448514e+00 1.7943727966e+00 3.1079448514e+00 
21800 6.3033566833e+00 -1.3745112483e-02 1.7947541563e+00 -3.1086053858e+00 1.7947541563e+00 3.1086053858e+00 
21900 6.3033572291e+00 -1.3782897752e-02 1.7951370945e+00 -3.1092686543e+00 1.7951370945e+00 3.1092686543e+00 
22000 6.3033572896e+00 -1.3799016224e-02 1.7955210036e+00 -3.1099336044e+00 1.7955210036e+00 3.1099336044e+00 
22100 6.3033569883e+00 -1.3793627957e-02 1.7959052795e+00 -3.1105991897e+00 1.7959052795e+00 3.1105991897e+00 
22200 6.3033564457e+00 -1.3766936113e-02 1.7962893231e+00 -3.1112643728e+00 1.7962893231e+00 3.1112643728e+00 
22300 6.3033557782e+00 -1.3719185780e-02 1.7966725416e+00 -3.1119281267e+00 1.7966725416e+00 3.1119281267e+00 
22400 6.3033550975e+00 -1.3650662761e-02 1.7970543494e+00 -3.1125894372e+00 1.7970543494e+00 3.1125894372e+00 
22500 6.3033545102e+00 -1.3561692311e-02 1.7974341694e+00 -3.1132473047e+00 1.7974341694e+00 3.1132473047e+00 
22600 6.3033541164e+00 -1.3452637832e-02 1.7978114340e+00 -3.1139007462e+00 1.7978114340e+00 3.1139007462e+00 
22700 6.3033540099e+00 -1.3323899527e-02 1.7981855863e+00 -3.1145487969e+00 1.7981855863e+00 3.1145487969e+00 
22800 6.3033542771e+00 -1.3175913015e-02 1.7985560808e+00 -3.1151905122e+00 1.7985560808e+00 3.1151905122e+00 
22900 6.3033549970e+00 -1.3009147912e-02 1.7989223846e+00 -3.1158249691e+00 1.7989223846e+00 3.1158249691e+00 
23000 6.3033562406e+00 -1.2824106374e-02 1.7992839784e+00 -3.1164512679e+00 1.7992839784e+00 3.1164512679e+00 
23100 6.3033580706e+00 -1.2621321607e-02 1.7996403571e+00 -3.1170685339e+00 1.7996403571e+00 3.1170685339e+00 
23200 6.3033605417e+00 -1.2401356348e-02 1.7999910309e+00 -3.1176759186e+00 1.7999910309e+00 3.1176759186e+00 
23300 6.3033636995e+00 -1.2164801314e-02 1.8003355257e+00 -3.1182726011e+00 1.8003355257e+00 3.1182726011e+00 
23400 6.3033675816e+00 -1.1912273628e-02 1.8006733844e+00 -3.1188577896e+00 1.8006733844e+00 3.1188577896e+00 
23500 6.3033722168e+00 -1.1644415218e-02 1.8010041673e+00 -3.1194307224e+00 1.8010041673e+00 3.1194307224e+00 
23600 6.3033776254e+00 -1.1361891194e-02 1.8013274526e+00 -3.1199906689e+00 1.8013274526e+00 3.1199906689e+00 
23700 6.3033838196e+00 -1.1065388202e-02 1.8016428373e+00 -3.1205369313e+00 1.8016428373e+00 3.1205369313e+00 
23800 6.3033908032e+00 -1.0755612763e-02 1.8019499376e+00 -3.1210688447e+00 1.8019499376e+00 3.1210688447e+00 
23900 6.3033985726e+00 -1.0433289598e-02 1.8022483896e+00 -3.1215857786e+00 1.8022483896e+00 3.1215857786e+00 
24000 6.3034071165e+00 -1.0099159933e-02 1.8025378494e+00 -3.1220871377e+00 1.8025378494e+00 3.1220871377e+00 
24100 6.3034164163e+00 -9.7539797990e-03 1.8028179939e+00 -3.1225723622e+00 1.8028179939e+00 3.1225723622e+00 
24200 6.3034264470e+00 -9.3985183196e-03 1.8030885210e+00 -3.1230409289e+00 1.8030885210e+00 3.1230409289e+00 
24300 6.3034371772e+00 -9.0335559962e-03 1.8033491501e+00 -3.1234923517e+00 1.8033491501e+00 3.1234923517e+00 
24400 6.3034485697e+00 -8.6598829867e-03 1.8035996219e+00 -3.1239261817e+00 1.8035996219e+00 3.1239261817e+00 
24500 6.3034605821e+00 -8.2782973852e-03 1.8038396995e+00 -3.1243420082e+00 1.8038396995e+00 3.1243420082e+00 
24600 6.3034731672e+00 -7.8896035037e-03 1.8040691676e+00 -3.1247394586e+00 1.8040691676e+00 3.1247394586e+00 
24700 6.3034862739e+00 -7.4946101587e-03 1.8042878333e+00 -3.1251181988e+00 1.8042878333e+00 3.1251181988e+00 
24800 6.3034998472e+00 -7.0941289653e-03 1.8044955262e+00 -3.1254779334e+00 1.8044955262e+00 3.1254779334e+00 
24900 6.3035138292e+00 -6.6889726429e-03 1.8046920979e+00 -3.1258184057e+00 1.8046920979e+00 3.1258184057e+00 
25000 6.3035281595e+00 -6.2799533336e-03 1.8048774228e+00 -3.1261393978e+00 1.8048774228e+00 3.1261393978e+00 
25100 6.3035427761e+00 -5.8678809385e-03 1.8050513974e+00 -3.1264407305e+00 1.8050513974e+00 3.1264407305e+00 
25200 6.3035576155e+00 -5.4535614727e-03 1.8052139404e+00 -3.1267222632e+00 1.8052139404e+00 3.1267222632e+00 
25300 6.3035726136e+00 -5.0377954442e-03 1.8053649927e+00 -3.1269838936e+00 1.8053649927e+00 3.1269838936e+00 
25400 6.3035877061e+00 -4.6213762577e-03 1.8055045174e+00 -3.1272255575e+00 1.8055045174e+00 3.1272255575e+00 
25500 6.3036028290e+00 -4.2050886484e-03 1.8056324992e+00 -3.1274472283e+00 1.8056324992e+00 3.1274472283e+00 
25600 6.3036179195e+00 -3.7897071473e-03 1.8057489440e+00 -3.1276489168e+00 1.8057489440e+00 3.1276489168e+00 
25700 6.3036329159e+00 -3.3759945816e-03 1.8058538796e+00 -3.1278306704e+00 1.8058538796e+00 3.1278306704e+00 
25800 6.3036477585e+00 -2.9647006139e-03 1.8059473540e+00 -3.1279925729e+00 1.8059473540e+00 3.1279925729e+00 
25900 6.3036623898e+00 -2.5565603215e-03 1.8060294362e+00 -3.1281347435e+00 1.8060294362e+00 3.1281347435e+00 
26000 6.3036767551e+00 -2.1522928213e-03 1.8061002152e+00 -3.1282573362e+00 1.8061002152e+00 3.1282573362e+00 
26100 6.3036908026e+00 -1.7525999402e-03 1.8061597995e+00 -3.1283605393e+00 1.8061597995e+00 3.1283605393e+00 
26200 6.3037044840e+00 -1.3581649361e-03 1.8062083170e+00 -3.1284445741e+00 1.8062083170e+00 3.1284445741e+00 
26300 6.3037177547e+00 -9.6965127164e-04 1.8062459142e+00 -3.1285096944e+00 1.8062459142e+00 3.1285096944e+00 
26400 6.3037305738e+00 -5.8770144218e-04 1.8062727559e+00 -3.1285561856e+00 1.8062727559e+00 3.1285561856e+00 
26500 6.3037429047e+00 -2.1293586225e-04 1.8062890243e+00 -3.1285843632e+00 1.8062890243e+00 3.1285843632e+00 
26600 6.3037547150e+00 1.5404818847e-04 1.8062949186e+00 -3.1285945725e+00 1.8062949186e+00 3.1285945725e+00 
26700 6.3037659769e+00 5.1267755690e-04 1.8062906544e+00 -3.1285871866e+00 1.8062906544e+00 3.1285871866e+00 
26800 6.3037766669e+00 8.6240414390e-04 1.8062764630e+00 -3.1285626064e+00 1.8062764630e+00 3.1285626064e+00 
26900 6.3037867660e+00 1.2027057655e-03 1.8062525906e+00 -3.1285212582e+00 1.8062525906e+00 3.1285212582e+00 
27000 6.3037962600e+00 1.5330869463e-03 1.8062192978e+00 -3.1284635935e+00 1.8062192978e+00 3.1284635935e+00 
27100 6.3038051391e+00 1.8530796429e-03 1.8061768589e+00 -3.1283900871e+00 1.8061768589e+00 3.1283900871e+00 
27200 6.3038133981e+00 2.1622438973e-03 1.8061255607e+00 -3.1283012360e+00 1.8061255607e+00 3.1283012360e+00 
27300 6.3038210359e+00 2.4601684173e-03 1.8060657024e+00 -3.1281975584e+00 1.8060657024e+00 3.1281975584e+00 
27400 6.3038280560e+00 2.7464710849e-03 1.8059975944e+00 -3.1280795918e+00 1.8059975944e+00 3.1280795918e+00 
27500 6.3038344657e+00 3.0207993898e-03 1.8059215574e+00 -3.1279478919e+00 1.8059215574e+00 3.1279478919e+00 
27600 6.3038402764e+00 3.2828307903e-03 1.8058379221e+00 -3.1278030313e+00 1.8058379221e+00 3.1278030313e+00 
27700 6.3038455030e+00 3.5322729980e-03 1.8057470279e+00 -3.1276455980e+00 1.8057470279e+00 3.1276455980e+00 
27800 6.3038501640e+00 3.7688641889e-03 1.8056492224e+00 -3.1274761938e+00 1.8056492224e+00 3.1274761938e+00 
27900 6.3038542810e+00 3.9923731400e-03 1.8055448602e+00 -3.1272954333e+00 1.8055448602e+00 3.1272954333e+00 
28000 6.3038578785e+00 4.2025992914e-03 1.8054343027e+00 -3.1271039420e+00 1.8054343027e+00 3.1271039420e+00 
28100 6.3038609838e+00 4.3993727358e-03 1.8053179165e+00 -3.1269023551e+00 1.8053179165e+00 3.1269023551e+00 
28200 6.3038636263e+00 4.5825541345e-03 1.8051960730e+00 -3.1266913161e+00 1.8051960730e+00 3.1266913161e+00 
28300 6.3038658375e+00 4.7520345626e-03 1.8050691477e+00 -3.1264714750e+00 1.8050691477e+00 3.1264714750e+00 
28400 6.3038676506e+00 4.9077352839e-03 1.8049375191e+00 -3.1262434875e+00 1.8049375191e+00 3.1262434875e+00 
28500 6.3038691002e+00 5.0496074568e-03 1.8048015677e+00 -3.1260080129e+00 1.8048015677e+00 3.1260080129e+00 
28600 6.3038702217e+00 5.1776317736e-03 1.8046616758e+00 -3.1257657130e+00 1.8046616758e+00 3.1257657130e+00 
28700 6.3038710517e+00 5.2918180346e-03 1.8045182261e+00 -3.1255172508e+00 1.8045182261e+00 3.1255172508e+00 
28800 6.3038716268e+00 5.3922046590e-03 1.8043716012e+00 -3.1252632891e+00 1.8043716012e+00 3.1252632891e+00 
28900 6.3038719839e+00 5.4788581357e-03 1.8042221827e+00 -3.1250044886e+00 1.8042221827e+00 3.1250044886e+00 
29000 6.3038721597e+00 5.5518724145e-03 1.8040703505e+00 -3.1247415075e+00 1.8040703505e+00 3.1247415075e+00 
29100 6.3038721904e+00 5.6113682434e-03 1.8039164820e+00 -3.1244749994e+00 1.8039164820e+00 3.1244749994e+00 
29200 6.3038721113e+00 5.6574924515e-03 1.8037609513e+00 -3.1242056123e+00 1.8037609513e+00 3.1242056123e+00 
29300 6.3038719570e+00 5.6904171820e-03 1.8036041286e+00 -3.1239339875e+00 1.8036041286e+00 3.1239339875e+00 
29400 6.3038717606e+00 5.7103390788e-03 1.8034463797e+00 -3.1236607583e+00 1.8034463797e+00 3.1236607583e+00 
29500 6.3038715539e+00 5.7174784278e-03 1.8032880646e+00 -3.1233865485e+00 1.8032880646e+00 3.1233865485e+00 
29600 6.3038713669e+00 5.7120782583e-03 1.8031295376e+00 -3.1231119718e+00 1.8031295376e+00 3.1231119718e+00 
29700 6.3038712278e+00 5.6944034059e-03 1.8029711465e+00 -3.1228376303e+00 1.8029711465e+00 3.1228376303e+00 
29800 6.3038711627e+00 5.6647395412e-03 1.8028132316e+00 -3.1225641137e+00 1.8028132316e+00 3.1225641137e+00 
29900 6.3038711959e+00 5.6233921670e-03 1.8026561255e+00 -3.1222919980e+00 1.8026561255e+00 3.1222919980e+00 
30000 6.3038713489e+00 5.5706855882e-03 1.8025001526e+00 -3.1220218450e+00 1.8025001526e+00 3.1220218450e+00 
30100 6.3038716413e+00 5.5069618566e-03 1.8023456282e+00 -3.1217542008e+00 1.8023456282e+00 3.1217542008e+00 
30200 6.3038720900e+00 5.4325796944e-03 1.8021928583e+00 -3.1214895956e+00 1.8021928583e+00 3.1214895956e+00 
30300 6.3038727095e+00 5.3479134004e-03 1.8020421390e+00 -3.1212285421e+00 1.8020421390e+00 3.1212285421e+00 
30400 6.3038735120e+00 5.2533517411e-03 1.8018937562e+00 -3.1209715356e+00 1.8018937562e+00 3.1209715356e+00 
30500 6.3038745068e+00 5.1492968305e-03 1.8017479851e+00 -3.1207190527e+00 1.8017479851e+00 3.1207190527e+00 
30600 6.3038757012e+00 5.0361630018e-03 1.8016050898e+00 -3.1204715506e+00 1.8016050898e+00 3.1204715506e+00 
30700 6.3038770996e+00 4.9143756740e-03 1.8014653228e+00 -3.1202294671e+00 1.8014653228e+00 3.1202294671e+00 
30800 6.3038787044e+00 4.7843702163e-03 1.8013289251e+00 -3.1199932194e+00 1.8013289251e+00 3.1199932194e+00 
30900 6.3038805154e+00 4.6465908138e-03 1.8011961256e+00 -3.1197632040e+00 1.8011961256e+00 3.1197632040e+00 
31000 6.3038825304e+00 4.5014893366e-03 1.8010671409e+00 -3.1195397959e+00 1.8010671409e+00 3.1195397959e+00 
31100 6.3038847449e+00 4.3495242158e-03 1.8009421751e+00 -3.1193233487e+00 1.8009421751e+00 3.1193233487e+00 
31200 6.3038871526e+00 4.1911593286e-03 1.8008214195e+00 -3.1191141939e+00 1.8008214195e+00 3.1191141939e+00 
31300 6.3038897452e+00 4.0268628950e-03 1.8007050528e+00 -3.1189126408e+00 1.8007050528e+00 3.1189126408e+00 
31400 6.3038925128e+00 3.8571063892e-03 1.8005932404e+00 -3.1187189762e+00 1.8005932404e+00 3.1187189762e+00 
31500 6.3038954439e+00 3.6823634668e-03 1.8004861349e+00 -3.1185334640e+00 1.8004861349e+00 3.1185334640e+00 
31600 6.3038985255e+00 3.5031089115e-03 1.8003838756e+00 -3.1183563457e+00 1.8003838756e+00 3.1183563457e+00 
31700 6.3039017435e+00 3.3198176018e-03 1.8002865887e+00 -3.1181878398e+00 1.8002865887e+00 3.1181878398e+00 
31800 6.3039050827e+00 3.1329635011e-03 1.8001943870e+00 -3.1180281418e+00 1.8001943870e+00 3.1180281418e+00 
31900 6.3039085271e+00 2.9430186715e-03 1.8001073703e+00 -3.1178774245e+00 1.8001073703e+00 3.1178774245e+00 
32000 6.3039120599e+00 2.7504523146e-03 1.8000256253e+00 -3.1177358380e+00 1.8000256253e+00 3.1177358380e+00 
32100 6.3039156637e+00 2.5557298389e-03 1.7999492255e+00 -3.1176035096e+00 1.7999492255e+00 3.1176035096e+00 
32200 6.3039193209e+00 2.3593119574e-03 1.7998782315e+00 -3.1174805443e+00 1.7998782315e+00 3.1174805443e+00 
32300 6.3039230136e+00 2.1616538148e-03 1.7998126910e+00 -3.1173670249e+00 1.7998126910e+00 3.1173670249e+00 
32400 6.3039267238e+00 1.9632041463e-03 1.7997526391e+00 -3.1172630120e+00 1.7997526391e+00 3.1172630120e+00 
32500 6.3039304338e+00 1.7644044693e-03 1.7996980985e+00 -3.1171685448e+00 1.7996980985e+00 3.1171685448e+00 
32600 6.3039341262e+00 1.5656883082e-03 1.7996490792e+00 -3.1170836410e+00 1.7996490792e+00 3.1170836410e+00 
32700 6.3039377838e+00 1.3674804534e-03 1.7996055796e+00 -3.1170082974e+00 1.7996055796e+00 3.1170082974e+00 
32800 6.3039413901e+00 1.1701962555e-03 1.7995675858e+00 -3.1169424903e+00 1.7995675858e+00 3.1169424903e+00 
32900 6.3039449294e+00 9.7424095505e-04 1.7995350726e+00 -3.1168861758e+00 1.7995350726e+00 3.1168861758e+00 
33000 6.3039483866e+00 7.8000904755e-04 1.7995080035e+00 -3.1168392906e+00 1.7995080035e+00 3.1168392906e+00 
33100 6.3039517476e+00 5.8788368586e-04 1.7994863307e+00 -3.1168017523e+00 1.7994863307e+00 3.1168017523e+00 
33200 6.3039549993e+00 3.9823611846e-04 1.7994699959e+00 -3.1167734597e+00 1.7994699959e+00 3.1167734597e+00 
33300 6.3039581296e+00 2.1142516483e-04 1.7994589306e+00 -3.1167542939e+00 1.7994589306e+00 3.1167542939e+00 
33400 6.3039611278e+00 2.7796727690e-05 1.7994530559e+00 -3.1167441186e+00 1.7994530559e+00 3.1167441186e+00 
33500 6.3039639838e+00 -1.5152979833e-04 1.7994530559e+00 -3.1167441186e+00 1.7994530559e+00 3.1167441186e+00 
33600 6.3039666895e+00 -3.2782814362e-04 1.7994572663e+00 -3.1167514113e+00 1.7994572663e+00 3.1167514113e+00 
33700 6.3039692378e+00 -4.9998681749e-04 1.7994663754e+00 -3.1167671887e+00 1.7994663754e+00 3.1167671887e+00 
33800 6.3039716228e+00 -6.6771581661e-04 1.7994802681e+00 -3.1167912515e+00 1.7994802681e+00 3.1167912515e+00 
33900 6.3039738401e+00 -8.3073993758e-04 1.7994988211e+00 -3.1168233864e+00 1.7994988211e+00 3.1168233864e+00 
34000 6.3039758864e+00 -9.8879904534e-04 1.7995219037e+00 -3.1168633666e+00 1.7995219037e+00 3.1168633666e+00 
34100 6.3039777598e+00 -1.1416483061e-03 1.7995493777e+00 -3.1169109530e+00 1.7995493777e+00 3.1169109530e+00 
34200 6.3039794596e+00 -1.2890583847e-03 1.7995810982e+00 -3.1169658944e+00 1.7995810982e+00 3.1169658944e+00 
34300 6.3039809865e+00 -1.4308156081e-03 1.7996169138e+00 -3.1170279289e+00 1.7996169138e+00 3.1170279289e+00 
34400 6.3039823422e+00 -1.5667220936e-03 1.7996566673e+00 -3.1170967840e+00 1.7996566673e+00 3.1170967840e+00 
34500 6.3039835297e+00 -1.6965958441e-03 1.7997001959e+00 -3.1171721776e+00 1.7997001959e+00 3.1171721776e+00 
34600 6.3039845529e+00 -1.8202708107e-03 1.7997473316e+00 -3.1172538191e+00 1.7997473316e+00 3.1172538191e+00 
34700 6.3039854168e+00 -1.9375969219e-03 1.7997979020e+00 -3.1173414096e+00 1.7997979020e+00 3.1173414096e+00 
34800 6.3039861275e+00 -2.0484400819e-03 1.7998517304e+00 -3.1174346432e+00 1.7998517304e+00 3.1174346432e+00 
34900 6.3039866918e+00 -2.1526821376e-03 1.7999086365e+00 -3.1175332075e+00 1.7999086365e+00 3.1175332075e+00 
35000 6.3039871173e+00 -2.2502208157e-03 1.7999684366e+00 -3.1176367843e+00 1.7999684366e+00 3.1176367843e+00 
35100 6.3039874122e+00 -2.3409696295e-03 1.8000309442e+00 -3.1177450506e+00 1.8000309442e+00 3.1177450506e+00 
35200 6.3039875856e+00 -2.4248577578e-03 1.8000959704e+00 -3.1178576793e+00 1.8000959704e+00 3.1178576793e+00 
35300 6.3039876468e+00 -2.5018298955e-03 1.8001633244e+00 -3.1179743398e+00 1.8001633244e+00 3.1179743398e+00 
35400 6.3039876057e+00 -2.5718460773e-03 1.8002328138e+00 -3.1180946990e+00 1.8002328138e+00 3.1180946990e+00 
35500 6.3039874726e+00 -2.6348814747e-03 1.8003042452e+00 -3.1182184219e+00 1.8003042452e+00 3.1182184219e+00 
35600 6.3039872579e+00 -2.6909261682e-03 1.8003774245e+00 -3.1183451721e+00 1.8003774245e+00 3.1183451721e+00 
35700 6.3039869721e+00 -2.7399848952e-03 1.8004521573e+00 -3.1184746131e+00 1.8004521573e+00 3.1184746131e+00 
35800 6.3039866259e+00 -2.7820767729e-03 1.8005282494e+00 -3.1186064085e+00 1.8005282494e+00 3.1186064085e+00 
35900 6.3039862299e+00 -2.8172350008e-03 1.8006055072e+00 -3.1187402229e+00 1.8006055072e+00 3.1187402229e+00 
36000 6.3039857948e+00 -2.8455065392e-03 1.8006837380e+00 -3.1188757226e+00 1.8006837380e+00 3.1188757226e+00 
36100 6.3039853308e+00 -2.8669517689e-03 1.8007627504e+00 -3.1190125761e+00 1.8007627504e+00 3.1190125761e+00 
36200 6.3039848480e+00 -2.8816441294e-03 1.8008423548e+00 -3.1191504550e+00 1.8008423548e+00 3.1191504550e+00 
36300 6.3039843561e+00 -2.8896697394e-03 1.8009223636e+00 -3.1192890343e+00 1.8009223636e+00 3.1192890343e+00 
36400 6.3039838646e+00 -2.8911269991e-03 1.8010025917e+00 -3.1194279934e+00 1.8010025917e+00 3.1194279934e+00 
36500 6.3039833823e+00 -2.8861261757e-03 1.8010828567e+00 -3.1195670165e+00 1.8010828567e+00 3.1195670165e+00 
36600 6.3039829176e+00 -2.8747889726e-03 1.8011629793e+00 -3.1197057928e+00 1.8011629793e+00 3.1197057928e+00 
36700 6.3039824784e+00 -2.8572480843e-03 1.8012427835e+00 -3.1198440179e+00 1.8012427835e+00 3.1198440179e+00 
36800 6.3039820718e+00 -2.8336467376e-03 1.8013220974e+00 -3.1199813934e+00 1.8013220974e+00 3.1199813934e+00 
36900 6.3039817046e+00 -2.8041382192e-03 1.8014007526e+00 -3.1201176283e+00 1.8014007526e+00 3.1201176283e+00 
37000 6.3039813826e+00 -2.7688853924e-03 1.8014785853e+00 -3.1202524385e+00 1.8014785853e+00 3.1202524385e+00 
37100 6.3039811111e+00 -2.7280602027e-03 1.8015554362e+00 -3.1203855482e+00 1.8015554362e+00 3.1203855482e+00 
37200 6.3039808947e+00 -2.6818431735e-03 1.8016311508e+00 -3.1205166896e+00 1.8016311508e+00 3.1205166896e+00 
37300 6.3039807371e+00 -2.6304228939e-03 1.8017055795e+00 -3.1206456039e+00 1.8017055795e+00 3.1206456039e+00 
37400 6.3039806416e+00 -2.5739954982e-03 1.8017785781e+00 -3.1207720412e+00 1.8017785781e+00 3.1207720412e+00 
37500 6.3039806105e+00 -2.5127641393e-03 1.8018500079e+00 -3.1208957612e+00 1.8018500079e+00 3.1208957612e+00 
37600 6.3039806455e+00 -2.4469384567e-03 1.8019197356e+00 -3.1210165333e+00 1.8019197356e+00 3.1210165333e+00 
37700 6.3039807477e+00 -2.3767340394e-03 1.8019876342e+00 -3.1211341370e+00 1.8019876342e+00 3.1211341370e+00 
37800 6.3039809174e+00 -2.3023718869e-03 1.8020535821e+00 -3.1212483622e+00 1.8020535821e+00 3.1212483622e+00 
37900 6.3039811543e+00 -2.2240778664e-03 1.8021174644e+00 -3.1213590096e+00 1.8021174644e+00 3.1213590096e+00 
38000 6.3039814574e+00 -2.1420821693e-03 1.8021791721e+00 -3.1214658904e+00 1.8021791721e+00 3.1214658904e+00 
38100 6.3039818253e+00 -2.0566187685e-03 1.8022386028e+00 -3.1215688274e+00 1.8022386028e+00 3.1215688274e+00 
38200 6.3039822557e+00 -1.9679248745e-03 1.8022956604e+00 -3.1216676541e+00 1.8022956604e+00 3.1216676541e+00 
38300 6.3039827463e+00 -1.8762403954e-03 1.8023502556e+00 -3.1217622158e+00 1.8023502556e+00 3.1217622158e+00 
38400 6.3039832938e+00 -1.7818073984e-03 1.8024023057e+00 -3.1218523692e+00 1.8024023057e+00 3.1218523692e+00 
38500 6.3039838947e+00 -1.6848695760e-03 1.8024517346e+00 -3.1219379826e+00 1.8024517346e+00 3.1219379826e+00 
38600 6.3039845452e+00 -1.5856717166e-03 1.8024984731e+00 -3.1220189360e+00 1.8024984731e+00 3.1220189360e+00 
38700 6.3039852411e+00 -1.4844591810e-03 1.8025424587e+00 -3.1220951212e+00 1.8025424587e+00 3.1220951212e+00 
38800 6.3039859777e+00 -1.3814773860e-03 1.8025836356e+00 -3.1221664418e+00 1.8025836356e+00 3.1221664418e+00 
38900 6.3039867504e+00 -1.2769712953e-03 1.8026219551e+00 -3.1222328131e+00 1.8026219551e+00 3.1222328131e+00 
39000 6.3039875541e+00 -1.1711849199e-03 1.8026573751e+00 -3.1222941623e+00 1.8026573751e+00 3.1222941623e+00 
39100 6.3039883838e+00 -1.0643608264e-03 1.8026898601e+00 -3.1223504281e+00 1.8026898601e+00 3.1223504281e+00 
39200 6.3039892343e+00 -9.5673965783e-04 1.8027193817e+00 -3.1224015609e+00 1.8027193817e+00 3.1224015609e+00 
39300 6.3039901003e+00 -8.4855966403e-04 1.8027459178e+00 -3.1224475227e+00 1.8027459178e+00 3.1224475227e+00 
39400 6.3039909766e+00 -7.4005624494e-04 1.8027694530e+00 -3.1224882870e+00 1.8027694530e+00 3.1224882870e+00 
39500 6.3039918579e+00 -6.3146150652e-04 1.8027899786e+00 -3.1225238383e+00 1.8027899786e+00 3.1225238383e+00 
39600 6.3039927392e+00 -5.2300383037e-04 1.8028074921e+00 -3.1225541725e+00 1.8028074921e+00 3.1225541725e+00 
39700 6.3039936155e+00 -4.1490745754e-04 1.8028219973e+00 -3.1225792964e+00 1.8028219973e+00 3.1225792964e+00 
39800 6.3039944819e+00 -3.0739208746e-04 1.8028335045e+00 -3.1225992274e+00 1.8028335045e+00 3.1225992274e+00 
39900 6.3039953338e+00 -2.0067249250e-04 1.8028420298e+00 -3.1226139936e+00 1.8028420298e+00 3.1226139936e+00 
40000 6.3039961668e+00 -9.4958148784e-05 1.8028475952e+00 -3.1226236333e+00 1.8028475952e+00 3.1226236333e+00 
40100 6.3039969768e+00 9.5471161920e-06 1.8028502288e+00 -3.1226281947e+00 1.8028502288e+00 3.1226281947e+00 
40200 6.3039977600e+00 1.1291271213e-04 1.8028502288e+00 -3.1226281947e+00 1.8028502288e+00 3.1226281947e+00 
40300 6.3039985129e+00 2.1440642490e-04 1.8028470973e+00 -3.1226227708e+00 1.8028470973e+00 3.1226227708e+00 
40400 6.3039992321e+00 3.1411715327e-04 1.8028411510e+00 -3.1226124714e+00 1.8028411510e+00 3.1226124714e+00 
40500 6.3039999148e+00 4.1186680199e-04 1.8028324392e+00 -3.1225973823e+00 1.8028324392e+00 3.1225973823e+00 
40600 6.3040005586e+00 5.0748441804e-04 1.8028210165e+00 -3.1225775975e+00 1.8028210165e+00 3.1225775975e+00 
40700 6.3040011613e+00 6.0080643235e-04 1.8028069418e+00 -3.1225532194e+00 1.8028069418e+00 3.1225532194e+00 
40800 6.3040017211e+00 6.9167688202e-04 1.8027902787e+00 -3.1225243581e+00 1.8027902787e+00 3.1225243581e+00 
40900 6.3040022366e+00 7.7994761269e-04 1.8027710952e+00 -3.1224911314e+00 1.8027710952e+00 3.1224911314e+00 
41000 6.3040027069e+00 8.6547846095e-04 1.8027494634e+00 -3.1224536639e+00 1.8027494634e+00 3.1224536639e+00 
41100 6.3040031313e+00 9.4813741665e-04 1.8027254590e+00 -3.1224120871e+00 1.8027254590e+00 3.1224120871e+00 
41200 6.3040035095e+00 1.0278007651e-03 1.8026991618e+00 -3.1223665389e+00 1.8026991618e+00 3.1223665389e+00 
41300 6.3040038417e+00 1.1043532090e-03 1.8026706546e+00 -3.1223171630e+00 1.8026706546e+00 3.1223171630e+00 
41400 6.3040041281e+00 1.1776879702e-03 1.8026400236e+00 -3.1222641087e+00 1.8026400236e+00 3.1222641087e+00 
41500 6.3040043696e+00 1.2477068719e-03 1.8026073581e+00 -3.1222075303e+00 1.8026073581e+00 3.1222075303e+00 
41600 6.3040045672e+00 1.3143203999e-03 1.8025727498e+00 -3.1221475870e+00 1.8025727498e+00 3.1221475870e+00 
41700 6.3040047224e+00 1.3774477448e-03 1.8025362931e+00 -3.1220844422e+00 1.8025362931e+00 3.1220844422e+00 
41800 6.3040048366e+00 1.4370168248e-03 1.8024980847e+00 -3.1220182632e+00 1.8024980847e+00 3.1220182632e+00 
41900 6.3040049118e+00 1.4929642884e-03 1.8024582230e+00 -3.1219492207e+00 1.8024582230e+00 3.1219492207e+00 
42000 6.3040049500e+00 1.5452354989e-03 1.8024168085e+00 -3.1218774887e+00 1.8024168085e+00 3.1218774887e+00 
42100 6.3040049537e+00 1.5937844994e-03 1.8023739430e+00 -3.1218032435e+00 1.8023739430e+00 3.1218032435e+00 
42200 6.3040049252e+00 1.6385739604e-03 1.8023297297e+00 -3.1217266638e+00 1.8023297297e+00 3.1217266638e+00 
42300 6.3040048672e+00 1.6795751090e-03 1.8022842728e+00 -3.1216479301e+00 1.8022842728e+00 3.1216479301e+00 
42400 6.3040047824e+00 1.7167676404e-03 1.8022376772e+00 -3.1215672243e+00 1.8022376772e+00 3.1215672243e+00 
42500 6.3040046737e+00 1.7501396133e-03 1.8021900487e+00 -3.1214847292e+00 1.8021900487e+00 3.1214847292e+00 
42600 6.3040045440e+00 1.7796873284e-03 1.8021414930e+00 -3.1214006283e+00 1.8021414930e+00 3.1214006283e+00 
42700 6.3040043963e+00 1.8054151905e-03 1.8020921162e+00 -3.1213151052e+00 1.8020921162e+00 3.1213151052e+00 
42800 6.3040042335e+00 1.8273355567e-03 1.8020420242e+00 -3.1212283433e+00 1.8020420242e+00 3.1212283433e+00 
42900 6.3040040586e+00 1.8454685688e-03 1.8019913227e+00 -3.1211405256e+00 1.8019913227e+00 3.1211405256e+00 
43000 6.3040038746e+00 1.8598419720e-03 1.8019401165e+00 -3.1210518340e+00 1.8019401165e+00 3.1210518340e+00 
43100 6.3040036844e+00 1.8704909207e-03 1.8018885101e+00 -3.1209624491e+00 1.8018885101e+00 3.1209624491e+00 
43200 6.3040034908e+00 1.8774577707e-03 1.8018366068e+00 -3.1208725498e+00 1.8018366068e+00 3.1208725498e+00 
43300 6.3040032965e+00 1.8807918608e-03 1.8017845086e+00 -3.1207823131e+00 1.8017845086e+00 3.1207823131e+00 
43400 6.3040031042e+00 1.8805492814e-03 1.8017323163e+00 -3.1206919135e+00 1.8017323163e+00 3.1206919135e+00 
43500 6.3040029163e+00 1.8767926345e-03 1.8016801293e+00 -3.1206015230e+00 1.8016801293e+00 3.1206015230e+00 
43600 6.3040027352e+00 1.8695907825e-03 1.8016280451e+00 -3.1205113104e+00 1.8016280451e+00 3.1205113104e+00 
43700 6.3040025630e+00 1.8590185884e-03 1.8015761592e+00 -3.1204214414e+00 1.8015761592e+00 3.1204214414e+00 
43800 6.3040024019e+00 1.8451566480e-03 1.8015245652e+00 -3.1203320780e+00 1.8015245652e+00 3.1203320780e+00 
43900 6.3040022535e+00 1.8280910144e-03 1.8014733545e+00 -3.1202433784e+00 1.8014733545e+00 3.1202433784e+00 
44000 6.3040021196e+00 1.8079129159e-03 1.8014226159e+00 -3.1201554967e+00 1.8014226159e+00 3.1201554967e+00 
44100 6.3040020016e+00 1.7847184675e-03 1.8013724360e+00 -3.1200685825e+00 1.8013724360e+00 3.1200685825e+00 
44200 6.3040019008e+00 1.7586083779e-03 1.8013228985e+00 -3.1199827810e+00 1.8013228985e+00 3.1199827810e+00 
44300 6.3040018182e+00 1.7296876514e-03 1.8012740844e+00 -3.1198982325e+00 1.8012740844e+00 3.1198982325e+00 
44400 6.3040017546e+00 1.6980652867e-03 1.8012260717e+00 -3.1198150721e+00 1.8012260717e+00 3.1198150721e+00 
44500 6.3040017107e+00 1.6638539724e-03 1.8011789355e+00 -3.1197334298e+00 1.8011789355e+00 3.1197334298e+00 
44600 6.3040016868e+00 1.6271697801e-03 1.8011327478e+00 -3.1196534304e+00 1.8011327478e+00 3.1196534304e+00 
44700 6.3040016834e+00 1.5881318571e-03 1.8010875772e+00 -3.1195751927e+00 1.8010875772e+00 3.1195751927e+00 
44800 6.3040017003e+00 1.5468621167e-03 1.8010434893e+00 -3.1194988301e+00 1.8010434893e+00 3.1194988301e+00 
44900 6.3040017374e+00 1.5034849301e-03 1.8010005460e+00 -3.1194244501e+00 1.8010005460e+00 3.1194244501e+00 
45000 6.3040017945e+00 1.4581268177e-03 1.8009588059e+00 -3.1193521541e+00 1.8009588059e+00 3.1193521541e+00 
45100 6.3040018710e+00 1.4109161425e-03 1.8009183240e+00 -3.1192820375e+00 1.8009183240e+00 3.1192820375e+00 
45200 6.3040019663e+00 1.3619828049e-03 1.8008791521e+00 -3.1192141897e+00 1.8008791521e+00 3.1192141897e+00 
45300 6.3040020796e+00 1.3114579407e-03 1.8008413378e+00 -3.1191486935e+00 1.8008413378e+00 3.1191486935e+00 
45400 6.3040022100e+00 1.2594736218e-03 1.8008049256e+00 -3.1190856256e+00 1.8008049256e+00 3.1190856256e+00 
45500 6.3040023565e+00 1.2061625604e-03 1.8007699559e+00 -3.1190250564e+00 1.8007699559e+00 3.1190250564e+00 
45600 6.3040025178e+00 1.1516578189e-03 1.8007364658e+00 -3.1189670499e+00 1.8007364658e+00 3.1189670499e+00 
45700 6.3040026927e+00 1.0960925229e-03 1.8007044885e+00 -3.1189116636e+00 1.8007044885e+00 3.1189116636e+00 
45800 6.3040028800e+00 1.0395995808e-03 1.8006740535e+00 -3.1188589486e+00 1.8006740535e+00 3.1188589486e+00 
45900 6.3040030782e+00 9.8231140922e-04 1.8006451866e+00 -3.1188089497e+00 1.8006451866e+00 3.1188089497e+00 
46000 6.3040032858e+00 9.2435966430e-04 1.8006179101e+00 -3.1187617052e+00 1.8006179101e+00 3.1187617052e+00 
46100 6.3040035014e+00 8.6587498009e-04 1.8005922423e+00 -3.1187172473e+00 1.8005922423e+00 3.1187172473e+00 
46200 6.3040037234e+00 8.0698671426e-04 1.8005681981e+00 -3.1186756017e+00 1.8005681981e+00 3.1186756017e+00 
46300 6.3040039504e+00 7.4782270127e-04 1.8005457890e+00 -3.1186367879e+00 1.8005457890e+00 3.1186367879e+00 
46400 6.3040041809e+00 6.8850901365e-04 1.8005250225e+00 -3.1186008192e+00 1.8005250225e+00 3.1186008192e+00 
46500 6.3040044132e+00 6.2916973154e-04 1.8005059028e+00 -3.1185677030e+00 1.8005059028e+00 3.1185677030e+00 
46600 6.3040046460e+00 5.6992672086e-04 1.8004884308e+00 -3.1185374406e+00 1.8004884308e+00 3.1185374406e+00 
46700 6.3040048778e+00 5.1089942055e-04 1.8004726038e+00 -3.1185100275e+00 1.8004726038e+00 3.1185100275e+00 
46800 6.3040051072e+00 4.5220463877e-04 1.8004584159e+00 -3.1184854533e+00 1.8004584159e+00 3.1184854533e+00 
46900 6.3040053330e+00 3.9395635878e-04 1.8004458579e+00 -3.1184637022e+00 1.8004458579e+00 3.1184637022e+00 
47000 6.3040055537e+00 3.3626555427e-04 1.8004349174e+00 -3.1184447526e+00 1.8004349174e+00 3.1184447526e+00 
47100 6.3040057684e+00 2.7924001459e-04 1.8004255789e+00 -3.1184285780e+00 1.8004255789e+00 3.1184285780e+00 
47200 6.3040059758e+00 2.2298418000e-04 1.8004178241e+00 -3.1184151462e+00 1.8004178241e+00 3.1184151462e+00 
47300 6.3040061749e+00 1.6759898696e-04 1.8004116316e+00 -3.1184044204e+00 1.8004116316e+00 3.1184044204e+00 
47400 6.3040063649e+00 1.1318172369e-04 1.8004069771e+00 -3.1183963586e+00 1.8004069771e+00 3.1183963586e+00 
47500 6.3040065449e+00 5.9825896075e-05 1.8004038339e+00 -3.1183909144e+00 1.8004038339e+00 3.1183909144e+00 
47600 6.3040067141e+00 9.3072770766e-06 1.8004038339e+00 -3.1183909144e+00 1.8004038339e+00 3.1183909144e+00 
47700 6.3040068720e+00 -4.1438070945e-05 1.8004038339e+00 -3.1183909144e+00 1.8004038339e+00 3.1183909144e+00 
47800 6.3040070183e+00 -9.2298909058e-05 1.8004038339e+00 -3.1183909144e+00 1.8004038339e+00 3.1183909144e+00 
47900 6.3040071523e+00 -1.4056639336e-04 1.8004063972e+00 -3.1183953541e+00 1.8004063972e+00 3.1183953541e+00 
48000 6.3040072739e+00 -1.8736478900e-04 1.8004103009e+00 -3.1184021156e+00 1.8004103009e+00 3.1184021156e+00 
48100 6.3040073829e+00 -2.3262559139e-04 1.8004155043e+00 -3.1184111282e+00 1.8004155043e+00 3.1184111282e+00 
48200 6.3040074793e+00 -2.7628472226e-04 1.8004219646e+00 -3.1184223178e+00 1.8004219646e+00 3.1184223178e+00 
48300 6.3040075629e+00 -3.1828258070e-04 1.8004296374e+00 -3.1184356074e+00 1.8004296374e+00 3.1184356074e+00 
48400 6.3040076341e+00 -3.5856408420e-04 1.8004384765e+00 -3.1184509172e+00 1.8004384765e+00 3.1184509172e+00 
48500 6.3040076930e+00 -3.9707869960e-04 1.8004484342e+00 -3.1184681644e+00 1.8004484342e+00 3.1184681644e+00 
48600 6.3040077398e+00 -4.3378046413e-04 1.8004594614e+00 -3.1184872641e+00 1.8004594614e+00 3.1184872641e+00 
48700 6.3040077750e+00 -4.6862799675e-04 1.8004715078e+00 -3.1185081291e+00 1.8004715078e+00 3.1185081291e+00 
48800 6.3040077991e+00 -5.0158449992e-04 1.8004845219e+00 -3.1185306701e+00 1.8004845219e+00 3.1185306701e+00 
48900 6.3040078126e+00 -5.3261775193e-04 1.8004984510e+00 -3.1185547961e+00 1.8004984510e+00 3.1185547961e+00 
49000 6.3040078161e+00 -5.6170009011e-04 1.8005132419e+00 -3.1185804147e+00 1.8005132419e+00 3.1185804147e+00 
49100 6.3040078102e+00 -5.8880838496e-04 1.8005288402e+00 -3.1186074318e+00 1.8005288402e+00 3.1186074318e+00 
49200 6.3040077956e+00 -6.1392400560e-04 1.8005451913e+00 -3.1186357526e+00 1.8005451913e+00 3.1186357526e+00 
49300 6.3040077732e+00 -6.3703277659e-04 1.8005622396e+00 -3.1186652811e+00 1.8005622396e+00 3.1186652811e+00 
49400 6.3040077436e+00 -6.5812492658e-04 1.8005799294e+00 -3.1186959208e+00 1.8005799294e+00 3.1186959208e+00 
49500 6.3040077076e+00 -6.7719502883e-04 1.8005982048e+00 -3.1187275748e+00 1.8005982048e+00 3.1187275748e+00 
49600 6.3040076661e+00 -6.9424193402e-04 1.8006170096e+00 -3.1187601455e+00 1.8006170096e+00 3.1187601455e+00 
49700 6.3040076200e+00 -7.0926869553e-04 1.8006362875e+00 -3.1187935359e+00 1.8006362875e+00 3.1187935359e+00 
49800 6.3040075700e+00 -7.2228248757e-04 1.8006559825e+00 -3.1188276486e+00 1.8006559825e+00 3.1188276486e+00 
49900 6.3040075170e+00 -7.3329451639e-04 1.8006760386e+00 -3.1188623868e+00 1.8006760386e+00 3.1188623868e+00 
50000 6.3040074618e+00 -7.4231992480e-04 1.8006964003e+00 -3.1188976543e+00 1.8006964003e+00 3.1188976543e+00 
50100 6.3040074052e+00 -7.4937769052e-04 1.8007170124e+00 -3.1189333554e+00 1.8007170124e+00 3.1189333554e+00 
50200 6.3040073480e+00 -7.5449051846e-04 1.8007378202e+00 -3.1189693956e+00 1.8007378202e+00 3.1189693956e+00 
50300 6.3040072910e+00 -7.5768472738e-04 1.8007587697e+00 -3.1190056813e+00 1.8007587697e+00 3.1190056813e+00 
50400 6.3040072349e+00 -7.5899013113e-04 1.8007798076e+00 -3.1190421201e+00 1.8007798076e+00 3.1190421201e+00 
50500 6.3040071804e+00 -7.5843991502e-04 1.8008008816e+00 -3.1190786213e+00 1.8008008816e+00 3.1190786213e+00 
50600 6.3040071281e+00 -7.5607050739e-04 1.8008219401e+00 -3.1191150956e+00 1.8008219401e+00 3.1191150956e+00 
50700 6.3040070786e+00 -7.5192144687e-04 1.8008429325e+00 -3.1191514555e+00 1.8008429325e+00 3.1191514555e+00 
50800 6.3040070325e+00 -7.4603524570e-04 1.8008638094e+00 -3.1191876155e+00 1.8008638094e+00 3.1191876155e+00 
50900 6.3040069903e+00 -7.3845724933e-04 1.8008845227e+00 -3.1192234920e+00 1.8008845227e+00 3.1192234920e+00 
51000 6.3040069524e+00 -7.2923549271e-04 1.8009050254e+00 -3.1192590036e+00 1.8009050254e+00 3.1192590036e+00 
51100 6.3040069193e+00 -7.1842055365e-04 1.8009252718e+00 -3.1192940714e+00 1.8009252718e+00 3.1192940714e+00 
51200 6.3040068912e+00 -7.0606540349e-04 1.8009452177e+00 -3.1193286187e+00 1.8009452177e+00 3.1193286187e+00 
51300 6.3040068685e+00 -6.9222525553e-04 1.8009648204e+00 -3.1193625716e+00 1.8009648204e+00 3.1193625716e+00 
51400 6.3040068514e+00 -6.7695741153e-04 1.8009840386e+00 -3.1193958585e+00 1.8009840386e+00 3.1193958585e+00 
51500 6.3040068399e+00 -6.6032110652e-04 1.8010028327e+00 -3.1194284109e+00 1.8010028327e+00 3.1194284109e+00 
51600 6.3040068344e+00 -6.4237735247e-04 1.8010211648e+00 -3.1194601630e+00 1.8010211648e+00 3.1194601630e+00 
51700 6.3040068347e+00 -6.2318878091e-04 1.8010389985e+00 -3.1194910519e+00 1.8010389985e+00 3.1194910519e+00 
51800 6.3040068409e+00 -6.0281948504e-04 1.8010562994e+00 -3.1195210178e+00 1.8010562994e+00 3.1195210178e+00 
51900 6.3040068529e+00 -5.8133486153e-04 1.8010730346e+00 -3.1195500040e+00 1.8010730346e+00 3.1195500040e+00 
52000 6.3040068706e+00 -5.5880145234e-04 1.8010891732e+00 -3.1195779569e+00 1.8010891732e+00 3.1195779569e+00 
52100 6.3040068940e+00 -5.3528678702e-04 1.8011046861e+00 -3.1196048260e+00 1.8011046861e+00 3.1196048260e+00 
52200 6.3040069227e+00 -5.1085922556e-04 1.8011195460e+00 -3.1196305642e+00 1.8011195460e+00 3.1196305642e+00 
52300 6.3040069566e+00 -4.8558780234e-04 1.8011337278e+00 -3.1196551277e+00 1.8011337278e+00 3.1196551277e+00 
52400 6.3040069953e+00 -4.5954207129e-04 1.8011472078e+00 -3.1196784759e+00 1.8011472078e+00 3.1196784759e+00 
52500 6.3040070387e+00 -4.3279195271e-04 1.8011599648e+00 -3.1197005716e+00 1.8011599648e+00 3.1197005716e+00 
52600 6.3040070862e+00 -4.0540758192e-04 1.8011719791e+00 -3.1197213809e+00 1.8011719791e+00 3.1197213809e+00 
52700 6.3040071377e+00 -3.7745916004e-04 1.8011832331e+00 -3.1197408734e+00 1.8011832331e+00 3.1197408734e+00 
52800 6.3040071926e+00 -3.4901680723e-04 1.8011937112e+00 -3.1197590220e+00 1.8011937112e+00 3.1197590220e+00 
52900 6.3040072507e+00 -3.2015041861e-04 1.8012033997e+00 -3.1197758030e+00 1.8012033997e+00 3.1197758030e+00 
53000 6.3040073114e+00 -2.9092952305e-04 1.8012122868e+00 -3.1197911959e+00 1.8012122868e+00 3.1197911959e+00 
53100 6.3040073744e+00 -2.6142314524e-04 1.8012203627e+00 -3.1198051839e+00 1.8012203627e+00 3.1198051839e+00 
53200 6.3040074392e+00 -2.3169967106e-04 1.8012276196e+00 -3.1198177531e+00 1.8012276196e+00 3.1198177531e+00 
53300 6.3040075054e+00 -2.0182671662e-04 1.8012340513e+00 -3.1198288932e+00 1.8012340513e+00 3.1198288932e+00 
53400 6.3040075726e+00 -1.7187100115e-04 1.8012396537e+00 -3.1198385969e+00 1.8012396537e+00 3.1198385969e+00 
53500 6.3040076402e+00 -1.4189822393e-04 1.8012444247e+00 -3.1198468604e+00 1.8012444247e+00 3.1198468604e+00 
53600 6.3040077080e+00 -1.1197294540e-04 1.8012483636e+00 -3.1198536827e+00 1.8012483636e+00 3.1198536827e+00 
53700 6.3040077755e+00 -8.2158472729e-05 1.8012514718e+00 -3.1198590663e+00 1.8012514718e+00 3.1198590663e+00 
53800 6.3040078423e+00 -5.2516749913e-05 1.8012537524e+00 -3.1198630164e+00 1.8012537524e+00 3.1198630164e+00 
53900 6.3040079081e+00 -2.4584322037e-05 1.8012537524e+00 -3.1198630164e+00 1.8012537524e+00 3.1198630164e+00 
54000 6.3040079723e+00 3.8753302242e-06 1.8012537524e+00 -3.1198630164e+00 1.8012537524e+00 3.1198630164e+00 
54100 6.3040080347e+00 3.2799248693e-05 1.8012537524e+00 -3.1198630164e+00 1.8012537524e+00 3.1198630164e+00 
54200 6.3040080951e+00 6.2125533875e-05 1.8012537524e+00 -3.1198630164e+00 1.8012537524e+00 3.1198630164e+00 
54300 6.3040081534e+00 9.1793425171e-05 1.8012537524e+00 -3.1198630164e+00 1.8012537524e+00 3.1198630164e+00 
54400 6.3040082090e+00 1.1916303266e-04 1.8012512043e+00 -3.1198586031e+00 1.8012512043e+00 3.1198586031e+00 
54500 6.3040082617e+00 1.4597436725e-04 1.8012478965e+00 -3.1198528738e+00 1.8012478965e+00 3.1198528738e+00 
54600 6.3040083114e+00 1.7217965096e-04 1.8012438445e+00 -3.1198458555e+00 1.8012438445e+00 3.1198458555e+00 
54700 6.3040083579e+00 1.9773323450e-04 1.8012390650e+00 -3.1198375772e+00 1.8012390650e+00 3.1198375772e+00 
54800 6.3040084010e+00 2.2259165502e-04 1.8012335762e+00 -3.1198280703e+00 1.8012335762e+00 3.1198280703e+00 
54900 6.3040084407e+00 2.4671368824e-04 1.8012273974e+00 -3.1198173682e+00 1.8012273974e+00 3.1198173682e+00 
55000 6.3040084769e+00 2.7006039498e-04 1.8012205489e+00 -3.1198055063e+00 1.8012205489e+00 3.1198055063e+00 
55100 6.3040085094e+00 2.9259516213e-04 1.8012130523e+00 -3.1197925218e+00 1.8012130523e+00 3.1197925218e+00 
55200 6.3040085384e+00 3.1428373798e-04 1.8012049301e+00 -3.1197784538e+00 1.8012049301e+00 3.1197784538e+00 
55300 6.3040085637e+00 3.3509426208e-04 1.8011962059e+00 -3.1197633430e+00 1.8011962059e+00 3.1197633430e+00 
55400 6.3040085856e+00 3.5499728942e-04 1.8011869039e+00 -3.1197472315e+00 1.8011869039e+00 3.1197472315e+00 
55500 6.3040086039e+00 3.7396580929e-04 1.8011770494e+00 -3.1197301629e+00 1.8011770494e+00 3.1197301629e+00 
55600 6.3040086188e+00 3.9197525852e-04 1.8011666682e+00 -3.1197121822e+00 1.8011666682e+00 3.1197121822e+00 
55700 6.3040086304e+00 4.0900352948e-04 1.8011557871e+00 -3.1196933356e+00 1.8011557871e+00 3.1196933356e+00 
55800 6.3040086389e+00 4.2503097269e-04 1.8011444332e+00 -3.1196736700e+00 1.8011444332e+00 3.1196736700e+00 
55900 6.3040086444e+00 4.4004039428e-04 1.8011326343e+00 -3.1196532337e+00 1.8011326343e+00 3.1196532337e+00 
56000 6.3040086470e+00 4.5401704829e-04 1.8011204186e+00 -3.1196320756e+00 1.8011204186e+00 3.1196320756e+00 
56100 6.3040086470e+00 4.6694862397e-04 1.8011078149e+00 -3.1196102453e+00 1.8011078149e+00 3.1196102453e+00 
56200 6.3040086445e+00 4.7882522814e-04 1.8010948521e+00 -3.1195877931e+00 1.8010948521e+00 3.1195877931e+00 
56300 6.3040086398e+00 4.8963936283e-04 1.8010815595e+00 -3.1195647696e+00 1.8010815595e+00 3.1195647696e+00 
56400 6.3040086331e+00 4.9938589824e-04 1.8010679666e+00 -3.1195412260e+00 1.8010679666e+00 3.1195412260e+00 
56500 6.3040086246e+00 5.0806204117e-04 1.8010541030e+00 -3.1195172136e+00 1.8010541030e+00 3.1195172136e+00 
56600 6.3040086146e+00 5.1566729915e-04 1.8010399984e+00 -3.1194927838e+00 1.8010399984e+00 3.1194927838e+00 
56700 6.3040086032e+00 5.2220344027e-04 1.8010256826e+00 -3.1194679881e+00 1.8010256826e+00 3.1194679881e+00 
56800 6.3040085907e+00 5.2767444903e-04 1.8010111853e+00 -3.1194428779e+00 1.8010111853e+00 3.1194428779e+00 
56900 6.3040085775e+00 5.3208647832e-04 1.8009965359e+00 -3.1194175044e+00 1.8009965359e+00 3.1194175044e+00 
57000 6.3040085635e+00 5.3544779758e-04 1.8009817639e+00 -3.1193919186e+00 1.8009817639e+00 3.1193919186e+00 
57100 6.3040085493e+00 5.3776873756e-04 1.8009668985e+00 -3.1193661709e+00 1.8009668985e+00 3.1193661709e+00 
57200 6.3040085348e+00 5.3906163164e-04 1.8009519685e+00 -3.1193403115e+00 1.8009519685e+00 3.1193403115e+00 
57300 6.3040085205e+00 5.3934075399e-04 1.8009370025e+00 -3.1193143896e+00 1.8009370025e+00 3.1193143896e+00 
57400 6.3040085063e+00 5.3862225478e-04 1.8009220286e+00 -3.1192884541e+00 1.8009220286e+00 3.1192884541e+00 
57500 6.3040084927e+00 5.3692409257e-04 1.8009070746e+00 -3.1192625529e+00 1.8009070746e+00 3.1192625529e+00 
57600 6.3040084797e+00 5.3426596415e-04 1.8008921676e+00 -3.1192367332e+00 1.8008921676e+00 3.1192367332e+00 
57700 6.3040084675e+00 5.3066923190e-04 1.8008773342e+00 -3.1192110411e+00 1.8008773342e+00 3.1192110411e+00 
57800 6.3040084562e+00 5.2615684905e-04 1.8008626006e+00 -3.1191855217e+00 1.8008626006e+00 3.1191855217e+00 
57900 6.3040084461e+00 5.2075328287e-04 1.8008479922e+00 -3.1191602191e+00 1.8008479922e+00 3.1191602191e+00 
58000 6.3040084372e+00 5.1448443608e-04 1.8008335336e+00 -3.1191351762e+00 1.8008335336e+00 3.1191351762e+00 
58100 6.3040084297e+00 5.0737756668e-04 1.8008192490e+00 -3.1191104346e+00 1.8008192490e+00 3.1191104346e+00 
58200 6.3040084236e+00 4.9946120635e-04 1.8008051616e+00 -3.1190860345e+00 1.8008051616e+00 3.1190860345e+00 
58300 6.3040084190e+00 4.9076507770e-04 1.8007912939e+00 -3.1190620149e+00 1.8007912939e+00 3.1190620149e+00 
58400 6.3040084160e+00 4.8132001041e-04 1.8007776676e+00 -3.1190384134e+00 1.8007776676e+00 3.1190384134e+00 
58500 6.3040084147e+00 4.7115785669e-04 1.8007643034e+00 -3.1190152659e+00 1.8007643034e+00 3.1190152659e+00 
58600 6.3040084149e+00 4.6031140609e-04 1.8007512212e+00 -3.1189926069e+00 1.8007512212e+00 3.1189926069e+00 
58700 6.3040084169e+00 4.4881429983e-04 1.8007384401e+00 -3.1189704695e+00 1.8007384401e+00 3.1189704695e+00 
58800 6.3040084205e+00 4.3670094496e-04 1.8007259782e+00 -3.1189488848e+00 1.8007259782e+00 3.1189488848e+00 
58900 6.3040084257e+00 4.2400642848e-04 1.8007138525e+00 -3.1189278825e+00 1.8007138525e+00 3.1189278825e+00 
59000 6.3040084326e+00 4.1076643157e-04 1.8007020793e+00 -3.1189074906e+00 1.8007020793e+00 3.1189074906e+00 
59100 6.3040084411e+00 3.9701714415e-04 1.8006906735e+00 -3.1188877353e+00 1.8006906735e+00 3.1188877353e+00 
59200 6.3040084510e+00 3.8279517993e-04 1.8006796495e+00 -3.1188686411e+00 1.8006796495e+00 3.1188686411e+00 
59300 6.3040084624e+00 3.6813749214e-04 1.8006690203e+00 -3.1188502309e+00 1.8006690203e+00 3.1188502309e+00 
59400 6.3040084752e+00 3.5308129005e-04 1.8006587981e+00 -3.1188325254e+00 1.8006587981e+00 3.1188325254e+00 
59500 6.3040084893e+00 3.3766395656e-04 1.8006489939e+00 -3.1188155440e+00 1.8006489939e+00 3.1188155440e+00 
59600 6.3040085045e+00 3.2192296680e-04 1.8006396177e+00 -3.1187993040e+00 1.8006396177e+00 3.1187993040e+00 
59700 6.3040085208e+00 3.0589580816e-04 1.8006306786e+00 -3.1187838210e+00 1.8006306786e+00 3.1187838210e+00 
59800 6.3040085381e+00 2.8961990170e-04 1.8006221845e+00 -3.1187691088e+00 1.8006221845e+00 3.1187691088e+00 
59900 6.3040085563e+00 2.7313252513e-04 1.8006141423e+00 -3.1187551793e+00 1.8006141423e+00 3.1187551793e+00 
60000 6.3040085752e+00 2.5647073750e-04 1.8006065579e+00 -3.1187420426e+00 1.8006065579e+00 3.1187420426e+00 
60100 6.3040085947e+00 2.3967130576e-04 1.8005994361e+00 -3.1187297074e+00 1.8005994361e+00 3.1187297074e+00 
60200 6.3040086147e+00 2.2277063324e-04 1.8005927808e+00 -3.1187181800e+00 1.8005927808e+00 3.1187181800e+00 
60300 6.3040086351e+00 2.0580469021e-04 1.8005865947e+00 -3.1187074655e+00 1.8005865947e+00 3.1187074655e+00 
60400 6.3040086557e+00 1.8880894662e-04 1.8005808798e+00 -3.1186975669e+00 1.8005808798e+00 3.1186975669e+00 
60500 6.3040086765e+00 1.7181830712e-04 1.8005756368e+00 -3.1186884858e+00 1.8005756368e+00 3.1186884858e+00 
60600 6.3040086972e+00 1.5486704841e-04 1.8005708656e+00 -3.1186802218e+00 1.8005708656e+00 3.1186802218e+00 
60700 6.3040087179e+00 1.3798875911e-04 1.8005665651e+00 -3.1186727732e+00 1.8005665651e+00 3.1186727732e+00 
60800 6.3040087383e+00 1.2121628214e-04 1.8005627333e+00 -3.1186661363e+00 1.8005627333e+00 3.1186661363e+00 
60900 6.3040087584e+00 1.0458165964e-04 1.8005593672e+00 -3.1186603061e+00 1.8005593672e+00 3.1186603061e+00 
61000 6.3040087781e+00 8.8116080681e-05 1.8005564631e+00 -3.1186552759e+00 1.8005564631e+00 3.1186552759e+00 
61100 6.3040087973e+00 7.1849831637e-05 1.8005540162e+00 -3.1186510378e+00 1.8005540162e+00 3.1186510378e+00 
61200 6.3040088158e+00 5.5812249331e-05 1.8005520209e+00 -3.1186475820e+00 1.8005520209e+00 3.1186475820e+00 
61300 6.3040088338e+00 4.1603577626e-05 1.8005520209e+00 -3.1186475820e+00 1.8005520209e+00 3.1186475820e+00 
61400 6.3040088508e+00 2.7242360600e-05 1.8005520209e+00 -3.1186475820e+00 1.8005520209e+00 3.1186475820e+00 
61500 6.3040088670e+00 1.2762374549e-05 1.8005520209e+00 -3.1186475820e+00 1.8005520209e+00 3.1186475820e+00 
61600 6.3040088823e+00 -1.8034767861e-06 1.8005520209e+00 -3.1186475820e+00 1.8005520209e+00 3.1186475820e+00 
61700 6.3040088967e+00 -1.6423194510e-05 1.8005520209e+00 -3.1186475820e+00 1.8005520209e+00 3.1186475820e+00 
61800 6.3040089101e+00 -3.1065714224e-05 1.8005520209e+00 -3.1186475820e+00 1.8005520209e+00 3.1186475820e+00 
61900 6.3040089226e+00 -4.5700933115e-05 1.8005520209e+00 -3.1186475820e+00 1.8005520209e+00 3.1186475820e+00 
62000 6.3040089341e+00 -6.0299734463e-05 1.8005520209e+00 -3.1186475820e+00 1.8005520209e+00 3.1186475820e+00 
62100 6.3040089447e+00 -7.4834009643e-05 1.8005520209e+00 -3.1186475820e+00 1.8005520209e+00 3.1186475820e+00 
62200 6.3040089542e+00 -8.7169332990e-05 1.8005540990e+00 -3.1186511813e+00 1.8005540990e+00 3.1186511813e+00 
62300 6.3040089626e+00 -9.9029509186e-05 1.8005565197e+00 -3.1186553739e+00 1.8005565197e+00 3.1186553739e+00 
62400 6.3040089701e+00 -1.1039903619e-04 1.8005592696e+00 -3.1186601370e+00 1.8005592696e+00 3.1186601370e+00 
62500 6.3040089765e+00 -1.2126370941e-04 1.8005623353e+00 -3.1186654470e+00 1.8005623353e+00 3.1186654470e+00 
62600 6.3040089819e+00 -1.3161062769e-04 1.8005657027e+00 -3.1186712794e+00 1.8005657027e+00 3.1186712794e+00 
62700 6.3040089864e+00 -1.4142819638e-04 1.8005693574e+00 -3.1186776096e+00 1.8005693574e+00 3.1186776096e+00 
62800 6.3040089900e+00 -1.5070612775e-04 1.8005732847e+00 -3.1186844119e+00 1.8005732847e+00 3.1186844119e+00 
62900 6.3040089928e+00 -1.5943543867e-04 1.8005774697e+00 -3.1186916604e+00 1.8005774697e+00 3.1186916604e+00 
63000 6.3040089947e+00 -1.6760844566e-04 1.8005818970e+00 -3.1186993288e+00 1.8005818970e+00 3.1186993288e+00 
63100 6.3040089959e+00 -1.7521875728e-04 1.8005865513e+00 -3.1187073903e+00 1.8005865513e+00 3.1187073903e+00 
63200 6.3040089963e+00 -1.8226126410e-04 1.8005914169e+00 -3.1187158178e+00 1.8005914169e+00 3.1187158178e+00 
63300 6.3040089962e+00 -1.8873212616e-04 1.8005964781e+00 -3.1187245839e+00 1.8005964781e+00 3.1187245839e+00 
63400 6.3040089954e+00 -1.9462875797e-04 1.8006017189e+00 -3.1187336613e+00 1.8006017189e+00 3.1187336613e+00 
63500 6.3040089941e+00 -1.9994981131e-04 1.8006071234e+00 -3.1187430223e+00 1.8006071234e+00 3.1187430223e+00 
63600 6.3040089924e+00 -2.0469515573e-04 1.8006126757e+00 -3.1187526391e+00 1.8006126757e+00 3.1187526391e+00 
63700 6.3040089903e+00 -2.0886585687e-04 1.8006183598e+00 -3.1187624842e+00 1.8006183598e+00 3.1187624842e+00 
63800 6.3040089879e+00 -2.1246415273e-04 1.8006241596e+00 -3.1187725298e+00 1.8006241596e+00 3.1187725298e+00 
63900 6.3040089853e+00 -2.1549342793e-04 1.8006300594e+00 -3.1187827484e+00 1.8006300594e+00 3.1187827484e+00 
64000 6.3040089825e+00 -2.1795818610e-04 1.8006360432e+00 -3.1187931127e+00 1.8006360432e+00 3.1187931127e+00 
64100 6.3040089795e+00 -2.1986402043e-04 1.8006420955e+00 -3.1188035956e+00 1.8006420955e+00 3.1188035956e+00 
64200 6.3040089766e+00 -2.2121758247e-04 1.8006482006e+00 -3.1188141700e+00 1.8006482006e+00 3.1188141700e+00 
64300 6.3040089736e+00 -2.2202654935e-04 1.8006543433e+00 -3.1188248095e+00 1.8006543433e+00 3.1188248095e+00 
64400 6.3040089707e+00 -2.2229958947e-04 1.8006605085e+00 -3.1188354879e+00 1.8006605085e+00 3.1188354879e+00 
64500 6.3040089679e+00 -2.2204632669e-04 1.8006666812e+00 -3.1188461794e+00 1.8006666812e+00 3.1188461794e+00 
64600 6.3040089653e+00 -2.2127730329e-04 1.8006728469e+00 -3.1188568586e+00 1.8006728469e+00 3.1188568586e+00 
64700 6.3040089629e+00 -2.2000394161e-04 1.8006789912e+00 -3.1188675009e+00 1.8006789912e+00 3.1188675009e+00 
64800 6.3040089608e+00 -2.1823850458e-04 1.8006851001e+00 -3.1188780818e+00 1.8006851001e+00 3.1188780818e+00 
64900 6.3040089589e+00 -2.1599405521e-04 1.8006911600e+00 -3.1188885779e+00 1.8006911600e+00 3.1188885779e+00 
65000 6.3040089575e+00 -2.1328441521e-04 1.8006971575e+00 -3.1188989659e+00 1.8006971575e+00 3.1188989659e+00 
65100 6.3040089564e+00 -2.1012412268e-04 1.8007030798e+00 -3.1189092236e+00 1.8007030798e+00 3.1189092236e+00 
65200 6.3040089557e+00 -2.0652838909e-04 1.8007089143e+00 -3.1189193292e+00 1.8007089143e+00 3.1189193292e+00 
65300 6.3040089554e+00 -2.0251305577e-04 1.8007146490e+00 -3.1189292619e+00 1.8007146490e+00 3.1189292619e+00 
65400 6.3040089555e+00 -1.9809454962e-04 1.8007202721e+00 -3.1189390015e+00 1.8007202721e+00 3.1189390015e+00 
65500 6.3040089562e+00 -1.9328983866e-04 1.8007257725e+00 -3.1189485285e+00 1.8007257725e+00 3.1189485285e+00 
65600 6.3040089572e+00 -1.8811638705e-04 1.8007311395e+00 -3.1189578244e+00 1.8007311395e+00 3.1189578244e+00 
65700 6.3040089587e+00 -1.8259210997e-04 1.8007363629e+00 -3.1189668715e+00 1.8007363629e+00 3.1189668715e+00 
65800 6.3040089607e+00 -1.7673532839e-04 1.8007414328e+00 -3.1189756529e+00 1.8007414328e+00 3.1189756529e+00 
65900 6.3040089632e+00 -1.7056472373e-04 1.8007463401e+00 -3.1189841526e+00 1.8007463401e+00 3.1189841526e+00 
66000 6.3040089661e+00 -1.6409929261e-04 1.8007510760e+00 -3.1189923555e+00 1.8007510760e+00 3.1189923555e+00 
66100 6.3040089694e+00 -1.5735830177e-04 1.8007556324e+00 -3.1190002474e+00 1.8007556324e+00 3.1190002474e+00 
66200 6.3040089731e+00 -1.5036124321e-04 1.8007600017e+00 -3.1190078151e+00 1.8007600017e+00 3.1190078151e+00 
66300 6.3040089773e+00 -1.4312778964e-04 1.8007641766e+00 -3.1190150464e+00 1.8007641766e+00 3.1190150464e+00 
66400 6.3040089818e+00 -1.3567775040e-04 1.8007681507e+00 -3.1190219297e+00 1.8007681507e+00 3.1190219297e+00 
66500 6.3040089867e+00 -1.2803102780e-04 1.8007719179e+00 -3.1190284547e+00 1.8007719179e+00 3.1190284547e+00 
66600 6.3040089919e+00 -1.2020757407e-04 1.8007754728e+00 -3.1190346119e+00 1.8007754728e+00 3.1190346119e+00 
66700 6.3040089973e+00 -1.1222734904e-04 1.8007788105e+00 -3.1190403929e+00 1.8007788105e+00 3.1190403929e+00 
66800 6.3040090031e+00 -1.0411027844e-04 1.8007819266e+00 -3.1190457902e+00 1.8007819266e+00 3.1190457902e+00 
66900 6.3040090091e+00 -9.5876213070e-05 1.8007848173e+00 -3.1190507970e+00 1.8007848173e+00 3.1190507970e+00 
67000 6.3040090152e+00 -8.7544888842e-05 1.8007874793e+00 -3.1190554078e+00 1.8007874793e+00 3.1190554078e+00 
67100 6.3040090216e+00 -7.9135887771e-05 1.8007899101e+00 -3.1190596180e+00 1.8007899101e+00 3.1190596180e+00 
67200 6.3040090280e+00 -7.0668599948e-05 1.8007921073e+00 -3.1190634237e+00 1.8007921073e+00 3.1190634237e+00 
67300 6.3040090347e+00 -6.4150803466e-05 1.8007921073e+00 -3.1190634237e+00 1.8007921073e+00 3.1190634237e+00 
67400 6.3040090414e+00 -5.7383078112e-05 1.8007921073e+00 -3.1190634237e+00 1.8007921073e+00 3.1190634237e+00 
67500 6.3040090481e+00 -5.0384403929e-05 1.8007921073e+00 -3.1190634237e+00 1.8007921073e+00 3.1190634237e+00 
67600 6.3040090546e+00 -4.3173604215e-05 1.8007921073e+00 -3.1190634237e+00 1.8007921073e+00 3.1190634237e+00 
67700 6.3040090611e+00 -3.5769316091e-05 1.8007921073e+00 -3.1190634237e+00 1.8007921073e+00 3.1190634237e+00 
67800 6.3040090675e+00 -2.8189962272e-05 1.8007921073e+00 -3.1190634237e+00 1.8007921073e+00 3.1190634237e+00 
67900 6.3040090738e+00 -2.0453724100e-05 1.8007921073e+00 -3.1190634237e+00 1.8007921073e+00 3.1190634237e+00 
68000 6.3040090799e+00 -1.2578515805e-05 1.8007921073e+00 -3.1190634237e+00 1.8007921073e+00 3.1190634237e+00 
68100 6.3040090859e+00 -4.5819600468e-06 1.8007921073e+00 -3.1190634237e+00 1.8007921073e+00 3.1190634237e+00 
68200 6.3040090916e+00 3.5186352832e-06 1.8007921073e+00 -3.1190634237e+00 1.8007921073e+00 3.1190634237e+00 
68300 6.3040090972e+00 1.1706298976e-05 1.8007921073e+00 -3.1190634237e+00 1.8007921073e+00 3.1190634237e+00 
68400 6.3040091026e+00 1.9964417161e-05 1.8007921073e+00 -3.1190634237e+00 1.8007921073e+00 3.1190634237e+00 
68500 6.3040091077e+00 2.8276752669e-05 1.8007921073e+00 -3.1190634237e+00 1.8007921073e+00 3.1190634237e+00 
68600 6.3040091127e+00 3.6627463123e-05 1.8007921073e+00 -3.1190634237e+00 1.8007921073e+00 3.1190634237e+00 
68700 6.3040091174e+00 4.5001117774e-05 1.8007921073e+00 -3.1190634237e+00 1.8007921073e+00 3.1190634237e+00 
68800 6.3040091218e+00 5.3382713051e-05 1.8007921073e+00 -3.1190634237e+00 1.8007921073e+00 3.1190634237e+00 
68900 6.3040091261e+00 6.1757686880e-05 1.8007921073e+00 -3.1190634237e+00 1.8007921073e+00 3.1190634237e+00 
69000 6.3040091301e+00 7.0111931754e-05 1.8007921073e+00 -3.1190634237e+00 1.8007921073e+00 3.1190634237e+00 
69100 6.3040091339e+00 7.8431806562e-05 1.8007921073e+00 -3.1190634237e+00 1.8007921073e+00 3.1190634237e+00 
69200 6.3040091372e+00 8.4496759236e-05 1.8007899296e+00 -3.1190596519e+00 1.8007899296e+00 3.1190596519e+00 
69300 6.3040091402e+00 9.0320045779e-05 1.8007875835e+00 -3.1190555883e+00 1.8007875835e+00 3.1190555883e+00 
69400 6.3040091430e+00 9.5893103084e-05 1.8007850757e+00 -3.1190512447e+00 1.8007850757e+00 3.1190512447e+00 
69500 6.3040091454e+00 1.0120806190e-04 1.8007824132e+00 -3.1190466330e+00 1.8007824132e+00 3.1190466330e+00 
69600 6.3040091476e+00 1.0625775014e-04 1.8007796031e+00 -3.1190417658e+00 1.8007796031e+00 3.1190417658e+00 
69700 6.3040091494e+00 1.1103569479e-04 1.8007766527e+00 -3.1190366556e+00 1.8007766527e+00 3.1190366556e+00 
69800 6.3040091511e+00 1.1553612222e-04 1.8007735698e+00 -3.1190313157e+00 1.8007735698e+00 3.1190313157e+00 
69900 6.3040091524e+00 1.1975395718e-04 1.8007703618e+00 -3.1190257594e+00 1.8007703618e+00 3.1190257594e+00 
70000 6.3040091536e+00 1.2368482033e-04 1.8007670367e+00 -3.1190200002e+00 1.8007670367e+00 3.1190200002e+00 
70100 6.3040091545e+00 1.2732502438e-04 1.8007636025e+00 -3.1190140519e+00 1.8007636025e+00 3.1190140519e+00 
70200 6.3040091552e+00 1.3067156888e-04 1.8007600672e+00 -3.1190079286e+00 1.8007600672e+00 3.1190079286e+00 
70300 6.3040091557e+00 1.3372213368e-04 1.8007564390e+00 -3.1190016443e+00 1.8007564390e+00 3.1190016443e+00 
70400 6.3040091560e+00 1.3647507119e-04 1.8007527260e+00 -3.1189952133e+00 1.8007527260e+00 3.1189952133e+00 
70500 6.3040091562e+00 1.3892939724e-04 1.8007489366e+00 -3.1189886499e+00 1.8007489366e+00 3.1189886499e+00 
70600 6.3040091563e+00 1.4108478088e-04 1.8007450791e+00 -3.1189819685e+00 1.8007450791e+00 3.1189819685e+00 
70700 6.3040091562e+00 1.4294153296e-04 1.8007411617e+00 -3.1189751833e+00 1.8007411617e+00 3.1189751833e+00 
70800 6.3040091561e+00 1.4450059354e-04 1.8007371927e+00 -3.1189683089e+00 1.8007371927e+00 3.1189683089e+00 
70900 6.3040091558e+00 1.4576351834e-04 1.8007331805e+00 -3.1189613594e+00 1.8007331805e+00 3.1189613594e+00 
71000 6.3040091555e+00 1.4673246408e-04 1.8007291331e+00 -3.1189543492e+00 1.8007291331e+00 3.1189543492e+00 
71100 6.3040091552e+00 1.4741017284e-04 1.8007250589e+00 -3.1189472924e+00 1.8007250589e+00 3.1189472924e+00 
71200 6.3040091548e+00 1.4779995553e-04 1.8007209658e+00 -3.1189402030e+00 1.8007209658e+00 3.1189402030e+00 
71300 6.3040091544e+00 1.4790567448e-04 1.8007168619e+00 -3.1189330948e+00 1.8007168619e+00 3.1189330948e+00 
71400 6.3040091540e+00 1.4773172517e-04 1.8007127550e+00 -3.1189259816e+00 1.8007127550e+00 3.1189259816e+00 
71500 6.3040091537e+00 1.4728301723e-04 1.8007086530e+00 -3.1189188766e+00 1.8007086530e+00 3.1189188766e+00 
71600 6.3040091534e+00 1.4656495465e-04 1.8007045634e+00 -3.1189117933e+00 1.8007045634e+00 3.1189117933e+00 
71700 6.3040091532e+00 1.4558341541e-04 1.8007004938e+00 -3.1189047444e+00 1.8007004938e+00 3.1189047444e+00 
71800 6.3040091530e+00 1.4434473044e-04 1.8006964514e+00 -3.1188977428e+00 1.8006964514e+00 3.1188977428e+00 
71900 6.3040091529e+00 1.4285566203e-04 1.8006924433e+00 -3.1188908007e+00 1.8006924433e+00 3.1188908007e+00 
72000 6.3040091529e+00 1.4112338175e-04 1.8006884767e+00 -3.1188839302e+00 1.8006884767e+00 3.1188839302e+00 
72100 6.3040091529e+00 1.3915544791e-04 1.8006845581e+00 -3.1188771430e+00 1.8006845581e+00 3.1188771430e+00 
72200 6.3040091531e+00 1.3695978265e-04 1.8006806941e+00 -3.1188704504e+00 1.8006806941e+00 3.1188704504e+00 
72300 6.3040091534e+00 1.3454464864e-04 1.8006768911e+00 -3.1188638634e+00 1.8006768911e+00 3.1188638634e+00 
72400 6.3040091538e+00 1.3191862553e-04 1.8006731552e+00 -3.1188573926e+00 1.8006731552e+00 3.1188573926e+00 
72500 6.3040091544e+00 1.2909058619e-04 1.8006694921e+00 -3.1188510480e+00 1.8006694921e+00 3.1188510480e+00 
72600 6.3040091550e+00 1.2606967274e-04 1.8006659076e+00 -3.1188448394e+00 1.8006659076e+00 3.1188448394e+00 
72700 6.3040091558e+00 1.2286527245e-04 1.8006624070e+00 -3.1188387761e+00 1.8006624070e+00 3.1188387761e+00 
72800 6.3040091567e+00 1.1948699360e-04 1.8006589953e+00 -3.1188328670e+00 1.8006589953e+00 3.1188328670e+00 
72900 6.3040091578e+00 1.1594464131e-04 1.8006556774e+00 -3.1188271202e+00 1.8006556774e+00 3.1188271202e+00 
73000 6.3040091589e+00 1.1224819336e-04 1.8006524579e+00 -3.1188215439e+00 1.8006524579e+00 3.1188215439e+00 
73100 6.3040091602e+00 1.0840777614e-04 1.8006493410e+00 -3.1188161453e+00 1.8006493410e+00 3.1188161453e+00 
73200 6.3040091616e+00 1.0443364074e-04 1.8006463308e+00 -3.1188109314e+00 1.8006463308e+00 3.1188109314e+00 
73300 6.3040091631e+00 1.0033613917e-04 1.8006434309e+00 -3.1188059087e+00 1.8006434309e+00 3.1188059087e+00 
73400 6.3040091646e+00 9.6125700783e-05 1.8006406448e+00 -3.1188010830e+00 1.8006406448e+00 3.1188010830e+00 
73500 6.3040091663e+00 9.1812809073e-05 1.8006379756e+00 -3.1187964598e+00 1.8006379756e+00 3.1187964598e+00 
73600 6.3040091681e+00 8.7407978667e-05 1.8006354261e+00 -3.1187920440e+00 1.8006354261e+00 3.1187920440e+00 
73700 6.3040091700e+00 8.2921732729e-05 1.8006329990e+00 -3.1187878400e+00 1.8006329990e+00 3.1187878400e+00 
73800 6.3040091719e+00 7.8364580761e-05 1.8006306964e+00 -3.1187838519e+00 1.8006306964e+00 3.1187838519e+00 
73900 6.3040091739e+00 7.3746996789e-05 1.8006285204e+00 -3.1187800829e+00 1.8006285204e+00 3.1187800829e+00 
74000 6.3040091759e+00 6.9079398086e-05 1.8006264726e+00 -3.1187765360e+00 1.8006264726e+00 3.1187765360e+00 
74100 6.3040091781e+00 6.6317209110e-05 1.8006264726e+00 -3.1187765360e+00 1.8006264726e+00 3.1187765360e+00 
74200 6.3040091804e+00 6.3402475999e-05 1.8006264726e+00 -3.1187765360e+00 1.8006264726e+00 3.1187765360e+00 
74300 6.3040091826e+00 6.0345917300e-05 1.8006264726e+00 -3.1187765360e+00 1.8006264726e+00 3.1187765360e+00 
74400 6.3040091848e+00 5.7158168027e-05 1.8006264726e+00 -3.1187765360e+00 1.8006264726e+00 3.1187765360e+00 
74500 6.3040091870e+00 5.3849763124e-05 1.8006264726e+00 -3.1187765360e+00 1.8006264726e+00 3.1187765360e+00 
74600 6.3040091891e+00 5.0431121608e-05 1.8006264726e+00 -3.1187765360e+00 1.8006264726e+00 3.1187765360e+00 
74700 6.3040091912e+00 4.6912531371e-05 1.8006264726e+00 -3.1187765360e+00 1.8006264726e+00 3.1187765360e+00 
74800 6.3040091933e+00 4.3304134689e-05 1.8006264726e+00 -3.1187765360e+00 1.8006264726e+00 3.1187765360e+00 
74900 6.3040091953e+00 3.9615914437e-05 1.8006264726e+00 -3.1187765360e+00 1.8006264726e+00 3.1187765360e+00 
75000 6.3040091972e+00 3.5857680988e-05 1.8006264726e+00 -3.1187765360e+00 1.8006264726e+00 3.1187765360e+00 
75100 6.3040091991e+00 3.2039059818e-05 1.8006264726e+00 -3.1187765360e+00 1.8006264726e+00 3.1187765360e+00 
75200 6.3040092009e+00 2.8169479825e-05 1.8006264726e+00 -3.1187765360e+00 1.8006264726e+00 3.1187765360e+00 
75300 6.3040092027e+00 2.4258162364e-05 1.8006264726e+00 -3.1187765360e+00 1.8006264726e+00 3.1187765360e+00 
75400 6.3040092044e+00 2.0314110967e-05 1.8006264726e+00 -3.1187765360e+00 1.8006264726e+00 3.1187765360e+00 
75500 6.3040092060e+00 1.6346101784e-05 1.8006264726e+00 -3.1187765360e+00 1.8006264726e+00 3.1187765360e+00 
75600 6.3040092076e+00 1.2362674725e-05 1.8006264726e+00 -3.1187765360e+00 1.8006264726e+00 3.1187765360e+00 
75700 6.3040092091e+00 8.3721252873e-06 1.8006264726e+00 -3.1187765360e+00 1.8006264726e+00 3.1187765360e+00 
75800 6.3040092105e+00 4.3824970792e-06 1.8006264726e+00 -3.1187765360e+00 1.8006264726e+00 3.1187765360e+00 
75900 6.3040092118e+00 4.0157504161e-07 1.8006264726e+00 -3.1187765360e+00 1.8006264726e+00 3.1187765360e+00 
76000 6.3040092131e+00 -3.5631206817e-06 1.8006264726e+00 -3.1187765360e+00 1.8006264726e+00 3.1187765360e+00 
76100 6.3040092143e+00 -7.5043401823e-06 1.8006264726e+00 -3.1187765360e+00 1.8006264726e+00 3.1187765360e+00 
76200 6.3040092154e+00 -1.1415108585e-05 1.8006264726e+00 -3.1187765360e+00 1.8006264726e+00 3.1187765360e+00 
76300 6.3040092164e+00 -1.5288730184e-05 1.8006264726e+00 -3.1187765360e+00 1.8006264726e+00 3.1187765360e+00 
76400 6.3040092174e+00 -1.9118791965e-05 1.8006264726e+00 -3.1187765360e+00 1.8006264726e+00 3.1187765360e+00 
76500 6.3040092183e+00 -2.2899166487e-05 1.8006264726e+00 -3.1187765360e+00 1.8006264726e+00 3.1187765360e+00 
76600 6.3040092192e+00 -2.6624014162e-05 1.8006264726e+00 -3.1187765360e+00 1.8006264726e+00 3.1187765360e+00 
76700 6.3040092200e+00 -3.0287784949e-05 1.8006264726e+00 -3.1187765360e+00 1.8006264726e+00 3.1187765360e+00 
76800 6.3040092207e+00 -3.3885219454e-05 1.8006264726e+00 -3.1187765360e+00 1.8006264726e+00 3.1187765360e+00 
76900 6.3040092214e+00 -3.7411349474e-05 1.8006264726e+00 -3.1187765360e+00 1.8006264726e+00 3.1187765360e+00 
77000 6.3040092221e+00 -4.0861498004e-05 1.8006264726e+00 -3.1187765360e+00 1.8006264726e+00 3.1187765360e+00 
77100 6.3040092227e+00 -4.4231278690e-05 1.8006264726e+00 -3.1187765360e+00 1.8006264726e+00 3.1187765360e+00 
77200 6.3040092232e+00 -4.7516594783e-05 1.8006264726e+00 -3.1187765360e+00 1.8006264726e+00 3.1187765360e+00 
77300 6.3040092237e+00 -5.0713637592e-05 1.8006264726e+00 -3.1187765360e+00 1.8006264726e+00 3.1187765360e+00 
77400 6.3040092242e+00 -5.3818884464e-05 1.8006264726e+00 -3.1187765360e+00 1.8006264726e+00 3.1187765360e+00 
77500 6.3040092247e+00 -5.6829096290e-05 1.8006264726e+00 -3.1187765360e+00 1.8006264726e+00 3.1187765360e+00 
77600 6.3040092251e+00 -5.9741314588e-05 1.8006264726e+00 -3.1187765360e+00 1.8006264726e+00 3.1187765360e+00 
77700 6.3040092255e+00 -6.2552858148e-05 1.8006264726e+00 -3.1187765360e+00 1.8006264726e+00 3.1187765360e+00 
77800 6.3040092259e+00 -6.5261319273e-05 1.8006264726e+00 -3.1187765360e+00 1.8006264726e+00 3.1187765360e+00 
77900 6.3040092262e+00 -6.7864559646e-05 1.8006264726e+00 -3.1187765360e+00 1.8006264726e+00 3.1187765360e+00 
78000 6.3040092266e+00 -7.0360705821e-05 1.8006264726e+00 -3.1187765360e+00 1.8006264726e+00 3.1187765360e+00 
78100 6.3040092269e+00 -7.2748144371e-05 1.8006264726e+00 -3.1187765360e+00 1.8006264726e+00 3.1187765360e+00 
78200 6.3040092271e+00 -7.2977412467e-05 1.8006284927e+00 -3.1187800348e+00 1.8006284927e+00 3.1187800348e+00 
78300 6.3040092272e+00 -7.3079130180e-05 1.8006305191e+00 -3.1187835447e+00 1.8006305191e+00 3.1187835447e+00 
78400 6.3040092273e+00 -7.3053814406e-05 1.8006325484e+00 -3.1187870595e+00 1.8006325484e+00 3.1187870595e+00 
78500 6.3040092274e+00 -7.2902307469e-05 1.8006345769e+00 -3.1187905731e+00 1.8006345769e+00 3.1187905731e+00 
78600 6.3040092275e+00 -7.2625766408e-05 1.8006366013e+00 -3.1187940794e+00 1.8006366013e+00 3.1187940794e+00 
78700 6.3040092276e+00 -7.2225651968e-05 1.8006386179e+00 -3.1187975724e+00 1.8006386179e+00 3.1187975724e+00 
78800 6.3040092278e+00 -7.1703717312e-05 1.8006406235e+00 -3.1188010461e+00 1.8006406235e+00 3.1188010461e+00 
78900 6.3040092279e+00 -7.1061996391e-05 1.8006426146e+00 -3.1188044947e+00 1.8006426146e+00 3.1188044947e+00 
79000 6.3040092280e+00 -7.0302792123e-05 1.8006445878e+00 -3.1188079125e+00 1.8006445878e+00 3.1188079125e+00 
79100 6.3040092283e+00 -7.1407818429e-05 1.8006445878e+00 -3.1188079125e+00 1.8006445878e+00 3.1188079125e+00 
79200 6.3040092285e+00 -7.0375448525e-05 1.8006465706e+00 -3.1188113468e+00 1.8006465706e+00 3.1188113468e+00 
79300 6.3040092288e+00 -7.1218316690e-05 1.8006465706e+00 -3.1188113468e+00 1.8006465706e+00 3.1188113468e+00 
79400 6.3040092290e+00 -6.9930902820e-05 1.8006485482e+00 -3.1188147721e+00 1.8006485482e+00 3.1188147721e+00 
79500 6.3040092294e+00 -7.0515605692e-05 1.8006485482e+00 -3.1188147721e+00 1.8006485482e+00 3.1188147721e+00 
79600 6.3040092298e+00 -7.0977559854e-05 1.8006485482e+00 -3.1188147721e+00 1.8006485482e+00 3.1188147721e+00 
79700 6.3040092300e+00 -6.9321327721e-05 1.8006505191e+00 -3.1188181858e+00 1.8006505191e+00 3.1188181858e+00 
79800 6.3040092305e+00 -6.9536298996e-05 1.8006505191e+00 -3.1188181858e+00 1.8006505191e+00 3.1188181858e+00 
79900 6.3040092309e+00 -6.9634877494e-05 1.8006505191e+00 -3.1188181858e+00 1.8006505191e+00 3.1188181858e+00 
80000 6.3040092314e+00 -6.9620232538e-05 1.8006505191e+00 -3.1188181858e+00 1.8006505191e+00 3.1188181858e+00 
80100 6.3040092319e+00 -6.9495645056e-05 1.8006505191e+00 -3.1188181858e+00 1.8006505191e+00 3.1188181858e+00 
80200 6.3040092324e+00 -6.9264498137e-05 1.8006505191e+00 -3.1188181858e+00 1.8006505191e+00 3.1188181858e+00 
80300 6.3040092329e+00 -6.8930267679e-05 1.8006505191e+00 -3.1188181858e+00 1.8006505191e+00 3.1188181858e+00 
80400 6.3040092334e+00 -6.8496513152e-05 1.8006505191e+00 -3.1188181858e+00 1.8006505191e+00 3.1188181858e+00 
80500 6.3040092340e+00 -6.7966868498e-05 1.8006505191e+00 -3.1188181858e+00 1.8006505191e+00 3.1188181858e+00 
80600 6.3040092345e+00 -6.7345033152e-05 1.8006505191e+00 -3.1188181858e+00 1.8006505191e+00 3.1188181858e+00 
80700 6.3040092351e+00 -6.6634763224e-05 1.8006505191e+00 -3.1188181858e+00 1.8006505191e+00 3.1188181858e+00 
80800 6.3040092357e+00 -6.5839862868e-05 1.8006505191e+00 -3.1188181858e+00 1.8006505191e+00 3.1188181858e+00 
80900 6.3040092362e+00 -6.4964175777e-05 1.8006505191e+00 -3.1188181858e+00 1.8006505191e+00 3.1188181858e+00 
81000 6.3040092368e+00 -6.4011576913e-05 1.8006505191e+00 -3.1188181858e+00 1.8006505191e+00 3.1188181858e+00 
81100 6.3040092374e+00 -6.2985964402e-05 1.8006505191e+00 -3.1188181858e+00 1.8006505191e+00 3.1188181858e+00 
81200 6.3040092380e+00 -6.1891251653e-05 1.8006505191e+00 -3.1188181858e+00 1.8006505191e+00 3.1188181858e+00 
81300 6.3040092386e+00 -6.0731359668e-05 1.8006505191e+00 -3.1188181858e+00 1.8006505191e+00 3.1188181858e+00 
81400 6.3040092391e+00 -5.9510209589e-05 1.8006505191e+00 -3.1188181858e+00 1.8006505191e+00 3.1188181858e+00 
81500 6.3040092397e+00 -5.8231715479e-05 1.8006505191e+00 -3.1188181858e+00 1.8006505191e+00 3.1188181858e+00 
81600 6.3040092403e+00 -5.6899777318e-05 1.8006505191e+00 -3.1188181858e+00 1.8006505191e+00 3.1188181858e+00 
81700 6.3040092409e+00 -5.5518274250e-05 1.8006505191e+00 -3.1188181858e+00 1.8006505191e+00 3.1188181858e+00 
81800 6.3040092414e+00 -5.4091058073e-05 1.8006505191e+00 -3.1188181858e+00 1.8006505191e+00 3.1188181858e+00 
81900 6.3040092420e+00 -5.2621946984e-05 1.8006505191e+00 -3.1188181858e+00 1.8006505191e+00 3.1188181858e+00 
82000 6.3040092426e+00 -5.1114719574e-05 1.8006505191e+00 -3.1188181858e+00 1.8006505191e+00 3.1188181858e+00 
82100 6.3040092431e+00 -4.9573109074e-05 1.8006505191e+00 -3.1188181858e+00 1.8006505191e+00 3.1188181858e+00 
82200 6.3040092436e+00 -4.8000797871e-05 1.8006505191e+00 -3.1188181858e+00 1.8006505191e+00 3.1188181858e+00 
82300 6.3040092442e+00 -4.6401412287e-05 1.8006505191e+00 -3.1188181858e+00 1.8006505191e+00 3.1188181858e+00 
82400 6.3040092447e+00 -4.4778517613e-05 1.8006505191e+00 -3.1188181858e+00 1.8006505191e+00 3.1188181858e+00 
82500 6.3040092452e+00 -4.3135613409e-05 1.8006505191e+00 -3.1188181858e+00 1.8006505191e+00 3.1188181858e+00 
82600 6.3040092457e+00 -4.1476129088e-05 1.8006505191e+00 -3.1188181858e+00 1.8006505191e+00 3.1188181858e+00 
82700 6.3040092462e+00 -3.9803419736e-05 1.8006505191e+00 -3.1188181858e+00 1.8006505191e+00 3.1188181858e+00 
82800 6.3040092466e+00 -3.8120762218e-05 1.8006505191e+00 -3.1188181858e+00 1.8006505191e+00 3.1188181858e+00 
82900 6.3040092471e+00 -3.6431351545e-05 1.8006505191e+00 -3.1188181858e+00 1.8006505191e+00 3.1188181858e+00 
83000 6.3040092475e+00 -3.4738297507e-05 1.8006505191e+00 -3.1188181858e+00 1.8006505191e+00 3.1188181858e+00 
83100 6.3040092479e+00 -3.3044621550e-05 1.8006505191e+00 -3.1188181858e+00 1.8006505191e+00 3.1188181858e+00 
83200 6.3040092484e+00 -3.1353253934e-05 1.8006505191e+00 -3.1188181858e+00 1.8006505191e+00 3.1188181858e+00 
83300 6.3040092488e+00 -2.9667031141e-05 1.8006505191e+00 -3.1188181858e+00 1.8006505191e+00 3.1188181858e+00 
83400 6.3040092491e+00 -2.7988693527e-05 1.8006505191e+00 -3.1188181858e+00 1.8006505191e+00 3.1188181858e+00 
83500 6.3040092495e+00 -2.6320883231e-05 1.8006505191e+00 -3.1188181858e+00 1.8006505191e+00 3.1188181858e+00 
83600 6.3040092499e+00 -2.4666142337e-05 1.8006505191e+00 -3.1188181858e+00 1.8006505191e+00 3.1188181858e+00 
83700 6.3040092502e+00 -2.3026911263e-05 1.8006505191e+00 -3.1188181858e+00 1.8006505191e+00 3.1188181858e+00 
83800 6.3040092506e+00 -2.1405527397e-05 1.8006505191e+00 -3.1188181858e+00 1.8006505191e+00 3.1188181858e+00 
83900 6.3040092509e+00 -1.9804223965e-05 1.8006505191e+00 -3.1188181858e+00 1.8006505191e+00 3.1188181858e+00 
84000 6.3040092512e+00 -1.8225129129e-05 1.8006505191e+00 -3.1188181858e+00 1.8006505191e+00 3.1188181858e+00 
84100 6.3040092515e+00 -1.6670265297e-05 1.8006505191e+00 -3.1188181858e+00 1.8006505191e+00 3.1188181858e+00 
84200 6.3040092518e+00 -1.5141548666e-05 1.8006505191e+00 -3.1188181858e+00 1.8006505191e+00 3.1188181858e+00 
84300 6.3040092521e+00 -1.3640788959e-05 1.8006505191e+00 -3.1188181858e+00 1.8006505191e+00 3.1188181858e+00 
84400 6.3040092524e+00 -1.2169689374e-05 1.8006505191e+00 -3.1188181858e+00 1.8006505191e+00 3.1188181858e+00 
84500 6.3040092527e+00 -1.0729846744e-05 1.8006505191e+00 -3.1188181858e+00 1.8006505191e+00 3.1188181858e+00 
84600 6.3040092529e+00 -9.3227518673e-06 1.8006505191e+00 -3.1188181858e+00 1.8006505191e+00 3.1188181858e+00 
84700 6.3040092532e+00 -7.9497900386e-06 1.8006505191e+00 -3.1188181858e+00 1.8006505191e+00 3.1188181858e+00 
84800 6.3040092534e+00 -6.6122417558e-06 1.8006505191e+00 -3.1188181858e+00 1.8006505191e+00 3.1188181858e+00 
84900 6.3040092537e+00 -5.3112835945e-06 1.8006505191e+00 -3.1188181858e+00 1.8006505191e+00 3.1188181858e+00 
85000 6.3040092539e+00 -4.0479892576e-06 1.8006505191e+00 -3.1188181858e+00 1.8006505191e+00 3.1188181858e+00 
85100 6.3040092542e+00 -2.8233307678e-06 1.8006505191e+00 -3.1188181858e+00 1.8006505191e+00 3.1188181858e+00 
85200 6.3040092544e+00 -1.6381798345e-06 1.8006505191e+00 -3.1188181858e+00 1.8006505191e+00 3.1188181858e+00 
85300 6.3040092546e+00 -4.9330933750e-07 1.8006505191e+00 -3.1188181858e+00 1.8006505191e+00 3.1188181858e+00 
85400 6.3040092548e+00 6.1060503140e-07 1.8006505191e+00 -3.1188181858e+00 1.8006505191e+00 3.1188181858e+00 
85500 6.3040092550e+00 1.6729830048e-06 1.8006505191e+00 -3.1188181858e+00 1.8006505191e+00 3.1188181858e+00 
85600 6.3040092552e+00 2.6933378620e-06 1.8006505191e+00 -3.1188181858e+00 1.8006505191e+00 3.1188181858e+00 
85700 6.3040092554e+00 3.6712744145e-06 1.8006505191e+00 -3.1188181858e+00 1.8006505191e+00 3.1188181858e+00 
85800 6.3040092556e+00 4.6064869079e-06 1.8006505191e+00 -3.1188181858e+00 1.8006505191e+00 3.1188181858e+00 
85900 6.3040092558e+00 5.4987568141e-06 1.8006505191e+00 -3.1188181858e+00 1.8006505191e+00 3.1188181858e+00 
86000 6.3040092560e+00 6.3479505226e-06 1.8006505191e+00 -3.1188181858e+00 1.8006505191e+00 3.1188181858e+00 
86100 6.3040092562e+00 7.1540169562e-06 1.8006505191e+00 -3.1188181858e+00 1.8006505191e+00 3.1188181858e+00 
86200 6.3040092564e+00 7.9169851014e-06 1.8006505191e+00 -3.1188181858e+00 1.8006505191e+00 3.1188181858e+00 
86300 6.3040092566e+00 8.6369614748e-06 1.8006505191e+00 -3.1188181858e+00 1.8006505191e+00 3.1188181858e+00 
86400 6.3040092568e+00 9.3141275107e-06 1.8006505191e+00 -3.1188181858e+00 1.8006505191e+00 3.1188181858e+00 
86500 6.3040092570e+00 9.9487369015e-06 1.8006505191e+00 -3.1188181858e+00 1.8006505191e+00 3.1188181858e+00 
86600 6.3040092572e+00 1.0541112890e-05 1.8006505191e+00 -3.1188181858e+00 1.8006505191e+00 3.1188181858e+00 
86700 6.3040092574e+00 1.1091645503e-05 1.8006505191e+00 -3.1188181858e+00 1.8006505191e+00 3.1188181858e+00 
86800 6.3040092576e+00 1.1600788756e-05 1.8006505191e+00 -3.1188181858e+00 1.8006505191e+00 3.1188181858e+00 
86900 6.3040092578e+00 1.2069057828e-05 1.8006505191e+00 -3.1188181858e+00 1.8006505191e+00 3.1188181858e+00 
87000 6.3040092580e+00 1.2497026204e-05 1.8006505191e+00 -3.1188181858e+00 1.8006505191e+00 3.1188181858e+00 
87100 6.3040092582e+00 1.2885322803e-05 1.8006505191e+00 -3.1188181858e+00 1.8006505191e+00 3.1188181858e+00 
87200 6.3040092584e+00 1.3234629086e-05 1.8006505191e+00 -3.1188181858e+00 1.8006505191e+00 3.1188181858e+00 
87300 6.3040092585e+00 1.3545676165e-05 1.8006505191e+00 -3.1188181858e+00 1.8006505191e+00 3.1188181858e+00 
87400 6.3040092587e+00 1.3819241900e-05 1.8006505191e+00 -3.1188181858e+00 1.8006505191e+00 3.1188181858e+00 
87500 6.3040092589e+00 1.4056148016e-05 1.8006505191e+00 -3.1188181858e+00 1.8006505191e+00 3.1188181858e+00 
87600 6.3040092591e+00 1.4257257202e-05 1.8006505191e+00 -3.1188181858e+00 1.8006505191e+00 3.1188181858e+00 
87700 6.3040092593e+00 1.4423470254e-05 1.8006505191e+00 -3.1188181858e+00 1.8006505191e+00 3.1188181858e+00 
87800 6.3040092595e+00 1.4555723205e-05 1.8006505191e+00 -3.1188181858e+00 1.8006505191e+00 3.1188181858e+00 
87900 6.3040092597e+00 1.4654984509e-05 1.8006505191e+00 -3.1188181858e+00 1.8006505191e+00 3.1188181858e+00 
88000 6.3040092599e+00 1.4722252230e-05 1.8006505191e+00 -3.1188181858e+00 1.8006505191e+00 3.1188181858e+00 
88100 6.3040092600e+00 1.4758551278e-05 1.8006505191e+00 -3.1188181858e+00 1.8006505191e+00 3.1188181858e+00 
88200 6.3040092602e+00 1.4764930666e-05 1.8006505191e+00 -3.1188181858e+00 1.8006505191e+00 3.1188181858e+00 
88300 6.3040092604e+00 1.4742460824e-05 1.8006505191e+00 -3.1188181858e+00 1.8006505191e+00 3.1188181858e+00 
88400 6.3040092606e+00 1.4692230946e-05 1.8006505191e+00 -3.1188181858e+00 1.8006505191e+00 3.1188181858e+00 
88500 6.3040092608e+00 1.4615346390e-05 1.8006505191e+00 -3.1188181858e+00 1.8006505191e+00 3.1188181858e+00 
88600 6.3040092610e+00 1.4512926125e-05 1.8006505191e+00 -3.1188181858e+00 1.8006505191e+00 3.1188181858e+00 
88700 6.3040092611e+00 1.4386100237e-05 1.8006505191e+00 -3.1188181858e+00 1.8006505191e+00 3.1188181858e+00 
88800 6.3040092613e+00 1.4236007482e-05 1.8006505191e+00 -3.1188181858e+00 1.8006505191e+00 3.1188181858e+00 
88900 6.3040092615e+00 1.4063792910e-05 1.8006505191e+00 -3.1188181858e+00 1.8006505191e+00 3.1188181858e+00 
89000 6.3040092617e+00 1.3870605557e-05 1.8006505191e+00 -3.1188181858e+00 1.8006505191e+00 3.1188181858e+00 
89100 6.3040092619e+00 1.3657596172e-05 1.8006505191e+00 -3.1188181858e+00 1.8006505191e+00 3.1188181858e+00 
89200 6.3040092620e+00 1.3425915051e-05 1.8006505191e+00 -3.1188181858e+00 1.8006505191e+00 3.1188181858e+00 
89300 6.3040092622e+00 1.3176709905e-05 1.8006505191e+00 -3.1188181858e+00 1.8006505191e+00 3.1188181858e+00 
89400 6.3040092624e+00 1.2911123825e-05 1.8006505191e+00 -3.1188181858e+00 1.8006505191e+00 3.1188181858e+00 
89500 6.3040092625e+00 1.2630293301e-05 1.8006505191e+00 -3.1188181858e+00 1.8006505191e+00 3.1188181858e+00 
89600 6.3040092627e+00 1.2335346328e-05 1.8006505191e+00 -3.1188181858e+00 1.8006505191e+00 3.1188181858e+00 
89700 6.3040092629e+00 1.2027400578e-05 1.8006505191e+00 -3.1188181858e+00 1.8006505191e+00 3.1188181858e+00 
89800 6.3040092630e+00 1.1707561652e-05 1.8006505191e+00 -3.1188181858e+00 1.8006505191e+00 3.1188181858e+00 
89900 6.3040092632e+00 1.1376921400e-05 1.8006505191e+00 -3.1188181858e+00 1.8006505191e+00 3.1188181858e+00 
90000 6.3040092633e+00 1.1036556343e-05 1.8006505191e+00 -3.1188181858e+00 1.8006505191e+00 3.1188181858e+00 
90100 6.3040092635e+00 1.0687526146e-05 1.8006505191e+00 -3.1188181858e+00 1.8006505191e+00 3.1188181858e+00 
90200 6.3040092636e+00 1.0330872186e-05 1.8006505191e+00 -3.1188181858e+00 1.8006505191e+00 3.1188181858e+00 
90300 6.3040092638e+00 9.9676161828e-06 1.8006505191e+00 -3.1188181858e+00 1.8006505191e+00 3.1188181858e+00 
90400 6.3040092639e+00 9.5987589385e-06 1.8006505191e+00 -3.1188181858e+00 1.8006505191e+00 3.1188181858e+00 
90500 6.3040092641e+00 9.2252791235e-06 1.8006505191e+00 -3.1188181858e+00 1.8006505191e+00 3.1188181858e+00 
90600 6.3040092642e+00 8.8481321539e-06 1.8006505191e+00 -3.1188181858e+00 1.8006505191e+00 3.1188181858e+00 
90700 6.3040092644e+00 8.4682491580e-06 1.8006505191e+00 -3.1188181858e+00 1.8006505191e+00 3.1188181858e+00 
90800 6.3040092645e+00 8.0865360024e-06 1.8006505191e+00 -3.1188181858e+00 1.8006505191e+00 3.1188181858e+00 
90900 6.3040092646e+00 7.7038724070e-06 1.8006505191e+00 -3.1188181858e+00 1.8006505191e+00 3.1188181858e+00 
91000 6.3040092648e+00 7.3211111300e-06 1.8006505191e+00 -3.1188181858e+00 1.8006505191e+00 3.1188181858e+00 
91100 6.3040092649e+00 6.9390772324e-06 1.8006505191e+00 -3.1188181858e+00 1.8006505191e+00 3.1188181858e+00 
91200 6.3040092650e+00 6.5585674190e-06 1.8006505191e+00 -3.1188181858e+00 1.8006505191e+00 3.1188181858e+00 
91300 6.3040092652e+00 6.1803494480e-06 1.8006505191e+00 -3.1188181858e+00 1.8006505191e+00 3.1188181858e+00 
91400 6.3040092653e+00 5.8051616140e-06 1.8006505191e+00 -3.1188181858e+00 1.8006505191e+00 3.1188181858e+00 
91500 6.3040092654e+00 5.4337123016e-06 1.8006505191e+00 -3.1188181858e+00 1.8006505191e+00 3.1188181858e+00 
91600 6.3040092655e+00 5.0666796165e-06 1.8006505191e+00 -3.1188181858e+00 1.8006505191e+00 3.1188181858e+00 
91700 6.3040092656e+00 4.7047110683e-06 1.8006505191e+00 -3.1188181858e+00 1.8006505191e+00 3.1188181858e+00 
91800 6.3040092658e+00 4.3484233418e-06 1.8006505191e+00 -3.1188181858e+00 1.8006505191e+00 3.1188181858e+00 
91900 6.3040092659e+00 3.9984021064e-06 1.8006505191e+00 -3.1188181858e+00 1.8006505191e+00 3.1188181858e+00 
92000 6.3040092660e+00 3.6552019188e-06 1.8006505191e+00 -3.1188181858e+00 1.8006505191e+00 3.1188181858e+00 
92100 6.3040092661e+00 3.3193461625e-06 1.8006505191e+00 -3.1188181858e+00 1.8006505191e+00 3.1188181858e+00 
92200 6.3040092662e+00 2.9913270600e-06 1.8006505191e+00 -3.1188181858e+00 1.8006505191e+00 3.1188181858e+00 
92300 6.3040092663e+00 2.6716057361e-06 1.8006505191e+00 -3.1188181858e+00 1.8006505191e+00 3.1188181858e+00 
92400 6.3040092664e+00 2.3606123456e-06 1.8006505191e+00 -3.1188181858e+00 1.8006505191e+00 3.1188181858e+00 
92500 6.3040092665e+00 2.0587462445e-06 1.8006505191e+00 -3.1188181858e+00 1.8006505191e+00 3.1188181858e+00 
92600 6.3040092666e+00 1.7663762269e-06 1.8006505191e+00 -3.1188181858e+00 1.8006505191e+00 3.1188181858e+00 
92700 6.3040092667e+00 1.4838407850e-06 1.8006505191e+00 -3.1188181858e+00 1.8006505191e+00 3.1188181858e+00 
92800 6.3040092668e+00 1.2114484615e-06 1.8006505191e+00 -3.1188181858e+00 1.8006505191e+00 3.1188181858e+00 
92900 6.3040092669e+00 9.4947819506e-07 1.8006505191e+00 -3.1188181858e+00 1.8006505191e+00 3.1188181858e+00 
93000 6.3040092670e+00 6.9817975351e-07 1.8006505191e+00 -3.1188181858e+00 1.8006505191e+00 3.1188181858e+00 
93100 6.3040092671e+00 4.5777418608e-07 1.8006505191e+00 -3.1188181858e+00 1.8006505191e+00 3.1188181858e+00 
93200 6.3040092672e+00 2.2845431191e-07 1.8006505191e+00 -3.1188181858e+00 1.8006505191e+00 3.1188181858e+00 
93300 6.3040092673e+00 1.0385263382e-08 1.8006505191e+00 -3.1188181858e+00 1.8006505191e+00 3.1188181858e+00 
93400 6.3040092674e+00 -1.9629495160e-07 1.8006505191e+00 -3.1188181858e+00 1.8006505191e+00 3.1188181858e+00 
93500 6.3040092675e+00 -3.9147484540e-07 1.8006505191e+00 -3.1188181858e+00 1.8006505191e+00 3.1188181858e+00 
93600 6.3040092675e+00 -5.7506882170e-07 1.8006505191e+00 -3.1188181858e+00 1.8006505191e+00 3.1188181858e+00 
93700 6.3040092676e+00 -7.4701651478e-07 1.8006505191e+00 -3.1188181858e+00 1.8006505191e+00 3.1188181858e+00 
93800 6.3040092677e+00 -9.0728210254e-07 1.8006505191e+00 -3.1188181858e+00 1.8006505191e+00 3.1188181858e+00 
93900 6.3040092678e+00 -1.0558535914e-06 1.8006505191e+00 -3.1188181858e+00 1.8006505191e+00 3.1188181858e+00 
94000 6.3040092679e+00 -1.1927420935e-06 1.8006505191e+00 -3.1188181858e+00 1.8006505191e+00 3.1188181858e+00 
94100 6.3040092680e+00 -1.3179810593e-06 1.8006505191e+00 -3.1188181858e+00 1.8006505191e+00 3.1188181858e+00 
94200 6.3040092681e+00 -1.4316255166e-06 1.8006505191e+00 -3.1188181858e+00 1.8006505191e+00 3.1188181858e+00 
94300 6.3040092681e+00 -1.5337512806e-06 1.8006505191e+00 -3.1188181858e+00 1.8006505191e+00 3.1188181858e+00 
94400 6.3040092682e+00 -1.6244541487e-06 1.8006505191e+00 -3.1188181858e+00 1.8006505191e+00 3.1188181858e+00 
94500 6.3040092683e+00 -1.7038490906e-06 1.8006505191e+00 -3.1188181858e+00 1.8006505191e+00 3.1188181858e+00 
94600 6.3040092684e+00 -1.7720694190e-06 1.8006505191e+00 -3.1188181858e+00 1.8006505191e+00 3.1188181858e+00 
94700 6.3040092685e+00 -1.8292659631e-06 1.8006505191e+00 -3.1188181858e+00 1.8006505191e+00 3.1188181858e+00 
94800 6.3040092685e+00 -1.8756062237e-06 1.8006505191e+00 -3.1188181858e+00 1.8006505191e+00 3.1188181858e+00 
94900 6.3040092686e+00 -1.9112735290e-06 1.8006505191e+00 -3.1188181858e+00 1.8006505191e+00 3.1188181858e+00 
95000 6.3040092687e+00 -1.9364661912e-06 1.8006505191e+00 -3.1188181858e+00 1.8006505191e+00 3.1188181858e+00 
95100 6.3040092688e+00 -1.9513966533e-06 1.8006505191e+00 -3.1188181858e+00 1.8006505191e+00 3.1188181858e+00 
95200 6.3040092688e+00 -1.9562906427e-06 1.8006505191e+00 -3.1188181858e+00 1.8006505191e+00 3.1188181858e+00 
95300 6.3040092689e+00 -1.9513863228e-06 1.8006505191e+00 -3.1188181858e+00 1.8006505191e+00 3.1188181858e+00 
95400 6.3040092690e+00 -1.9369334501e-06 1.8006505191e+00 -3.1188181858e+00 1.8006505191e+00 3.1188181858e+00 
95500 6.3040092690e+00 -1.9131925356e-06 1.8006505191e+00 -3.1188181858e+00 1.8006505191e+00 3.1188181858e+00 
95600 6.3040092691e+00 -1.8804340123e-06 1.8006505191e+00 -3.1188181858e+00 1.8006505191e+00 3.1188181858e+00 
95700 6.3040092692e+00 -1.8389374058e-06 1.8006505191e+00 -3.1188181858e+00 1.8006505191e+00 3.1188181858e+00 
95800 6.3040092693e+00 -1.7889905214e-06 1.8006505191e+00 -3.1188181858e+00 1.8006505191e+00 3.1188181858e+00 
95900 6.3040092693e+00 -1.7308886406e-06 1.8006505191e+00 -3.1188181858e+00 1.8006505191e+00 3.1188181858e+00 
96000 6.3040092694e+00 -1.6649337187e-06 1.8006505191e+00 -3.1188181858e+00 1.8006505191e+00 3.1188181858e+00 
96100 6.3040092695e+00 -1.5914336099e-06 1.8006505191e+00 -3.1188181858e+00 1.8006505191e+00 3.1188181858e+00 
96200 6.3040092695e+00 -1.5107012907e-06 1.8006505191e+00 -3.1188181858e+00 1.8006505191e+00 3.1188181858e+00 
96300 6.3040092696e+00 -1.4230541145e-06 1.8006505191e+00 -3.1188181858e+00 1.8006505191e+00 3.1188181858e+00 
96400 6.3040092697e+00 -1.3288130561e-06 1.8006505191e+00 -3.1188181858e+00 1.8006505191e+00 3.1188181858e+00 
96500 6.3040092697e+00 -1.2283020134e-06 1.8006505191e+00 -3.1188181858e+00 1.8006505191e+00 3.1188181858e+00 
96600 6.3040092698e+00 -1.1218470802e-06 1.8006505191e+00 -3.1188181858e+00 1.8006505191e+00 3.1188181858e+00 
96700 6.3040092699e+00 -1.0097758710e-06 1.8006505191e+00 -3.1188181858e+00 1.8006505191e+00 3.1188181858e+00 
96800 6.3040092699e+00 -8.9241684361e-07 1.8006505191e+00 -3.1188181858e+00 1.8006505191e+00 3.1188181858e+00 
96900 6.3040092700e+00 -7.7009865737e-07 1.8006505191e+00 -3.1188181858e+00 1.8006505191e+00 3.1188181858e+00 
97000 6.3040092700e+00 -6.4314953901e-07 1.8006505191e+00 -3.1188181858e+00 1.8006505191e+00 3.1188181858e+00 
97100 6.3040092701e+00 -5.1189667553e-07 1.8006505191e+00 -3.1188181858e+00 1.8006505191e+00 3.1188181858e+00 
97200 6.3040092702e+00 -3.7666562438e-07 1.8006505191e+00 -3.1188181858e+00 1.8006505191e+00 3.1188181858e+00 
97300 6.3040092702e+00 -2.3777975020e-07 1.8006505191e+00 -3.1188181858e+00 1.8006505191e+00 3.1188181858e+00 
97400 6.3040092703e+00 -9.5559679950e-08 1.8006505191e+00 -3.1188181858e+00 1.8006505191e+00 3.1188181858e+00 
97500 6.3040092703e+00 4.9677221513e-08 1.8006505191e+00 -3.1188181858e+00 1.8006505191e+00 3.1188181858e+00 
97600 6.3040092704e+00 1.9761735192e-07 1.8006505191e+00 -3.1188181858e+00 1.8006505191e+00 3.1188181858e+00 
97700 6.3040092705e+00 3.4795134483e-07 1.8006505191e+00 -3.1188181858e+00 1.8006505191e+00 3.1188181858e+00 
97800 6.3040092705e+00 5.0037452922e-07 1.8006505191e+00 -3.1188181858e+00 1.8006505191e+00 3.1188181858e+00 
97900 6.3040092706e+00 6.5458735209e-07 1.8006505191e+00 -3.1188181858e+00 1.8006505191e+00 3.1188181858e+00 
98000 6.3040092706e+00 8.1029579271e-07 1.8006505191e+00 -3.1188181858e+00 1.8006505191e+00 3.1188181858e+00 
98100 6.3040092707e+00 9.6721175300e-07 1.8006505191e+00 -3.1188181858e+00 1.8006505191e+00 3.1188181858e+00 
98200 6.3040092707e+00 1.1250534055e-06 1.8006505191e+00 -3.1188181858e+00 1.8006505191e+00 3.1188181858e+00 
98300 6.3040092708e+00 1.2835455389e-06 1.8006505191e+00 -3.1188181858e+00 1.8006505191e+00 3.1188181858e+00 
98400 6.3040092708e+00 1.4424198766e-06 1.8006505191e+00 -3.1188181858e+00 1.8006505191e+00 3.1188181858e+00 
98500 6.3040092709e+00 1.6014153612e-06 1.8006505191e+00 -3.1188181858e+00 1.8006505191e+00 3.1188181858e+00 
98600 6.3040092709e+00 1.7602784370e-06 1.8006505191e+00 -3.1188181858e+00 1.8006505191e+00 3.1188181858e+00 
98700 6.3040092710e+00 1.9187632805e-06 1.8006505191e+00 -3.1188181858e+00 1.8006505191e+00 3.1188181858e+00 
98800 6.3040092710e+00 1.9314185470e-06 1.8006505191e+00 -3.1188181858e+00 1.8006505191e+00 3.1188181858e+00 
98800 6.3040092710e+00 1.9314185473e-06 1.8006505191e+00 -3.1188181858e+00 1.8006505191e+00 3.1188181858e+00 
