# step Hamiltonian StressXX CellTensor1 CellTensor2 CellTensor3 CellTensor4 
0 5.6389891658e+00 8.7128570628e-02 1.7865676565e+00 -3.0944259522e+00 1.7865676565e+00 3.0944259522e+00 
100 5.6398908491e+00 9.1348285985e-02 1.7865676565e+00 -3.0944259522e+00 1.7865676565e+00 3.0944259522e+00 
200 5.6403760887e+00 9.4157980903e-02 1.7840117368e+00 -3.0899989695e+00 1.7840117368e+00 3.0899989695e+00 
300 5.6407000894e+00 9.6646602989e-02 1.7813734489e+00 -3.0854293207e+00 1.7813734489e+00 3.0854293207e+00 
400 5.6408763807e+00 9.8831208177e-02 1.7786614393e+00 -3.0807319824e+00 1.7786614393e+00 3.0807319824e+00 
500 5.6409181236e+00 1.0072859829e-01 1.7758839169e+00 -3.0759211725e+00 1.7758839169e+00 3.0759211725e+00 
600 5.6408380398e+00 1.0235528193e-01 1.7730486599e+00 -3.0710103633e+00 1.7730486599e+00 3.0710103633e+00 
700 5.6406483476e+00 1.0372743018e-01 1.7701630238e+00 -3.0660122949e+00 1.7701630238e+00 3.0660122949e+00 
800 5.6403607098e+00 1.0486083097e-01 1.7672339499e+00 -3.0609389900e+00 1.7672339499e+00 3.0609389900e+00 
900 5.6399861908e+00 1.0577084514e-01 1.7642679746e+00 -3.0558017702e+00 1.7642679746e+00 3.0558017702e+00 
1000 5.6395352268e+00 1.0647236589e-01 1.7612712405e+00 -3.0506112744e+00 1.7612712405e+00 3.0506112744e+00 
1100 5.6390176051e+00 1.0697978305e-01 1.7582495066e+00 -3.0453774778e+00 1.7582495066e+00 3.0453774778e+00 
1200 5.6384424538e+00 1.0730695287e-01 1.7552081612e+00 -3.0401097131e+00 1.7552081612e+00 3.0401097131e+00 
1300 5.6378182416e+00 1.0746717361e-01 1.7521522345e+00 -3.0348166927e+00 1.7521522345e+00 3.0348166927e+00 
1400 5.6371527833e+00 1.0747316717e-01 1.7490864116e+00 -3.0295065317e+00 1.7490864116e+00 3.0295065317e+00 
1500 5.6364532541e+00 1.0733706655e-01 1.7460150468e+00 -3.0241867718e+00 1.7460150468e+00 3.0241867718e+00 
1600 5.6357262081e+00 1.0707040879e-01 1.7429421776e+00 -3.0188644062e+00 1.7429421776e+00 3.0188644062e+00 
1700 5.6349776022e+00 1.0668413310e-01 1.7398715391e+00 -3.0135459044e+00 1.7398715391e+00 3.0135459044e+00 
1800 5.6342128226e+00 1.0618858367e-01 1.7368065787e+00 -3.0082372373e+00 1.7368065787e+00 3.0082372373e+00 
1900 5.6334367150e+00 1.0559351659e-01 1.7337504705e+00 -3.0029439026e+00 1.7337504705e+00 3.0029439026e+00 
2000 5.6326536152e+00 1.0490811043e-01 1.7307061296e+00 -2.9976709494e+00 1.7307061296e+00 2.9976709494e+00 
2100 5.6318673822e+00 1.0414097989e-01 1.7276762265e+00 -2.9924230032e+00 1.7276762265e+00 2.9924230032e+00 
2200 5.6310814307e+00 1.0330019202e-01 1.7246632010e+00 -2.9872042901e+00 1.7246632010e+00 2.9872042901e+00 
2300 5.6302987635e+00 1.0239328461e-01 1.7216692761e+00 -2.9820186600e+00 1.7216692761e+00 2.9820186600e+00 
2400 5.6295220042e+00 1.0142728608e-01 1.7186964706e+00 -2.9768696098e+00 1.7186964706e+00 2.9768696098e+00 
2500 5.6287534281e+00 1.0040873674e-01 1.7157466125e+00 -2.9717603057e+00 1.7157466125e+00 2.9717603057e+00 
2600 5.6279949928e+00 9.9343710823e-02 1.7128213510e+00 -2.9666936043e+00 1.7128213510e+00 2.9666936043e+00 
2700 5.6272483662e+00 9.8237839045e-02 1.7099221686e+00 -2.9616720731e+00 1.7099221686e+00 2.9616720731e+00 
2800 5.6265149547e+00 9.7096331455e-02 1.7070503921e+00 -2.9566980102e+00 1.7070503921e+00 2.9566980102e+00 
2900 5.6257959282e+00 9.5924000228e-02 1.7042072035e+00 -2.9517734630e+00 1.7042072035e+00 2.9517734630e+00 
3000 5.6250922443e+00 9.4725282262e-02 1.7013936502e+00 -2.9469002458e+00 1.7013936502e+00 2.9469002458e+00 
3100 5.6244046711e+00 9.3504261378e-02 1.6986106549e+00 -2.9420799566e+00 1.6986106549e+00 2.9420799566e+00 
3200 5.6237338071e+00 9.2264689985e-02 1.6958590247e+00 -2.9373139933e+00 1.6958590247e+00 2.9373139933e+00 
3300 5.6230801009e+00 9.1010010097e-02 1.6931394595e+00 -2.9326035682e+00 1.6931394595e+00 2.9326035682e+00 
3400 5.6224438687e+00 8.9743373612e-02 1.6904525605e+00 -2.9279497226e+00 1.6904525605e+00 2.9279497226e+00 
3500 5.6218253097e+00 8.8467661787e-02 1.6877988377e+00 -2.9233533399e+00 1.6877988377e+00 2.9233533399e+00 
3600 5.6212245213e+00 8.7185503862e-02 1.6851787171e+00 -2.9188151578e+00 1.6851787171e+00 2.9188151578e+00 
3700 5.6206415118e+00 8.5899294812e-02 1.6825925474e+00 -2.9143357805e+00 1.6825925474e+00 2.9143357805e+00 
3800 5.6200762126e+00 8.4611212189e-02 1.6800406062e+00 -2.9099156887e+00 1.6800406062e+00 2.9099156887e+00 
3900 5.6195284889e+00 8.3323232081e-02 1.6775231062e+00 -2.9055552509e+00 1.6775231062e+00 2.9055552509e+00 
4000 5.6189981491e+00 8.2037144166e-02 1.6750402003e+00 -2.9012547316e+00 1.6750402003e+00 2.9012547316e+00 
4100 5.6184849537e+00 8.0754565891e-02 1.6725919866e+00 -2.8970143012e+00 1.6725919866e+00 2.8970143012e+00 
4200 5.6179886226e+00 7.9476955787e-02 1.6701785136e+00 -2.8928340433e+00 1.6701785136e+00 2.8928340433e+00 
4300 5.6175088426e+00 7.8205625962e-02 1.6677997841e+00 -2.8887139629e+00 1.6677997841e+00 2.8887139629e+00 
4400 5.6170452727e+00 7.6941753771e-02 1.6654557594e+00 -2.8846539931e+00 1.6654557594e+00 2.8846539931e+00 
4500 5.6165975497e+00 7.5686392728e-02 1.6631463633e+00 -2.8806540016e+00 1.6631463633e+00 2.8806540016e+00 
4600 5.6161652931e+00 7.4440482670e-02 1.6608714850e+00 -2.8767137968e+00 1.6608714850e+00 2.8767137968e+00 
4700 5.6157481092e+00 7.3204859219e-02 1.6586309829e+00 -2.8728331334e+00 1.6586309829e+00 2.8728331334e+00 
4800 5.6153455943e+00 7.1980262573e-02 1.6564246873e+00 -2.8690117173e+00 1.6564246873e+00 2.8690117173e+00 
4900 5.6149573384e+00 7.0767345666e-02 1.6542524030e+00 -2.8652492106e+00 1.6542524030e+00 2.8652492106e+00 
5000 5.6145829276e+00 6.9566681725e-02 1.6521139121e+00 -2.8615452357e+00 1.6521139121e+00 2.8615452357e+00 
5100 5.6142219463e+00 6.8378771268e-02 1.6500089759e+00 -2.8578993792e+00 1.6500089759e+00 2.8578993792e+00 
5200 5.6138739797e+00 6.7204048569e-02 1.6479373374e+00 -2.8543111961e+00 1.6479373374e+00 2.8543111961e+00 
5300 5.6135386152e+00 6.6042887625e-02 1.6458987231e+00 -2.8507802126e+00 1.6458987231e+00 2.8507802126e+00 
5400 5.6132154438e+00 6.4895607661e-02 1.6438928447e+00 -2.8473059293e+00 1.6438928447e+00 2.8473059293e+00 
5500 5.6129040617e+00 6.3762478195e-02 1.6419194009e+00 -2.8438878242e+00 1.6419194009e+00 2.8438878242e+00 
5600 5.6126040709e+00 6.2643723701e-02 1.6399780785e+00 -2.8405253553e+00 1.6399780785e+00 2.8405253553e+00 
5700 5.6123150804e+00 6.1539527890e-02 1.6380685545e+00 -2.8372179627e+00 1.6380685545e+00 2.8372179627e+00 
5800 5.6120367066e+00 6.0450037642e-02 1.6361904966e+00 -2.8339650709e+00 1.6361904966e+00 2.8339650709e+00 
5900 5.6117685741e+00 5.9375366604e-02 1.6343435646e+00 -2.8307660910e+00 1.6343435646e+00 2.8307660910e+00 
6000 5.6115103161e+00 5.8315598493e-02 1.6325274118e+00 -2.8276204219e+00 1.6325274118e+00 2.8276204219e+00 
6100 5.6112615748e+00 5.7270790108e-02 1.6307416851e+00 -2.8245274526e+00 1.6307416851e+00 2.8245274526e+00 
6200 5.6110220012e+00 5.6240974086e-02 1.6289860269e+00 -2.8214865634e+00 1.6289860269e+00 2.8214865634e+00 
6300 5.6107912560e+00 5.5226161416e-02 1.6272600750e+00 -2.8184971270e+00 1.6272600750e+00 2.8184971270e+00 
6400 5.6105690091e+00 5.4226343726e-02 1.6255634638e+00 -2.8155585103e+00 1.6255634638e+00 2.8155585103e+00 
6500 5.6103549401e+00 5.3241495366e-02 1.6238958248e+00 -2.8126700748e+00 1.6238958248e+00 2.8126700748e+00 
6600 5.6101487379e+00 5.2271575302e-02 1.6222567871e+00 -2.8098311782e+00 1.6222567871e+00 2.8098311782e+00 
6700 5.6099501008e+00 5.1316528834e-02 1.6206459782e+00 -2.8070411753e+00 1.6206459782e+00 2.8070411753e+00 
6800 5.6097587368e+00 5.0376289150e-02 1.6190630240e+00 -2.8042994183e+00 1.6190630240e+00 2.8042994183e+00 
6900 5.6095743627e+00 4.9450778732e-02 1.6175075499e+00 -2.8016052580e+00 1.6175075499e+00 2.8016052580e+00 
7000 5.6093967050e+00 4.8539910633e-02 1.6159791804e+00 -2.7989580445e+00 1.6159791804e+00 2.7989580445e+00 
7100 5.6092254987e+00 4.7643589617e-02 1.6144775403e+00 -2.7963571274e+00 1.6144775403e+00 2.7963571274e+00 
7200 5.6090604881e+00 4.6761713194e-02 1.6130022542e+00 -2.7938018569e+00 1.6130022542e+00 2.7938018569e+00 
7300 5.6089014257e+00 4.5894172546e-02 1.6115529473e+00 -2.7912915839e+00 1.6115529473e+00 2.7912915839e+00 
7400 5.6087480728e+00 4.5040853357e-02 1.6101292458e+00 -2.7888256605e+00 1.6101292458e+00 2.7888256605e+00 
7500 5.6086001991e+00 4.4201636561e-02 1.6087307765e+00 -2.7864034406e+00 1.6087307765e+00 2.7864034406e+00 
7600 5.6084575821e+00 4.3376398997e-02 1.6073571675e+00 -2.7840242801e+00 1.6073571675e+00 2.7840242801e+00 
7700 5.6083200075e+00 4.2565014010e-02 1.6060080484e+00 -2.7816875373e+00 1.6060080484e+00 2.7816875373e+00 
7800 5.6081872685e+00 4.1767351969e-02 1.6046830502e+00 -2.7793925731e+00 1.6046830502e+00 2.7793925731e+00 
7900 5.6080591659e+00 4.0983280735e-02 1.6033818057e+00 -2.7771387514e+00 1.6033818057e+00 2.7771387514e+00 
8000 5.6079355079e+00 4.0212666070e-02 1.6021039493e+00 -2.7749254393e+00 1.6021039493e+00 2.7749254393e+00 
8100 5.6078161098e+00 3.9455372001e-02 1.6008491178e+00 -2.7727520073e+00 1.6008491178e+00 2.7727520073e+00 
8200 5.6077007936e+00 3.8711261136e-02 1.5996169496e+00 -2.7706178294e+00 1.5996169496e+00 2.7706178294e+00 
8300 5.6075893883e+00 3.7980194941e-02 1.5984070857e+00 -2.7685222836e+00 1.5984070857e+00 2.7685222836e+00 
8400 5.6074817293e+00 3.7262033983e-02 1.5972191691e+00 -2.7664647517e+00 1.5972191691e+00 2.7664647517e+00 
8500 5.6073776583e+00 3.6556638136e-02 1.5960528453e+00 -2.7644446196e+00 1.5960528453e+00 2.7644446196e+00 
8600 5.6072770233e+00 3.5863866766e-02 1.5949077622e+00 -2.7624612775e+00 1.5949077622e+00 2.7624612775e+00 
8700 5.6071796782e+00 3.5183578880e-02 1.5937835702e+00 -2.7605141198e+00 1.5937835702e+00 2.7605141198e+00 
8800 5.6070854826e+00 3.4515633263e-02 1.5926799224e+00 -2.7586025458e+00 1.5926799224e+00 2.7586025458e+00 
8900 5.6069943018e+00 3.3859888588e-02 1.5915964744e+00 -2.7567259588e+00 1.5915964744e+00 2.7567259588e+00 
9000 5.6069060067e+00 3.3216203508e-02 1.5905328846e+00 -2.7548837673e+00 1.5905328846e+00 2.7548837673e+00 
9100 5.6068204731e+00 3.2584436737e-02 1.5894888142e+00 -2.7530753843e+00 1.5894888142e+00 2.7530753843e+00 
9200 5.6067375822e+00 3.1964447111e-02 1.5884639271e+00 -2.7513002277e+00 1.5884639271e+00 2.7513002277e+00 
9300 5.6066572200e+00 3.1356093644e-02 1.5874578901e+00 -2.7495577205e+00 1.5874578901e+00 2.7495577205e+00 
9400 5.6065792775e+00 3.0759235567e-02 1.5864703728e+00 -2.7478472905e+00 1.5864703728e+00 2.7478472905e+00 
9500 5.6065036500e+00 3.0173732364e-02 1.5855010481e+00 -2.7461683707e+00 1.5855010481e+00 2.7461683707e+00 
9600 5.6064302376e+00 2.9599443796e-02 1.5845495913e+00 -2.7445203993e+00 1.5845495913e+00 2.7445203993e+00 
9700 5.6063589445e+00 2.9036229920e-02 1.5836156813e+00 -2.7429028197e+00 1.5836156813e+00 2.7429028197e+00 
9800 5.6062896791e+00 2.8483951108e-02 1.5826989997e+00 -2.7413150807e+00 1.5826989997e+00 2.7413150807e+00 
9900 5.6062223541e+00 2.7942468050e-02 1.5817992314e+00 -2.7397566361e+00 1.5817992314e+00 2.7397566361e+00 
10000 5.6061568856e+00 2.7411641765e-02 1.5809160641e+00 -2.7382269455e+00 1.5809160641e+00 2.7382269455e+00 
10100 5.6060931941e+00 2.6891333606e-02 1.5800491890e+00 -2.7367254738e+00 1.5800491890e+00 2.7367254738e+00 
10200 5.6060312031e+00 2.6381405259e-02 1.5791983004e+00 -2.7352516914e+00 1.5791983004e+00 2.7352516914e+00 
10300 5.6059708400e+00 2.5881718744e-02 1.5783630956e+00 -2.7338050744e+00 1.5783630956e+00 2.7338050744e+00 
10400 5.6059120355e+00 2.5392136419e-02 1.5775432755e+00 -2.7323851043e+00 1.5775432755e+00 2.7323851043e+00 
10500 5.6058547235e+00 2.4912520973e-02 1.5767385439e+00 -2.7309912684e+00 1.5767385439e+00 2.7309912684e+00 
10600 5.6057988410e+00 2.4442735432e-02 1.5759486083e+00 -2.7296230597e+00 1.5759486083e+00 2.7296230597e+00 
10700 5.6057443279e+00 2.3982643156e-02 1.5751731791e+00 -2.7282799770e+00 1.5751731791e+00 2.7282799770e+00 
10800 5.6056911274e+00 2.3532107837e-02 1.5744119705e+00 -2.7269615249e+00 1.5744119705e+00 2.7269615249e+00 
10900 5.6056391849e+00 2.3090993507e-02 1.5736646995e+00 -2.7256672137e+00 1.5736646995e+00 2.7256672137e+00 
11000 5.6055884489e+00 2.2659164534e-02 1.5729310872e+00 -2.7243965598e+00 1.5729310872e+00 2.7243965598e+00 
11100 5.6055388703e+00 2.2236485632e-02 1.5722108574e+00 -2.7231490853e+00 1.5722108574e+00 2.7231490853e+00 
11200 5.6054904024e+00 2.1822821860e-02 1.5715037380e+00 -2.7219243184e+00 1.5715037380e+00 2.7219243184e+00 
11300 5.6054430009e+00 2.1418038635e-02 1.5708094598e+00 -2.7207217934e+00 1.5708094598e+00 2.7207217934e+00 
11400 5.6053966238e+00 2.1022001736e-02 1.5701277575e+00 -2.7195410504e+00 1.5701277575e+00 2.7195410504e+00 
11500 5.6053512310e+00 2.0634577317e-02 1.5694583691e+00 -2.7183816356e+00 1.5694583691e+00 2.7183816356e+00 
11600 5.6053067848e+00 2.0255631916e-02 1.5688010361e+00 -2.7172431014e+00 1.5688010361e+00 2.7172431014e+00 
11700 5.6052632492e+00 1.9885032473e-02 1.5681555035e+00 -2.7161250063e+00 1.5681555035e+00 2.7161250063e+00 
11800 5.6052205901e+00 1.9522646338e-02 1.5675215201e+00 -2.7150269148e+00 1.5675215201e+00 2.7150269148e+00 
11900 5.6051787754e+00 1.9168341294e-02 1.5668988380e+00 -2.7139483977e+00 1.5668988380e+00 2.7139483977e+00 
12000 5.6051377742e+00 1.8821985573e-02 1.5662872128e+00 -2.7128890319e+00 1.5662872128e+00 2.7128890319e+00 
12100 5.6050975578e+00 1.8483447876e-02 1.5656864041e+00 -2.7118484006e+00 1.5656864041e+00 2.7118484006e+00 
12200 5.6050580987e+00 1.8152597392e-02 1.5650961746e+00 -2.7108260931e+00 1.5650961746e+00 2.7108260931e+00 
12300 5.6050193709e+00 1.7829303825e-02 1.5645162908e+00 -2.7098217050e+00 1.5645162908e+00 2.7098217050e+00 
12400 5.6049813497e+00 1.7513437412e-02 1.5639465230e+00 -2.7088348382e+00 1.5639465230e+00 2.7088348382e+00 
12500 5.6049440119e+00 1.7204868955e-02 1.5633866448e+00 -2.7078651006e+00 1.5633866448e+00 2.7078651006e+00 
12600 5.6049073354e+00 1.6903469840e-02 1.5628364335e+00 -2.7069121068e+00 1.5628364335e+00 2.7069121068e+00 
12700 5.6048712993e+00 1.6609112071e-02 1.5622956701e+00 -2.7059754771e+00 1.5622956701e+00 2.7059754771e+00 
12800 5.6048358840e+00 1.6321668292e-02 1.5617641392e+00 -2.7050548385e+00 1.5617641392e+00 2.7050548385e+00 
12900 5.6048010705e+00 1.6041011820e-02 1.5612416288e+00 -2.7041498240e+00 1.5612416288e+00 2.7041498240e+00 
13000 5.6047668413e+00 1.5767016672e-02 1.5607279309e+00 -2.7032600731e+00 1.5607279309e+00 2.7032600731e+00 
13100 5.6047331795e+00 1.5499557598e-02 1.5602228408e+00 -2.7023852313e+00 1.5602228408e+00 2.7023852313e+00 
13200 5.6047000691e+00 1.5238510108e-02 1.5597261574e+00 -2.7015249505e+00 1.5597261574e+00 2.7015249505e+00 
13300 5.6046674951e+00 1.4983750507e-02 1.5592376834e+00 -2.7006788887e+00 1.5592376834e+00 2.7006788887e+00 
13400 5.6046354432e+00 1.4735155923e-02 1.5587572248e+00 -2.6998467101e+00 1.5587572248e+00 2.6998467101e+00 
13500 5.6046038997e+00 1.4492604340e-02 1.5582845916e+00 -2.6990280852e+00 1.5582845916e+00 2.6990280852e+00 
13600 5.6045728518e+00 1.4255974630e-02 1.5578195968e+00 -2.6982226907e+00 1.5578195968e+00 2.6982226907e+00 
13700 5.6045422872e+00 1.4025146582e-02 1.5573620574e+00 -2.6974302092e+00 1.5573620574e+00 2.6974302092e+00 
13800 5.6045121943e+00 1.3800000939e-02 1.5569117938e+00 -2.6966503297e+00 1.5569117938e+00 2.6966503297e+00 
13900 5.6044825619e+00 1.3580419423e-02 1.5564686297e+00 -2.6958827471e+00 1.5564686297e+00 2.6958827471e+00 
14000 5.6044533795e+00 1.3366284769e-02 1.5560323927e+00 -2.6951271624e+00 1.5560323927e+00 2.6951271624e+00 
14100 5.6044246369e+00 1.3157480756e-02 1.5556029135e+00 -2.6943832827e+00 1.5556029135e+00 2.6943832827e+00 
14200 5.6043963247e+00 1.2953892236e-02 1.5551800266e+00 -2.6936508209e+00 1.5551800266e+00 2.6936508209e+00 
14300 5.6043684336e+00 1.2755405163e-02 1.5547635695e+00 -2.6929294961e+00 1.5547635695e+00 2.6929294961e+00 
14400 5.6043409548e+00 1.2561906625e-02 1.5543533835e+00 -2.6922190332e+00 1.5543533835e+00 2.6922190332e+00 
14500 5.6043138799e+00 1.2373284869e-02 1.5539493132e+00 -2.6915191628e+00 1.5539493132e+00 2.6915191628e+00 
14600 5.6042872008e+00 1.2189429330e-02 1.5535512064e+00 -2.6908296216e+00 1.5535512064e+00 2.6908296216e+00 
14700 5.6042609098e+00 1.2010230658e-02 1.5531589143e+00 -2.6901501518e+00 1.5531589143e+00 2.6901501518e+00 
14800 5.6042349995e+00 1.1835580744e-02 1.5527722915e+00 -2.6894805015e+00 1.5527722915e+00 2.6894805015e+00 
14900 5.6042094627e+00 1.1665372744e-02 1.5523911958e+00 -2.6888204244e+00 1.5523911958e+00 2.6888204244e+00 
15000 5.6041842925e+00 1.1499501104e-02 1.5520154883e+00 -2.6881696798e+00 1.5520154883e+00 2.6881696798e+00 
15100 5.6041594823e+00 1.1337861583e-02 1.5516450331e+00 -2.6875280326e+00 1.5516450331e+00 2.6875280326e+00 
15200 5.6041350256e+00 1.1180351274e-02 1.5512796977e+00 -2.6868952532e+00 1.5512796977e+00 2.6868952532e+00 
15300 5.6041109162e+00 1.1026868628e-02 1.5509193527e+00 -2.6862711173e+00 1.5509193527e+00 2.6862711173e+00 
15400 5.6040871481e+00 1.0877313470e-02 1.5505638717e+00 -2.6856554062e+00 1.5505638717e+00 2.6856554062e+00 
15500 5.6040637155e+00 1.0731587019e-02 1.5502131314e+00 -2.6850479062e+00 1.5502131314e+00 2.6850479062e+00 
15600 5.6040406126e+00 1.0589591909e-02 1.5498670117e+00 -2.6844484092e+00 1.5498670117e+00 2.6844484092e+00 
15700 5.6040178341e+00 1.0451232198e-02 1.5495253952e+00 -2.6838567121e+00 1.5495253952e+00 2.6838567121e+00 
15800 5.6039953744e+00 1.0316413391e-02 1.5491881677e+00 -2.6832726169e+00 1.5491881677e+00 2.6832726169e+00 
15900 5.6039732284e+00 1.0185042451e-02 1.5488552177e+00 -2.6826959306e+00 1.5488552177e+00 2.6826959306e+00 
16000 5.6039513910e+00 1.0057027808e-02 1.5485264367e+00 -2.6821264652e+00 1.5485264367e+00 2.6821264652e+00 
16100 5.6039298573e+00 9.9322793781e-03 1.5482017191e+00 -2.6815640378e+00 1.5482017191e+00 2.6815640378e+00 
16200 5.6039086223e+00 9.8107085671e-03 1.5478809619e+00 -2.6810084701e+00 1.5478809619e+00 2.6810084701e+00 
16300 5.6038876813e+00 9.6922282832e-03 1.5475640650e+00 -2.6804595886e+00 1.5475640650e+00 2.6804595886e+00 
16400 5.6038670298e+00 9.5767529440e-03 1.5472509309e+00 -2.6799172244e+00 1.5472509309e+00 2.6799172244e+00 
16500 5.6038466630e+00 9.4641984832e-03 1.5469414648e+00 -2.6793812134e+00 1.5469414648e+00 2.6793812134e+00 
16600 5.6038265766e+00 9.3544823559e-03 1.5466355746e+00 -2.6788513960e+00 1.5466355746e+00 2.6788513960e+00 
16700 5.6038067663e+00 9.2475235431e-03 1.5463331705e+00 -2.6783276168e+00 1.5463331705e+00 2.6783276168e+00 
16800 5.6037872276e+00 9.1432425548e-03 1.5460341656e+00 -2.6778097250e+00 1.5460341656e+00 2.6778097250e+00 
16900 5.6037679564e+00 9.0415614318e-03 1.5457384751e+00 -2.6772975741e+00 1.5457384751e+00 2.6772975741e+00 
17000 5.6037489487e+00 8.9424037464e-03 1.5454460170e+00 -2.6767910217e+00 1.5454460170e+00 2.6767910217e+00 
17100 5.6037302002e+00 8.8456946025e-03 1.5451567113e+00 -2.6762899297e+00 1.5451567113e+00 2.6762899297e+00 
17200 5.6037117070e+00 8.7513606333e-03 1.5448704808e+00 -2.6757941638e+00 1.5448704808e+00 2.6757941638e+00 
17300 5.6036934653e+00 8.6593299998e-03 1.5445872501e+00 -2.6753035939e+00 1.5445872501e+00 2.6753035939e+00 
17400 5.6036754711e+00 8.5695323860e-03 1.5443069465e+00 -2.6748180938e+00 1.5443069465e+00 2.6748180938e+00 
17500 5.6036577207e+00 8.4818989952e-03 1.5440294992e+00 -2.6743375410e+00 1.5440294992e+00 2.6743375410e+00 
17600 5.6036402103e+00 8.3963625439e-03 1.5437548397e+00 -2.6738618168e+00 1.5437548397e+00 2.6738618168e+00 
17700 5.6036229363e+00 8.3128572551e-03 1.5434829016e+00 -2.6733908061e+00 1.5434829016e+00 2.6733908061e+00 
17800 5.6036058951e+00 8.2313188506e-03 1.5432136205e+00 -2.6729243976e+00 1.5432136205e+00 2.6729243976e+00 
17900 5.6035890831e+00 8.1516845429e-03 1.5429469341e+00 -2.6724624832e+00 1.5429469341e+00 2.6724624832e+00 
18000 5.6035724968e+00 8.0738930250e-03 1.5426827820e+00 -2.6720049584e+00 1.5426827820e+00 2.6720049584e+00 
18100 5.6035561329e+00 7.9978844609e-03 1.5424211059e+00 -2.6715517221e+00 1.5424211059e+00 2.6715517221e+00 
18200 5.6035399880e+00 7.9236004737e-03 1.5421618492e+00 -2.6711026763e+00 1.5421618492e+00 2.6711026763e+00 
18300 5.6035240586e+00 7.8509841343e-03 1.5419049572e+00 -2.6706577263e+00 1.5419049572e+00 2.6706577263e+00 
18400 5.6035083417e+00 7.7799799482e-03 1.5416503771e+00 -2.6702167806e+00 1.5416503771e+00 2.6702167806e+00 
18500 5.6034928339e+00 7.7105338421e-03 1.5413980576e+00 -2.6697797505e+00 1.5413980576e+00 2.6697797505e+00 
18600 5.6034775321e+00 7.6425931498e-03 1.5411479494e+00 -2.6693465504e+00 1.5411479494e+00 2.6693465504e+00 
18700 5.6034624332e+00 7.5761065978e-03 1.5409000048e+00 -2.6689170976e+00 1.5409000048e+00 2.6689170976e+00 
18800 5.6034475342e+00 7.5110242887e-03 1.5406541775e+00 -2.6684913123e+00 1.5406541775e+00 2.6684913123e+00 
18900 5.6034328321e+00 7.4472976865e-03 1.5404104230e+00 -2.6680691172e+00 1.5404104230e+00 2.6680691172e+00 
19000 5.6034183239e+00 7.3848795989e-03 1.5401686984e+00 -2.6676504379e+00 1.5401686984e+00 2.6676504379e+00 
19100 5.6034040068e+00 7.3237241603e-03 1.5399289621e+00 -2.6672352023e+00 1.5399289621e+00 2.6672352023e+00 
19200 5.6033898778e+00 7.2637868148e-03 1.5396911740e+00 -2.6668233413e+00 1.5396911740e+00 2.6668233413e+00 
19300 5.6033759343e+00 7.2050242970e-03 1.5394552955e+00 -2.6664147877e+00 1.5394552955e+00 2.6664147877e+00 
19400 5.6033621734e+00 7.1473946142e-03 1.5392212892e+00 -2.6660094771e+00 1.5392212892e+00 2.6660094771e+00 
19500 5.6033485924e+00 7.0908570268e-03 1.5389891194e+00 -2.6656073471e+00 1.5389891194e+00 2.6656073471e+00 
19600 5.6033351888e+00 7.0353720295e-03 1.5387587513e+00 -2.6652083379e+00 1.5387587513e+00 2.6652083379e+00 
19700 5.6033219599e+00 6.9809013308e-03 1.5385301516e+00 -2.6648123915e+00 1.5385301516e+00 2.6648123915e+00 
19800 5.6033089032e+00 6.9274078338e-03 1.5383032880e+00 -2.6644194522e+00 1.5383032880e+00 2.6644194522e+00 
19900 5.6032960161e+00 6.8748556150e-03 1.5380781295e+00 -2.6640294664e+00 1.5380781295e+00 2.6640294664e+00 
20000 5.6032832962e+00 6.8232099044e-03 1.5378546464e+00 -2.6636423823e+00 1.5378546464e+00 2.6636423823e+00 
20100 5.6032707411e+00 6.7724370641e-03 1.5376328099e+00 -2.6632581502e+00 1.5376328099e+00 2.6632581502e+00 
20200 5.6032583483e+00 6.7225045677e-03 1.5374125924e+00 -2.6628767222e+00 1.5374125924e+00 2.6628767222e+00 
20300 5.6032461157e+00 6.6733809787e-03 1.5371939671e+00 -2.6624980521e+00 1.5371939671e+00 2.6624980521e+00 
20400 5.6032340408e+00 6.6250359295e-03 1.5369769085e+00 -2.6621220955e+00 1.5369769085e+00 2.6621220955e+00 
20500 5.6032221215e+00 6.5774400995e-03 1.5367613919e+00 -2.6617488098e+00 1.5367613919e+00 2.6617488098e+00 
20600 5.6032103555e+00 6.5305651941e-03 1.5365473935e+00 -2.6613781538e+00 1.5365473935e+00 2.6613781538e+00 
20700 5.6031987406e+00 6.4843839223e-03 1.5363348907e+00 -2.6610100881e+00 1.5363348907e+00 2.6610100881e+00 
20800 5.6031872748e+00 6.4388699756e-03 1.5361238613e+00 -2.6606445745e+00 1.5361238613e+00 2.6606445745e+00 
20900 5.6031759559e+00 6.3939980060e-03 1.5359142843e+00 -2.6602815765e+00 1.5359142843e+00 2.6602815765e+00 
21000 5.6031647819e+00 6.3497436043e-03 1.5357061395e+00 -2.6599210590e+00 1.5357061395e+00 2.6599210590e+00 
21100 5.6031537509e+00 6.3060832783e-03 1.5354994072e+00 -2.6595629882e+00 1.5354994072e+00 2.6595629882e+00 
21200 5.6031428607e+00 6.2629944313e-03 1.5352940687e+00 -2.6592073315e+00 1.5352940687e+00 2.6592073315e+00 
21300 5.6031321095e+00 6.2204553403e-03 1.5350901059e+00 -2.6588540577e+00 1.5350901059e+00 2.6588540577e+00 
21400 5.6031214953e+00 6.1784451345e-03 1.5348875016e+00 -2.6585031366e+00 1.5348875016e+00 2.6585031366e+00 
21500 5.6031110164e+00 6.1369437738e-03 1.5346862389e+00 -2.6581545395e+00 1.5346862389e+00 2.6581545395e+00 
21600 5.6031006707e+00 6.0959320277e-03 1.5344863020e+00 -2.6578082385e+00 1.5344863020e+00 2.6578082385e+00 
21700 5.6030904567e+00 6.0553914537e-03 1.5342876752e+00 -2.6574642069e+00 1.5342876752e+00 2.6574642069e+00 
21800 5.6030803724e+00 6.0153043765e-03 1.5340903439e+00 -2.6571224190e+00 1.5340903439e+00 2.6571224190e+00 
21900 5.6030704161e+00 5.9756538669e-03 1.5338942936e+00 -2.6567828499e+00 1.5338942936e+00 2.6567828499e+00 
22000 5.6030605861e+00 5.9364237214e-03 1.5336995107e+00 -2.6564454761e+00 1.5336995107e+00 2.6564454761e+00 
22100 5.6030508807e+00 5.8975984411e-03 1.5335059820e+00 -2.6561102745e+00 1.5335059820e+00 2.6561102745e+00 
22200 5.6030412982e+00 5.8591632119e-03 1.5333136946e+00 -2.6557772230e+00 1.5333136946e+00 2.6557772230e+00 
22300 5.6030318371e+00 5.8211038840e-03 1.5331226365e+00 -2.6554463006e+00 1.5331226365e+00 2.6554463006e+00 
22400 5.6030224957e+00 5.7834069522e-03 1.5329327957e+00 -2.6551174868e+00 1.5329327957e+00 2.6551174868e+00 
22500 5.6030132724e+00 5.7460595363e-03 1.5327441609e+00 -2.6547907618e+00 1.5327441609e+00 2.6547907618e+00 
22600 5.6030041657e+00 5.7090493611e-03 1.5325567212e+00 -2.6544661067e+00 1.5325567212e+00 2.6544661067e+00 
22700 5.6029951741e+00 5.6723647382e-03 1.5323704660e+00 -2.6541435032e+00 1.5323704660e+00 2.6541435032e+00 
22800 5.6029862960e+00 5.6359945462e-03 1.5321853851e+00 -2.6538229336e+00 1.5321853851e+00 2.6538229336e+00 
22900 5.6029775300e+00 5.5999282125e-03 1.5320014687e+00 -2.6535043810e+00 1.5320014687e+00 2.6535043810e+00 
23000 5.6029688746e+00 5.5641556950e-03 1.5318187072e+00 -2.6531878288e+00 1.5318187072e+00 2.6531878288e+00 
23100 5.6029603283e+00 5.5286674638e-03 1.5316370915e+00 -2.6528732613e+00 1.5316370915e+00 2.6528732613e+00 
23200 5.6029518899e+00 5.4934544837e-03 1.5314566128e+00 -2.6525606629e+00 1.5314566128e+00 2.6525606629e+00 
23300 5.6029435578e+00 5.4585081967e-03 1.5312772624e+00 -2.6522500189e+00 1.5312772624e+00 2.6522500189e+00 
23400 5.6029353306e+00 5.4238205044e-03 1.5310990320e+00 -2.6519413148e+00 1.5310990320e+00 2.6519413148e+00 
23500 5.6029272071e+00 5.3893837520e-03 1.5309219136e+00 -2.6516345368e+00 1.5309219136e+00 2.6516345368e+00 
23600 5.6029191860e+00 5.3551907109e-03 1.5307458994e+00 -2.6513296712e+00 1.5307458994e+00 2.6513296712e+00 
23700 5.6029112658e+00 5.3212345633e-03 1.5305709818e+00 -2.6510267050e+00 1.5305709818e+00 2.6510267050e+00 
23800 5.6029034453e+00 5.2875088857e-03 1.5303971534e+00 -2.6507256254e+00 1.5303971534e+00 2.6507256254e+00 
23900 5.6028957232e+00 5.2540076335e-03 1.5302244071e+00 -2.6504264200e+00 1.5302244071e+00 2.6504264200e+00 
24000 5.6028880983e+00 5.2207251262e-03 1.5300527359e+00 -2.6501290768e+00 1.5300527359e+00 2.6501290768e+00 
24100 5.6028805693e+00 5.1876560319e-03 1.5298821330e+00 -2.6498335839e+00 1.5298821330e+00 2.6498335839e+00 
24200 5.6028731349e+00 5.1547953533e-03 1.5297125918e+00 -2.6495399300e+00 1.5297125918e+00 2.6495399300e+00 
24300 5.6028657941e+00 5.1221384128e-03 1.5295441059e+00 -2.6492481038e+00 1.5295441059e+00 2.6492481038e+00 
24400 5.6028585455e+00 5.0896808396e-03 1.5293766689e+00 -2.6489580944e+00 1.5293766689e+00 2.6489580944e+00 
24500 5.6028513881e+00 5.0574185551e-03 1.5292102747e+00 -2.6486698912e+00 1.5292102747e+00 2.6486698912e+00 
24600 5.6028443206e+00 5.0253477604e-03 1.5290449172e+00 -2.6483834836e+00 1.5290449172e+00 2.6483834836e+00 
24700 5.6028373418e+00 4.9934649232e-03 1.5288805905e+00 -2.6480988615e+00 1.5288805905e+00 2.6480988615e+00 
24800 5.6028304508e+00 4.9617667652e-03 1.5287172888e+00 -2.6478160146e+00 1.5287172888e+00 2.6478160146e+00 
24900 5.6028236462e+00 4.9302502501e-03 1.5285550064e+00 -2.6475349332e+00 1.5285550064e+00 2.6475349332e+00 
25000 5.6028169272e+00 4.8989125714e-03 1.5283937376e+00 -2.6472556075e+00 1.5283937376e+00 2.6472556075e+00 
25100 5.6028102924e+00 4.8677511411e-03 1.5282334770e+00 -2.6469780280e+00 1.5282334770e+00 2.6469780280e+00 
25200 5.6028037409e+00 4.8367635784e-03 1.5280742190e+00 -2.6467021851e+00 1.5280742190e+00 2.6467021851e+00 
25300 5.6027972717e+00 4.8059476989e-03 1.5279159584e+00 -2.6464280696e+00 1.5279159584e+00 2.6464280696e+00 
25400 5.6027908836e+00 4.7753015040e-03 1.5277586898e+00 -2.6461556724e+00 1.5277586898e+00 2.6461556724e+00 
25500 5.6027845756e+00 4.7448231704e-03 1.5276024079e+00 -2.6458849842e+00 1.5276024079e+00 2.6458849842e+00 
25600 5.6027783467e+00 4.7145110406e-03 1.5274471076e+00 -2.6456159962e+00 1.5274471076e+00 2.6456159962e+00 
25700 5.6027721959e+00 4.6843636131e-03 1.5272927837e+00 -2.6453486993e+00 1.5272927837e+00 2.6453486993e+00 
25800 5.6027661222e+00 4.6543795329e-03 1.5271394311e+00 -2.6450830849e+00 1.5271394311e+00 2.6450830849e+00 
25900 5.6027601246e+00 4.6245575829e-03 1.5269870448e+00 -2.6448191441e+00 1.5269870448e+00 2.6448191441e+00 
26000 5.6027542022e+00 4.5948966749e-03 1.5268356198e+00 -2.6445568683e+00 1.5268356198e+00 2.6445568683e+00 
26100 5.6027483538e+00 4.5653958414e-03 1.5266851510e+00 -2.6442962487e+00 1.5266851510e+00 2.6442962487e+00 
26200 5.6027425788e+00 4.5360542273e-03 1.5265356336e+00 -2.6440372769e+00 1.5265356336e+00 2.6440372769e+00 
26300 5.6027368759e+00 4.5068710823e-03 1.5263870625e+00 -2.6437799443e+00 1.5263870625e+00 2.6437799443e+00 
26400 5.6027312445e+00 4.4778457535e-03 1.5262394329e+00 -2.6435242423e+00 1.5262394329e+00 2.6435242423e+00 
26500 5.6027256834e+00 4.4489776776e-03 1.5260927399e+00 -2.6432701625e+00 1.5260927399e+00 2.6432701625e+00 
26600 5.6027201919e+00 4.4202663748e-03 1.5259469785e+00 -2.6430176964e+00 1.5259469785e+00 2.6430176964e+00 
26700 5.6027147690e+00 4.3917114414e-03 1.5258021440e+00 -2.6427668357e+00 1.5258021440e+00 2.6427668357e+00 
26800 5.6027094139e+00 4.3633125437e-03 1.5256582314e+00 -2.6425175718e+00 1.5256582314e+00 2.6425175718e+00 
26900 5.6027041256e+00 4.3350694118e-03 1.5255152359e+00 -2.6422698964e+00 1.5255152359e+00 2.6422698964e+00 
27000 5.6026989034e+00 4.3069818338e-03 1.5253731527e+00 -2.6420238010e+00 1.5253731527e+00 2.6420238010e+00 
27100 5.6026937463e+00 4.2790496500e-03 1.5252319769e+00 -2.6417792774e+00 1.5252319769e+00 2.6417792774e+00 
27200 5.6026886536e+00 4.2512727477e-03 1.5250917037e+00 -2.6415363170e+00 1.5250917037e+00 2.6415363170e+00 
27300 5.6026836243e+00 4.2236510559e-03 1.5249523282e+00 -2.6412949116e+00 1.5249523282e+00 2.6412949116e+00 
27400 5.6026786578e+00 4.1961845405e-03 1.5248138456e+00 -2.6410550527e+00 1.5248138456e+00 2.6410550527e+00 
27500 5.6026737531e+00 4.1688731995e-03 1.5246762511e+00 -2.6408167319e+00 1.5246762511e+00 2.6408167319e+00 
27600 5.6026689095e+00 4.1417170587e-03 1.5245395397e+00 -2.6405799409e+00 1.5245395397e+00 2.6405799409e+00 
27700 5.6026641262e+00 4.1147161675e-03 1.5244037067e+00 -2.6403446713e+00 1.5244037067e+00 2.6403446713e+00 
27800 5.6026594023e+00 4.0878705945e-03 1.5242687472e+00 -2.6401109146e+00 1.5242687472e+00 2.6401109146e+00 
27900 5.6026547372e+00 4.0611804242e-03 1.5241346563e+00 -2.6398786624e+00 1.5241346563e+00 2.6398786624e+00 
28000 5.6026501301e+00 4.0346457533e-03 1.5240014292e+00 -2.6396479062e+00 1.5240014292e+00 2.6396479062e+00 
28100 5.6026455803e+00 4.0082666868e-03 1.5238690610e+00 -2.6394186377e+00 1.5238690610e+00 2.6394186377e+00 
28200 5.6026410869e+00 3.9820433356e-03 1.5237375468e+00 -2.6391908484e+00 1.5237375468e+00 2.6391908484e+00 
28300 5.6026366492e+00 3.9559758127e-03 1.5236068817e+00 -2.6389645298e+00 1.5236068817e+00 2.6389645298e+00 
28400 5.6026322667e+00 3.9300642310e-03 1.5234770608e+00 -2.6387396735e+00 1.5234770608e+00 2.6387396735e+00 
28500 5.6026279384e+00 3.9043087003e-03 1.5233480792e+00 -2.6385162709e+00 1.5233480792e+00 2.6385162709e+00 
28600 5.6026236638e+00 3.8787093246e-03 1.5232199321e+00 -2.6382943135e+00 1.5232199321e+00 2.6382943135e+00 
28700 5.6026194421e+00 3.8532662005e-03 1.5230926145e+00 -2.6380737929e+00 1.5230926145e+00 2.6380737929e+00 
28800 5.6026152726e+00 3.8279794143e-03 1.5229661214e+00 -2.6378547005e+00 1.5229661214e+00 2.6378547005e+00 
28900 5.6026111547e+00 3.8028490403e-03 1.5228404480e+00 -2.6376370278e+00 1.5228404480e+00 2.6376370278e+00 
29000 5.6026070878e+00 3.7778751390e-03 1.5227155893e+00 -2.6374207662e+00 1.5227155893e+00 2.6374207662e+00 
29100 5.6026030711e+00 3.7530577553e-03 1.5225915404e+00 -2.6372059072e+00 1.5225915404e+00 2.6372059072e+00 
29200 5.6025991040e+00 3.7283969169e-03 1.5224682964e+00 -2.6369924422e+00 1.5224682964e+00 2.6369924422e+00 
29300 5.6025951858e+00 3.7038926329e-03 1.5223458522e+00 -2.6367803627e+00 1.5223458522e+00 2.6367803627e+00 
29400 5.6025913160e+00 3.6795448928e-03 1.5222242030e+00 -2.6365696601e+00 1.5222242030e+00 2.6365696601e+00 
29500 5.6025874939e+00 3.6553536645e-03 1.5221033438e+00 -2.6363603258e+00 1.5221033438e+00 2.6363603258e+00 
29600 5.6025837189e+00 3.6313188942e-03 1.5219832696e+00 -2.6361523513e+00 1.5219832696e+00 2.6361523513e+00 
29700 5.6025799903e+00 3.6074405048e-03 1.5218639756e+00 -2.6359457279e+00 1.5218639756e+00 2.6359457279e+00 
29800 5.6025763077e+00 3.5837183955e-03 1.5217454566e+00 -2.6357404471e+00 1.5217454566e+00 2.6357404471e+00 
29900 5.6025726704e+00 3.5601524405e-03 1.5216277079e+00 -2.6355365003e+00 1.5216277079e+00 2.6355365003e+00 
30000 5.6025690777e+00 3.5367424890e-03 1.5215107244e+00 -2.6353338789e+00 1.5215107244e+00 2.6353338789e+00 
30100 5.6025655292e+00 3.5134883644e-03 1.5213945012e+00 -2.6351325744e+00 1.5213945012e+00 2.6351325744e+00 
30200 5.6025620243e+00 3.4903898638e-03 1.5212790333e+00 -2.6349325782e+00 1.5212790333e+00 2.6349325782e+00 
30300 5.6025585624e+00 3.4674467577e-03 1.5211643158e+00 -2.6347338817e+00 1.5211643158e+00 2.6347338817e+00 
30400 5.6025551430e+00 3.4446587898e-03 1.5210503438e+00 -2.6345364763e+00 1.5210503438e+00 2.6345364763e+00 
30500 5.6025517654e+00 3.4220256766e-03 1.5209371123e+00 -2.6343403536e+00 1.5209371123e+00 2.6343403536e+00 
30600 5.6025484293e+00 3.3995471077e-03 1.5208246164e+00 -2.6341455050e+00 1.5208246164e+00 2.6341455050e+00 
30700 5.6025451340e+00 3.3772227454e-03 1.5207128512e+00 -2.6339519220e+00 1.5207128512e+00 2.6339519220e+00 
30800 5.6025418790e+00 3.3550522248e-03 1.5206018118e+00 -2.6337595961e+00 1.5206018118e+00 2.6337595961e+00 
30900 5.6025386639e+00 3.3330351540e-03 1.5204914932e+00 -2.6335685188e+00 1.5204914932e+00 2.6335685188e+00 
31000 5.6025354880e+00 3.3111711142e-03 1.5203818907e+00 -2.6333786816e+00 1.5203818907e+00 2.6333786816e+00 
31100 5.6025323509e+00 3.2894596599e-03 1.5202729992e+00 -2.6331900761e+00 1.5202729992e+00 2.6331900761e+00 
31200 5.6025292522e+00 3.2679003192e-03 1.5201648140e+00 -2.6330026938e+00 1.5201648140e+00 2.6330026938e+00 
31300 5.6025261913e+00 3.2464925941e-03 1.5200573302e+00 -2.6328165264e+00 1.5200573302e+00 2.6328165264e+00 
31400 5.6025231677e+00 3.2252359608e-03 1.5199505430e+00 -2.6326315655e+00 1.5199505430e+00 2.6326315655e+00 
31500 5.6025201809e+00 3.2041298702e-03 1.5198444475e+00 -2.6324478027e+00 1.5198444475e+00 2.6324478027e+00 
31600 5.6025172306e+00 3.1831737483e-03 1.5197390389e+00 -2.6322652297e+00 1.5197390389e+00 2.6322652297e+00 
31700 5.6025143161e+00 3.1623669968e-03 1.5196343125e+00 -2.6320838381e+00 1.5196343125e+00 2.6320838381e+00 
31800 5.6025114372e+00 3.1417089935e-03 1.5195302634e+00 -2.6319036199e+00 1.5195302634e+00 2.6319036199e+00 
31900 5.6025085933e+00 3.1211990927e-03 1.5194268869e+00 -2.6317245666e+00 1.5194268869e+00 2.6317245666e+00 
32000 5.6025057839e+00 3.1008366262e-03 1.5193241783e+00 -2.6315466701e+00 1.5193241783e+00 2.6315466701e+00 
32100 5.6025030087e+00 3.0806209035e-03 1.5192221329e+00 -2.6313699222e+00 1.5192221329e+00 2.6313699222e+00 
32200 5.6025002672e+00 3.0605512128e-03 1.5191207459e+00 -2.6311943148e+00 1.5191207459e+00 2.6311943148e+00 
32300 5.6024975590e+00 3.0406268211e-03 1.5190200128e+00 -2.6310198398e+00 1.5190200128e+00 2.6310198398e+00 
32400 5.6024948836e+00 3.0208469756e-03 1.5189199287e+00 -2.6308464892e+00 1.5189199287e+00 2.6308464892e+00 
32500 5.6024922407e+00 3.0012109039e-03 1.5188204892e+00 -2.6306742548e+00 1.5188204892e+00 2.6306742548e+00 
32600 5.6024896299e+00 2.9817178148e-03 1.5187216895e+00 -2.6305031288e+00 1.5187216895e+00 2.6305031288e+00 
32700 5.6024870506e+00 2.9623668991e-03 1.5186235252e+00 -2.6303331032e+00 1.5186235252e+00 2.6303331032e+00 
32800 5.6024845026e+00 2.9431573301e-03 1.5185259916e+00 -2.6301641701e+00 1.5185259916e+00 2.6301641701e+00 
32900 5.6024819855e+00 2.9240882648e-03 1.5184290843e+00 -2.6299963217e+00 1.5184290843e+00 2.6299963217e+00 
33000 5.6024794988e+00 2.9051588442e-03 1.5183327987e+00 -2.6298295502e+00 1.5183327987e+00 2.6298295502e+00 
33100 5.6024770422e+00 2.8863681942e-03 1.5182371303e+00 -2.6296638477e+00 1.5182371303e+00 2.6296638477e+00 
33200 5.6024746152e+00 2.8677154265e-03 1.5181420748e+00 -2.6294992066e+00 1.5181420748e+00 2.6294992066e+00 
33300 5.6024722176e+00 2.8491996391e-03 1.5180476276e+00 -2.6293356192e+00 1.5180476276e+00 2.6293356192e+00 
33400 5.6024698490e+00 2.8308199173e-03 1.5179537843e+00 -2.6291730780e+00 1.5179537843e+00 2.6291730780e+00 
33500 5.6024675089e+00 2.8125753341e-03 1.5178605407e+00 -2.6290115752e+00 1.5178605407e+00 2.6290115752e+00 
33600 5.6024651971e+00 2.7944649516e-03 1.5177678923e+00 -2.6288511035e+00 1.5177678923e+00 2.6288511035e+00 
33700 5.6024629132e+00 2.7764878210e-03 1.5176758348e+00 -2.6286916553e+00 1.5176758348e+00 2.6286916553e+00 
33800 5.6024606568e+00 2.7586429838e-03 1.5175843640e+00 -2.6285332233e+00 1.5175843640e+00 2.6285332233e+00 
33900 5.6024584276e+00 2.7409294725e-03 1.5174934757e+00 -2.6283758000e+00 1.5174934757e+00 2.6283758000e+00 
34000 5.6024562252e+00 2.7233463113e-03 1.5174031655e+00 -2.6282193782e+00 1.5174031655e+00 2.6282193782e+00 
34100 5.6024540493e+00 2.7058925166e-03 1.5173134293e+00 -2.6280639506e+00 1.5173134293e+00 2.6280639506e+00 
34200 5.6024518997e+00 2.6885670980e-03 1.5172242630e+00 -2.6279095099e+00 1.5172242630e+00 2.6279095099e+00 
34300 5.6024497759e+00 2.6713690590e-03 1.5171356623e+00 -2.6277560491e+00 1.5171356623e+00 2.6277560491e+00 
34400 5.6024476776e+00 2.6542973977e-03 1.5170476233e+00 -2.6276035610e+00 1.5170476233e+00 2.6276035610e+00 
34500 5.6024456046e+00 2.6373511070e-03 1.5169601418e+00 -2.6274520386e+00 1.5169601418e+00 2.6274520386e+00 
34600 5.6024435565e+00 2.6205291760e-03 1.5168732138e+00 -2.6273014749e+00 1.5168732138e+00 2.6273014749e+00 
34700 5.6024415329e+00 2.6038305904e-03 1.5167868353e+00 -2.6271518630e+00 1.5167868353e+00 2.6271518630e+00 
34800 5.6024395337e+00 2.5872543327e-03 1.5167010023e+00 -2.6270031959e+00 1.5167010023e+00 2.6270031959e+00 
34900 5.6024375585e+00 2.5707993835e-03 1.5166157110e+00 -2.6268554670e+00 1.5166157110e+00 2.6268554670e+00 
35000 5.6024356069e+00 2.5544647218e-03 1.5165309573e+00 -2.6267086693e+00 1.5165309573e+00 2.6267086693e+00 
35100 5.6024336788e+00 2.5382493255e-03 1.5164467374e+00 -2.6265627962e+00 1.5164467374e+00 2.6265627962e+00 
35200 5.6024317737e+00 2.5221521722e-03 1.5163630475e+00 -2.6264178410e+00 1.5163630475e+00 2.6264178410e+00 
35300 5.6024298915e+00 2.5061722397e-03 1.5162798837e+00 -2.6262737971e+00 1.5162798837e+00 2.6262737971e+00 
35400 5.6024280319e+00 2.4903085064e-03 1.5161972423e+00 -2.6261306580e+00 1.5161972423e+00 2.6261306580e+00 
35500 5.6024261945e+00 2.4745599521e-03 1.5161151196e+00 -2.6259884172e+00 1.5161151196e+00 2.6259884172e+00 
35600 5.6024243791e+00 2.4589255585e-03 1.5160335117e+00 -2.6258470683e+00 1.5160335117e+00 2.6258470683e+00 
35700 5.6024225854e+00 2.4434043093e-03 1.5159524151e+00 -2.6257066049e+00 1.5159524151e+00 2.6257066049e+00 
35800 5.6024208131e+00 2.4279951912e-03 1.5158718261e+00 -2.6255670206e+00 1.5158718261e+00 2.6255670206e+00 
35900 5.6024190621e+00 2.4126971942e-03 1.5157917410e+00 -2.6254283092e+00 1.5157917410e+00 2.6254283092e+00 
36000 5.6024173320e+00 2.3975093118e-03 1.5157121564e+00 -2.6252904645e+00 1.5157121564e+00 2.6252904645e+00 
36100 5.6024156225e+00 2.3824305420e-03 1.5156330685e+00 -2.6251534803e+00 1.5156330685e+00 2.6251534803e+00 
36200 5.6024139335e+00 2.3674598870e-03 1.5155544739e+00 -2.6250173505e+00 1.5155544739e+00 2.6250173505e+00 
36300 5.6024122646e+00 2.3525963542e-03 1.5154763692e+00 -2.6248820692e+00 1.5154763692e+00 2.6248820692e+00 
36400 5.6024106157e+00 2.3378389564e-03 1.5153987508e+00 -2.6247476302e+00 1.5153987508e+00 2.6247476302e+00 
36500 5.6024089864e+00 2.3231867119e-03 1.5153216154e+00 -2.6246140277e+00 1.5153216154e+00 2.6246140277e+00 
36600 5.6024073765e+00 2.3086386453e-03 1.5152449595e+00 -2.6244812557e+00 1.5152449595e+00 2.6244812557e+00 
36700 5.6024057859e+00 2.2941937876e-03 1.5151687797e+00 -2.6243493086e+00 1.5151687797e+00 2.6243493086e+00 
36800 5.6024042142e+00 2.2798511764e-03 1.5150930728e+00 -2.6242181804e+00 1.5150930728e+00 2.6242181804e+00 
36900 5.6024026612e+00 2.2656098564e-03 1.5150178355e+00 -2.6240878654e+00 1.5150178355e+00 2.6240878654e+00 
37000 5.6024011267e+00 2.2514688798e-03 1.5149430644e+00 -2.6239583581e+00 1.5149430644e+00 2.6239583581e+00 
37100 5.6023996105e+00 2.2374273061e-03 1.5148687563e+00 -2.6238296527e+00 1.5148687563e+00 2.6238296527e+00 
37200 5.6023981123e+00 2.2234842028e-03 1.5147949080e+00 -2.6237017437e+00 1.5147949080e+00 2.6237017437e+00 
37300 5.6023966319e+00 2.2096386456e-03 1.5147215163e+00 -2.6235746256e+00 1.5147215163e+00 2.6235746256e+00 
37400 5.6023951692e+00 2.1958897183e-03 1.5146485782e+00 -2.6234482930e+00 1.5146485782e+00 2.6234482930e+00 
37500 5.6023937238e+00 2.1822365132e-03 1.5145760903e+00 -2.6233227403e+00 1.5145760903e+00 2.6233227403e+00 
37600 5.6023922957e+00 2.1686781315e-03 1.5145040497e+00 -2.6231979624e+00 1.5145040497e+00 2.6231979624e+00 
37700 5.6023908844e+00 2.1552136832e-03 1.5144324533e+00 -2.6230739538e+00 1.5144324533e+00 2.6230739538e+00 
37800 5.6023894900e+00 2.1418422873e-03 1.5143612980e+00 -2.6229507092e+00 1.5143612980e+00 2.6229507092e+00 
37900 5.6023881121e+00 2.1285630719e-03 1.5142905809e+00 -2.6228282236e+00 1.5142905809e+00 2.6228282236e+00 
38000 5.6023867506e+00 2.1153751747e-03 1.5142202989e+00 -2.6227064916e+00 1.5142202989e+00 2.6227064916e+00 
38100 5.6023854052e+00 2.1022777425e-03 1.5141504492e+00 -2.6225855083e+00 1.5141504492e+00 2.6225855083e+00 
38200 5.6023840757e+00 2.0892699320e-03 1.5140810287e+00 -2.6224652684e+00 1.5140810287e+00 2.6224652684e+00 
38300 5.6023827621e+00 2.0763509094e-03 1.5140120345e+00 -2.6223457671e+00 1.5140120345e+00 2.6223457671e+00 
38400 5.6023814640e+00 2.0635198504e-03 1.5139434639e+00 -2.6222269993e+00 1.5139434639e+00 2.6222269993e+00 
38500 5.6023801813e+00 2.0507759410e-03 1.5138753139e+00 -2.6221089600e+00 1.5138753139e+00 2.6221089600e+00 
38600 5.6023789137e+00 2.0381183767e-03 1.5138075818e+00 -2.6219916445e+00 1.5138075818e+00 2.6219916445e+00 
38700 5.6023776612e+00 2.0255463629e-03 1.5137402647e+00 -2.6218750478e+00 1.5137402647e+00 2.6218750478e+00 
38800 5.6023764235e+00 2.0130591152e-03 1.5136733598e+00 -2.6217591652e+00 1.5136733598e+00 2.6217591652e+00 
38900 5.6023752005e+00 2.0006558589e-03 1.5136068645e+00 -2.6216439919e+00 1.5136068645e+00 2.6216439919e+00 
39000 5.6023739919e+00 1.9883358295e-03 1.5135407759e+00 -2.6215295232e+00 1.5135407759e+00 2.6215295232e+00 
39100 5.6023727977e+00 1.9760982724e-03 1.5134750915e+00 -2.6214157544e+00 1.5134750915e+00 2.6214157544e+00 
39200 5.6023716175e+00 1.9639424430e-03 1.5134098085e+00 -2.6213026810e+00 1.5134098085e+00 2.6213026810e+00 
39300 5.6023704513e+00 1.9518676067e-03 1.5133449243e+00 -2.6211902982e+00 1.5133449243e+00 2.6211902982e+00 
39400 5.6023692989e+00 1.9398730388e-03 1.5132804362e+00 -2.6210786016e+00 1.5132804362e+00 2.6210786016e+00 
39500 5.6023681601e+00 1.9279580245e-03 1.5132163417e+00 -2.6209675866e+00 1.5132163417e+00 2.6209675866e+00 
39600 5.6023670347e+00 1.9161218592e-03 1.5131526382e+00 -2.6208572489e+00 1.5131526382e+00 2.6208572489e+00 
39700 5.6023659226e+00 1.9043638476e-03 1.5130893230e+00 -2.6207475839e+00 1.5130893230e+00 2.6207475839e+00 
39800 5.6023648237e+00 1.8926833047e-03 1.5130263938e+00 -2.6206385873e+00 1.5130263938e+00 2.6206385873e+00 
39900 5.6023637377e+00 1.8810795550e-03 1.5129638480e+00 -2.6205302547e+00 1.5129638480e+00 2.6205302547e+00 
40000 5.6023626645e+00 1.8695519325e-03 1.5129016830e+00 -2.6204225818e+00 1.5129016830e+00 2.6204225818e+00 
40100 5.6023616040e+00 1.8580997812e-03 1.5128398965e+00 -2.6203155644e+00 1.5128398965e+00 2.6203155644e+00 
40200 5.6023605559e+00 1.8467224542e-03 1.5127784859e+00 -2.6202091982e+00 1.5127784859e+00 2.6202091982e+00 
40300 5.6023595203e+00 1.8354193143e-03 1.5127174489e+00 -2.6201034790e+00 1.5127174489e+00 2.6201034790e+00 
40400 5.6023584968e+00 1.8241897334e-03 1.5126567830e+00 -2.6199984026e+00 1.5126567830e+00 2.6199984026e+00 
40500 5.6023574853e+00 1.8130330929e-03 1.5125964858e+00 -2.6198939648e+00 1.5125964858e+00 2.6198939648e+00 
40600 5.6023564858e+00 1.8019487830e-03 1.5125365551e+00 -2.6197901617e+00 1.5125365551e+00 2.6197901617e+00 
40700 5.6023554981e+00 1.7909362033e-03 1.5124769884e+00 -2.6196869891e+00 1.5124769884e+00 2.6196869891e+00 
40800 5.6023545219e+00 1.7799947621e-03 1.5124177833e+00 -2.6195844430e+00 1.5124177833e+00 2.6195844430e+00 
40900 5.6023535573e+00 1.7691238764e-03 1.5123589377e+00 -2.6194825194e+00 1.5123589377e+00 2.6194825194e+00 
41000 5.6023526040e+00 1.7583229722e-03 1.5123004492e+00 -2.6193812144e+00 1.5123004492e+00 2.6193812144e+00 
41100 5.6023516619e+00 1.7475914838e-03 1.5122423155e+00 -2.6192805239e+00 1.5122423155e+00 2.6192805239e+00 
41200 5.6023507308e+00 1.7369288540e-03 1.5121845344e+00 -2.6191804441e+00 1.5121845344e+00 2.6191804441e+00 
41300 5.6023498107e+00 1.7263345340e-03 1.5121271037e+00 -2.6190809711e+00 1.5121271037e+00 2.6190809711e+00 
41400 5.6023489015e+00 1.7158079832e-03 1.5120700211e+00 -2.6189821011e+00 1.5120700211e+00 2.6189821011e+00 
41500 5.6023480029e+00 1.7053486688e-03 1.5120132844e+00 -2.6188838302e+00 1.5120132844e+00 2.6188838302e+00 
41600 5.6023471148e+00 1.6949560664e-03 1.5119568914e+00 -2.6187861548e+00 1.5119568914e+00 2.6187861548e+00 
41700 5.6023462372e+00 1.6846296589e-03 1.5119008400e+00 -2.6186890709e+00 1.5119008400e+00 2.6186890709e+00 
41800 5.6023453698e+00 1.6743689371e-03 1.5118451281e+00 -2.6185925750e+00 1.5118451281e+00 2.6185925750e+00 
41900 5.6023445126e+00 1.6641733994e-03 1.5117897534e+00 -2.6184966632e+00 1.5117897534e+00 2.6184966632e+00 
42000 5.6023436655e+00 1.6540425513e-03 1.5117347139e+00 -2.6184013320e+00 1.5117347139e+00 2.6184013320e+00 
42100 5.6023428283e+00 1.6439759058e-03 1.5116800074e+00 -2.6183065777e+00 1.5116800074e+00 2.6183065777e+00 
42200 5.6023420010e+00 1.6339729829e-03 1.5116256320e+00 -2.6182123966e+00 1.5116256320e+00 2.6182123966e+00 
42300 5.6023411833e+00 1.6240333095e-03 1.5115715854e+00 -2.6181187852e+00 1.5115715854e+00 2.6181187852e+00 
42400 5.6023403752e+00 1.6141564195e-03 1.5115178657e+00 -2.6180257399e+00 1.5115178657e+00 2.6180257399e+00 
42500 5.6023395765e+00 1.6043418532e-03 1.5114644708e+00 -2.6179332573e+00 1.5114644708e+00 2.6179332573e+00 
42600 5.6023387872e+00 1.5945891577e-03 1.5114113987e+00 -2.6178413337e+00 1.5114113987e+00 2.6178413337e+00 
42700 5.6023380072e+00 1.5848978862e-03 1.5113586473e+00 -2.6177499656e+00 1.5113586473e+00 2.6177499656e+00 
42800 5.6023372363e+00 1.5752675986e-03 1.5113062147e+00 -2.6176591497e+00 1.5113062147e+00 2.6176591497e+00 
42900 5.6023364743e+00 1.5656978605e-03 1.5112540989e+00 -2.6175688825e+00 1.5112540989e+00 2.6175688825e+00 
43000 5.6023357213e+00 1.5561882436e-03 1.5112022980e+00 -2.6174791606e+00 1.5112022980e+00 2.6174791606e+00 
43100 5.6023349771e+00 1.5467383256e-03 1.5111508098e+00 -2.6173899806e+00 1.5111508098e+00 2.6173899806e+00 
43200 5.6023342416e+00 1.5373476897e-03 1.5110996326e+00 -2.6173013390e+00 1.5110996326e+00 2.6173013390e+00 
43300 5.6023335147e+00 1.5280159246e-03 1.5110487644e+00 -2.6172132327e+00 1.5110487644e+00 2.6172132327e+00 
43400 5.6023327963e+00 1.5187426248e-03 1.5109982033e+00 -2.6171256582e+00 1.5109982033e+00 2.6171256582e+00 
43500 5.6023320863e+00 1.5095273897e-03 1.5109479473e+00 -2.6170386123e+00 1.5109479473e+00 2.6170386123e+00 
43600 5.6023313846e+00 1.5003698241e-03 1.5108979946e+00 -2.6169520916e+00 1.5108979946e+00 2.6169520916e+00 
43700 5.6023306910e+00 1.4912695378e-03 1.5108483432e+00 -2.6168660930e+00 1.5108483432e+00 2.6168660930e+00 
43800 5.6023300056e+00 1.4822261454e-03 1.5107989914e+00 -2.6167806132e+00 1.5107989914e+00 2.6167806132e+00 
43900 5.6023293281e+00 1.4732392663e-03 1.5107499373e+00 -2.6166956490e+00 1.5107499373e+00 2.6166956490e+00 
44000 5.6023286586e+00 1.4643085247e-03 1.5107011790e+00 -2.6166111972e+00 1.5107011790e+00 2.6166111972e+00 
44100 5.6023279968e+00 1.4554335493e-03 1.5106527148e+00 -2.6165272546e+00 1.5106527148e+00 2.6165272546e+00 
44200 5.6023273428e+00 1.4466139730e-03 1.5106045427e+00 -2.6164438181e+00 1.5106045427e+00 2.6164438181e+00 
44300 5.6023266964e+00 1.4378494332e-03 1.5105566610e+00 -2.6163608845e+00 1.5105566610e+00 2.6163608845e+00 
44400 5.6023260575e+00 1.4291395713e-03 1.5105090679e+00 -2.6162784509e+00 1.5105090679e+00 2.6162784509e+00 
44500 5.6023254261e+00 1.4204840331e-03 1.5104617616e+00 -2.6161965139e+00 1.5104617616e+00 2.6161965139e+00 
44600 5.6023248020e+00 1.4118824679e-03 1.5104147403e+00 -2.6161150707e+00 1.5104147403e+00 2.6161150707e+00 
44700 5.6023241852e+00 1.4033345291e-03 1.5103680023e+00 -2.6160341181e+00 1.5103680023e+00 2.6160341181e+00 
44800 5.6023235756e+00 1.3948398739e-03 1.5103215458e+00 -2.6159536531e+00 1.5103215458e+00 2.6159536531e+00 
44900 5.6023229730e+00 1.3863981628e-03 1.5102753691e+00 -2.6158736728e+00 1.5102753691e+00 2.6158736728e+00 
45000 5.6023223775e+00 1.3780090601e-03 1.5102294705e+00 -2.6157941740e+00 1.5102294705e+00 2.6157941740e+00 
45100 5.6023217889e+00 1.3696722335e-03 1.5101838483e+00 -2.6157151539e+00 1.5101838483e+00 2.6157151539e+00 
45200 5.6023212071e+00 1.3613873537e-03 1.5101385006e+00 -2.6156366095e+00 1.5101385006e+00 2.6156366095e+00 
45300 5.6023206321e+00 1.3531540951e-03 1.5100934259e+00 -2.6155585379e+00 1.5100934259e+00 2.6155585379e+00 
45400 5.6023200638e+00 1.3449721349e-03 1.5100486225e+00 -2.6154809360e+00 1.5100486225e+00 2.6154809360e+00 
45500 5.6023195021e+00 1.3368411534e-03 1.5100040886e+00 -2.6154038012e+00 1.5100040886e+00 2.6154038012e+00 
45600 5.6023189470e+00 1.3287608338e-03 1.5099598227e+00 -2.6153271303e+00 1.5099598227e+00 2.6153271303e+00 
45700 5.6023183982e+00 1.3207308623e-03 1.5099158231e+00 -2.6152509207e+00 1.5099158231e+00 2.6152509207e+00 
45800 5.6023178559e+00 1.3127509277e-03 1.5098720880e+00 -2.6151751694e+00 1.5098720880e+00 2.6151751694e+00 
45900 5.6023173198e+00 1.3048207217e-03 1.5098286160e+00 -2.6150998736e+00 1.5098286160e+00 2.6150998736e+00 
46000 5.6023167900e+00 1.2969399383e-03 1.5097854053e+00 -2.6150250305e+00 1.5097854053e+00 2.6150250305e+00 
46100 5.6023162663e+00 1.2891082744e-03 1.5097424544e+00 -2.6149506373e+00 1.5097424544e+00 2.6149506373e+00 
46200 5.6023157487e+00 1.2813254291e-03 1.5096997616e+00 -2.6148766912e+00 1.5096997616e+00 2.6148766912e+00 
46300 5.6023152371e+00 1.2735911039e-03 1.5096573253e+00 -2.6148031895e+00 1.5096573253e+00 2.6148031895e+00 
46400 5.6023147314e+00 1.2659050028e-03 1.5096151441e+00 -2.6147301294e+00 1.5096151441e+00 2.6147301294e+00 
46500 5.6023142316e+00 1.2582668319e-03 1.5095732162e+00 -2.6146575082e+00 1.5095732162e+00 2.6146575082e+00 
46600 5.6023137376e+00 1.2506762993e-03 1.5095315401e+00 -2.6145853231e+00 1.5095315401e+00 2.6145853231e+00 
46700 5.6023132493e+00 1.2431331157e-03 1.5094901144e+00 -2.6145135716e+00 1.5094901144e+00 2.6145135716e+00 
46800 5.6023127667e+00 1.2356369935e-03 1.5094489373e+00 -2.6144422508e+00 1.5094489373e+00 2.6144422508e+00 
46900 5.6023122896e+00 1.2281876471e-03 1.5094080074e+00 -2.6143713582e+00 1.5094080074e+00 2.6143713582e+00 
47000 5.6023118181e+00 1.2207847929e-03 1.5093673232e+00 -2.6143008910e+00 1.5093673232e+00 2.6143008910e+00 
47100 5.6023113521e+00 1.2134281494e-03 1.5093268831e+00 -2.6142308467e+00 1.5093268831e+00 2.6142308467e+00 
47200 5.6023108914e+00 1.2061174366e-03 1.5092866856e+00 -2.6141612226e+00 1.5092866856e+00 2.6141612226e+00 
47300 5.6023104361e+00 1.1988523765e-03 1.5092467292e+00 -2.6140920162e+00 1.5092467292e+00 2.6140920162e+00 
47400 5.6023099860e+00 1.1916326928e-03 1.5092070125e+00 -2.6140232248e+00 1.5092070125e+00 2.6140232248e+00 
47500 5.6023095412e+00 1.1844581107e-03 1.5091675339e+00 -2.6139548458e+00 1.5091675339e+00 2.6139548458e+00 
47600 5.6023091015e+00 1.1773283575e-03 1.5091282920e+00 -2.6138868768e+00 1.5091282920e+00 2.6138868768e+00 
47700 5.6023086669e+00 1.1702431616e-03 1.5090892852e+00 -2.6138193152e+00 1.5090892852e+00 2.6138193152e+00 
47800 5.6023082373e+00 1.1632022533e-03 1.5090505122e+00 -2.6137521584e+00 1.5090505122e+00 2.6137521584e+00 
47900 5.6023078126e+00 1.1562053643e-03 1.5090119715e+00 -2.6136854039e+00 1.5090119715e+00 2.6136854039e+00 
48000 5.6023073929e+00 1.1492522279e-03 1.5089736617e+00 -2.6136190493e+00 1.5089736617e+00 2.6136190493e+00 
48100 5.6023069781e+00 1.1423425787e-03 1.5089355813e+00 -2.6135530921e+00 1.5089355813e+00 2.6135530921e+00 
48200 5.6023065680e+00 1.1354761527e-03 1.5088977288e+00 -2.6134875297e+00 1.5088977288e+00 2.6134875297e+00 
48300 5.6023061626e+00 1.1286526877e-03 1.5088601030e+00 -2.6134223598e+00 1.5088601030e+00 2.6134223598e+00 
48400 5.6023057620e+00 1.1218719223e-03 1.5088227023e+00 -2.6133575799e+00 1.5088227023e+00 2.6133575799e+00 
48500 5.6023053659e+00 1.1151335968e-03 1.5087855254e+00 -2.6132931877e+00 1.5087855254e+00 2.6132931877e+00 
48600 5.6023049745e+00 1.1084374528e-03 1.5087485708e+00 -2.6132291805e+00 1.5087485708e+00 2.6132291805e+00 
48700 5.6023045876e+00 1.1017832329e-03 1.5087118373e+00 -2.6131655562e+00 1.5087118373e+00 2.6131655562e+00 
48800 5.6023042051e+00 1.0951706815e-03 1.5086753234e+00 -2.6131023123e+00 1.5086753234e+00 2.6131023123e+00 
48900 5.6023038270e+00 1.0885995436e-03 1.5086390278e+00 -2.6130394464e+00 1.5086390278e+00 2.6130394464e+00 
49000 5.6023034533e+00 1.0820695660e-03 1.5086029491e+00 -2.6129769563e+00 1.5086029491e+00 2.6129769563e+00 
49100 5.6023030839e+00 1.0755804962e-03 1.5085670859e+00 -2.6129148394e+00 1.5085670859e+00 2.6129148394e+00 
49200 5.6023027188e+00 1.0691320834e-03 1.5085314370e+00 -2.6128530937e+00 1.5085314370e+00 2.6128530937e+00 
49300 5.6023023579e+00 1.0627240775e-03 1.5084960009e+00 -2.6127917166e+00 1.5084960009e+00 2.6127917166e+00 
49400 5.6023020011e+00 1.0563562299e-03 1.5084607765e+00 -2.6127307060e+00 1.5084607765e+00 2.6127307060e+00 
49500 5.6023016485e+00 1.0500282930e-03 1.5084257622e+00 -2.6126700596e+00 1.5084257622e+00 2.6126700596e+00 
49600 5.6023012999e+00 1.0437400202e-03 1.5083909569e+00 -2.6126097750e+00 1.5083909569e+00 2.6126097750e+00 
49700 5.6023009553e+00 1.0374911662e-03 1.5083563592e+00 -2.6125498501e+00 1.5083563592e+00 2.6125498501e+00 
49800 5.6023006147e+00 1.0312814869e-03 1.5083219679e+00 -2.6124902826e+00 1.5083219679e+00 2.6124902826e+00 
49900 5.6023002780e+00 1.0251107391e-03 1.5082877817e+00 -2.6124310703e+00 1.5082877817e+00 2.6124310703e+00 
50000 5.6022999452e+00 1.0189786806e-03 1.5082537992e+00 -2.6123722109e+00 1.5082537992e+00 2.6123722109e+00 
50100 5.6022996162e+00 1.0128850706e-03 1.5082200193e+00 -2.6123137023e+00 1.5082200193e+00 2.6123137023e+00 
50200 5.6022992910e+00 1.0068296691e-03 1.5081864406e+00 -2.6122555423e+00 1.5081864406e+00 2.6122555423e+00 
50300 5.6022989696e+00 1.0008122374e-03 1.5081530619e+00 -2.6121977287e+00 1.5081530619e+00 2.6121977287e+00 
50400 5.6022986519e+00 9.9483253755e-04 1.5081198819e+00 -2.6121402594e+00 1.5081198819e+00 2.6121402594e+00 
50500 5.6022983378e+00 9.8889033298e-04 1.5080868995e+00 -2.6120831322e+00 1.5080868995e+00 2.6120831322e+00 
50600 5.6022980273e+00 9.8298538800e-04 1.5080541134e+00 -2.6120263449e+00 1.5080541134e+00 2.6120263449e+00 
50700 5.6022977204e+00 9.7711746800e-04 1.5080215223e+00 -2.6119698955e+00 1.5080215223e+00 2.6119698955e+00 
50800 5.6022974170e+00 9.7128633944e-04 1.5079891251e+00 -2.6119137819e+00 1.5079891251e+00 2.6119137819e+00 
50900 5.6022971171e+00 9.6549176980e-04 1.5079569205e+00 -2.6118580019e+00 1.5079569205e+00 2.6118580019e+00 
51000 5.6022968207e+00 9.5973352764e-04 1.5079249074e+00 -2.6118025536e+00 1.5079249074e+00 2.6118025536e+00 
51100 5.6022965276e+00 9.5401138254e-04 1.5078930845e+00 -2.6117474347e+00 1.5078930845e+00 2.6117474347e+00 
51200 5.6022962379e+00 9.4832510512e-04 1.5078614507e+00 -2.6116926434e+00 1.5078614507e+00 2.6116926434e+00 
51300 5.6022959516e+00 9.4267446707e-04 1.5078300048e+00 -2.6116381774e+00 1.5078300048e+00 2.6116381774e+00 
51400 5.6022956685e+00 9.3705924110e-04 1.5077987456e+00 -2.6115840349e+00 1.5077987456e+00 2.6115840349e+00 
51500 5.6022953887e+00 9.3147920100e-04 1.5077676719e+00 -2.6115302138e+00 1.5077676719e+00 2.6115302138e+00 
51600 5.6022951122e+00 9.2593412157e-04 1.5077367827e+00 -2.6114767121e+00 1.5077367827e+00 2.6114767121e+00 
51700 5.6022948387e+00 9.2042377868e-04 1.5077060767e+00 -2.6114235277e+00 1.5077060767e+00 2.6114235277e+00 
51800 5.6022945685e+00 9.1494794925e-04 1.5076755528e+00 -2.6113706588e+00 1.5076755528e+00 2.6113706588e+00 
51900 5.6022943013e+00 9.0950641126e-04 1.5076452099e+00 -2.6113181034e+00 1.5076452099e+00 2.6113181034e+00 
52000 5.6022940372e+00 9.0409894374e-04 1.5076150469e+00 -2.6112658595e+00 1.5076150469e+00 2.6112658595e+00 
52100 5.6022937761e+00 8.9872532678e-04 1.5075850626e+00 -2.6112139251e+00 1.5075850626e+00 2.6112139251e+00 
52200 5.6022935180e+00 8.9338534154e-04 1.5075552559e+00 -2.6111622984e+00 1.5075552559e+00 2.6111622984e+00 
52300 5.6022932629e+00 8.8807877023e-04 1.5075256257e+00 -2.6111109774e+00 1.5075256257e+00 2.6111109774e+00 
52400 5.6022930107e+00 8.8280539615e-04 1.5074961710e+00 -2.6110599603e+00 1.5074961710e+00 2.6110599603e+00 
52500 5.6022927614e+00 8.7756500367e-04 1.5074668905e+00 -2.6110092451e+00 1.5074668905e+00 2.6110092451e+00 
52600 5.6022925149e+00 8.7235737822e-04 1.5074377834e+00 -2.6109588300e+00 1.5074377834e+00 2.6109588300e+00 
52700 5.6022922713e+00 8.6718230633e-04 1.5074088483e+00 -2.6109087131e+00 1.5074088483e+00 2.6109087131e+00 
52800 5.6022920304e+00 8.6203957560e-04 1.5073800844e+00 -2.6108588926e+00 1.5073800844e+00 2.6108588926e+00 
52900 5.6022917924e+00 8.5692897473e-04 1.5073514906e+00 -2.6108093665e+00 1.5073514906e+00 2.6108093665e+00 
53000 5.6022915570e+00 8.5185029351e-04 1.5073230657e+00 -2.6107601331e+00 1.5073230657e+00 2.6107601331e+00 
53100 5.6022913244e+00 8.4680332282e-04 1.5072948087e+00 -2.6107111906e+00 1.5072948087e+00 2.6107111906e+00 
53200 5.6022910944e+00 8.4178785465e-04 1.5072667186e+00 -2.6106625372e+00 1.5072667186e+00 2.6106625372e+00 
53300 5.6022908670e+00 8.3680368208e-04 1.5072387944e+00 -2.6106141710e+00 1.5072387944e+00 2.6106141710e+00 
53400 5.6022906423e+00 8.3185059932e-04 1.5072110350e+00 -2.6105660903e+00 1.5072110350e+00 2.6105660903e+00 
53500 5.6022904201e+00 8.2692840166e-04 1.5071834394e+00 -2.6105182933e+00 1.5071834394e+00 2.6105182933e+00 
53600 5.6022902005e+00 8.2203688554e-04 1.5071560065e+00 -2.6104707783e+00 1.5071560065e+00 2.6104707783e+00 
53700 5.6022899833e+00 8.1717584850e-04 1.5071287355e+00 -2.6104235434e+00 1.5071287355e+00 2.6104235434e+00 
53800 5.6022897687e+00 8.1234508920e-04 1.5071016252e+00 -2.6103765871e+00 1.5071016252e+00 2.6103765871e+00 
53900 5.6022895565e+00 8.0754440744e-04 1.5070746747e+00 -2.6103299074e+00 1.5070746747e+00 2.6103299074e+00 
54000 5.6022893468e+00 8.0277360414e-04 1.5070478830e+00 -2.6102835028e+00 1.5070478830e+00 2.6102835028e+00 
54100 5.6022891394e+00 7.9803248135e-04 1.5070212491e+00 -2.6102373716e+00 1.5070212491e+00 2.6102373716e+00 
54200 5.6022889344e+00 7.9332084227e-04 1.5069947721e+00 -2.6101915119e+00 1.5069947721e+00 2.6101915119e+00 
54300 5.6022887318e+00 7.8863849123e-04 1.5069684508e+00 -2.6101459223e+00 1.5069684508e+00 2.6101459223e+00 
54400 5.6022885315e+00 7.8398523370e-04 1.5069422845e+00 -2.6101006009e+00 1.5069422845e+00 2.6101006009e+00 
54500 5.6022883334e+00 7.7936087630e-04 1.5069162722e+00 -2.6100555461e+00 1.5069162722e+00 2.6100555461e+00 
54600 5.6022881376e+00 7.7476522679e-04 1.5068904128e+00 -2.6100107563e+00 1.5068904128e+00 2.6100107563e+00 
54700 5.6022879441e+00 7.7019809409e-04 1.5068647054e+00 -2.6099662299e+00 1.5068647054e+00 2.6099662299e+00 
54800 5.6022877528e+00 7.6565928826e-04 1.5068391492e+00 -2.6099219652e+00 1.5068391492e+00 2.6099219652e+00 
54900 5.6022875637e+00 7.6114862053e-04 1.5068137431e+00 -2.6098779606e+00 1.5068137431e+00 2.6098779606e+00 
55000 5.6022873767e+00 7.5666590326e-04 1.5067884863e+00 -2.6098342145e+00 1.5067884863e+00 2.6098342145e+00 
55100 5.6022871918e+00 7.5221095000e-04 1.5067633778e+00 -2.6097907253e+00 1.5067633778e+00 2.6097907253e+00 
55200 5.6022870091e+00 7.4778357542e-04 1.5067384167e+00 -2.6097474915e+00 1.5067384167e+00 2.6097474915e+00 
55300 5.6022868285e+00 7.4338359539e-04 1.5067136021e+00 -2.6097045114e+00 1.5067136021e+00 2.6097045114e+00 
55400 5.6022866499e+00 7.3901082690e-04 1.5066889332e+00 -2.6096617834e+00 1.5066889332e+00 2.6096617834e+00 
55500 5.6022864733e+00 7.3466508814e-04 1.5066644089e+00 -2.6096193062e+00 1.5066644089e+00 2.6096193062e+00 
55600 5.6022862988e+00 7.3034619844e-04 1.5066400284e+00 -2.6095770780e+00 1.5066400284e+00 2.6095770780e+00 
55700 5.6022861263e+00 7.2605397828e-04 1.5066157909e+00 -2.6095350974e+00 1.5066157909e+00 2.6095350974e+00 
55800 5.6022859557e+00 7.2178824934e-04 1.5065916955e+00 -2.6094933628e+00 1.5065916955e+00 2.6094933628e+00 
55900 5.6022857871e+00 7.1754883443e-04 1.5065677412e+00 -2.6094518728e+00 1.5065677412e+00 2.6094518728e+00 
56000 5.6022856204e+00 7.1333555754e-04 1.5065439272e+00 -2.6094106258e+00 1.5065439272e+00 2.6094106258e+00 
56100 5.6022854556e+00 7.0914824380e-04 1.5065202527e+00 -2.6093696203e+00 1.5065202527e+00 2.6093696203e+00 
56200 5.6022852927e+00 7.0498671952e-04 1.5064967168e+00 -2.6093288550e+00 1.5064967168e+00 2.6093288550e+00 
56300 5.6022851316e+00 7.0085081217e-04 1.5064733187e+00 -2.6092883282e+00 1.5064733187e+00 2.6092883282e+00 
56400 5.6022849724e+00 6.9674035038e-04 1.5064500574e+00 -2.6092480385e+00 1.5064500574e+00 2.6092480385e+00 
56500 5.6022848150e+00 6.9265516391e-04 1.5064269322e+00 -2.6092079845e+00 1.5064269322e+00 2.6092079845e+00 
56600 5.6022846594e+00 6.8859508371e-04 1.5064039423e+00 -2.6091681648e+00 1.5064039423e+00 2.6091681648e+00 
56700 5.6022845055e+00 6.8455994187e-04 1.5063810868e+00 -2.6091285778e+00 1.5063810868e+00 2.6091285778e+00 
56800 5.6022843534e+00 6.8054957163e-04 1.5063583648e+00 -2.6090892223e+00 1.5063583648e+00 2.6090892223e+00 
56900 5.6022842031e+00 6.7656380738e-04 1.5063357756e+00 -2.6090500967e+00 1.5063357756e+00 2.6090500967e+00 
57000 5.6022840544e+00 6.7260248466e-04 1.5063133184e+00 -2.6090111996e+00 1.5063133184e+00 2.6090111996e+00 
57100 5.6022839075e+00 6.6866544016e-04 1.5062909924e+00 -2.6089725297e+00 1.5062909924e+00 2.6089725297e+00 
57200 5.6022837622e+00 6.6475251170e-04 1.5062687967e+00 -2.6089340857e+00 1.5062687967e+00 2.6089340857e+00 
57300 5.6022836186e+00 6.6086353825e-04 1.5062467305e+00 -2.6088958660e+00 1.5062467305e+00 2.6088958660e+00 
57400 5.6022834766e+00 6.5699835990e-04 1.5062247931e+00 -2.6088578693e+00 1.5062247931e+00 2.6088578693e+00 
57500 5.6022833363e+00 6.5315681789e-04 1.5062029837e+00 -2.6088200944e+00 1.5062029837e+00 2.6088200944e+00 
57600 5.6022831975e+00 6.4933875459e-04 1.5061813016e+00 -2.6087825397e+00 1.5061813016e+00 2.6087825397e+00 
57700 5.6022830603e+00 6.4554401347e-04 1.5061597458e+00 -2.6087452041e+00 1.5061597458e+00 2.6087452041e+00 
57800 5.6022829247e+00 6.4177243915e-04 1.5061383157e+00 -2.6087080861e+00 1.5061383157e+00 2.6087080861e+00 
57900 5.6022827906e+00 6.3802387735e-04 1.5061170106e+00 -2.6086711844e+00 1.5061170106e+00 2.6086711844e+00 
58000 5.6022826580e+00 6.3429817491e-04 1.5060958295e+00 -2.6086344978e+00 1.5060958295e+00 2.6086344978e+00 
58100 5.6022825270e+00 6.3059517977e-04 1.5060747719e+00 -2.6085980249e+00 1.5060747719e+00 2.6085980249e+00 
58200 5.6022823974e+00 6.2691474099e-04 1.5060538369e+00 -2.6085617644e+00 1.5060538369e+00 2.6085617644e+00 
58300 5.6022822693e+00 6.2325670872e-04 1.5060330238e+00 -2.6085257150e+00 1.5060330238e+00 2.6085257150e+00 
58400 5.6022821427e+00 6.1962093419e-04 1.5060123318e+00 -2.6084898755e+00 1.5060123318e+00 2.6084898755e+00 
58500 5.6022820175e+00 6.1600726975e-04 1.5059917603e+00 -2.6084542446e+00 1.5059917603e+00 2.6084542446e+00 
58600 5.6022818938e+00 6.1241556880e-04 1.5059713084e+00 -2.6084188210e+00 1.5059713084e+00 2.6084188210e+00 
58700 5.6022817714e+00 6.0884568585e-04 1.5059509756e+00 -2.6083836034e+00 1.5059509756e+00 2.6083836034e+00 
58800 5.6022816504e+00 6.0529747646e-04 1.5059307610e+00 -2.6083485907e+00 1.5059307610e+00 2.6083485907e+00 
58900 5.6022815308e+00 6.0177079726e-04 1.5059106639e+00 -2.6083137815e+00 1.5059106639e+00 2.6083137815e+00 
59000 5.6022814126e+00 5.9826550596e-04 1.5058906836e+00 -2.6082791747e+00 1.5058906836e+00 2.6082791747e+00 
59100 5.6022812957e+00 5.9478146131e-04 1.5058708195e+00 -2.6082447690e+00 1.5058708195e+00 2.6082447690e+00 
59200 5.6022811802e+00 5.9131852312e-04 1.5058510708e+00 -2.6082105633e+00 1.5058510708e+00 2.6082105633e+00 
59300 5.6022810659e+00 5.8787655222e-04 1.5058314368e+00 -2.6081765562e+00 1.5058314368e+00 2.6081765562e+00 
59400 5.6022809530e+00 5.8445541052e-04 1.5058119169e+00 -2.6081427466e+00 1.5058119169e+00 2.6081427466e+00 
59500 5.6022808413e+00 5.8105496092e-04 1.5057925102e+00 -2.6081091334e+00 1.5057925102e+00 2.6081091334e+00 
59600 5.6022807309e+00 5.7767506738e-04 1.5057732163e+00 -2.6080757153e+00 1.5057732163e+00 2.6080757153e+00 
59700 5.6022806218e+00 5.7431559485e-04 1.5057540343e+00 -2.6080424912e+00 1.5057540343e+00 2.6080424912e+00 
59800 5.6022805139e+00 5.7097640931e-04 1.5057349637e+00 -2.6080094598e+00 1.5057349637e+00 2.6080094598e+00 
59900 5.6022804072e+00 5.6765737774e-04 1.5057160037e+00 -2.6079766201e+00 1.5057160037e+00 2.6079766201e+00 
60000 5.6022803017e+00 5.6435836812e-04 1.5056971536e+00 -2.6079439709e+00 1.5056971536e+00 2.6079439709e+00 
60100 5.6022801975e+00 5.6107924944e-04 1.5056784129e+00 -2.6079115110e+00 1.5056784129e+00 2.6079115110e+00 
60200 5.6022800944e+00 5.5781989163e-04 1.5056597808e+00 -2.6078792393e+00 1.5056597808e+00 2.6078792393e+00 
60300 5.6022799925e+00 5.5458016566e-04 1.5056412568e+00 -2.6078471547e+00 1.5056412568e+00 2.6078471547e+00 
60400 5.6022798917e+00 5.5135994341e-04 1.5056228400e+00 -2.6078152560e+00 1.5056228400e+00 2.6078152560e+00 
60500 5.6022797921e+00 5.4815909777e-04 1.5056045301e+00 -2.6077835422e+00 1.5056045301e+00 2.6077835422e+00 
60600 5.6022796936e+00 5.4497750258e-04 1.5055863261e+00 -2.6077520121e+00 1.5055863261e+00 2.6077520121e+00 
60700 5.6022795962e+00 5.4181503261e-04 1.5055682277e+00 -2.6077206646e+00 1.5055682277e+00 2.6077206646e+00 
60800 5.6022795000e+00 5.3867156360e-04 1.5055502340e+00 -2.6076894986e+00 1.5055502340e+00 2.6076894986e+00 
60900 5.6022794048e+00 5.3554697221e-04 1.5055323445e+00 -2.6076585131e+00 1.5055323445e+00 2.6076585131e+00 
61000 5.6022793107e+00 5.3244113603e-04 1.5055145586e+00 -2.6076277070e+00 1.5055145586e+00 2.6076277070e+00 
61100 5.6022792177e+00 5.2935393358e-04 1.5054968756e+00 -2.6075970791e+00 1.5054968756e+00 2.6075970791e+00 
61200 5.6022791257e+00 5.2628524430e-04 1.5054792949e+00 -2.6075666285e+00 1.5054792949e+00 2.6075666285e+00 
61300 5.6022790348e+00 5.2323494851e-04 1.5054618159e+00 -2.6075363541e+00 1.5054618159e+00 2.6075363541e+00 
61400 5.6022789449e+00 5.2020292747e-04 1.5054444381e+00 -2.6075062547e+00 1.5054444381e+00 2.6075062547e+00 
61500 5.6022788560e+00 5.1718906331e-04 1.5054271607e+00 -2.6074763295e+00 1.5054271607e+00 2.6074763295e+00 
61600 5.6022787682e+00 5.1419323903e-04 1.5054099833e+00 -2.6074465773e+00 1.5054099833e+00 2.6074465773e+00 
61700 5.6022786813e+00 5.1121533856e-04 1.5053929051e+00 -2.6074169970e+00 1.5053929051e+00 2.6074169970e+00 
61800 5.6022785954e+00 5.0825524665e-04 1.5053759257e+00 -2.6073875878e+00 1.5053759257e+00 2.6073875878e+00 
61900 5.6022785105e+00 5.0531284893e-04 1.5053590444e+00 -2.6073583485e+00 1.5053590444e+00 2.6073583485e+00 
62000 5.6022784265e+00 5.0238803190e-04 1.5053422606e+00 -2.6073292782e+00 1.5053422606e+00 2.6073292782e+00 
62100 5.6022783435e+00 4.9948068291e-04 1.5053255738e+00 -2.6073003758e+00 1.5053255738e+00 2.6073003758e+00 
62200 5.6022782615e+00 4.9659069012e-04 1.5053089834e+00 -2.6072716403e+00 1.5053089834e+00 2.6072716403e+00 
62300 5.6022781804e+00 4.9371794257e-04 1.5052924888e+00 -2.6072430708e+00 1.5052924888e+00 2.6072430708e+00 
62400 5.6022781002e+00 4.9086233009e-04 1.5052760894e+00 -2.6072146663e+00 1.5052760894e+00 2.6072146663e+00 
62500 5.6022780208e+00 4.8802374335e-04 1.5052597847e+00 -2.6071864257e+00 1.5052597847e+00 2.6071864257e+00 
62600 5.6022779424e+00 4.8520207384e-04 1.5052435741e+00 -2.6071583482e+00 1.5052435741e+00 2.6071583482e+00 
62700 5.6022778649e+00 4.8239721384e-04 1.5052274571e+00 -2.6071304326e+00 1.5052274571e+00 2.6071304326e+00 
62800 5.6022777883e+00 4.7960905643e-04 1.5052114331e+00 -2.6071026782e+00 1.5052114331e+00 2.6071026782e+00 
62900 5.6022777125e+00 4.7683749549e-04 1.5051955015e+00 -2.6070750839e+00 1.5051955015e+00 2.6070750839e+00 
63000 5.6022776376e+00 4.7408242569e-04 1.5051796618e+00 -2.6070476487e+00 1.5051796618e+00 2.6070476487e+00 
63100 5.6022775636e+00 4.7134374246e-04 1.5051639134e+00 -2.6070203718e+00 1.5051639134e+00 2.6070203718e+00 
63200 5.6022774903e+00 4.6862134201e-04 1.5051482559e+00 -2.6069932522e+00 1.5051482559e+00 2.6069932522e+00 
63300 5.6022774179e+00 4.6591512132e-04 1.5051326887e+00 -2.6069662889e+00 1.5051326887e+00 2.6069662889e+00 
63400 5.6022773464e+00 4.6322497812e-04 1.5051172111e+00 -2.6069394810e+00 1.5051172111e+00 2.6069394810e+00 
63500 5.6022772756e+00 4.6055081089e-04 1.5051018228e+00 -2.6069128277e+00 1.5051018228e+00 2.6069128277e+00 
63600 5.6022772056e+00 4.5789251886e-04 1.5050865232e+00 -2.6068863280e+00 1.5050865232e+00 2.6068863280e+00 
63700 5.6022771365e+00 4.5525000198e-04 1.5050713117e+00 -2.6068599809e+00 1.5050713117e+00 2.6068599809e+00 
63800 5.6022770681e+00 4.5262316095e-04 1.5050561879e+00 -2.6068337857e+00 1.5050561879e+00 2.6068337857e+00 
63900 5.6022770004e+00 4.5001189717e-04 1.5050411512e+00 -2.6068077413e+00 1.5050411512e+00 2.6068077413e+00 
64000 5.6022769336e+00 4.4741611279e-04 1.5050262010e+00 -2.6067818469e+00 1.5050262010e+00 2.6067818469e+00 
64100 5.6022768675e+00 4.4483571062e-04 1.5050113370e+00 -2.6067561016e+00 1.5050113370e+00 2.6067561016e+00 
64200 5.6022768022e+00 4.4227059422e-04 1.5049965585e+00 -2.6067305046e+00 1.5049965585e+00 2.6067305046e+00 
64300 5.6022767375e+00 4.3972066783e-04 1.5049818651e+00 -2.6067050549e+00 1.5049818651e+00 2.6067050549e+00 
64400 5.6022766737e+00 4.3718583636e-04 1.5049672563e+00 -2.6066797517e+00 1.5049672563e+00 2.6066797517e+00 
64500 5.6022766105e+00 4.3466600544e-04 1.5049527316e+00 -2.6066545941e+00 1.5049527316e+00 2.6066545941e+00 
64600 5.6022765481e+00 4.3216108134e-04 1.5049382904e+00 -2.6066295813e+00 1.5049382904e+00 2.6066295813e+00 
64700 5.6022764863e+00 4.2967097103e-04 1.5049239324e+00 -2.6066047124e+00 1.5049239324e+00 2.6066047124e+00 
64800 5.6022764253e+00 4.2719558213e-04 1.5049096569e+00 -2.6065799865e+00 1.5049096569e+00 2.6065799865e+00 
64900 5.6022763649e+00 4.2473482292e-04 1.5048954635e+00 -2.6065554029e+00 1.5048954635e+00 2.6065554029e+00 
65000 5.6022763053e+00 4.2228860233e-04 1.5048813517e+00 -2.6065309606e+00 1.5048813517e+00 2.6065309606e+00 
65100 5.6022762463e+00 4.1985682994e-04 1.5048673211e+00 -2.6065066589e+00 1.5048673211e+00 2.6065066589e+00 
65200 5.6022761880e+00 4.1743941597e-04 1.5048533712e+00 -2.6064824969e+00 1.5048533712e+00 2.6064824969e+00 
65300 5.6022761303e+00 4.1503627128e-04 1.5048395014e+00 -2.6064584737e+00 1.5048395014e+00 2.6064584737e+00 
65400 5.6022760733e+00 4.1264730734e-04 1.5048257114e+00 -2.6064345887e+00 1.5048257114e+00 2.6064345887e+00 
65500 5.6022760169e+00 4.1027243626e-04 1.5048120006e+00 -2.6064108409e+00 1.5048120006e+00 2.6064108409e+00 
65600 5.6022759612e+00 4.0791157077e-04 1.5047983686e+00 -2.6063872296e+00 1.5047983686e+00 2.6063872296e+00 
65700 5.6022759061e+00 4.0556462418e-04 1.5047848150e+00 -2.6063637540e+00 1.5047848150e+00 2.6063637540e+00 
65800 5.6022758516e+00 4.0323151044e-04 1.5047713392e+00 -2.6063404132e+00 1.5047713392e+00 2.6063404132e+00 
65900 5.6022757977e+00 4.0091214409e-04 1.5047579407e+00 -2.6063172065e+00 1.5047579407e+00 2.6063172065e+00 
66000 5.6022757445e+00 3.9860644025e-04 1.5047446193e+00 -2.6062941330e+00 1.5047446193e+00 2.6062941330e+00 
66100 5.6022756918e+00 3.9631431464e-04 1.5047313743e+00 -2.6062711921e+00 1.5047313743e+00 2.6062711921e+00 
66200 5.6022756398e+00 3.9403568357e-04 1.5047182054e+00 -2.6062483828e+00 1.5047182054e+00 2.6062483828e+00 
66300 5.6022755883e+00 3.9177046391e-04 1.5047051121e+00 -2.6062257045e+00 1.5047051121e+00 2.6062257045e+00 
66400 5.6022755374e+00 3.8951857312e-04 1.5046920939e+00 -2.6062031564e+00 1.5046920939e+00 2.6062031564e+00 
66500 5.6022754871e+00 3.8727992922e-04 1.5046791505e+00 -2.6061807377e+00 1.5046791505e+00 2.6061807377e+00 
66600 5.6022754374e+00 3.8505445080e-04 1.5046662813e+00 -2.6061584476e+00 1.5046662813e+00 2.6061584476e+00 
66700 5.6022753882e+00 3.8284205698e-04 1.5046534860e+00 -2.6061362855e+00 1.5046534860e+00 2.6061362855e+00 
66800 5.6022753395e+00 3.8064266746e-04 1.5046407641e+00 -2.6061142505e+00 1.5046407641e+00 2.6061142505e+00 
66900 5.6022752915e+00 3.7845620248e-04 1.5046281151e+00 -2.6060923419e+00 1.5046281151e+00 2.6060923419e+00 
67000 5.6022752439e+00 3.7628258283e-04 1.5046155387e+00 -2.6060705589e+00 1.5046155387e+00 2.6060705589e+00 
67100 5.6022751969e+00 3.7412172982e-04 1.5046030345e+00 -2.6060489009e+00 1.5046030345e+00 2.6060489009e+00 
67200 5.6022751504e+00 3.7197356529e-04 1.5045906019e+00 -2.6060273671e+00 1.5045906019e+00 2.6060273671e+00 
67300 5.6022751045e+00 3.6983801164e-04 1.5045782406e+00 -2.6060059568e+00 1.5045782406e+00 2.6060059568e+00 
67400 5.6022750591e+00 3.6771499176e-04 1.5045659502e+00 -2.6059846692e+00 1.5045659502e+00 2.6059846692e+00 
67500 5.6022750142e+00 3.6560442908e-04 1.5045537303e+00 -2.6059635036e+00 1.5045537303e+00 2.6059635036e+00 
67600 5.6022749697e+00 3.6350624752e-04 1.5045415804e+00 -2.6059424593e+00 1.5045415804e+00 2.6059424593e+00 
67700 5.6022749258e+00 3.6142037154e-04 1.5045295001e+00 -2.6059215356e+00 1.5045295001e+00 2.6059215356e+00 
67800 5.6022748824e+00 3.5934672608e-04 1.5045174890e+00 -2.6059007319e+00 1.5045174890e+00 2.6059007319e+00 
67900 5.6022748395e+00 3.5728523659e-04 1.5045055468e+00 -2.6058800473e+00 1.5045055468e+00 2.6058800473e+00 
68000 5.6022747971e+00 3.5523582902e-04 1.5044936730e+00 -2.6058594812e+00 1.5044936730e+00 2.6058594812e+00 
68100 5.6022747551e+00 3.5319842981e-04 1.5044818672e+00 -2.6058390330e+00 1.5044818672e+00 2.6058390330e+00 
68200 5.6022747136e+00 3.5117296589e-04 1.5044701290e+00 -2.6058187018e+00 1.5044701290e+00 2.6058187018e+00 
68300 5.6022746726e+00 3.4915936466e-04 1.5044584580e+00 -2.6057984871e+00 1.5044584580e+00 2.6057984871e+00 
68400 5.6022746320e+00 3.4715755402e-04 1.5044468538e+00 -2.6057783882e+00 1.5044468538e+00 2.6057783882e+00 
68500 5.6022745919e+00 3.4516746234e-04 1.5044353162e+00 -2.6057584043e+00 1.5044353162e+00 2.6057584043e+00 
68600 5.6022745523e+00 3.4318901844e-04 1.5044238445e+00 -2.6057385348e+00 1.5044238445e+00 2.6057385348e+00 
68700 5.6022745131e+00 3.4122215164e-04 1.5044124385e+00 -2.6057187791e+00 1.5044124385e+00 2.6057187791e+00 
68800 5.6022744743e+00 3.3926679171e-04 1.5044010978e+00 -2.6056991364e+00 1.5044010978e+00 2.6056991364e+00 
68900 5.6022744360e+00 3.3732286887e-04 1.5043898220e+00 -2.6056796061e+00 1.5043898220e+00 2.6056796061e+00 
69000 5.6022743981e+00 3.3539031381e-04 1.5043786108e+00 -2.6056601877e+00 1.5043786108e+00 2.6056601877e+00 
69100 5.6022743607e+00 3.3346905766e-04 1.5043674636e+00 -2.6056408803e+00 1.5043674636e+00 2.6056408803e+00 
69200 5.6022743236e+00 3.3155903203e-04 1.5043563803e+00 -2.6056216833e+00 1.5043563803e+00 2.6056216833e+00 
69300 5.6022742870e+00 3.2966016892e-04 1.5043453603e+00 -2.6056025962e+00 1.5043453603e+00 2.6056025962e+00 
69400 5.6022742508e+00 3.2777240083e-04 1.5043344034e+00 -2.6055836183e+00 1.5043344034e+00 2.6055836183e+00 
69500 5.6022742150e+00 3.2589566065e-04 1.5043235092e+00 -2.6055647489e+00 1.5043235092e+00 2.6055647489e+00 
69600 5.6022741796e+00 3.2402988174e-04 1.5043126772e+00 -2.6055459874e+00 1.5043126772e+00 2.6055459874e+00 
69700 5.6022741446e+00 3.2217499787e-04 1.5043019072e+00 -2.6055273332e+00 1.5043019072e+00 2.6055273332e+00 
69800 5.6022741100e+00 3.2033094325e-04 1.5042911987e+00 -2.6055087856e+00 1.5042911987e+00 2.6055087856e+00 
69900 5.6022740758e+00 3.1849765250e-04 1.5042805515e+00 -2.6054903441e+00 1.5042805515e+00 2.6054903441e+00 
70000 5.6022740420e+00 3.1667506067e-04 1.5042699652e+00 -2.6054720080e+00 1.5042699652e+00 2.6054720080e+00 
70100 5.6022740085e+00 3.1486310322e-04 1.5042594393e+00 -2.6054537766e+00 1.5042594393e+00 2.6054537766e+00 
70200 5.6022739754e+00 3.1306171605e-04 1.5042489736e+00 -2.6054356495e+00 1.5042489736e+00 2.6054356495e+00 
70300 5.6022739428e+00 3.1127083544e-04 1.5042385677e+00 -2.6054176259e+00 1.5042385677e+00 2.6054176259e+00 
70400 5.6022739104e+00 3.0949039809e-04 1.5042282212e+00 -2.6053997054e+00 1.5042282212e+00 2.6053997054e+00 
70500 5.6022738785e+00 3.0772034110e-04 1.5042179339e+00 -2.6053818872e+00 1.5042179339e+00 2.6053818872e+00 
70600 5.6022738469e+00 3.0596060198e-04 1.5042077053e+00 -2.6053641708e+00 1.5042077053e+00 2.6053641708e+00 
70700 5.6022738156e+00 3.0421111864e-04 1.5041975352e+00 -2.6053465556e+00 1.5041975352e+00 2.6053465556e+00 
70800 5.6022737847e+00 3.0247182938e-04 1.5041874231e+00 -2.6053290410e+00 1.5041874231e+00 2.6053290410e+00 
70900 5.6022737542e+00 3.0074267288e-04 1.5041773688e+00 -2.6053116264e+00 1.5041773688e+00 2.6053116264e+00 
71000 5.6022737240e+00 2.9902358824e-04 1.5041673719e+00 -2.6052943112e+00 1.5041673719e+00 2.6052943112e+00 
71100 5.6022736941e+00 2.9731451492e-04 1.5041574321e+00 -2.6052770949e+00 1.5041574321e+00 2.6052770949e+00 
71200 5.6022736646e+00 2.9561539278e-04 1.5041475490e+00 -2.6052599769e+00 1.5041475490e+00 2.6052599769e+00 
71300 5.6022736354e+00 2.9392616205e-04 1.5041377223e+00 -2.6052429567e+00 1.5041377223e+00 2.6052429567e+00 
71400 5.6022736065e+00 2.9224676334e-04 1.5041279518e+00 -2.6052260335e+00 1.5041279518e+00 2.6052260335e+00 
71500 5.6022735779e+00 2.9057713764e-04 1.5041182369e+00 -2.6052092070e+00 1.5041182369e+00 2.6052092070e+00 
71600 5.6022735497e+00 2.8891722632e-04 1.5041085776e+00 -2.6051924765e+00 1.5041085776e+00 2.6051924765e+00 
71700 5.6022735218e+00 2.8726697111e-04 1.5040989733e+00 -2.6051758414e+00 1.5040989733e+00 2.6051758414e+00 
71800 5.6022734942e+00 2.8562631410e-04 1.5040894239e+00 -2.6051593012e+00 1.5040894239e+00 2.6051593012e+00 
71900 5.6022734670e+00 2.8399519776e-04 1.5040799289e+00 -2.6051428554e+00 1.5040799289e+00 2.6051428554e+00 
72000 5.6022734400e+00 2.8237356492e-04 1.5040704881e+00 -2.6051265035e+00 1.5040704881e+00 2.6051265035e+00 
72100 5.6022734133e+00 2.8076135875e-04 1.5040611011e+00 -2.6051102448e+00 1.5040611011e+00 2.6051102448e+00 
72200 5.6022733869e+00 2.7915852282e-04 1.5040517677e+00 -2.6050940788e+00 1.5040517677e+00 2.6050940788e+00 
72300 5.6022733609e+00 2.7756500100e-04 1.5040424874e+00 -2.6050780050e+00 1.5040424874e+00 2.6050780050e+00 
72400 5.6022733351e+00 2.7598073756e-04 1.5040332602e+00 -2.6050620229e+00 1.5040332602e+00 2.6050620229e+00 
72500 5.6022733096e+00 2.7440567708e-04 1.5040240855e+00 -2.6050461318e+00 1.5040240855e+00 2.6050461318e+00 
72600 5.6022732844e+00 2.7283976452e-04 1.5040149631e+00 -2.6050303314e+00 1.5040149631e+00 2.6050303314e+00 
72700 5.6022732595e+00 2.7128294517e-04 1.5040058927e+00 -2.6050146211e+00 1.5040058927e+00 2.6050146211e+00 
72800 5.6022732349e+00 2.6973516466e-04 1.5039968741e+00 -2.6049990003e+00 1.5039968741e+00 2.6049990003e+00 
72900 5.6022732105e+00 2.6819636896e-04 1.5039879068e+00 -2.6049834685e+00 1.5039879068e+00 2.6049834685e+00 
73000 5.6022731864e+00 2.6666650439e-04 1.5039789906e+00 -2.6049680253e+00 1.5039789906e+00 2.6049680253e+00 
73100 5.6022731626e+00 2.6514551758e-04 1.5039701253e+00 -2.6049526700e+00 1.5039701253e+00 2.6049526700e+00 
73200 5.6022731390e+00 2.6363335553e-04 1.5039613104e+00 -2.6049374023e+00 1.5039613104e+00 2.6049374023e+00 
73300 5.6022731158e+00 2.6212996553e-04 1.5039525458e+00 -2.6049222215e+00 1.5039525458e+00 2.6049222215e+00 
73400 5.6022730927e+00 2.6063529522e-04 1.5039438311e+00 -2.6049071272e+00 1.5039438311e+00 2.6049071272e+00 
73500 5.6022730700e+00 2.5914929258e-04 1.5039351661e+00 -2.6048921189e+00 1.5039351661e+00 2.6048921189e+00 
73600 5.6022730475e+00 2.5767190588e-04 1.5039265504e+00 -2.6048771961e+00 1.5039265504e+00 2.6048771961e+00 
73700 5.6022730252e+00 2.5620308375e-04 1.5039179837e+00 -2.6048623582e+00 1.5039179837e+00 2.6048623582e+00 
73800 5.6022730032e+00 2.5474277510e-04 1.5039094659e+00 -2.6048476049e+00 1.5039094659e+00 2.6048476049e+00 
73900 5.6022729815e+00 2.5329092918e-04 1.5039009965e+00 -2.6048329355e+00 1.5039009965e+00 2.6048329355e+00 
74000 5.6022729600e+00 2.5184749556e-04 1.5038925754e+00 -2.6048183497e+00 1.5038925754e+00 2.6048183497e+00 
74100 5.6022729387e+00 2.5041242412e-04 1.5038842022e+00 -2.6048038470e+00 1.5038842022e+00 2.6048038470e+00 
74200 5.6022729177e+00 2.4898566504e-04 1.5038758767e+00 -2.6047894267e+00 1.5038758767e+00 2.6047894267e+00 
74300 5.6022728969e+00 2.4756716881e-04 1.5038675986e+00 -2.6047750886e+00 1.5038675986e+00 2.6047750886e+00 
74400 5.6022728763e+00 2.4615688624e-04 1.5038593676e+00 -2.6047608321e+00 1.5038593676e+00 2.6047608321e+00 
74500 5.6022728560e+00 2.4475476843e-04 1.5038511834e+00 -2.6047466567e+00 1.5038511834e+00 2.6047466567e+00 
74600 5.6022728359e+00 2.4336076681e-04 1.5038430458e+00 -2.6047325620e+00 1.5038430458e+00 2.6047325620e+00 
74700 5.6022728160e+00 2.4197483307e-04 1.5038349545e+00 -2.6047185475e+00 1.5038349545e+00 2.6047185475e+00 
74800 5.6022727964e+00 2.4059691924e-04 1.5038269093e+00 -2.6047046127e+00 1.5038269093e+00 2.6047046127e+00 
74900 5.6022727769e+00 2.3922697761e-04 1.5038189098e+00 -2.6046907572e+00 1.5038189098e+00 2.6046907572e+00 
75000 5.6022727577e+00 2.3786496080e-04 1.5038109558e+00 -2.6046769805e+00 1.5038109558e+00 2.6046769805e+00 
75100 5.6022727387e+00 2.3651082170e-04 1.5038030471e+00 -2.6046632821e+00 1.5038030471e+00 2.6046632821e+00 
75200 5.6022727199e+00 2.3516451349e-04 1.5037951833e+00 -2.6046496617e+00 1.5037951833e+00 2.6046496617e+00 
75300 5.6022727014e+00 2.3382598966e-04 1.5037873643e+00 -2.6046361188e+00 1.5037873643e+00 2.6046361188e+00 
75400 5.6022726830e+00 2.3249520396e-04 1.5037795898e+00 -2.6046226528e+00 1.5037795898e+00 2.6046226528e+00 
75500 5.6022726648e+00 2.3117211046e-04 1.5037718594e+00 -2.6046092635e+00 1.5037718594e+00 2.6046092635e+00 
75600 5.6022726469e+00 2.2985666347e-04 1.5037641730e+00 -2.6045959502e+00 1.5037641730e+00 2.6045959502e+00 
75700 5.6022726291e+00 2.2854881763e-04 1.5037565303e+00 -2.6045827127e+00 1.5037565303e+00 2.6045827127e+00 
75800 5.6022726116e+00 2.2724852782e-04 1.5037489310e+00 -2.6045695504e+00 1.5037489310e+00 2.6045695504e+00 
75900 5.6022725942e+00 2.2595574921e-04 1.5037413750e+00 -2.6045564629e+00 1.5037413750e+00 2.6045564629e+00 
76000 5.6022725771e+00 2.2467043727e-04 1.5037338619e+00 -2.6045434498e+00 1.5037338619e+00 2.6045434498e+00 
76100 5.6022725601e+00 2.2339254771e-04 1.5037263915e+00 -2.6045305107e+00 1.5037263915e+00 2.6045305107e+00 
76200 5.6022725433e+00 2.2212203653e-04 1.5037189635e+00 -2.6045176451e+00 1.5037189635e+00 2.6045176451e+00 
76300 5.6022725268e+00 2.2085886000e-04 1.5037115777e+00 -2.6045048526e+00 1.5037115777e+00 2.6045048526e+00 
76400 5.6022725104e+00 2.1960297467e-04 1.5037042340e+00 -2.6044921328e+00 1.5037042340e+00 2.6044921328e+00 
76500 5.6022724941e+00 2.1835433733e-04 1.5036969319e+00 -2.6044794852e+00 1.5036969319e+00 2.6044794852e+00 
76600 5.6022724781e+00 2.1711290506e-04 1.5036896713e+00 -2.6044669095e+00 1.5036896713e+00 2.6044669095e+00 
76700 5.6022724623e+00 2.1587863520e-04 1.5036824520e+00 -2.6044544053e+00 1.5036824520e+00 2.6044544053e+00 
76800 5.6022724466e+00 2.1465148534e-04 1.5036752737e+00 -2.6044419721e+00 1.5036752737e+00 2.6044419721e+00 
76900 5.6022724311e+00 2.1343141336e-04 1.5036681361e+00 -2.6044296095e+00 1.5036681361e+00 2.6044296095e+00 
77000 5.6022724158e+00 2.1221837735e-04 1.5036610391e+00 -2.6044173171e+00 1.5036610391e+00 2.6044173171e+00 
77100 5.6022724006e+00 2.1101233571e-04 1.5036539824e+00 -2.6044050945e+00 1.5036539824e+00 2.6044050945e+00 
77200 5.6022723856e+00 2.0981324706e-04 1.5036469657e+00 -2.6043929413e+00 1.5036469657e+00 2.6043929413e+00 
77300 5.6022723708e+00 2.0862107029e-04 1.5036399889e+00 -2.6043808571e+00 1.5036399889e+00 2.6043808571e+00 
77400 5.6022723562e+00 2.0743576455e-04 1.5036330517e+00 -2.6043688415e+00 1.5036330517e+00 2.6043688415e+00 
77500 5.6022723417e+00 2.0625728922e-04 1.5036261539e+00 -2.6043568942e+00 1.5036261539e+00 2.6043568942e+00 
77600 5.6022723274e+00 2.0508560394e-04 1.5036192953e+00 -2.6043450146e+00 1.5036192953e+00 2.6043450146e+00 
77700 5.6022723132e+00 2.0392066860e-04 1.5036124755e+00 -2.6043332025e+00 1.5036124755e+00 2.6043332025e+00 
77800 5.6022722992e+00 2.0276244333e-04 1.5036056945e+00 -2.6043214574e+00 1.5036056945e+00 2.6043214574e+00 
77900 5.6022722853e+00 2.0161088852e-04 1.5035989520e+00 -2.6043097790e+00 1.5035989520e+00 2.6043097790e+00 
78000 5.6022722717e+00 2.0046596478e-04 1.5035922477e+00 -2.6042981669e+00 1.5035922477e+00 2.6042981669e+00 
78100 5.6022722581e+00 1.9932763298e-04 1.5035855815e+00 -2.6042866206e+00 1.5035855815e+00 2.6042866206e+00 
78200 5.6022722447e+00 1.9819585422e-04 1.5035789531e+00 -2.6042751399e+00 1.5035789531e+00 2.6042751399e+00 
78300 5.6022722315e+00 1.9707058985e-04 1.5035723623e+00 -2.6042637243e+00 1.5035723623e+00 2.6042637243e+00 
78400 5.6022722184e+00 1.9595180143e-04 1.5035658089e+00 -2.6042523735e+00 1.5035658089e+00 2.6042523735e+00 
78500 5.6022722055e+00 1.9483945079e-04 1.5035592926e+00 -2.6042410870e+00 1.5035592926e+00 2.6042410870e+00 
78600 5.6022721927e+00 1.9373349998e-04 1.5035528134e+00 -2.6042298646e+00 1.5035528134e+00 2.6042298646e+00 
78700 5.6022721800e+00 1.9263391128e-04 1.5035463708e+00 -2.6042187058e+00 1.5035463708e+00 2.6042187058e+00 
78800 5.6022721675e+00 1.9154064718e-04 1.5035399649e+00 -2.6042076103e+00 1.5035399649e+00 2.6042076103e+00 
78900 5.6022721552e+00 1.9045367045e-04 1.5035335952e+00 -2.6041965778e+00 1.5035335952e+00 2.6041965778e+00 
79000 5.6022721429e+00 1.8937294404e-04 1.5035272617e+00 -2.6041856078e+00 1.5035272617e+00 2.6041856078e+00 
79100 5.6022721309e+00 1.8829843116e-04 1.5035209641e+00 -2.6041747000e+00 1.5035209641e+00 2.6041747000e+00 
79200 5.6022721189e+00 1.8723009522e-04 1.5035147021e+00 -2.6041638540e+00 1.5035147021e+00 2.6041638540e+00 
79300 5.6022721071e+00 1.8616789987e-04 1.5035084757e+00 -2.6041530696e+00 1.5035084757e+00 2.6041530696e+00 
79400 5.6022720954e+00 1.8511180897e-04 1.5035022846e+00 -2.6041423463e+00 1.5035022846e+00 2.6041423463e+00 
79500 5.6022720838e+00 1.8406178661e-04 1.5034961286e+00 -2.6041316837e+00 1.5034961286e+00 2.6041316837e+00 
79600 5.6022720724e+00 1.8301779710e-04 1.5034900075e+00 -2.6041210816e+00 1.5034900075e+00 2.6041210816e+00 
79700 5.6022720611e+00 1.8197980497e-04 1.5034839211e+00 -2.6041105396e+00 1.5034839211e+00 2.6041105396e+00 
79800 5.6022720499e+00 1.8094777495e-04 1.5034778691e+00 -2.6041000574e+00 1.5034778691e+00 2.6041000574e+00 
79900 5.6022720389e+00 1.7992167200e-04 1.5034718515e+00 -2.6040896345e+00 1.5034718515e+00 2.6040896345e+00 
80000 5.6022720280e+00 1.7890146130e-04 1.5034658680e+00 -2.6040792707e+00 1.5034658680e+00 2.6040792707e+00 
80100 5.6022720172e+00 1.7788710823e-04 1.5034599183e+00 -2.6040689657e+00 1.5034599183e+00 2.6040689657e+00 
80200 5.6022720065e+00 1.7687857838e-04 1.5034540024e+00 -2.6040587190e+00 1.5034540024e+00 2.6040587190e+00 
80300 5.6022719959e+00 1.7587583755e-04 1.5034481200e+00 -2.6040485304e+00 1.5034481200e+00 2.6040485304e+00 
80400 5.6022719855e+00 1.7487885176e-04 1.5034422709e+00 -2.6040383995e+00 1.5034422709e+00 2.6040383995e+00 
80500 5.6022719752e+00 1.7388758723e-04 1.5034364550e+00 -2.6040283260e+00 1.5034364550e+00 2.6040283260e+00 
80600 5.6022719650e+00 1.7290201039e-04 1.5034306720e+00 -2.6040183095e+00 1.5034306720e+00 2.6040183095e+00 
80700 5.6022719549e+00 1.7192208786e-04 1.5034249217e+00 -2.6040083498e+00 1.5034249217e+00 2.6040083498e+00 
80800 5.6022719449e+00 1.7094778648e-04 1.5034192040e+00 -2.6039984465e+00 1.5034192040e+00 2.6039984465e+00 
80900 5.6022719350e+00 1.6997907329e-04 1.5034135188e+00 -2.6039885993e+00 1.5034135188e+00 2.6039885993e+00 
81000 5.6022719253e+00 1.6901591552e-04 1.5034078657e+00 -2.6039788078e+00 1.5034078657e+00 2.6039788078e+00 
81100 5.6022719156e+00 1.6805828060e-04 1.5034022446e+00 -2.6039690718e+00 1.5034022446e+00 2.6039690718e+00 
81200 5.6022719061e+00 1.6710613618e-04 1.5033966553e+00 -2.6039593909e+00 1.5033966553e+00 2.6039593909e+00 
81300 5.6022718966e+00 1.6615945008e-04 1.5033910977e+00 -2.6039497648e+00 1.5033910977e+00 2.6039497648e+00 
81400 5.6022718873e+00 1.6521819032e-04 1.5033855715e+00 -2.6039401933e+00 1.5033855715e+00 2.6039401933e+00 
81500 5.6022718781e+00 1.6428232514e-04 1.5033800767e+00 -2.6039306759e+00 1.5033800767e+00 2.6039306759e+00 
81600 5.6022718690e+00 1.6335182293e-04 1.5033746129e+00 -2.6039212124e+00 1.5033746129e+00 2.6039212124e+00 
81700 5.6022718599e+00 1.6242665231e-04 1.5033691801e+00 -2.6039118024e+00 1.5033691801e+00 2.6039118024e+00 
81800 5.6022718510e+00 1.6150678207e-04 1.5033637780e+00 -2.6039024457e+00 1.5033637780e+00 2.6039024457e+00 
81900 5.6022718422e+00 1.6059218121e-04 1.5033584065e+00 -2.6038931420e+00 1.5033584065e+00 2.6038931420e+00 
82000 5.6022718335e+00 1.5968281888e-04 1.5033530654e+00 -2.6038838909e+00 1.5033530654e+00 2.6038838909e+00 
82100 5.6022718249e+00 1.5877866446e-04 1.5033477545e+00 -2.6038746922e+00 1.5033477545e+00 2.6038746922e+00 
82200 5.6022718164e+00 1.5787968748e-04 1.5033424736e+00 -2.6038655455e+00 1.5033424736e+00 2.6038655455e+00 
82300 5.6022718079e+00 1.5698585769e-04 1.5033372227e+00 -2.6038564506e+00 1.5033372227e+00 2.6038564506e+00 
82400 5.6022717996e+00 1.5609714499e-04 1.5033320014e+00 -2.6038474072e+00 1.5033320014e+00 2.6038474072e+00 
82500 5.6022717914e+00 1.5521351949e-04 1.5033268097e+00 -2.6038384149e+00 1.5033268097e+00 2.6038384149e+00 
82600 5.6022717832e+00 1.5433495145e-04 1.5033216474e+00 -2.6038294734e+00 1.5033216474e+00 2.6038294734e+00 
82700 5.6022717752e+00 1.5346141134e-04 1.5033165143e+00 -2.6038205826e+00 1.5033165143e+00 2.6038205826e+00 
82800 5.6022717672e+00 1.5259286980e-04 1.5033114102e+00 -2.6038117421e+00 1.5033114102e+00 2.6038117421e+00 
82900 5.6022717593e+00 1.5172929763e-04 1.5033063350e+00 -2.6038029515e+00 1.5033063350e+00 2.6038029515e+00 
83000 5.6022717515e+00 1.5087066584e-04 1.5033012885e+00 -2.6037942107e+00 1.5033012885e+00 2.6037942107e+00 
83100 5.6022717438e+00 1.5001694558e-04 1.5032962705e+00 -2.6037855193e+00 1.5032962705e+00 2.6037855193e+00 
83200 5.6022717362e+00 1.4916810820e-04 1.5032912809e+00 -2.6037768771e+00 1.5032912809e+00 2.6037768771e+00 
83300 5.6022717287e+00 1.4832412521e-04 1.5032863195e+00 -2.6037682837e+00 1.5032863195e+00 2.6037682837e+00 
83400 5.6022717212e+00 1.4748496830e-04 1.5032813862e+00 -2.6037597389e+00 1.5032813862e+00 2.6037597389e+00 
83500 5.6022717139e+00 1.4665060932e-04 1.5032764807e+00 -2.6037512425e+00 1.5032764807e+00 2.6037512425e+00 
83600 5.6022717066e+00 1.4582102030e-04 1.5032716030e+00 -2.6037427940e+00 1.5032716030e+00 2.6037427940e+00 
83700 5.6022716994e+00 1.4499617345e-04 1.5032667529e+00 -2.6037343934e+00 1.5032667529e+00 2.6037343934e+00 
83800 5.6022716923e+00 1.4417604111e-04 1.5032619302e+00 -2.6037260402e+00 1.5032619302e+00 2.6037260402e+00 
83900 5.6022716852e+00 1.4336059582e-04 1.5032571348e+00 -2.6037177343e+00 1.5032571348e+00 2.6037177343e+00 
84000 5.6022716783e+00 1.4254981028e-04 1.5032523665e+00 -2.6037094753e+00 1.5032523665e+00 2.6037094753e+00 
84100 5.6022716714e+00 1.4174365734e-04 1.5032476251e+00 -2.6037012630e+00 1.5032476251e+00 2.6037012630e+00 
84200 5.6022716646e+00 1.4094211004e-04 1.5032429105e+00 -2.6036930971e+00 1.5032429105e+00 2.6036930971e+00 
84300 5.6022716579e+00 1.4014514156e-04 1.5032382226e+00 -2.6036849774e+00 1.5032382226e+00 2.6036849774e+00 
84400 5.6022716512e+00 1.3935272524e-04 1.5032335611e+00 -2.6036769035e+00 1.5032335611e+00 2.6036769035e+00 
84500 5.6022716447e+00 1.3856483459e-04 1.5032289260e+00 -2.6036688753e+00 1.5032289260e+00 2.6036688753e+00 
84600 5.6022716381e+00 1.3778144328e-04 1.5032243171e+00 -2.6036608924e+00 1.5032243171e+00 2.6036608924e+00 
84700 5.6022716317e+00 1.3700252515e-04 1.5032197343e+00 -2.6036529547e+00 1.5032197343e+00 2.6036529547e+00 
84800 5.6022716254e+00 1.3622805416e-04 1.5032151773e+00 -2.6036450618e+00 1.5032151773e+00 2.6036450618e+00 
84900 5.6022716191e+00 1.3545800446e-04 1.5032106461e+00 -2.6036372135e+00 1.5032106461e+00 2.6036372135e+00 
85000 5.6022716129e+00 1.3469235036e-04 1.5032061405e+00 -2.6036294095e+00 1.5032061405e+00 2.6036294095e+00 
85100 5.6022716067e+00 1.3393106628e-04 1.5032016603e+00 -2.6036216496e+00 1.5032016603e+00 2.6036216496e+00 
85200 5.6022716006e+00 1.3317412685e-04 1.5031972054e+00 -2.6036139336e+00 1.5031972054e+00 2.6036139336e+00 
85300 5.6022715946e+00 1.3242150681e-04 1.5031927757e+00 -2.6036062612e+00 1.5031927757e+00 2.6036062612e+00 
85400 5.6022715887e+00 1.3167318107e-04 1.5031883711e+00 -2.6035986320e+00 1.5031883711e+00 2.6035986320e+00 
85500 5.6022715828e+00 1.3092912469e-04 1.5031839913e+00 -2.6035910460e+00 1.5031839913e+00 2.6035910460e+00 
85600 5.6022715770e+00 1.3018931288e-04 1.5031796362e+00 -2.6035835028e+00 1.5031796362e+00 2.6035835028e+00 
85700 5.6022715713e+00 1.2945372099e-04 1.5031753058e+00 -2.6035760022e+00 1.5031753058e+00 2.6035760022e+00 
85800 5.6022715656e+00 1.2872232453e-04 1.5031709997e+00 -2.6035685440e+00 1.5031709997e+00 2.6035685440e+00 
85900 5.6022715600e+00 1.2799509915e-04 1.5031667181e+00 -2.6035611279e+00 1.5031667181e+00 2.6035611279e+00 
86000 5.6022715544e+00 1.2727202064e-04 1.5031624605e+00 -2.6035537537e+00 1.5031624605e+00 2.6035537537e+00 
86100 5.6022715489e+00 1.2655306494e-04 1.5031582271e+00 -2.6035464211e+00 1.5031582271e+00 2.6035464211e+00 
86200 5.6022715435e+00 1.2583820814e-04 1.5031540175e+00 -2.6035391299e+00 1.5031540175e+00 2.6035391299e+00 
86300 5.6022715381e+00 1.2512742647e-04 1.5031498317e+00 -2.6035318799e+00 1.5031498317e+00 2.6035318799e+00 
86400 5.6022715328e+00 1.2442069630e-04 1.5031456695e+00 -2.6035246708e+00 1.5031456695e+00 2.6035246708e+00 
86500 5.6022715276e+00 1.2371799413e-04 1.5031415308e+00 -2.6035175024e+00 1.5031415308e+00 2.6035175024e+00 
86600 5.6022715224e+00 1.2301929663e-04 1.5031374155e+00 -2.6035103745e+00 1.5031374155e+00 2.6035103745e+00 
86700 5.6022715172e+00 1.2232458059e-04 1.5031333235e+00 -2.6035032868e+00 1.5031333235e+00 2.6035032868e+00 
86800 5.6022715122e+00 1.2163382292e-04 1.5031292545e+00 -2.6034962391e+00 1.5031292545e+00 2.6034962391e+00 
86900 5.6022715071e+00 1.2094700071e-04 1.5031252085e+00 -2.6034892312e+00 1.5031252085e+00 2.6034892312e+00 
87000 5.6022715022e+00 1.2026409116e-04 1.5031211853e+00 -2.6034822628e+00 1.5031211853e+00 2.6034822628e+00 
87100 5.6022714973e+00 1.1958507160e-04 1.5031171848e+00 -2.6034753338e+00 1.5031171848e+00 2.6034753338e+00 
87200 5.6022714924e+00 1.1890991952e-04 1.5031132069e+00 -2.6034684439e+00 1.5031132069e+00 2.6034684439e+00 
87300 5.6022714876e+00 1.1823861252e-04 1.5031092514e+00 -2.6034615928e+00 1.5031092514e+00 2.6034615928e+00 
87400 5.6022714829e+00 1.1757112835e-04 1.5031053183e+00 -2.6034547804e+00 1.5031053183e+00 2.6034547804e+00 
87500 5.6022714782e+00 1.1690744489e-04 1.5031014074e+00 -2.6034480065e+00 1.5031014074e+00 2.6034480065e+00 
87600 5.6022714735e+00 1.1624754014e-04 1.5030975185e+00 -2.6034412708e+00 1.5030975185e+00 2.6034412708e+00 
87700 5.6022714690e+00 1.1559139224e-04 1.5030936516e+00 -2.6034345730e+00 1.5030936516e+00 2.6034345730e+00 
87800 5.6022714644e+00 1.1493897947e-04 1.5030898064e+00 -2.6034279131e+00 1.5030898064e+00 2.6034279131e+00 
87900 5.6022714599e+00 1.1429028022e-04 1.5030859830e+00 -2.6034212907e+00 1.5030859830e+00 2.6034212907e+00 
88000 5.6022714555e+00 1.1364527302e-04 1.5030821812e+00 -2.6034147057e+00 1.5030821812e+00 2.6034147057e+00 
88100 5.6022714511e+00 1.1300393653e-04 1.5030784008e+00 -2.6034081579e+00 1.5030784008e+00 2.6034081579e+00 
88200 5.6022714468e+00 1.1236624952e-04 1.5030746417e+00 -2.6034016470e+00 1.5030746417e+00 2.6034016470e+00 
88300 5.6022714425e+00 1.1173219091e-04 1.5030709038e+00 -2.6033951728e+00 1.5030709038e+00 2.6033951728e+00 
88400 5.6022714383e+00 1.1110173973e-04 1.5030671870e+00 -2.6033887351e+00 1.5030671870e+00 2.6033887351e+00 
88500 5.6022714341e+00 1.1047487514e-04 1.5030634912e+00 -2.6033823337e+00 1.5030634912e+00 2.6033823337e+00 
88600 5.6022714299e+00 1.0985157641e-04 1.5030598162e+00 -2.6033759685e+00 1.5030598162e+00 2.6033759685e+00 
88700 5.6022714258e+00 1.0923182297e-04 1.5030561619e+00 -2.6033696391e+00 1.5030561619e+00 2.6033696391e+00 
88800 5.6022714218e+00 1.0861559433e-04 1.5030525283e+00 -2.6033633454e+00 1.5030525283e+00 2.6033633454e+00 
88900 5.6022714178e+00 1.0800287014e-04 1.5030489151e+00 -2.6033570872e+00 1.5030489151e+00 2.6033570872e+00 
89000 5.6022714138e+00 1.0739363017e-04 1.5030453223e+00 -2.6033508643e+00 1.5030453223e+00 2.6033508643e+00 
89100 5.6022714099e+00 1.0678785432e-04 1.5030417498e+00 -2.6033446765e+00 1.5030417498e+00 2.6033446765e+00 
89200 5.6022714060e+00 1.0618552259e-04 1.5030381974e+00 -2.6033385236e+00 1.5030381974e+00 2.6033385236e+00 
89300 5.6022714022e+00 1.0558661510e-04 1.5030346650e+00 -2.6033324054e+00 1.5030346650e+00 2.6033324054e+00 
89400 5.6022713984e+00 1.0499111211e-04 1.5030311526e+00 -2.6033263216e+00 1.5030311526e+00 2.6033263216e+00 
89500 5.6022713947e+00 1.0439899398e-04 1.5030276599e+00 -2.6033202722e+00 1.5030276599e+00 2.6033202722e+00 
89600 5.6022713910e+00 1.0381024118e-04 1.5030241870e+00 -2.6033142569e+00 1.5030241870e+00 2.6033142569e+00 
89700 5.6022713873e+00 1.0322483431e-04 1.5030207336e+00 -2.6033082754e+00 1.5030207336e+00 2.6033082754e+00 
89800 5.6022713837e+00 1.0264275408e-04 1.5030172997e+00 -2.6033023277e+00 1.5030172997e+00 2.6033023277e+00 
89900 5.6022713801e+00 1.0206398131e-04 1.5030138851e+00 -2.6032964135e+00 1.5030138851e+00 2.6032964135e+00 
90000 5.6022713766e+00 1.0148849694e-04 1.5030104898e+00 -2.6032905327e+00 1.5030104898e+00 2.6032905327e+00 
90100 5.6022713730e+00 1.0091628202e-04 1.5030071137e+00 -2.6032846850e+00 1.5030071137e+00 2.6032846850e+00 
90200 5.6022713696e+00 1.0034731771e-04 1.5030037565e+00 -2.6032788702e+00 1.5030037565e+00 2.6032788702e+00 
90300 5.6022713662e+00 9.9781585279e-05 1.5030004183e+00 -2.6032730883e+00 1.5030004183e+00 2.6032730883e+00 
90400 5.6022713628e+00 9.9219066115e-05 1.5029970989e+00 -2.6032673389e+00 1.5029970989e+00 2.6032673389e+00 
90500 5.6022713594e+00 9.8659741714e-05 1.5029937982e+00 -2.6032616219e+00 1.5029937982e+00 2.6032616219e+00 
90600 5.6022713561e+00 9.8103593674e-05 1.5029905161e+00 -2.6032559371e+00 1.5029905161e+00 2.6032559371e+00 
90700 5.6022713529e+00 9.7550603709e-05 1.5029872525e+00 -2.6032502844e+00 1.5029872525e+00 2.6032502844e+00 
90800 5.6022713496e+00 9.7000753637e-05 1.5029840072e+00 -2.6032446635e+00 1.5029840072e+00 2.6032446635e+00 
90900 5.6022713464e+00 9.6454025386e-05 1.5029807803e+00 -2.6032390743e+00 1.5029807803e+00 2.6032390743e+00 
91000 5.6022713433e+00 9.5910400989e-05 1.5029775715e+00 -2.6032335165e+00 1.5029775715e+00 2.6032335165e+00 
91100 5.6022713401e+00 9.5369862587e-05 1.5029743809e+00 -2.6032279901e+00 1.5029743809e+00 2.6032279901e+00 
91200 5.6022713370e+00 9.4832392423e-05 1.5029712082e+00 -2.6032224948e+00 1.5029712082e+00 2.6032224948e+00 
91300 5.6022713340e+00 9.4297972845e-05 1.5029680533e+00 -2.6032170305e+00 1.5029680533e+00 2.6032170305e+00 
91400 5.6022713310e+00 9.3766586310e-05 1.5029649163e+00 -2.6032115970e+00 1.5029649163e+00 2.6032115970e+00 
91500 5.6022713280e+00 9.3238215373e-05 1.5029617969e+00 -2.6032061940e+00 1.5029617969e+00 2.6032061940e+00 
91600 5.6022713250e+00 9.2712842693e-05 1.5029586951e+00 -2.6032008215e+00 1.5029586951e+00 2.6032008215e+00 
91700 5.6022713221e+00 9.2190451033e-05 1.5029556107e+00 -2.6031954793e+00 1.5029556107e+00 2.6031954793e+00 
91800 5.6022713192e+00 9.1671023256e-05 1.5029525438e+00 -2.6031901671e+00 1.5029525438e+00 2.6031901671e+00 
91900 5.6022713163e+00 9.1154542326e-05 1.5029494941e+00 -2.6031848849e+00 1.5029494941e+00 2.6031848849e+00 
92000 5.6022713135e+00 9.0640991306e-05 1.5029464615e+00 -2.6031796324e+00 1.5029464615e+00 2.6031796324e+00 
92100 5.6022713107e+00 9.0130353362e-05 1.5029434461e+00 -2.6031744095e+00 1.5029434461e+00 2.6031744095e+00 
92200 5.6022713080e+00 8.9622611757e-05 1.5029404476e+00 -2.6031692160e+00 1.5029404476e+00 2.6031692160e+00 
92300 5.6022713052e+00 8.9117749850e-05 1.5029374661e+00 -2.6031640518e+00 1.5029374661e+00 2.6031640518e+00 
92400 5.6022713025e+00 8.8615751104e-05 1.5029345013e+00 -2.6031589167e+00 1.5029345013e+00 2.6031589167e+00 
92500 5.6022712998e+00 8.8116599072e-05 1.5029315532e+00 -2.6031538104e+00 1.5029315532e+00 2.6031538104e+00 
92600 5.6022712972e+00 8.7620277410e-05 1.5029286217e+00 -2.6031487329e+00 1.5029286217e+00 2.6031487329e+00 
92700 5.6022712946e+00 8.7126769865e-05 1.5029257067e+00 -2.6031436840e+00 1.5029257067e+00 2.6031436840e+00 
92800 5.6022712920e+00 8.6636060284e-05 1.5029228081e+00 -2.6031386635e+00 1.5029228081e+00 2.6031386635e+00 
92900 5.6022712895e+00 8.6148132604e-05 1.5029199259e+00 -2.6031336713e+00 1.5029199259e+00 2.6031336713e+00 
93000 5.6022712869e+00 8.5662970861e-05 1.5029170599e+00 -2.6031287072e+00 1.5029170599e+00 2.6031287072e+00 
93100 5.6022712844e+00 8.5180559180e-05 1.5029142100e+00 -2.6031237711e+00 1.5029142100e+00 2.6031237711e+00 
93200 5.6022712820e+00 8.4700881784e-05 1.5029113761e+00 -2.6031188627e+00 1.5029113761e+00 2.6031188627e+00 
93300 5.6022712795e+00 8.4223922985e-05 1.5029085582e+00 -2.6031139820e+00 1.5029085582e+00 2.6031139820e+00 
93400 5.6022712771e+00 8.3749667190e-05 1.5029057562e+00 -2.6031091287e+00 1.5029057562e+00 2.6031091287e+00 
93500 5.6022712747e+00 8.3278098892e-05 1.5029029699e+00 -2.6031043028e+00 1.5029029699e+00 2.6031043028e+00 
93600 5.6022712724e+00 8.2809202683e-05 1.5029001994e+00 -2.6030995040e+00 1.5029001994e+00 2.6030995040e+00 
93700 5.6022712700e+00 8.2342963238e-05 1.5028974444e+00 -2.6030947323e+00 1.5028974444e+00 2.6030947323e+00 
93800 5.6022712677e+00 8.1879365326e-05 1.5028947049e+00 -2.6030899873e+00 1.5028947049e+00 2.6030899873e+00 
93900 5.6022712654e+00 8.1418393802e-05 1.5028919809e+00 -2.6030852691e+00 1.5028919809e+00 2.6030852691e+00 
94000 5.6022712632e+00 8.0960033615e-05 1.5028892721e+00 -2.6030805775e+00 1.5028892721e+00 2.6030805775e+00 
94100 5.6022712609e+00 8.0504269796e-05 1.5028865787e+00 -2.6030759123e+00 1.5028865787e+00 2.6030759123e+00 
94200 5.6022712587e+00 8.0051087467e-05 1.5028839003e+00 -2.6030712733e+00 1.5028839003e+00 2.6030712733e+00 
94300 5.6022712566e+00 7.9600471837e-05 1.5028812371e+00 -2.6030666604e+00 1.5028812371e+00 2.6030666604e+00 
94400 5.6022712544e+00 7.9152408203e-05 1.5028785888e+00 -2.6030620735e+00 1.5028785888e+00 2.6030620735e+00 
94500 5.6022712523e+00 7.8706881941e-05 1.5028759555e+00 -2.6030575124e+00 1.5028759555e+00 2.6030575124e+00 
94600 5.6022712502e+00 7.8263878522e-05 1.5028733369e+00 -2.6030529769e+00 1.5028733369e+00 2.6030529769e+00 
94700 5.6022712481e+00 7.7823383496e-05 1.5028707331e+00 -2.6030484670e+00 1.5028707331e+00 2.6030484670e+00 
94800 5.6022712460e+00 7.7385382500e-05 1.5028681440e+00 -2.6030439824e+00 1.5028681440e+00 2.6030439824e+00 
94900 5.6022712440e+00 7.6949861255e-05 1.5028655694e+00 -2.6030395231e+00 1.5028655694e+00 2.6030395231e+00 
95000 5.6022712419e+00 7.6516805561e-05 1.5028630093e+00 -2.6030350889e+00 1.5028630093e+00 2.6030350889e+00 
95100 5.6022712400e+00 7.6086201307e-05 1.5028604636e+00 -2.6030306796e+00 1.5028604636e+00 2.6030306796e+00 
95200 5.6022712380e+00 7.5658034461e-05 1.5028579322e+00 -2.6030262951e+00 1.5028579322e+00 2.6030262951e+00 
95300 5.6022712360e+00 7.5232291075e-05 1.5028554151e+00 -2.6030219353e+00 1.5028554151e+00 2.6030219353e+00 
95400 5.6022712341e+00 7.4808957280e-05 1.5028529121e+00 -2.6030176000e+00 1.5028529121e+00 2.6030176000e+00 
95500 5.6022712322e+00 7.4388019290e-05 1.5028504232e+00 -2.6030132891e+00 1.5028504232e+00 2.6030132891e+00 
95600 5.6022712303e+00 7.3969463399e-05 1.5028479483e+00 -2.6030090025e+00 1.5028479483e+00 2.6030090025e+00 
95700 5.6022712284e+00 7.3553275981e-05 1.5028454873e+00 -2.6030047399e+00 1.5028454873e+00 2.6030047399e+00 
95800 5.6022712266e+00 7.3139443490e-05 1.5028430402e+00 -2.6030005014e+00 1.5028430402e+00 2.6030005014e+00 
95900 5.6022712248e+00 7.2727952457e-05 1.5028406068e+00 -2.6029962867e+00 1.5028406068e+00 2.6029962867e+00 
96000 5.6022712230e+00 7.2318789492e-05 1.5028381871e+00 -2.6029920957e+00 1.5028381871e+00 2.6029920957e+00 
96100 5.6022712212e+00 7.1911941286e-05 1.5028357811e+00 -2.6029879282e+00 1.5028357811e+00 2.6029879282e+00 
96200 5.6022712194e+00 7.1507394604e-05 1.5028333885e+00 -2.6029837842e+00 1.5028333885e+00 2.6029837842e+00 
96300 5.6022712177e+00 7.1105136290e-05 1.5028310094e+00 -2.6029796635e+00 1.5028310094e+00 2.6029796635e+00 
96400 5.6022712160e+00 7.0705153265e-05 1.5028286437e+00 -2.6029755660e+00 1.5028286437e+00 2.6029755660e+00 
96500 5.6022712145e+00 7.1993077170e-05 1.5028286437e+00 -2.6029755660e+00 1.5028286437e+00 2.6029755660e+00 
96600 5.6022712128e+00 7.1558457065e-05 1.5028262485e+00 -2.6029714173e+00 1.5028262485e+00 2.6029714173e+00 
96700 5.6022712111e+00 7.1127132541e-05 1.5028238677e+00 -2.6029672936e+00 1.5028238677e+00 2.6029672936e+00 
96800 5.6022712095e+00 7.0699049646e-05 1.5028215012e+00 -2.6029631948e+00 1.5028215012e+00 2.6029631948e+00 
96900 5.6022712081e+00 7.1959641626e-05 1.5028215012e+00 -2.6029631948e+00 1.5028215012e+00 2.6029631948e+00 
97000 5.6022712065e+00 7.1498743485e-05 1.5028191071e+00 -2.6029590480e+00 1.5028191071e+00 2.6029590480e+00 
97100 5.6022712049e+00 7.1041995085e-05 1.5028167283e+00 -2.6029549278e+00 1.5028167283e+00 2.6029549278e+00 
97200 5.6022712033e+00 7.0589308462e-05 1.5028143646e+00 -2.6029508339e+00 1.5028143646e+00 2.6029508339e+00 
97300 5.6022712019e+00 7.1823455113e-05 1.5028143646e+00 -2.6029508339e+00 1.5028143646e+00 2.6029508339e+00 
97400 5.6022712004e+00 7.1339559579e-05 1.5028119750e+00 -2.6029466949e+00 1.5028119750e+00 2.6029466949e+00 
97500 5.6022711989e+00 7.0860539265e-05 1.5028096015e+00 -2.6029425838e+00 1.5028096015e+00 2.6029425838e+00 
97600 5.6022711974e+00 7.0386278121e-05 1.5028072439e+00 -2.6029385003e+00 1.5028072439e+00 2.6029385003e+00 
97700 5.6022711961e+00 7.1594668340e-05 1.5028072439e+00 -2.6029385003e+00 1.5028072439e+00 2.6029385003e+00 
97800 5.6022711946e+00 7.1090627518e-05 1.5028048618e+00 -2.6029343746e+00 1.5028048618e+00 2.6029343746e+00 
97900 5.6022711931e+00 7.0592079621e-05 1.5028024966e+00 -2.6029302778e+00 1.5028024966e+00 2.6029302778e+00 
98000 5.6022711919e+00 7.1781785110e-05 1.5028024966e+00 -2.6029302778e+00 1.5028024966e+00 2.6029302778e+00 
98100 5.6022711905e+00 7.1254729959e-05 1.5028001083e+00 -2.6029261412e+00 1.5028001083e+00 2.6029261412e+00 
98200 5.6022711891e+00 7.0733825003e-05 1.5027977376e+00 -2.6029220350e+00 1.5027977376e+00 2.6029220350e+00 
98300 5.6022711877e+00 7.0218907001e-05 1.5027953842e+00 -2.6029179588e+00 1.5027953842e+00 2.6029179588e+00 
98400 5.6022711865e+00 7.1383811964e-05 1.5027953842e+00 -2.6029179588e+00 1.5027953842e+00 2.6029179588e+00 
98500 5.6022711851e+00 7.0841531684e-05 1.5027930091e+00 -2.6029138451e+00 1.5027930091e+00 2.6029138451e+00 
98600 5.6022711837e+00 7.0305841004e-05 1.5027906521e+00 -2.6029097626e+00 1.5027906521e+00 2.6029097626e+00 
98700 5.6022711826e+00 7.1452617668e-05 1.5027906521e+00 -2.6029097626e+00 1.5027906521e+00 2.6029097626e+00 
98800 5.6022711813e+00 7.0890659234e-05 1.5027882748e+00 -2.6029056450e+00 1.5027882748e+00 2.6029056450e+00 
98900 5.6022711800e+00 7.0335832829e-05 1.5027859162e+00 -2.6029015597e+00 1.5027859162e+00 2.6029015597e+00 
99000 5.6022711789e+00 7.1464703745e-05 1.5027859162e+00 -2.6029015597e+00 1.5027859162e+00 2.6029015597e+00 
99100 5.6022711776e+00 7.0884623657e-05 1.5027835384e+00 -2.6028974413e+00 1.5027835384e+00 2.6028974413e+00 
99200 5.6022711763e+00 7.0312165208e-05 1.5027811800e+00 -2.6028933564e+00 1.5027811800e+00 2.6028933564e+00 
99300 5.6022711753e+00 7.1423304979e-05 1.5027811800e+00 -2.6028933564e+00 1.5027811800e+00 2.6028933564e+00 
99400 5.6022711740e+00 7.0826538453e-05 1.5027788036e+00 -2.6028892404e+00 1.5027788036e+00 2.6028892404e+00 
99500 5.6022711728e+00 7.0237836834e-05 1.5027764471e+00 -2.6028851588e+00 1.5027764471e+00 2.6028851588e+00 
99600 5.6022711718e+00 7.1331382937e-05 1.5027764471e+00 -2.6028851588e+00 1.5027764471e+00 2.6028851588e+00 
99700 5.6022711706e+00 7.0719260806e-05 1.5027740738e+00 -2.6028810481e+00 1.5027740738e+00 2.6028810481e+00 
99800 5.6022711694e+00 7.0115606173e-05 1.5027717208e+00 -2.6028769726e+00 1.5027717208e+00 2.6028769726e+00 
99900 5.6022711684e+00 7.1191668505e-05 1.5027717208e+00 -2.6028769726e+00 1.5027717208e+00 2.6028769726e+00 
100000 5.6022711672e+00 7.0565431862e-05 1.5027693521e+00 -2.6028728700e+00 1.5027693521e+00 2.6028728700e+00 
100100 5.6022711663e+00 7.1630233634e-05 1.5027693521e+00 -2.6028728700e+00 1.5027693521e+00 2.6028728700e+00 
100200 5.6022711651e+00 7.0982355632e-05 1.5027669689e+00 -2.6028687420e+00 1.5027669689e+00 2.6028687420e+00 
100300 5.6022711640e+00 7.0343882915e-05 1.5027646071e+00 -2.6028646514e+00 1.5027646071e+00 2.6028646514e+00 
100400 5.6022711631e+00 7.1391463676e-05 1.5027646071e+00 -2.6028646514e+00 1.5027646071e+00 2.6028646514e+00 
100500 5.6022711620e+00 7.0732072634e-05 1.5027622318e+00 -2.6028605372e+00 1.5027622318e+00 2.6028605372e+00 
100600 5.6022711608e+00 7.0082372978e-05 1.5027598784e+00 -2.6028564610e+00 1.5027598784e+00 2.6028564610e+00 
100700 5.6022711600e+00 7.1112765893e-05 1.5027598784e+00 -2.6028564610e+00 1.5027598784e+00 2.6028564610e+00 
100800 5.6022711589e+00 7.0442846718e-05 1.5027575123e+00 -2.6028523628e+00 1.5027575123e+00 2.6028523628e+00 
100900 5.6022711580e+00 7.1462144987e-05 1.5027575123e+00 -2.6028523628e+00 1.5027575123e+00 2.6028523628e+00 
101000 5.6022711570e+00 7.0772865326e-05 1.5027551346e+00 -2.6028482445e+00 1.5027551346e+00 2.6028482445e+00 
101100 5.6022711559e+00 7.0094049732e-05 1.5027527799e+00 -2.6028441659e+00 1.5027527799e+00 2.6028441659e+00 
101200 5.6022711551e+00 7.1096343999e-05 1.5027527799e+00 -2.6028441659e+00 1.5027527799e+00 2.6028441659e+00 
101300 5.6022711541e+00 7.0398784940e-05 1.5027504143e+00 -2.6028400687e+00 1.5027504143e+00 2.6028400687e+00 
101400 5.6022711533e+00 7.1390091962e-05 1.5027504143e+00 -2.6028400687e+00 1.5027504143e+00 2.6028400687e+00 
101500 5.6022711522e+00 7.0674600576e-05 1.5027480390e+00 -2.6028359546e+00 1.5027480390e+00 2.6028359546e+00 
101600 5.6022711515e+00 7.1655015779e-05 1.5027480390e+00 -2.6028359546e+00 1.5027480390e+00 2.6028359546e+00 
101700 5.6022711505e+00 7.0922367480e-05 1.5027456549e+00 -2.6028318251e+00 1.5027456549e+00 2.6028318251e+00 
101800 5.6022711495e+00 7.0201303037e-05 1.5027432951e+00 -2.6028277379e+00 1.5027432951e+00 2.6028277379e+00 
101900 5.6022711487e+00 7.1164977822e-05 1.5027432951e+00 -2.6028277379e+00 1.5027432951e+00 2.6028277379e+00 
102000 5.6022711478e+00 7.0427260817e-05 1.5027409273e+00 -2.6028236367e+00 1.5027409273e+00 2.6028236367e+00 
102100 5.6022711470e+00 7.1380105905e-05 1.5027409273e+00 -2.6028236367e+00 1.5027409273e+00 2.6028236367e+00 
102200 5.6022711461e+00 7.0626481672e-05 1.5027385523e+00 -2.6028195231e+00 1.5027385523e+00 2.6028195231e+00 
102300 5.6022711454e+00 7.1568582337e-05 1.5027385523e+00 -2.6028195231e+00 1.5027385523e+00 2.6028195231e+00 
102400 5.6022711445e+00 7.0799766318e-05 1.5027361710e+00 -2.6028153986e+00 1.5027361710e+00 2.6028153986e+00 
102500 5.6022711435e+00 7.0043465988e-05 1.5027338153e+00 -2.6028113184e+00 1.5027338153e+00 2.6028113184e+00 
102600 5.6022711428e+00 7.0969037012e-05 1.5027338153e+00 -2.6028113184e+00 1.5027338153e+00 2.6028113184e+00 
102700 5.6022711419e+00 7.0197969762e-05 1.5027314540e+00 -2.6028072285e+00 1.5027314540e+00 2.6028072285e+00 
102800 5.6022711413e+00 7.1112849091e-05 1.5027314540e+00 -2.6028072285e+00 1.5027314540e+00 2.6028072285e+00 
102900 5.6022711404e+00 7.0327712058e-05 1.5027290879e+00 -2.6028031302e+00 1.5027290879e+00 2.6028031302e+00 
103000 5.6022711397e+00 7.1231986375e-05 1.5027290879e+00 -2.6028031302e+00 1.5027290879e+00 2.6028031302e+00 
103100 5.6022711389e+00 7.0433450589e-05 1.5027267178e+00 -2.6027990251e+00 1.5027267178e+00 2.6027990251e+00 
103200 5.6022711382e+00 7.1327199814e-05 1.5027267178e+00 -2.6027990251e+00 1.5027267178e+00 2.6027990251e+00 
103300 5.6022711374e+00 7.0515912272e-05 1.5027243445e+00 -2.6027949145e+00 1.5027243445e+00 2.6027949145e+00 
103400 5.6022711368e+00 7.1399210795e-05 1.5027243445e+00 -2.6027949145e+00 1.5027243445e+00 2.6027949145e+00 
103500 5.6022711359e+00 7.0575796356e-05 1.5027219689e+00 -2.6027907997e+00 1.5027219689e+00 2.6027907997e+00 
103600 5.6022711353e+00 7.1448714171e-05 1.5027219689e+00 -2.6027907997e+00 1.5027219689e+00 2.6027907997e+00 
103700 5.6022711345e+00 7.0613777258e-05 1.5027195916e+00 -2.6027866821e+00 1.5027195916e+00 2.6027866821e+00 
103800 5.6022711339e+00 7.1476380980e-05 1.5027195916e+00 -2.6027866821e+00 1.5027195916e+00 2.6027866821e+00 
103900 5.6022711331e+00 7.0630507121e-05 1.5027172133e+00 -2.6027825629e+00 1.5027172133e+00 2.6027825629e+00 
104000 5.6022711325e+00 7.1482860915e-05 1.5027172133e+00 -2.6027825629e+00 1.5027172133e+00 2.6027825629e+00 
104100 5.6022711317e+00 7.0626618129e-05 1.5027148349e+00 -2.6027784433e+00 1.5027148349e+00 2.6027784433e+00 
104200 5.6022711312e+00 7.1468784533e-05 1.5027148349e+00 -2.6027784433e+00 1.5027148349e+00 2.6027784433e+00 
104300 5.6022711304e+00 7.0602724574e-05 1.5027124569e+00 -2.6027743245e+00 1.5027124569e+00 2.6027743245e+00 
104400 5.6022711298e+00 7.1434765244e-05 1.5027124569e+00 -2.6027743245e+00 1.5027124569e+00 2.6027743245e+00 
104500 5.6022711291e+00 7.0559424697e-05 1.5027100800e+00 -2.6027702077e+00 1.5027100800e+00 2.6027702077e+00 
104600 5.6022711285e+00 7.1381401057e-05 1.5027100800e+00 -2.6027702077e+00 1.5027100800e+00 2.6027702077e+00 
104700 5.6022711278e+00 7.0497302322e-05 1.5027077049e+00 -2.6027660939e+00 1.5027077049e+00 2.6027660939e+00 
104800 5.6022711273e+00 7.1309276137e-05 1.5027077049e+00 -2.6027660939e+00 1.5027077049e+00 2.6027660939e+00 
104900 5.6022711265e+00 7.0416928298e-05 1.5027053323e+00 -2.6027619843e+00 1.5027053323e+00 2.6027619843e+00 
105000 5.6022711260e+00 7.1218962176e-05 1.5027053323e+00 -2.6027619843e+00 1.5027053323e+00 2.6027619843e+00 
105100 5.6022711253e+00 7.0318861758e-05 1.5027029626e+00 -2.6027578798e+00 1.5027029626e+00 2.6027578798e+00 
105200 5.6022711248e+00 7.1111019576e-05 1.5027029626e+00 -2.6027578798e+00 1.5027029626e+00 2.6027578798e+00 
105300 5.6022711241e+00 7.0203651211e-05 1.5027005965e+00 -2.6027537816e+00 1.5027005965e+00 2.6027537816e+00 
105400 5.6022711236e+00 7.0985998478e-05 1.5027005965e+00 -2.6027537816e+00 1.5027005965e+00 2.6027537816e+00 
105500 5.6022711229e+00 7.0071835477e-05 1.5026982345e+00 -2.6027496906e+00 1.5026982345e+00 2.6027496906e+00 
105600 5.6022711224e+00 7.0844439639e-05 1.5026982345e+00 -2.6027496906e+00 1.5026982345e+00 2.6027496906e+00 
105700 5.6022711217e+00 6.9923944496e-05 1.5026958773e+00 -2.6027456078e+00 1.5026958773e+00 2.6027456078e+00 
105800 5.6022711213e+00 7.0686875172e-05 1.5026958773e+00 -2.6027456078e+00 1.5026958773e+00 2.6027456078e+00 
105900 5.6022711208e+00 7.1445477551e-05 1.5026958773e+00 -2.6027456078e+00 1.5026958773e+00 2.6027456078e+00 
106000 5.6022711201e+00 7.0496791676e-05 1.5026935000e+00 -2.6027414903e+00 1.5026935000e+00 2.6027414903e+00 
106100 5.6022711197e+00 7.1245967198e-05 1.5026935000e+00 -2.6027414903e+00 1.5026935000e+00 2.6027414903e+00 
106200 5.6022711190e+00 7.0292634602e-05 1.5026911294e+00 -2.6027373842e+00 1.5026911294e+00 2.6027373842e+00 
106300 5.6022711186e+00 7.1032430600e-05 1.5026911294e+00 -2.6027373842e+00 1.5026911294e+00 2.6027373842e+00 
106400 5.6022711180e+00 7.0074835323e-05 1.5026887659e+00 -2.6027332905e+00 1.5026887659e+00 2.6027332905e+00 
106500 5.6022711175e+00 7.0805304257e-05 1.5026887659e+00 -2.6027332905e+00 1.5026887659e+00 2.6027332905e+00 
106600 5.6022711169e+00 6.9843825048e-05 1.5026864100e+00 -2.6027292099e+00 1.5026864100e+00 2.6027292099e+00 
106700 5.6022711165e+00 7.0565024448e-05 1.5026864100e+00 -2.6027292099e+00 1.5026864100e+00 2.6027292099e+00 
106800 5.6022711161e+00 7.1282093438e-05 1.5026864100e+00 -2.6027292099e+00 1.5026864100e+00 2.6027292099e+00 
106900 5.6022711155e+00 7.0295978334e-05 1.5026840381e+00 -2.6027251018e+00 1.5026840381e+00 2.6027251018e+00 
107000 5.6022711151e+00 7.1004010834e-05 1.5026840381e+00 -2.6027251018e+00 1.5026840381e+00 2.6027251018e+00 
107100 5.6022711144e+00 7.0015507949e-05 1.5026816756e+00 -2.6027210097e+00 1.5026816756e+00 2.6027210097e+00 
107200 5.6022711141e+00 7.0714545225e-05 1.5026816756e+00 -2.6027210097e+00 1.5026816756e+00 2.6027210097e+00 
107300 5.6022711135e+00 6.9723970561e-05 1.5026793226e+00 -2.6027169343e+00 1.5026793226e+00 2.6027169343e+00 
107400 5.6022711131e+00 7.0414060950e-05 1.5026793226e+00 -2.6027169343e+00 1.5026793226e+00 2.6027169343e+00 
107500 5.6022711127e+00 7.1100178681e-05 1.5026793226e+00 -2.6027169343e+00 1.5026793226e+00 2.6027169343e+00 
107600 5.6022711121e+00 7.0087614584e-05 1.5026769568e+00 -2.6027128366e+00 1.5026769568e+00 2.6027128366e+00 
107700 5.6022711118e+00 7.0765007697e-05 1.5026769568e+00 -2.6027128366e+00 1.5026769568e+00 2.6027128366e+00 
107800 5.6022711112e+00 6.9751725048e-05 1.5026746022e+00 -2.6027087583e+00 1.5026746022e+00 2.6027087583e+00 
107900 5.6022711108e+00 7.0420429819e-05 1.5026746022e+00 -2.6027087583e+00 1.5026746022e+00 2.6027087583e+00 
108000 5.6022711105e+00 7.1085287475e-05 1.5026746022e+00 -2.6027087583e+00 1.5026746022e+00 2.6027087583e+00 
108100 5.6022711099e+00 7.0051948707e-05 1.5026722369e+00 -2.6027046615e+00 1.5026722369e+00 2.6027046615e+00 
108200 5.6022711096e+00 7.0708325239e-05 1.5026722369e+00 -2.6027046615e+00 1.5026722369e+00 2.6027046615e+00 
108300 5.6022711092e+00 7.1360954026e-05 1.5026722369e+00 -2.6027046615e+00 1.5026722369e+00 2.6027046615e+00 
108400 5.6022711087e+00 7.0308916464e-05 1.5026698625e+00 -2.6027005488e+00 1.5026698625e+00 2.6027005488e+00 
108500 5.6022711084e+00 7.0953247611e-05 1.5026698625e+00 -2.6027005488e+00 1.5026698625e+00 2.6027005488e+00 
108600 5.6022711078e+00 6.9902634927e-05 1.5026675015e+00 -2.6026964596e+00 1.5026675015e+00 2.6026964596e+00 
108700 5.6022711075e+00 7.0538682303e-05 1.5026675015e+00 -2.6026964596e+00 1.5026675015e+00 2.6026964596e+00 
108800 5.6022711072e+00 7.1171078533e-05 1.5026675015e+00 -2.6026964596e+00 1.5026675015e+00 2.6026964596e+00 
108900 5.6022711066e+00 7.0103436556e-05 1.5026651334e+00 -2.6026923578e+00 1.5026651334e+00 2.6026923578e+00 
109000 5.6022711063e+00 7.0727728211e-05 1.5026651334e+00 -2.6026923578e+00 1.5026651334e+00 2.6026923578e+00 
109100 5.6022711058e+00 6.9662552455e-05 1.5026627800e+00 -2.6026882816e+00 1.5026627800e+00 2.6026882816e+00 
109200 5.6022711055e+00 7.0278751910e-05 1.5026627800e+00 -2.6026882816e+00 1.5026627800e+00 2.6026882816e+00 
109300 5.6022711052e+00 7.0891394112e-05 1.5026627800e+00 -2.6026882816e+00 1.5026627800e+00 2.6026882816e+00 
109400 5.6022711047e+00 6.9810764104e-05 1.5026604211e+00 -2.6026841959e+00 1.5026604211e+00 2.6026841959e+00 
109500 5.6022711044e+00 7.0415491900e-05 1.5026604211e+00 -2.6026841959e+00 1.5026604211e+00 2.6026841959e+00 
109600 5.6022711041e+00 7.1016747908e-05 1.5026604211e+00 -2.6026841959e+00 1.5026604211e+00 2.6026841959e+00 
109700 5.6022711036e+00 6.9921830979e-05 1.5026580581e+00 -2.6026801030e+00 1.5026580581e+00 2.6026801030e+00 
109800 5.6022711033e+00 7.0515333469e-05 1.5026580581e+00 -2.6026801030e+00 1.5026580581e+00 2.6026801030e+00 
109900 5.6022711031e+00 7.1105441620e-05 1.5026580581e+00 -2.6026801030e+00 1.5026580581e+00 2.6026801030e+00 
110000 5.6022711026e+00 6.9997342149e-05 1.5026556921e+00 -2.6026760050e+00 1.5026556921e+00 2.6026760050e+00 
110100 5.6022711023e+00 7.0579843386e-05 1.5026556921e+00 -2.6026760050e+00 1.5026556921e+00 2.6026760050e+00 
110200 5.6022711020e+00 7.1159020975e-05 1.5026556921e+00 -2.6026760050e+00 1.5026556921e+00 2.6026760050e+00 
110300 5.6022711016e+00 7.0038786665e-05 1.5026533243e+00 -2.6026719039e+00 1.5026533243e+00 2.6026719039e+00 
110400 5.6022711013e+00 7.0610492028e-05 1.5026533243e+00 -2.6026719039e+00 1.5026533243e+00 2.6026719039e+00 
110500 5.6022711010e+00 7.1178938808e-05 1.5026533243e+00 -2.6026719039e+00 1.5026533243e+00 2.6026719039e+00 
110600 5.6022711006e+00 7.0047566282e-05 1.5026509559e+00 -2.6026678016e+00 1.5026509559e+00 2.6026678016e+00 
110700 5.6022711003e+00 7.0608665728e-05 1.5026509559e+00 -2.6026678016e+00 1.5026509559e+00 2.6026678016e+00 
110800 5.6022711001e+00 7.1166567039e-05 1.5026509559e+00 -2.6026678016e+00 1.5026509559e+00 2.6026678016e+00 
110900 5.6022710996e+00 7.0025006778e-05 1.5026485879e+00 -2.6026637001e+00 1.5026485879e+00 2.6026637001e+00 
111000 5.6022710994e+00 7.0575677741e-05 1.5026485879e+00 -2.6026637001e+00 1.5026485879e+00 2.6026637001e+00 
111100 5.6022710991e+00 7.1123207294e-05 1.5026485879e+00 -2.6026637001e+00 1.5026485879e+00 2.6026637001e+00 
111200 5.6022710987e+00 6.9972367987e-05 1.5026462213e+00 -2.6026596010e+00 1.5026462213e+00 2.6026596010e+00 
111300 5.6022710984e+00 7.0512777935e-05 1.5026462213e+00 -2.6026596010e+00 1.5026462213e+00 2.6026596010e+00 
111400 5.6022710982e+00 7.1050100260e-05 1.5026462213e+00 -2.6026596010e+00 1.5026462213e+00 2.6026596010e+00 
111500 5.6022710978e+00 6.9890852594e-05 1.5026438571e+00 -2.6026555062e+00 1.5026438571e+00 2.6026555062e+00 
111600 5.6022710975e+00 7.0421161262e-05 1.5026438571e+00 -2.6026555062e+00 1.5026438571e+00 2.6026555062e+00 
111700 5.6022710973e+00 7.0948433842e-05 1.5026438571e+00 -2.6026555062e+00 1.5026438571e+00 2.6026555062e+00 
111800 5.6022710969e+00 6.9781613799e-05 1.5026414963e+00 -2.6026514172e+00 1.5026414963e+00 2.6026514172e+00 
111900 5.6022710967e+00 7.0301975135e-05 1.5026414963e+00 -2.6026514172e+00 1.5026414963e+00 2.6026514172e+00 
112000 5.6022710965e+00 7.0819350252e-05 1.5026414963e+00 -2.6026514172e+00 1.5026414963e+00 2.6026514172e+00 
112100 5.6022710960e+00 6.9645761949e-05 1.5026391398e+00 -2.6026473356e+00 1.5026391398e+00 2.6026473356e+00 
112200 5.6022710958e+00 7.0156325767e-05 1.5026391398e+00 -2.6026473356e+00 1.5026391398e+00 2.6026473356e+00 
112300 5.6022710956e+00 7.0663952071e-05 1.5026391398e+00 -2.6026473356e+00 1.5026391398e+00 2.6026473356e+00 
112400 5.6022710954e+00 7.1168711283e-05 1.5026391398e+00 -2.6026473356e+00 1.5026391398e+00 2.6026473356e+00 
112500 5.6022710950e+00 6.9974299729e-05 1.5026367717e+00 -2.6026432339e+00 1.5026367717e+00 2.6026432339e+00 
112600 5.6022710948e+00 7.0472465848e-05 1.5026367717e+00 -2.6026432339e+00 1.5026367717e+00 2.6026432339e+00 
112700 5.6022710946e+00 7.0967798586e-05 1.5026367717e+00 -2.6026432339e+00 1.5026367717e+00 2.6026432339e+00 
112800 5.6022710942e+00 6.9768786110e-05 1.5026344102e+00 -2.6026391438e+00 1.5026344102e+00 2.6026391438e+00 
112900 5.6022710940e+00 7.0257596888e-05 1.5026344102e+00 -2.6026391438e+00 1.5026344102e+00 2.6026391438e+00 
113000 5.6022710938e+00 7.0743609371e-05 1.5026344102e+00 -2.6026391438e+00 1.5026344102e+00 2.6026391438e+00 
113100 5.6022710934e+00 6.9540658275e-05 1.5026320563e+00 -2.6026350665e+00 1.5026320563e+00 2.6026350665e+00 
113200 5.6022710932e+00 7.0020223159e-05 1.5026320563e+00 -2.6026350665e+00 1.5026320563e+00 2.6026350665e+00 
113300 5.6022710931e+00 7.0497026376e-05 1.5026320563e+00 -2.6026350665e+00 1.5026320563e+00 2.6026350665e+00 
113400 5.6022710929e+00 7.0971134760e-05 1.5026320563e+00 -2.6026350665e+00 1.5026320563e+00 2.6026350665e+00 
113500 5.6022710925e+00 6.9750960931e-05 1.5026296947e+00 -2.6026309762e+00 1.5026296947e+00 2.6026309762e+00 
113600 5.6022710923e+00 7.0218813359e-05 1.5026296947e+00 -2.6026309762e+00 1.5026296947e+00 2.6026309762e+00 
113700 5.6022710921e+00 7.0683995731e-05 1.5026296947e+00 -2.6026309762e+00 1.5026296947e+00 2.6026309762e+00 
113800 5.6022710920e+00 7.1146571473e-05 1.5026296947e+00 -2.6026309762e+00 1.5026296947e+00 2.6026309762e+00 
113900 5.6022710916e+00 6.9910773135e-05 1.5026273273e+00 -2.6026268757e+00 1.5026273273e+00 2.6026268757e+00 
114000 5.6022710914e+00 7.0367256978e-05 1.5026273273e+00 -2.6026268757e+00 1.5026273273e+00 2.6026268757e+00 
114100 5.6022710913e+00 7.0821149345e-05 1.5026273273e+00 -2.6026268757e+00 1.5026273273e+00 2.6026268757e+00 
114200 5.6022710909e+00 6.9584442747e-05 1.5026249707e+00 -2.6026227940e+00 1.5026249707e+00 2.6026227940e+00 
114300 5.6022710907e+00 7.0032282424e-05 1.5026249707e+00 -2.6026227940e+00 1.5026249707e+00 2.6026227940e+00 
114400 5.6022710906e+00 7.0477550670e-05 1.5026249707e+00 -2.6026227940e+00 1.5026249707e+00 2.6026227940e+00 
114500 5.6022710904e+00 7.0920309476e-05 1.5026249707e+00 -2.6026227940e+00 1.5026249707e+00 2.6026227940e+00 
114600 5.6022710900e+00 6.9670189467e-05 1.5026226108e+00 -2.6026187066e+00 1.5026226108e+00 2.6026187066e+00 
114700 5.6022710899e+00 7.0107050010e-05 1.5026226108e+00 -2.6026187066e+00 1.5026226108e+00 2.6026187066e+00 
114800 5.6022710897e+00 7.0541413217e-05 1.5026226108e+00 -2.6026187066e+00 1.5026226108e+00 2.6026187066e+00 
114900 5.6022710896e+00 7.0973338779e-05 1.5026226108e+00 -2.6026187066e+00 1.5026226108e+00 2.6026187066e+00 
115000 5.6022710892e+00 6.9711195266e-05 1.5026202492e+00 -2.6026146161e+00 1.5026202492e+00 2.6026146161e+00 
115100 5.6022710891e+00 7.0137358782e-05 1.5026202492e+00 -2.6026146161e+00 1.5026202492e+00 2.6026146161e+00 
115200 5.6022710889e+00 7.0561090471e-05 1.5026202492e+00 -2.6026146161e+00 1.5026202492e+00 2.6026146161e+00 
115300 5.6022710888e+00 7.0982448203e-05 1.5026202492e+00 -2.6026146161e+00 1.5026202492e+00 2.6026146161e+00 
115400 5.6022710885e+00 6.9709585553e-05 1.5026178872e+00 -2.6026105251e+00 1.5026178872e+00 2.6026105251e+00 
115500 5.6022710883e+00 7.0125303271e-05 1.5026178872e+00 -2.6026105251e+00 1.5026178872e+00 2.6026105251e+00 
115600 5.6022710882e+00 7.0538648003e-05 1.5026178872e+00 -2.6026105251e+00 1.5026178872e+00 2.6026105251e+00 
115700 5.6022710880e+00 7.0949676205e-05 1.5026178872e+00 -2.6026105251e+00 1.5026178872e+00 2.6026105251e+00 
115800 5.6022710877e+00 6.9667324877e-05 1.5026155264e+00 -2.6026064359e+00 1.5026155264e+00 2.6026064359e+00 
115900 5.6022710876e+00 7.0072824384e-05 1.5026155264e+00 -2.6026064359e+00 1.5026155264e+00 2.6026064359e+00 
116000 5.6022710874e+00 7.0476004723e-05 1.5026155264e+00 -2.6026064359e+00 1.5026155264e+00 2.6026064359e+00 
116100 5.6022710873e+00 7.0876921284e-05 1.5026155264e+00 -2.6026064359e+00 1.5026155264e+00 2.6026064359e+00 
116200 5.6022710870e+00 6.9586247593e-05 1.5026131679e+00 -2.6026023510e+00 1.5026131679e+00 2.6026023510e+00 
116300 5.6022710868e+00 6.9981739010e-05 1.5026131679e+00 -2.6026023510e+00 1.5026131679e+00 2.6026023510e+00 
116400 5.6022710867e+00 7.0374961448e-05 1.5026131679e+00 -2.6026023510e+00 1.5026131679e+00 2.6026023510e+00 
116500 5.6022710866e+00 7.0765969518e-05 1.5026131679e+00 -2.6026023510e+00 1.5026131679e+00 2.6026023510e+00 
116600 5.6022710863e+00 6.9468083746e-05 1.5026108132e+00 -2.6025982724e+00 1.5026108132e+00 2.6025982724e+00 
116700 5.6022710861e+00 6.9853764921e-05 1.5026108132e+00 -2.6025982724e+00 1.5026108132e+00 2.6025982724e+00 
116800 5.6022710860e+00 7.0237224829e-05 1.5026108132e+00 -2.6025982724e+00 1.5026108132e+00 2.6025982724e+00 
116900 5.6022710859e+00 7.0618517539e-05 1.5026108132e+00 -2.6025982724e+00 1.5026108132e+00 2.6025982724e+00 
117000 5.6022710858e+00 7.0997693625e-05 1.5026108132e+00 -2.6025982724e+00 1.5026108132e+00 2.6025982724e+00 
117100 5.6022710855e+00 6.9682551677e-05 1.5026084507e+00 -2.6025941805e+00 1.5026084507e+00 2.6025941805e+00 
117200 5.6022710854e+00 7.0056581338e-05 1.5026084507e+00 -2.6025941805e+00 1.5026084507e+00 2.6025941805e+00 
117300 5.6022710853e+00 7.0428475957e-05 1.5026084507e+00 -2.6025941805e+00 1.5026084507e+00 2.6025941805e+00 
117400 5.6022710851e+00 7.0798286320e-05 1.5026084507e+00 -2.6025941805e+00 1.5026084507e+00 2.6025941805e+00 
117500 5.6022710848e+00 6.9478566810e-05 1.5026060948e+00 -2.6025901000e+00 1.5026060948e+00 2.6025901000e+00 
117600 5.6022710847e+00 6.9843299076e-05 1.5026060948e+00 -2.6025901000e+00 1.5026060948e+00 2.6025901000e+00 
117700 5.6022710846e+00 7.0205929943e-05 1.5026060948e+00 -2.6025901000e+00 1.5026060948e+00 2.6025901000e+00 
117800 5.6022710845e+00 7.0566510501e-05 1.5026060948e+00 -2.6025901000e+00 1.5026060948e+00 2.6025901000e+00 
117900 5.6022710844e+00 7.0925088535e-05 1.5026060948e+00 -2.6025901000e+00 1.5026060948e+00 2.6025901000e+00 
118000 5.6022710841e+00 6.9591197746e-05 1.5026037348e+00 -2.6025860123e+00 1.5026037348e+00 2.6025860123e+00 
118100 5.6022710840e+00 6.9944850689e-05 1.5026037348e+00 -2.6025860123e+00 1.5026037348e+00 2.6025860123e+00 
118200 5.6022710839e+00 7.0296475588e-05 1.5026037348e+00 -2.6025860123e+00 1.5026037348e+00 2.6025860123e+00 
118300 5.6022710838e+00 7.0646121128e-05 1.5026037348e+00 -2.6025860123e+00 1.5026037348e+00 2.6025860123e+00 
118400 5.6022710837e+00 7.0993832822e-05 1.5026037348e+00 -2.6025860123e+00 1.5026037348e+00 2.6025860123e+00 
118500 5.6022710834e+00 6.9647507880e-05 1.5026013724e+00 -2.6025819205e+00 1.5026013724e+00 2.6025819205e+00 
118600 5.6022710833e+00 6.9990424339e-05 1.5026013724e+00 -2.6025819205e+00 1.5026013724e+00 2.6025819205e+00 
118700 5.6022710832e+00 7.0331375226e-05 1.5026013724e+00 -2.6025819205e+00 1.5026013724e+00 2.6025819205e+00 
118800 5.6022710831e+00 7.0670407454e-05 1.5026013724e+00 -2.6025819205e+00 1.5026013724e+00 2.6025819205e+00 
118900 5.6022710830e+00 7.1007564873e-05 1.5026013724e+00 -2.6025819205e+00 1.5026013724e+00 2.6025819205e+00 
119000 5.6022710827e+00 6.9650419695e-05 1.5025990096e+00 -2.6025778280e+00 1.5025990096e+00 2.6025778280e+00 
119100 5.6022710826e+00 6.9982895025e-05 1.5025990096e+00 -2.6025778280e+00 1.5025990096e+00 2.6025778280e+00 
119200 5.6022710826e+00 7.0313459440e-05 1.5025990096e+00 -2.6025778280e+00 1.5025990096e+00 2.6025778280e+00 
119300 5.6022710825e+00 7.0642158601e-05 1.5025990096e+00 -2.6025778280e+00 1.5025990096e+00 2.6025778280e+00 
119400 5.6022710824e+00 7.0969035195e-05 1.5025990096e+00 -2.6025778280e+00 1.5025990096e+00 2.6025778280e+00 
119500 5.6022710821e+00 6.9602582267e-05 1.5025966480e+00 -2.6025737377e+00 1.5025966480e+00 2.6025737377e+00 
119600 5.6022710820e+00 6.9924878535e-05 1.5025966480e+00 -2.6025737377e+00 1.5025966480e+00 2.6025737377e+00 
119700 5.6022710819e+00 7.0245313252e-05 1.5025966480e+00 -2.6025737377e+00 1.5025966480e+00 2.6025737377e+00 
119800 5.6022710818e+00 7.0563931242e-05 1.5025966480e+00 -2.6025737377e+00 1.5025966480e+00 2.6025737377e+00 
119900 5.6022710818e+00 7.0880774431e-05 1.5025966480e+00 -2.6025737377e+00 1.5025966480e+00 2.6025737377e+00 
120000 5.6022710815e+00 6.9506442119e-05 1.5025942894e+00 -2.6025696525e+00 1.5025942894e+00 2.6025696525e+00 
120100 5.6022710814e+00 6.9818799667e-05 1.5025942894e+00 -2.6025696525e+00 1.5025942894e+00 2.6025696525e+00 
120200 5.6022710813e+00 7.0129341756e-05 1.5025942894e+00 -2.6025696525e+00 1.5025942894e+00 2.6025696525e+00 
120300 5.6022710812e+00 7.0438112698e-05 1.5025942894e+00 -2.6025696525e+00 1.5025942894e+00 2.6025696525e+00 
120400 5.6022710812e+00 7.0745153967e-05 1.5025942894e+00 -2.6025696525e+00 1.5025942894e+00 2.6025696525e+00 
120500 5.6022710809e+00 6.9364299943e-05 1.5025919353e+00 -2.6025655750e+00 1.5025919353e+00 2.6025655750e+00 
120600 5.6022710808e+00 6.9666946554e-05 1.5025919353e+00 -2.6025655750e+00 1.5025919353e+00 2.6025655750e+00 
120700 5.6022710807e+00 6.9967822101e-05 1.5025919353e+00 -2.6025655750e+00 1.5025919353e+00 2.6025655750e+00 
120800 5.6022710807e+00 7.0266970624e-05 1.5025919353e+00 -2.6025655750e+00 1.5025919353e+00 2.6025655750e+00 
120900 5.6022710806e+00 7.0564433376e-05 1.5025919353e+00 -2.6025655750e+00 1.5025919353e+00 2.6025655750e+00 
121000 5.6022710805e+00 7.0860248920e-05 1.5025919353e+00 -2.6025655750e+00 1.5025919353e+00 2.6025655750e+00 
121100 5.6022710802e+00 6.9465510023e-05 1.5025895774e+00 -2.6025614910e+00 1.5025895774e+00 2.6025614910e+00 
121200 5.6022710802e+00 6.9757085794e-05 1.5025895774e+00 -2.6025614910e+00 1.5025895774e+00 2.6025614910e+00 
121300 5.6022710801e+00 7.0046964841e-05 1.5025895774e+00 -2.6025614910e+00 1.5025895774e+00 2.6025614910e+00 
121400 5.6022710800e+00 7.0335188862e-05 1.5025895774e+00 -2.6025614910e+00 1.5025895774e+00 2.6025614910e+00 
121500 5.6022710800e+00 7.0621796896e-05 1.5025895774e+00 -2.6025614910e+00 1.5025895774e+00 2.6025614910e+00 
121600 5.6022710799e+00 7.0906825415e-05 1.5025895774e+00 -2.6025614910e+00 1.5025895774e+00 2.6025614910e+00 
121700 5.6022710796e+00 6.9500259108e-05 1.5025872179e+00 -2.6025574042e+00 1.5025872179e+00 2.6025574042e+00 
121800 5.6022710796e+00 6.9781176577e-05 1.5025872179e+00 -2.6025574042e+00 1.5025872179e+00 2.6025574042e+00 
121900 5.6022710795e+00 7.0060459343e-05 1.5025872179e+00 -2.6025574042e+00 1.5025872179e+00 2.6025574042e+00 
122000 5.6022710794e+00 7.0338147476e-05 1.5025872179e+00 -2.6025574042e+00 1.5025872179e+00 2.6025574042e+00 
122100 5.6022710794e+00 7.0614278485e-05 1.5025872179e+00 -2.6025574042e+00 1.5025872179e+00 2.6025574042e+00 
122200 5.6022710793e+00 7.0888887413e-05 1.5025872179e+00 -2.6025574042e+00 1.5025872179e+00 2.6025574042e+00 
122300 5.6022710791e+00 6.9472388826e-05 1.5025848590e+00 -2.6025533185e+00 1.5025848590e+00 2.6025533185e+00 
122400 5.6022710790e+00 6.9742997772e-05 1.5025848590e+00 -2.6025533185e+00 1.5025848590e+00 2.6025533185e+00 
122500 5.6022710789e+00 7.0012025771e-05 1.5025848590e+00 -2.6025533185e+00 1.5025848590e+00 2.6025533185e+00 
122600 5.6022710789e+00 7.0279511821e-05 1.5025848590e+00 -2.6025533185e+00 1.5025848590e+00 2.6025533185e+00 
122700 5.6022710788e+00 7.0545492446e-05 1.5025848590e+00 -2.6025533185e+00 1.5025848590e+00 2.6025533185e+00 
122800 5.6022710788e+00 7.0810001776e-05 1.5025848590e+00 -2.6025533185e+00 1.5025848590e+00 2.6025533185e+00 
122900 5.6022710785e+00 6.9385337063e-05 1.5025825028e+00 -2.6025492373e+00 1.5025825028e+00 2.6025492373e+00 
123000 5.6022710784e+00 6.9645946572e-05 1.5025825028e+00 -2.6025492373e+00 1.5025825028e+00 2.6025492373e+00 
123100 5.6022710784e+00 6.9905023805e-05 1.5025825028e+00 -2.6025492373e+00 1.5025825028e+00 2.6025492373e+00 
123200 5.6022710783e+00 7.0162607120e-05 1.5025825028e+00 -2.6025492373e+00 1.5025825028e+00 2.6025492373e+00 
123300 5.6022710783e+00 7.0418732457e-05 1.5025825028e+00 -2.6025492373e+00 1.5025825028e+00 2.6025492373e+00 
123400 5.6022710782e+00 7.0673433431e-05 1.5025825028e+00 -2.6025492373e+00 1.5025825028e+00 2.6025492373e+00 
123500 5.6022710782e+00 7.0926741416e-05 1.5025825028e+00 -2.6025492373e+00 1.5025825028e+00 2.6025492373e+00 
123600 5.6022710779e+00 6.9488173032e-05 1.5025801426e+00 -2.6025451494e+00 1.5025801426e+00 2.6025451494e+00 
123700 5.6022710779e+00 6.9737728177e-05 1.5025801426e+00 -2.6025451494e+00 1.5025801426e+00 2.6025451494e+00 
123800 5.6022710778e+00 6.9985821665e-05 1.5025801426e+00 -2.6025451494e+00 1.5025801426e+00 2.6025451494e+00 
123900 5.6022710778e+00 7.0232489657e-05 1.5025801426e+00 -2.6025451494e+00 1.5025801426e+00 2.6025451494e+00 
124000 5.6022710777e+00 7.0477766023e-05 1.5025801426e+00 -2.6025451494e+00 1.5025801426e+00 2.6025451494e+00 
124100 5.6022710777e+00 7.0721682425e-05 1.5025801426e+00 -2.6025451494e+00 1.5025801426e+00 2.6025451494e+00 
124200 5.6022710774e+00 6.9278645873e-05 1.5025777892e+00 -2.6025410733e+00 1.5025777892e+00 2.6025410733e+00 
124300 5.6022710774e+00 6.9518879388e-05 1.5025777892e+00 -2.6025410733e+00 1.5025777892e+00 2.6025410733e+00 
124400 5.6022710773e+00 6.9757685766e-05 1.5025777892e+00 -2.6025410733e+00 1.5025777892e+00 2.6025410733e+00 
124500 5.6022710773e+00 6.9995101530e-05 1.5025777892e+00 -2.6025410733e+00 1.5025777892e+00 2.6025410733e+00 
124600 5.6022710772e+00 7.0231160941e-05 1.5025777892e+00 -2.6025410733e+00 1.5025777892e+00 2.6025410733e+00 
124700 5.6022710772e+00 7.0465896069e-05 1.5025777892e+00 -2.6025410733e+00 1.5025777892e+00 2.6025410733e+00 
124800 5.6022710772e+00 7.0699336882e-05 1.5025777892e+00 -2.6025410733e+00 1.5025777892e+00 2.6025410733e+00 
124900 5.6022710771e+00 7.0931511319e-05 1.5025777892e+00 -2.6025410733e+00 1.5025777892e+00 2.6025410733e+00 
125000 5.6022710769e+00 6.9471826640e-05 1.5025754289e+00 -2.6025369851e+00 1.5025754289e+00 2.6025369851e+00 
125100 5.6022710768e+00 6.9700491585e-05 1.5025754289e+00 -2.6025369851e+00 1.5025754289e+00 2.6025369851e+00 
125200 5.6022710768e+00 6.9927812400e-05 1.5025754289e+00 -2.6025369851e+00 1.5025754289e+00 2.6025369851e+00 
125300 5.6022710767e+00 7.0153822597e-05 1.5025754289e+00 -2.6025369851e+00 1.5025754289e+00 2.6025369851e+00 
125400 5.6022710767e+00 7.0378553574e-05 1.5025754289e+00 -2.6025369851e+00 1.5025754289e+00 2.6025369851e+00 
125500 5.6022710767e+00 7.0602034694e-05 1.5025754289e+00 -2.6025369851e+00 1.5025754289e+00 2.6025369851e+00 
125600 5.6022710766e+00 7.0824293364e-05 1.5025754289e+00 -2.6025369851e+00 1.5025754289e+00 2.6025369851e+00 
125700 5.6022710764e+00 6.9357294995e-05 1.5025730722e+00 -2.6025329031e+00 1.5025730722e+00 2.6025329031e+00 
125800 5.6022710763e+00 6.9576132115e-05 1.5025730722e+00 -2.6025329031e+00 1.5025730722e+00 2.6025329031e+00 
125900 5.6022710763e+00 6.9793668035e-05 1.5025730722e+00 -2.6025329031e+00 1.5025730722e+00 2.6025329031e+00 
126000 5.6022710763e+00 7.0009935950e-05 1.5025730722e+00 -2.6025329031e+00 1.5025730722e+00 2.6025329031e+00 
126100 5.6022710762e+00 7.0224966995e-05 1.5025730722e+00 -2.6025329031e+00 1.5025730722e+00 2.6025329031e+00 
126200 5.6022710762e+00 7.0374768478e-05 1.5025730722e+00 -2.6025329031e+00 1.5025730722e+00 2.6025329031e+00 
126200 5.6022710762e+00 7.0374768478e-05 1.5025730722e+00 -2.6025329031e+00 1.5025730722e+00 2.6025329031e+00 
