# step Hamiltonian StressXX CellTensor1 CellTensor2 CellTensor3 CellTensor4 
0 5.9602516711e+00 -5.1009837036e-02 1.7865676565e+00 -3.0944259522e+00 1.7865676565e+00 3.0944259522e+00 
100 5.9605198868e+00 -4.1698688178e-02 1.7865676565e+00 -3.0944259522e+00 1.7865676565e+00 3.0944259522e+00 
200 5.9600657107e+00 -3.3207033971e-02 1.7877347890e+00 -3.0964474851e+00 1.7877347890e+00 3.0964474851e+00 
300 5.9591949298e+00 -2.5774742105e-02 1.7886636155e+00 -3.0980562597e+00 1.7886636155e+00 3.0980562597e+00 
400 5.9580568813e+00 -1.9202352424e-02 1.7893841666e+00 -3.0993042909e+00 1.7893841666e+00 3.0993042909e+00 
500 5.9567532695e+00 -1.3348009417e-02 1.7899207566e+00 -3.1002336919e+00 1.7899207566e+00 3.1002336919e+00 
600 5.9553539773e+00 -8.1073912617e-03 1.7902936355e+00 -3.1008795371e+00 1.7902936355e+00 3.1008795371e+00 
700 5.9539071445e+00 -3.4012984388e-03 1.7905200665e+00 -3.1012717272e+00 1.7905200665e+00 3.1012717272e+00 
800 5.9524457681e+00 8.3222928591e-04 1.7906150481e+00 -3.1014362401e+00 1.7906150481e+00 3.1014362401e+00 
900 5.9509921347e+00 4.6430397153e-03 1.7905918095e+00 -3.1013959897e+00 1.7905918095e+00 3.1013959897e+00 
1000 5.9495608642e+00 8.0722740682e-03 1.7904621601e+00 -3.1011714303e+00 1.7904621601e+00 3.1011714303e+00 
1100 5.9481610432e+00 1.1154673558e-02 1.7902367405e+00 -3.1007809922e+00 1.7902367405e+00 3.1007809922e+00 
1200 5.9467977515e+00 1.3920169495e-02 1.7899252077e+00 -3.1002414015e+00 1.7899252077e+00 3.1002414015e+00 
1300 5.9454731711e+00 1.6394997862e-02 1.7895363740e+00 -3.0995679218e+00 1.7895363740e+00 3.0995679218e+00 
1400 5.9441874071e+00 1.8602493034e-02 1.7890783141e+00 -3.0987745387e+00 1.7890783141e+00 3.0987745387e+00 
1500 5.9429391023e+00 2.0563661740e-02 1.7885584488e+00 -3.0978741057e+00 1.7885584488e+00 3.0978741057e+00 
1600 5.9417259040e+00 2.2297604371e-02 1.7879836127e+00 -3.0968784603e+00 1.7879836127e+00 3.0968784603e+00 
1700 5.9405448203e+00 2.3821828877e-02 1.7873601085e+00 -3.0957985193e+00 1.7873601085e+00 3.0957985193e+00 
1800 5.9393924950e+00 2.5152488118e-02 1.7866937529e+00 -3.0946443576e+00 1.7866937529e+00 3.0946443576e+00 
1900 5.9382654188e+00 2.6304562018e-02 1.7859899155e+00 -3.0934252755e+00 1.7859899155e+00 3.0934252755e+00 
2000 5.9371600916e+00 2.7291999454e-02 1.7852535521e+00 -3.0921498566e+00 1.7852535521e+00 3.0921498566e+00 
2100 5.9360731460e+00 2.8127830426e-02 1.7844892335e+00 -3.0908260179e+00 1.7844892335e+00 3.0908260179e+00 
2200 5.9350014394e+00 2.8824256040e-02 1.7837011716e+00 -3.0894610547e+00 1.7837011716e+00 3.0894610547e+00 
2300 5.9339421210e+00 2.9392721763e-02 1.7828932425e+00 -3.0880616806e+00 1.7828932425e+00 3.0880616806e+00 
2400 5.9328926776e+00 2.9843977911e-02 1.7820690077e+00 -3.0866340639e+00 1.7820690077e+00 3.0866340639e+00 
2500 5.9318509629e+00 3.0188130286e-02 1.7812317326e+00 -3.0851838609e+00 1.7812317326e+00 3.0851838609e+00 
2600 5.9308152124e+00 3.0434683164e-02 1.7803844050e+00 -3.0837162465e+00 1.7803844050e+00 3.0837162465e+00 
2700 5.9297840465e+00 3.0592576254e-02 1.7795297512e+00 -3.0822359426e+00 1.7795297512e+00 3.0822359426e+00 
2800 5.9287564642e+00 3.0670216891e-02 1.7786702513e+00 -3.0807472452e+00 1.7786702513e+00 3.0807472452e+00 
2900 5.9277318299e+00 3.0675508416e-02 1.7778081540e+00 -3.0792540488e+00 1.7778081540e+00 3.0792540488e+00 
3000 5.9267098526e+00 3.0615875496e-02 1.7769454898e+00 -3.0777598707e+00 1.7769454898e+00 3.0777598707e+00 
3100 5.9256905621e+00 3.0498286963e-02 1.7760840847e+00 -3.0762678732e+00 1.7760840847e+00 3.0762678732e+00 
3200 5.9246742802e+00 3.0329276648e-02 1.7752255716e+00 -3.0747808849e+00 1.7752255716e+00 3.0747808849e+00 
3300 5.9236615903e+00 3.0114962572e-02 1.7743714029e+00 -3.0733014212e+00 1.7743714029e+00 3.0733014212e+00 
3400 5.9226533054e+00 2.9861064791e-02 1.7735228612e+00 -3.0718317040e+00 1.7735228612e+00 3.0718317040e+00 
3500 5.9216504348e+00 2.9572922151e-02 1.7726810705e+00 -3.0703736797e+00 1.7726810705e+00 3.0703736797e+00 
3600 5.9206541512e+00 2.9255508126e-02 1.7718470061e+00 -3.0689290379e+00 1.7718470061e+00 3.0689290379e+00 
3700 5.9196657582e+00 2.8913445917e-02 1.7710215050e+00 -3.0674992279e+00 1.7710215050e+00 3.0674992279e+00 
3800 5.9186866589e+00 2.8551022926e-02 1.7702052748e+00 -3.0660854758e+00 1.7702052748e+00 3.0660854758e+00 
3900 5.9177183252e+00 2.8172204723e-02 1.7693989035e+00 -3.0646887998e+00 1.7693989035e+00 3.0646887998e+00 
4000 5.9167622699e+00 2.7780648568e-02 1.7686028679e+00 -3.0633100256e+00 1.7686028679e+00 3.0633100256e+00 
4100 5.9158200196e+00 2.7379716578e-02 1.7678175420e+00 -3.0619498013e+00 1.7678175420e+00 3.0619498013e+00 
4200 5.9148930910e+00 2.6972488571e-02 1.7670432054e+00 -3.0606086110e+00 1.7670432054e+00 3.0606086110e+00 
4300 5.9139829681e+00 2.6561774636e-02 1.7662800507e+00 -3.0592867883e+00 1.7662800507e+00 3.0592867883e+00 
4400 5.9130910830e+00 2.6150127458e-02 1.7655281912e+00 -3.0579845294e+00 1.7655281912e+00 3.0579845294e+00 
4500 5.9122187981e+00 2.5739854418e-02 1.7647876678e+00 -3.0567019052e+00 1.7647876678e+00 3.0567019052e+00 
4600 5.9113673913e+00 2.5333029478e-02 1.7640584560e+00 -3.0554388733e+00 1.7640584560e+00 3.0554388733e+00 
4700 5.9105380434e+00 2.4931504866e-02 1.7633404721e+00 -3.0541952888e+00 1.7633404721e+00 3.0541952888e+00 
4800 5.9097318275e+00 2.4536922569e-02 1.7626335798e+00 -3.0529709153e+00 1.7626335798e+00 3.0529709153e+00 
4900 5.9089497009e+00 2.4150725613e-02 1.7619375954e+00 -3.0517654351e+00 1.7619375954e+00 3.0517654351e+00 
5000 5.9081924993e+00 2.3774169158e-02 1.7612522942e+00 -3.0505784585e+00 1.7612522942e+00 3.0505784585e+00 
5100 5.9074609317e+00 2.3408331377e-02 1.7605774150e+00 -3.0494095335e+00 1.7605774150e+00 3.0494095335e+00 
5200 5.9067555792e+00 2.3054124119e-02 1.7599126656e+00 -3.0482581537e+00 1.7599126656e+00 3.0482581537e+00 
5300 5.9060768934e+00 2.2712303362e-02 1.7592577270e+00 -3.0471237668e+00 1.7592577270e+00 3.0471237668e+00 
5400 5.9054251975e+00 2.2383479421e-02 1.7586122584e+00 -3.0460057823e+00 1.7586122584e+00 3.0460057823e+00 
5500 5.9048006886e+00 2.2068126923e-02 1.7579759007e+00 -3.0449035785e+00 1.7579759007e+00 3.0449035785e+00 
5600 5.9042034410e+00 2.1766594526e-02 1.7573482808e+00 -3.0438165089e+00 1.7573482808e+00 3.0438165089e+00 
5700 5.9036334104e+00 2.1479114376e-02 1.7567290149e+00 -3.0427439090e+00 1.7567290149e+00 3.0427439090e+00 
5800 5.9030904398e+00 2.1205811293e-02 1.7561177121e+00 -3.0416851014e+00 1.7561177121e+00 3.0416851014e+00 
5900 5.9025742651e+00 2.0946711671e-02 1.7555139771e+00 -3.0406394017e+00 1.7555139771e+00 3.0406394017e+00 
6000 5.9020845222e+00 2.0701752088e-02 1.7549174132e+00 -3.0396061227e+00 1.7549174132e+00 3.0396061227e+00 
6100 5.9016207543e+00 2.0470787606e-02 1.7543276250e+00 -3.0385845796e+00 1.7543276250e+00 3.0385845796e+00 
6200 5.9011824191e+00 2.0253599776e-02 1.7537442205e+00 -3.0375740933e+00 1.7537442205e+00 3.0375740933e+00 
6300 5.9007688974e+00 2.0049904302e-02 1.7531668133e+00 -3.0365739949e+00 1.7531668133e+00 3.0365739949e+00 
6400 5.9003795008e+00 1.9859358403e-02 1.7525950248e+00 -3.0355836280e+00 1.7525950248e+00 3.0355836280e+00 
6500 5.9000134797e+00 1.9681567824e-02 1.7520284852e+00 -3.0346023528e+00 1.7520284852e+00 3.0346023528e+00 
6600 5.8996700319e+00 1.9516093521e-02 1.7514668358e+00 -3.0336295474e+00 1.7514668358e+00 3.0336295474e+00 
6700 5.8993483101e+00 1.9362458001e-02 1.7509097297e+00 -3.0326646113e+00 1.7509097297e+00 3.0326646113e+00 
6800 5.8990474302e+00 1.9220151320e-02 1.7503568331e+00 -3.0317069664e+00 1.7503568331e+00 3.0317069664e+00 
6900 5.8987664786e+00 1.9088636734e-02 1.7498078266e+00 -3.0307560592e+00 1.7498078266e+00 3.0307560592e+00 
7000 5.8985045197e+00 1.8967356009e-02 1.7492624055e+00 -3.0298113620e+00 1.7492624055e+00 3.0298113620e+00 
7100 5.8982606026e+00 1.8855734374e-02 1.7487202805e+00 -3.0288723741e+00 1.7487202805e+00 3.0288723741e+00 
7200 5.8980337681e+00 1.8753185147e-02 1.7481811787e+00 -3.0279386223e+00 1.7481811787e+00 3.0279386223e+00 
7300 5.8978230546e+00 1.8659114008e-02 1.7476448434e+00 -3.0270096623e+00 1.7476448434e+00 3.0270096623e+00 
7400 5.8976275037e+00 1.8572922945e-02 1.7471110346e+00 -3.0260850784e+00 1.7471110346e+00 3.0260850784e+00 
7500 5.8974461662e+00 1.8494013865e-02 1.7465795291e+00 -3.0251644839e+00 1.7465795291e+00 3.0251644839e+00 
7600 5.8972781060e+00 1.8421791889e-02 1.7460501207e+00 -3.0242475216e+00 1.7460501207e+00 3.0242475216e+00 
7700 5.8971224054e+00 1.8355668329e-02 1.7455226197e+00 -3.0233338630e+00 1.7455226197e+00 3.0233338630e+00 
7800 5.8969781684e+00 1.8295063358e-02 1.7449968532e+00 -3.0224232087e+00 1.7449968532e+00 3.0224232087e+00 
7900 5.8968445243e+00 1.8239408396e-02 1.7444726646e+00 -3.0215152876e+00 1.7444726646e+00 3.0215152876e+00 
8000 5.8967206310e+00 1.8188148203e-02 1.7439499136e+00 -3.0206098562e+00 1.7439499136e+00 3.0206098562e+00 
8100 5.8966056774e+00 1.8140742711e-02 1.7434284754e+00 -3.0197066988e+00 1.7434284754e+00 3.0197066988e+00 
8200 5.8964988853e+00 1.8096668589e-02 1.7429082407e+00 -3.0188056259e+00 1.7429082407e+00 3.0188056259e+00 
8300 5.8963995116e+00 1.8055420576e-02 1.7423891150e+00 -3.0179064737e+00 1.7423891150e+00 3.0179064737e+00 
8400 5.8963068495e+00 1.8016512579e-02 1.7418710182e+00 -3.0170091037e+00 1.7418710182e+00 3.0170091037e+00 
8500 5.8962202293e+00 1.7979478558e-02 1.7413538840e+00 -3.0161134010e+00 1.7413538840e+00 3.0161134010e+00 
8600 5.8961390194e+00 1.7943873212e-02 1.7408376595e+00 -3.0152192740e+00 1.7408376595e+00 3.0152192740e+00 
8700 5.8960626264e+00 1.7909272482e-02 1.7403223045e+00 -3.0143266530e+00 1.7403223045e+00 3.0143266530e+00 
8800 5.8959904956e+00 1.7875273885e-02 1.7398077909e+00 -3.0134354893e+00 1.7398077909e+00 3.0134354893e+00 
8900 5.8959221100e+00 1.7841496696e-02 1.7392941022e+00 -3.0125457543e+00 1.7392941022e+00 3.0125457543e+00 
9000 5.8958569907e+00 1.7807581986e-02 1.7387812326e+00 -3.0116574382e+00 1.7387812326e+00 3.0116574382e+00 
9100 5.8957946959e+00 1.7773192540e-02 1.7382691870e+00 -3.0107705491e+00 1.7382691870e+00 3.0107705491e+00 
9200 5.8957348200e+00 1.7738012667e-02 1.7377579796e+00 -3.0098851119e+00 1.7377579796e+00 3.0098851119e+00 
9300 5.8956769928e+00 1.7701747904e-02 1.7372476339e+00 -3.0090011673e+00 1.7372476339e+00 3.0090011673e+00 
9400 5.8956208780e+00 1.7664124645e-02 1.7367381820e+00 -3.0081187707e+00 1.7367381820e+00 3.0081187707e+00 
9500 5.8955661724e+00 1.7624889693e-02 1.7362296637e+00 -3.0072379912e+00 1.7362296637e+00 3.0072379912e+00 
9600 5.8955126043e+00 1.7583809750e-02 1.7357221263e+00 -3.0063589106e+00 1.7357221263e+00 3.0063589106e+00 
9700 5.8954599321e+00 1.7540670865e-02 1.7352156238e+00 -3.0054816224e+00 1.7352156238e+00 3.0054816224e+00 
9800 5.8954079426e+00 1.7495277830e-02 1.7347102163e+00 -3.0046062310e+00 1.7347102163e+00 3.0046062310e+00 
9900 5.8953564498e+00 1.7447453554e-02 1.7342059698e+00 -3.0037328505e+00 1.7342059698e+00 3.0037328505e+00 
10000 5.8953052931e+00 1.7397038409e-02 1.7337029555e+00 -3.0028616041e+00 1.7337029555e+00 3.0028616041e+00 
10100 5.8952543358e+00 1.7343889561e-02 1.7332012490e+00 -3.0019926230e+00 1.7332012490e+00 3.0019926230e+00 
10200 5.8952034632e+00 1.7287880295e-02 1.7327009305e+00 -3.0011260459e+00 1.7327009305e+00 3.0011260459e+00 
10300 5.8951525816e+00 1.7228899331e-02 1.7322020835e+00 -3.0002620177e+00 1.7322020835e+00 3.0002620177e+00 
10400 5.8951016161e+00 1.7166850144e-02 1.7317047953e+00 -2.9994006891e+00 1.7317047953e+00 2.9994006891e+00 
10500 5.8950505095e+00 1.7101650290e-02 1.7312091556e+00 -2.9985422161e+00 1.7312091556e+00 2.9985422161e+00 
10600 5.8949992206e+00 1.7033230740e-02 1.7307152570e+00 -2.9976867586e+00 1.7307152570e+00 2.9976867586e+00 
10700 5.8949477225e+00 1.6961535229e-02 1.7302231939e+00 -2.9968344802e+00 1.7302231939e+00 2.9968344802e+00 
10800 5.8948960018e+00 1.6886519613e-02 1.7297330625e+00 -2.9959855477e+00 1.7297330625e+00 2.9959855477e+00 
10900 5.8948440566e+00 1.6808151252e-02 1.7292449604e+00 -2.9951401302e+00 1.7292449604e+00 2.9951401302e+00 
11000 5.8947918956e+00 1.6726408402e-02 1.7287589864e+00 -2.9942983984e+00 1.7287589864e+00 2.9942983984e+00 
11100 5.8947395364e+00 1.6641279633e-02 1.7282752397e+00 -2.9934605246e+00 1.7282752397e+00 2.9934605246e+00 
11200 5.8946870051e+00 1.6552763260e-02 1.7277938202e+00 -2.9926266817e+00 1.7277938202e+00 2.9926266817e+00 
11300 5.8946343340e+00 1.6460866799e-02 1.7273148280e+00 -2.9917970427e+00 1.7273148280e+00 2.9917970427e+00 
11400 5.8945815619e+00 1.6365606442e-02 1.7268383627e+00 -2.9909717807e+00 1.7268383627e+00 2.9909717807e+00 
11500 5.8945287318e+00 1.6267006551e-02 1.7263645240e+00 -2.9901510679e+00 1.7263645240e+00 2.9901510679e+00 
11600 5.8944758909e+00 1.6165099171e-02 1.7258934107e+00 -2.9893350757e+00 1.7258934107e+00 2.9893350757e+00 
11700 5.8944230894e+00 1.6059923561e-02 1.7254251208e+00 -2.9885239739e+00 1.7254251208e+00 2.9885239739e+00 
11800 5.8943703795e+00 1.5951525749e-02 1.7249597514e+00 -2.9877179304e+00 1.7249597514e+00 2.9877179304e+00 
11900 5.8943178152e+00 1.5839958099e-02 1.7244973982e+00 -2.9869171112e+00 1.7244973982e+00 2.9869171112e+00 
12000 5.8942654508e+00 1.5725278896e-02 1.7240381555e+00 -2.9861216796e+00 1.7240381555e+00 2.9861216796e+00 
12100 5.8942133412e+00 1.5607551948e-02 1.7235821162e+00 -2.9853317962e+00 1.7235821162e+00 2.9853317962e+00 
12200 5.8941615407e+00 1.5486846206e-02 1.7231293710e+00 -2.9845476187e+00 1.7231293710e+00 2.9845476187e+00 
12300 5.8941101028e+00 1.5363235394e-02 1.7226800092e+00 -2.9837693011e+00 1.7226800092e+00 2.9837693011e+00 
12400 5.8940590795e+00 1.5236797654e-02 1.7222341175e+00 -2.9829969941e+00 1.7222341175e+00 2.9829969941e+00 
12500 5.8940085212e+00 1.5107615210e-02 1.7217917809e+00 -2.9822308445e+00 1.7217917809e+00 2.9822308445e+00 
12600 5.8939584763e+00 1.4975774033e-02 1.7213530817e+00 -2.9814709952e+00 1.7213530817e+00 2.9814709952e+00 
12700 5.8939089905e+00 1.4841363530e-02 1.7209180999e+00 -2.9807175848e+00 1.7209180999e+00 2.9807175848e+00 
12800 5.8938601073e+00 1.4704476235e-02 1.7204869131e+00 -2.9799707473e+00 1.7204869131e+00 2.9799707473e+00 
12900 5.8938118671e+00 1.4565207516e-02 1.7200595961e+00 -2.9792306125e+00 1.7200595961e+00 2.9792306125e+00 
13000 5.8937643073e+00 1.4423655291e-02 1.7196362209e+00 -2.9784973052e+00 1.7196362209e+00 2.9784973052e+00 
13100 5.8937174624e+00 1.4279919750e-02 1.7192168570e+00 -2.9777709455e+00 1.7192168570e+00 2.9777709455e+00 
13200 5.8936713633e+00 1.4134103090e-02 1.7188015707e+00 -2.9770516485e+00 1.7188015707e+00 2.9770516485e+00 
13300 5.8936260380e+00 1.3986309262e-02 1.7183904255e+00 -2.9763395242e+00 1.7183904255e+00 2.9763395242e+00 
13400 5.8935815110e+00 1.3836643716e-02 1.7179834820e+00 -2.9756346774e+00 1.7179834820e+00 2.9756346774e+00 
13500 5.8935378034e+00 1.3685213165e-02 1.7175807976e+00 -2.9749372075e+00 1.7175807976e+00 2.9749372075e+00 
13600 5.8934949332e+00 1.3532125352e-02 1.7171824267e+00 -2.9742472089e+00 1.7171824267e+00 2.9742472089e+00 
13700 5.8934529151e+00 1.3377488824e-02 1.7167884206e+00 -2.9735647703e+00 1.7167884206e+00 2.9735647703e+00 
13800 5.8934117605e+00 1.3221412718e-02 1.7163988273e+00 -2.9728899750e+00 1.7163988273e+00 2.9728899750e+00 
13900 5.8933714779e+00 1.3064006550e-02 1.7160136920e+00 -2.9722229010e+00 1.7160136920e+00 2.9722229010e+00 
14000 5.8933320726e+00 1.2905380012e-02 1.7156330562e+00 -2.9715636205e+00 1.7156330562e+00 2.9715636205e+00 
14100 5.8932935471e+00 1.2745642780e-02 1.7152569586e+00 -2.9709122004e+00 1.7152569586e+00 2.9709122004e+00 
14200 5.8932559013e+00 1.2584904324e-02 1.7148854346e+00 -2.9702687020e+00 1.7148854346e+00 2.9702687020e+00 
14300 5.8932191324e+00 1.2423273730e-02 1.7145185164e+00 -2.9696331809e+00 1.7145185164e+00 2.9696331809e+00 
14400 5.8931832350e+00 1.2260859528e-02 1.7141562329e+00 -2.9690056874e+00 1.7141562329e+00 2.9690056874e+00 
14500 5.8931482016e+00 1.2097769519e-02 1.7137986099e+00 -2.9683862663e+00 1.7137986099e+00 2.9683862663e+00 
14600 5.8931140224e+00 1.1934110626e-02 1.7134456701e+00 -2.9677749566e+00 1.7134456701e+00 2.9677749566e+00 
14700 5.8930806858e+00 1.1769988732e-02 1.7130974330e+00 -2.9671717923e+00 1.7130974330e+00 2.9671717923e+00 
14800 5.8930481783e+00 1.1605508544e-02 1.7127539150e+00 -2.9665768017e+00 1.7127539150e+00 2.9665768017e+00 
14900 5.8930164846e+00 1.1440773447e-02 1.7124151295e+00 -2.9659900079e+00 1.7124151295e+00 2.9659900079e+00 
15000 5.8929855883e+00 1.1275885375e-02 1.7120810866e+00 -2.9654114287e+00 1.7120810866e+00 2.9654114287e+00 
15100 5.8929554714e+00 1.1110944690e-02 1.7117517937e+00 -2.9648410766e+00 1.7117517937e+00 2.9648410766e+00 
15200 5.8929261147e+00 1.0946050058e-02 1.7114272550e+00 -2.9642789591e+00 1.7114272550e+00 2.9642789591e+00 
15300 5.8928974984e+00 1.0781298341e-02 1.7111074719e+00 -2.9637250786e+00 1.7111074719e+00 2.9637250786e+00 
15400 5.8928696015e+00 1.0616784494e-02 1.7107924430e+00 -2.9631794325e+00 1.7107924430e+00 2.9631794325e+00 
15500 5.8928424024e+00 1.0452601463e-02 1.7104821639e+00 -2.9626420133e+00 1.7104821639e+00 2.9626420133e+00 
15600 5.8928158792e+00 1.0288840096e-02 1.7101766275e+00 -2.9621128088e+00 1.7101766275e+00 2.9621128088e+00 
15700 5.8927900094e+00 1.0125589056e-02 1.7098758241e+00 -2.9615918020e+00 1.7098758241e+00 2.9615918020e+00 
15800 5.8927647702e+00 9.9629347449e-03 1.7095797413e+00 -2.9610789715e+00 1.7095797413e+00 2.9610789715e+00 
15900 5.8927401389e+00 9.8009612298e-03 1.7092883641e+00 -2.9605742914e+00 1.7092883641e+00 2.9605742914e+00 
16000 5.8927160926e+00 9.6397501754e-03 1.7090016750e+00 -2.9600777313e+00 1.7090016750e+00 2.9600777313e+00 
16100 5.8926926086e+00 9.4793807852e-03 1.7087196540e+00 -2.9595892567e+00 1.7087196540e+00 2.9595892567e+00 
16200 5.8926696643e+00 9.3199297469e-03 1.7084422790e+00 -2.9591088290e+00 1.7084422790e+00 2.9591088290e+00 
16300 5.8926472374e+00 9.1614711837e-03 1.7081695252e+00 -2.9586364056e+00 1.7081695252e+00 2.9586364056e+00 
16400 5.8926253062e+00 9.0040766120e-03 1.7079013659e+00 -2.9581719401e+00 1.7079013659e+00 2.9581719401e+00 
16500 5.8926038491e+00 8.8478149042e-03 1.7076377721e+00 -2.9577153822e+00 1.7076377721e+00 2.9577153822e+00 
16600 5.8925828454e+00 8.6927522572e-03 1.7073787127e+00 -2.9572666782e+00 1.7073787127e+00 2.9572666782e+00 
16700 5.8925622747e+00 8.5389521661e-03 1.7071241548e+00 -2.9568257709e+00 1.7071241548e+00 2.9568257709e+00 
16800 5.8925421174e+00 8.3864754038e-03 1.7068740633e+00 -2.9563925998e+00 1.7068740633e+00 2.9563925998e+00 
16900 5.8925223544e+00 8.2353800046e-03 1.7066284015e+00 -2.9559671011e+00 1.7066284015e+00 2.9559671011e+00 
17000 5.8925029676e+00 8.0857212539e-03 1.7063871309e+00 -2.9555492081e+00 1.7063871309e+00 2.9555492081e+00 
17100 5.8924839394e+00 7.9375516822e-03 1.7061502112e+00 -2.9551388512e+00 1.7061502112e+00 2.9551388512e+00 
17200 5.8924652532e+00 7.7909210636e-03 1.7059176007e+00 -2.9547359579e+00 1.7059176007e+00 2.9547359579e+00 
17300 5.8924468931e+00 7.6458764193e-03 1.7056892559e+00 -2.9543404531e+00 1.7056892559e+00 2.9543404531e+00 
17400 5.8924288438e+00 7.5024620253e-03 1.7054651321e+00 -2.9539522594e+00 1.7054651321e+00 2.9539522594e+00 
17500 5.8924110912e+00 7.3607194244e-03 1.7052451833e+00 -2.9535712969e+00 1.7052451833e+00 2.9535712969e+00 
17600 5.8923936218e+00 7.2206874421e-03 1.7050293620e+00 -2.9531974835e+00 1.7050293620e+00 2.9531974835e+00 
17700 5.8923764229e+00 7.0824022069e-03 1.7048176197e+00 -2.9528307350e+00 1.7048176197e+00 2.9528307350e+00 
17800 5.8923594826e+00 6.9458971740e-03 1.7046099066e+00 -2.9524709654e+00 1.7046099066e+00 2.9524709654e+00 
17900 5.8923427899e+00 6.8112031524e-03 1.7044061721e+00 -2.9521180868e+00 1.7044061721e+00 2.9521180868e+00 
18000 5.8923263344e+00 6.6783483366e-03 1.7042063644e+00 -2.9517720097e+00 1.7042063644e+00 2.9517720097e+00 
18100 5.8923101067e+00 6.5473583400e-03 1.7040104309e+00 -2.9514326430e+00 1.7040104309e+00 2.9514326430e+00 
18200 5.8922940979e+00 6.4182562331e-03 1.7038183184e+00 -2.9510998943e+00 1.7038183184e+00 2.9510998943e+00 
18300 5.8922782998e+00 6.2910625831e-03 1.7036299727e+00 -2.9507736699e+00 1.7036299727e+00 2.9507736699e+00 
18400 5.8922627051e+00 6.1657954981e-03 1.7034453390e+00 -2.9504538751e+00 1.7034453390e+00 2.9504538751e+00 
18500 5.8922473069e+00 6.0424706722e-03 1.7032643621e+00 -2.9501404138e+00 1.7032643621e+00 2.9501404138e+00 
18600 5.8922320990e+00 5.9211014345e-03 1.7030869860e+00 -2.9498331895e+00 1.7030869860e+00 2.9498331895e+00 
18700 5.8922170759e+00 5.8016987997e-03 1.7029131546e+00 -2.9495321046e+00 1.7029131546e+00 2.9495321046e+00 
18800 5.8922022324e+00 5.6842715210e-03 1.7027428111e+00 -2.9492370611e+00 1.7027428111e+00 2.9492370611e+00 
18900 5.8921875640e+00 5.5688261456e-03 1.7025758987e+00 -2.9489479603e+00 1.7025758987e+00 2.9489479603e+00 
19000 5.8921730666e+00 5.4553670714e-03 1.7024123601e+00 -2.9486647032e+00 1.7024123601e+00 2.9486647032e+00 
19100 5.8921587365e+00 5.3438966055e-03 1.7022521380e+00 -2.9483871904e+00 1.7022521380e+00 2.9483871904e+00 
19200 5.8921445707e+00 5.2344150248e-03 1.7020951750e+00 -2.9481153224e+00 1.7020951750e+00 2.9481153224e+00 
19300 5.8921305661e+00 5.1269206373e-03 1.7019414134e+00 -2.9478489995e+00 1.7019414134e+00 2.9478489995e+00 
19400 5.8921167203e+00 5.0214098454e-03 1.7017907959e+00 -2.9475881223e+00 1.7017907959e+00 2.9475881223e+00 
19500 5.8921030311e+00 4.9178772097e-03 1.7016432649e+00 -2.9473325911e+00 1.7016432649e+00 2.9473325911e+00 
19600 5.8920894965e+00 4.8163155141e-03 1.7014987632e+00 -2.9470823068e+00 1.7014987632e+00 2.9470823068e+00 
19700 5.8920761149e+00 4.7167158315e-03 1.7013572336e+00 -2.9468371703e+00 1.7013572336e+00 2.9468371703e+00 
19800 5.8920628848e+00 4.6190675904e-03 1.7012186192e+00 -2.9465970832e+00 1.7012186192e+00 2.9465970832e+00 
19900 5.8920498049e+00 4.5233586417e-03 1.7010828634e+00 -2.9463619472e+00 1.7010828634e+00 2.9463619472e+00 
20000 5.8920368742e+00 4.4295753266e-03 1.7009499098e+00 -2.9461316650e+00 1.7009499098e+00 2.9461316650e+00 
20100 5.8920240915e+00 4.3377025437e-03 1.7008197026e+00 -2.9459061394e+00 1.7008197026e+00 2.9459061394e+00 
20200 5.8920114561e+00 4.2477238171e-03 1.7006921862e+00 -2.9456852746e+00 1.7006921862e+00 2.9456852746e+00 
20300 5.8919989672e+00 4.1596213640e-03 1.7005673055e+00 -2.9454689749e+00 1.7005673055e+00 2.9454689749e+00 
20400 5.8919866241e+00 4.0733761625e-03 1.7004450060e+00 -2.9452571459e+00 1.7004450060e+00 2.9452571459e+00 
20500 5.8919744261e+00 3.9889680190e-03 1.7003252336e+00 -2.9450496940e+00 1.7003252336e+00 2.9450496940e+00 
20600 5.8919623727e+00 3.9063756353e-03 1.7002079348e+00 -2.9448465265e+00 1.7002079348e+00 2.9448465265e+00 
20700 5.8919504632e+00 3.8255766750e-03 1.7000930567e+00 -2.9446475519e+00 1.7000930567e+00 2.9446475519e+00 
20800 5.8919386970e+00 3.7465478294e-03 1.6999805472e+00 -2.9444526796e+00 1.6999805472e+00 2.9444526796e+00 
20900 5.8919270735e+00 3.6692648833e-03 1.6998703545e+00 -2.9442618203e+00 1.6998703545e+00 2.9442618203e+00 
21000 5.8919155922e+00 3.5937027790e-03 1.6997624279e+00 -2.9440748859e+00 1.6997624279e+00 2.9440748859e+00 
21100 5.8919042524e+00 3.5198356804e-03 1.6996567171e+00 -2.9438917894e+00 1.6996567171e+00 2.9438917894e+00 
21200 5.8918930533e+00 3.4476370351e-03 1.6995531726e+00 -2.9437124451e+00 1.6995531726e+00 2.9437124451e+00 
21300 5.8918819944e+00 3.3770796369e-03 1.6994517459e+00 -2.9435367689e+00 1.6994517459e+00 2.9435367689e+00 
21400 5.8918710747e+00 3.3081356856e-03 1.6993523889e+00 -2.9433646776e+00 1.6993523889e+00 2.9433646776e+00 
21500 5.8918602934e+00 3.2407768465e-03 1.6992550547e+00 -2.9431960897e+00 1.6992550547e+00 2.9431960897e+00 
21600 5.8918496497e+00 3.1749743089e-03 1.6991596968e+00 -2.9430309251e+00 1.6991596968e+00 2.9430309251e+00 
21700 5.8918391426e+00 3.1106988422e-03 1.6990662699e+00 -2.9428691049e+00 1.6990662699e+00 2.9428691049e+00 
21800 5.8918287711e+00 3.0479208519e-03 1.6989747293e+00 -2.9427105519e+00 1.6989747293e+00 2.9427105519e+00 
21900 5.8918185341e+00 2.9866104331e-03 1.6988850313e+00 -2.9425551903e+00 1.6988850313e+00 2.9425551903e+00 
22000 5.8918084304e+00 2.9267374231e-03 1.6987971329e+00 -2.9424029459e+00 1.6987971329e+00 2.9424029459e+00 
22100 5.8917984589e+00 2.8682714524e-03 1.6987109921e+00 -2.9422537458e+00 1.6987109921e+00 2.9422537458e+00 
22200 5.8917886183e+00 2.8111819940e-03 1.6986265679e+00 -2.9421075187e+00 1.6986265679e+00 2.9421075187e+00 
22300 5.8917789072e+00 2.7554384112e-03 1.6985438199e+00 -2.9419641949e+00 1.6985438199e+00 2.9419641949e+00 
22400 5.8917693242e+00 2.7010100038e-03 1.6984627088e+00 -2.9418237063e+00 1.6984627088e+00 2.9418237063e+00 
22500 5.8917598680e+00 2.6478660525e-03 1.6983831960e+00 -2.9416859862e+00 1.6983831960e+00 2.9416859862e+00 
22600 5.8917505370e+00 2.5959758617e-03 1.6983052441e+00 -2.9415509695e+00 1.6983052441e+00 2.9415509695e+00 
22700 5.8917413296e+00 2.5453088010e-03 1.6982288162e+00 -2.9414185925e+00 1.6982288162e+00 2.9414185925e+00 
22800 5.8917322444e+00 2.4958343442e-03 1.6981538766e+00 -2.9412887934e+00 1.6981538766e+00 2.9412887934e+00 
22900 5.8917232796e+00 2.4475221074e-03 1.6980803905e+00 -2.9411615117e+00 1.6980803905e+00 2.9411615117e+00 
23000 5.8917144337e+00 2.4003418849e-03 1.6980083237e+00 -2.9410366883e+00 1.6980083237e+00 2.9410366883e+00 
23100 5.8917057049e+00 2.3542636837e-03 1.6979376431e+00 -2.9409142659e+00 1.6979376431e+00 2.9409142659e+00 
23200 5.8916970915e+00 2.3092577562e-03 1.6978683164e+00 -2.9407941885e+00 1.6978683164e+00 2.9407941885e+00 
23300 5.8916885917e+00 2.2652946307e-03 1.6978003122e+00 -2.9406764019e+00 1.6978003122e+00 2.9406764019e+00 
23400 5.8916802039e+00 2.2223451414e-03 1.6977336000e+00 -2.9405608529e+00 1.6977336000e+00 2.9405608529e+00 
23500 5.8916719263e+00 2.1803804556e-03 1.6976681501e+00 -2.9404474903e+00 1.6976681501e+00 2.9404474903e+00 
23600 5.8916637570e+00 2.1393720998e-03 1.6976039336e+00 -2.9403362641e+00 1.6976039336e+00 2.9403362641e+00 
23700 5.8916556944e+00 2.0992919839e-03 1.6975409224e+00 -2.9402271256e+00 1.6975409224e+00 2.9402271256e+00 
23800 5.8916477366e+00 2.0601124244e-03 1.6974790895e+00 -2.9401200278e+00 1.6974790895e+00 2.9401200278e+00 
23900 5.8916398818e+00 2.0218061650e-03 1.6974184083e+00 -2.9400149249e+00 1.6974184083e+00 2.9400149249e+00 
24000 5.8916321284e+00 1.9843463965e-03 1.6973588534e+00 -2.9399117727e+00 1.6973588534e+00 2.9399117727e+00 
24100 5.8916244745e+00 1.9477067751e-03 1.6973003997e+00 -2.9398105281e+00 1.6973003997e+00 2.9398105281e+00 
24200 5.8916169184e+00 1.9118614385e-03 1.6972430235e+00 -2.9397111494e+00 1.6972430235e+00 2.9397111494e+00 
24300 5.8916094583e+00 1.8767850213e-03 1.6971867012e+00 -2.9396135964e+00 1.6971867012e+00 2.9396135964e+00 
24400 5.8916020927e+00 1.8424526690e-03 1.6971314104e+00 -2.9395178300e+00 1.6971314104e+00 2.9395178300e+00 
24500 5.8915948197e+00 1.8088400496e-03 1.6970771294e+00 -2.9394238124e+00 1.6970771294e+00 2.9394238124e+00 
24600 5.8915876378e+00 1.7759233652e-03 1.6970238368e+00 -2.9393315070e+00 1.6970238368e+00 2.9393315070e+00 
24700 5.8915805453e+00 1.7436793614e-03 1.6969715125e+00 -2.9392408786e+00 1.6969715125e+00 2.9392408786e+00 
24800 5.8915735406e+00 1.7120853354e-03 1.6969201365e+00 -2.9391518928e+00 1.6969201365e+00 2.9391518928e+00 
24900 5.8915666222e+00 1.6811191435e-03 1.6968696899e+00 -2.9390645167e+00 1.6968696899e+00 2.9390645167e+00 
25000 5.8915597885e+00 1.6507592068e-03 1.6968201543e+00 -2.9389787185e+00 1.6968201543e+00 2.9389787185e+00 
25100 5.8915530380e+00 1.6209845160e-03 1.6967715118e+00 -2.9388944672e+00 1.6967715118e+00 2.9388944672e+00 
25200 5.8915463692e+00 1.5917746349e-03 1.6967237453e+00 -2.9388117332e+00 1.6967237453e+00 2.9388117332e+00 
25300 5.8915397808e+00 1.5631097032e-03 1.6966768382e+00 -2.9387304877e+00 1.6966768382e+00 2.9387304877e+00 
25400 5.8915332713e+00 1.5349704377e-03 1.6966307745e+00 -2.9386507032e+00 1.6966307745e+00 2.9386507032e+00 
25500 5.8915268394e+00 1.5073381331e-03 1.6965855389e+00 -2.9385723527e+00 1.6965855389e+00 2.9385723527e+00 
25600 5.8915204837e+00 1.4801946613e-03 1.6965411164e+00 -2.9384954107e+00 1.6965411164e+00 2.9384954107e+00 
25700 5.8915142029e+00 1.4535224702e-03 1.6964974927e+00 -2.9384198522e+00 1.6964974927e+00 2.9384198522e+00 
25800 5.8915079959e+00 1.4273045816e-03 1.6964546539e+00 -2.9383456533e+00 1.6964546539e+00 2.9383456533e+00 
25900 5.8915018614e+00 1.4015245878e-03 1.6964125868e+00 -2.9382727910e+00 1.6964125868e+00 2.9382727910e+00 
26000 5.8914957982e+00 1.3761666480e-03 1.6963712785e+00 -2.9382012429e+00 1.6963712785e+00 2.9382012429e+00 
26100 5.8914898051e+00 1.3512154838e-03 1.6963307166e+00 -2.9381309876e+00 1.6963307166e+00 2.9381309876e+00 
26200 5.8914838812e+00 1.3266563736e-03 1.6962908892e+00 -2.9380620044e+00 1.6962908892e+00 2.9380620044e+00 
26300 5.8914780252e+00 1.3024751471e-03 1.6962517847e+00 -2.9379942735e+00 1.6962517847e+00 2.9379942735e+00 
26400 5.8914722362e+00 1.2786581781e-03 1.6962133921e+00 -2.9379277756e+00 1.6962133921e+00 2.9379277756e+00 
26500 5.8914665132e+00 1.2551923780e-03 1.6961757007e+00 -2.9378624921e+00 1.6961757007e+00 2.9378624921e+00 
26600 5.8914608551e+00 1.2320651877e-03 1.6961387002e+00 -2.9377984053e+00 1.6961387002e+00 2.9377984053e+00 
26700 5.8914552611e+00 1.2092645691e-03 1.6961023806e+00 -2.9377354980e+00 1.6961023806e+00 2.9377354980e+00 
26800 5.8914497302e+00 1.1867789970e-03 1.6960667324e+00 -2.9376737535e+00 1.6960667324e+00 2.9376737535e+00 
26900 5.8914442615e+00 1.1645974496e-03 1.6960317463e+00 -2.9376131558e+00 1.6960317463e+00 2.9376131558e+00 
27000 5.8914388541e+00 1.1427093989e-03 1.6959974134e+00 -2.9375536895e+00 1.6959974134e+00 2.9375536895e+00 
27100 5.8914335073e+00 1.1211048008e-03 1.6959637251e+00 -2.9374953396e+00 1.6959637251e+00 2.9374953396e+00 
27200 5.8914282202e+00 1.0997740850e-03 1.6959306730e+00 -2.9374380918e+00 1.6959306730e+00 2.9374380918e+00 
27300 5.8914229920e+00 1.0787081441e-03 1.6958982492e+00 -2.9373819321e+00 1.6958982492e+00 2.9373819321e+00 
27400 5.8914178220e+00 1.0578983231e-03 1.6958664459e+00 -2.9373268471e+00 1.6958664459e+00 2.9373268471e+00 
27500 5.8914127094e+00 1.0373364078e-03 1.6958352555e+00 -2.9372728238e+00 1.6958352555e+00 2.9372728238e+00 
27600 5.8914076534e+00 1.0170146140e-03 1.6958046707e+00 -2.9372198495e+00 1.6958046707e+00 2.9372198495e+00 
27700 5.8914026535e+00 9.9692557569e-04 1.6957746846e+00 -2.9371679120e+00 1.6957746846e+00 2.9371679120e+00 
27800 5.8913977088e+00 9.7706233345e-04 1.6957452903e+00 -2.9371169995e+00 1.6957452903e+00 2.9371169995e+00 
27900 5.8913928188e+00 9.5741832262e-04 1.6957164812e+00 -2.9370671006e+00 1.6957164812e+00 2.9370671006e+00 
28000 5.8913879828e+00 9.3798736138e-04 1.6956882508e+00 -2.9370182041e+00 1.6956882508e+00 2.9370182041e+00 
28100 5.8913832000e+00 9.1876363878e-04 1.6956605928e+00 -2.9369702992e+00 1.6956605928e+00 2.9369702992e+00 
28200 5.8913784700e+00 8.9974170266e-04 1.6956335013e+00 -2.9369233752e+00 1.6956335013e+00 2.9369233752e+00 
28300 5.8913737920e+00 8.8091644756e-04 1.6956069702e+00 -2.9368774221e+00 1.6956069702e+00 2.9368774221e+00 
28400 5.8913691655e+00 8.6228310262e-04 1.6955809938e+00 -2.9368324297e+00 1.6955809938e+00 2.9368324297e+00 
28500 5.8913645899e+00 8.4383721945e-04 1.6955555665e+00 -2.9367883883e+00 1.6955555665e+00 2.9367883883e+00 
28600 5.8913600647e+00 8.2557466006e-04 1.6955306828e+00 -2.9367452884e+00 1.6955306828e+00 2.9367452884e+00 
28700 5.8913555891e+00 8.0749158486e-04 1.6955063373e+00 -2.9367031207e+00 1.6955063373e+00 2.9367031207e+00 
28800 5.8913511627e+00 7.8958444064e-04 1.6954825246e+00 -2.9366618760e+00 1.6954825246e+00 2.9366618760e+00 
28900 5.8913467850e+00 7.7184994872e-04 1.6954592397e+00 -2.9366215454e+00 1.6954592397e+00 2.9366215454e+00 
29000 5.8913424553e+00 7.5428509315e-04 1.6954364775e+00 -2.9365821200e+00 1.6954364775e+00 2.9365821200e+00 
29100 5.8913381732e+00 7.3688710901e-04 1.6954142330e+00 -2.9365435914e+00 1.6954142330e+00 2.9365435914e+00 
29200 5.8913339380e+00 7.1965347090e-04 1.6953925013e+00 -2.9365059509e+00 1.6953925013e+00 2.9365059509e+00 
29300 5.8913297494e+00 7.0258188151e-04 1.6953712775e+00 -2.9364691903e+00 1.6953712775e+00 2.9364691903e+00 
29400 5.8913256067e+00 6.8567026034e-04 1.6953505570e+00 -2.9364333013e+00 1.6953505570e+00 2.9364333013e+00 
29500 5.8913215094e+00 6.6891673268e-04 1.6953303349e+00 -2.9363982757e+00 1.6953303349e+00 2.9363982757e+00 
29600 5.8913174571e+00 6.5231961864e-04 1.6953106067e+00 -2.9363641055e+00 1.6953106067e+00 2.9363641055e+00 
29700 5.8913134492e+00 6.3587742244e-04 1.6952913678e+00 -2.9363307827e+00 1.6952913678e+00 2.9363307827e+00 
29800 5.8913094853e+00 6.1958882192e-04 1.6952726136e+00 -2.9362982995e+00 1.6952726136e+00 2.9362982995e+00 
29900 5.8913055647e+00 6.0345265821e-04 1.6952543397e+00 -2.9362666480e+00 1.6952543397e+00 2.9362666480e+00 
30000 5.8913016872e+00 5.8746792560e-04 1.6952365414e+00 -2.9362358206e+00 1.6952365414e+00 2.9362358206e+00 
30100 5.8912978521e+00 5.7163376173e-04 1.6952192144e+00 -2.9362058093e+00 1.6952192144e+00 2.9362058093e+00 
30200 5.8912940590e+00 5.5594943788e-04 1.6952023543e+00 -2.9361766067e+00 1.6952023543e+00 2.9361766067e+00 
30300 5.8912903074e+00 5.4041434962e-04 1.6951859566e+00 -2.9361482050e+00 1.6951859566e+00 2.9361482050e+00 
30400 5.8912865968e+00 5.2502800760e-04 1.6951700169e+00 -2.9361205968e+00 1.6951700169e+00 2.9361205968e+00 
30500 5.8912829268e+00 5.0979002867e-04 1.6951545309e+00 -2.9360937743e+00 1.6951545309e+00 2.9360937743e+00 
30600 5.8912792969e+00 4.9470012720e-04 1.6951394943e+00 -2.9360677300e+00 1.6951394943e+00 2.9360677300e+00 
30700 5.8912757067e+00 4.7975810667e-04 1.6951249026e+00 -2.9360424564e+00 1.6951249026e+00 2.9360424564e+00 
30800 5.8912721556e+00 4.6496385151e-04 1.6951107515e+00 -2.9360179460e+00 1.6951107515e+00 2.9360179460e+00 
30900 5.8912686432e+00 4.5031731923e-04 1.6950970366e+00 -2.9359941912e+00 1.6950970366e+00 2.9359941912e+00 
31000 5.8912651691e+00 4.3581853280e-04 1.6950837537e+00 -2.9359711845e+00 1.6950837537e+00 2.9359711845e+00 
31100 5.8912617329e+00 4.2146757326e-04 1.6950708984e+00 -2.9359489184e+00 1.6950708984e+00 2.9359489184e+00 
31200 5.8912583340e+00 4.0726457266e-04 1.6950584662e+00 -2.9359273853e+00 1.6950584662e+00 2.9359273853e+00 
31300 5.8912549721e+00 3.9320970720e-04 1.6950464530e+00 -2.9359065777e+00 1.6950464530e+00 2.9359065777e+00 
31400 5.8912516466e+00 3.7930319070e-04 1.6950348542e+00 -2.9358864880e+00 1.6950348542e+00 2.9358864880e+00 
31500 5.8912483573e+00 3.6554526827e-04 1.6950236655e+00 -2.9358671087e+00 1.6950236655e+00 2.9358671087e+00 
31600 5.8912451036e+00 3.5193621032e-04 1.6950128827e+00 -2.9358484322e+00 1.6950128827e+00 2.9358484322e+00 
31700 5.8912418852e+00 3.3847630677e-04 1.6950025011e+00 -2.9358304509e+00 1.6950025011e+00 2.9358304509e+00 
31800 5.8912387015e+00 3.2516586154e-04 1.6949925166e+00 -2.9358131572e+00 1.6949925166e+00 2.9358131572e+00 
31900 5.8912355523e+00 3.1200518734e-04 1.6949829247e+00 -2.9357965435e+00 1.6949829247e+00 2.9357965435e+00 
32000 5.8912324370e+00 2.9899460066e-04 1.6949737209e+00 -2.9357806021e+00 1.6949737209e+00 2.9357806021e+00 
32100 5.8912293554e+00 2.8613441703e-04 1.6949649009e+00 -2.9357653253e+00 1.6949649009e+00 2.9357653253e+00 
32200 5.8912263069e+00 2.7342494659e-04 1.6949564602e+00 -2.9357507056e+00 1.6949564602e+00 2.9357507056e+00 
32300 5.8912232912e+00 2.6086648982e-04 1.6949483943e+00 -2.9357367352e+00 1.6949483943e+00 2.9357367352e+00 
32400 5.8912203079e+00 2.4845933358e-04 1.6949406989e+00 -2.9357234063e+00 1.6949406989e+00 2.9357234063e+00 
32500 5.8912173566e+00 2.3620374736e-04 1.6949333695e+00 -2.9357107114e+00 1.6949333695e+00 2.9357107114e+00 
32600 5.8912144370e+00 2.2409997980e-04 1.6949264016e+00 -2.9356986426e+00 1.6949264016e+00 2.9356986426e+00 
32700 5.8912115486e+00 2.1214825538e-04 1.6949197906e+00 -2.9356871922e+00 1.6949197906e+00 2.9356871922e+00 
32800 5.8912086910e+00 2.0034877144e-04 1.6949135323e+00 -2.9356763524e+00 1.6949135323e+00 2.9356763524e+00 
32900 5.8912058640e+00 1.8870169531e-04 1.6949076220e+00 -2.9356661154e+00 1.6949076220e+00 2.9356661154e+00 
33000 5.8912030672e+00 1.7720716175e-04 1.6949020553e+00 -2.9356564736e+00 1.6949020553e+00 2.9356564736e+00 
33100 5.8912003001e+00 1.6586527053e-04 1.6948968276e+00 -2.9356474190e+00 1.6948968276e+00 2.9356474190e+00 
33200 5.8911975624e+00 1.5467608432e-04 1.6948919346e+00 -2.9356389440e+00 1.6948919346e+00 2.9356389440e+00 
33300 5.8911948539e+00 1.4363962665e-04 1.6948873716e+00 -2.9356310406e+00 1.6948873716e+00 2.9356310406e+00 
33400 5.8911921740e+00 1.3275588019e-04 1.6948831341e+00 -2.9356237012e+00 1.6948831341e+00 2.9356237012e+00 
33500 5.8911895226e+00 1.2202478512e-04 1.6948792177e+00 -2.9356169178e+00 1.6948792177e+00 2.9356169178e+00 
33600 5.8911868992e+00 1.1144623780e-04 1.6948756179e+00 -2.9356106828e+00 1.6948756179e+00 2.9356106828e+00 
33700 5.8911843036e+00 1.0102008951e-04 1.6948723302e+00 -2.9356049882e+00 1.6948723302e+00 2.9356049882e+00 
33800 5.8911817354e+00 9.0746145407e-05 1.6948693500e+00 -2.9355998264e+00 1.6948693500e+00 2.9355998264e+00 
33900 5.8911791942e+00 8.0624163697e-05 1.6948666729e+00 -2.9355951896e+00 1.6948666729e+00 2.9355951896e+00 
34000 5.8911766799e+00 7.0653854890e-05 1.6948642945e+00 -2.9355910700e+00 1.6948642945e+00 2.9355910700e+00 
34100 5.8911741921e+00 6.1849107763e-05 1.6948642945e+00 -2.9355910700e+00 1.6948642945e+00 2.9355910700e+00 
34200 5.8911717304e+00 5.3056296615e-05 1.6948642945e+00 -2.9355910700e+00 1.6948642945e+00 2.9355910700e+00 
34300 5.8911692944e+00 4.4276877530e-05 1.6948642945e+00 -2.9355910700e+00 1.6948642945e+00 2.9355910700e+00 
34400 5.8911668840e+00 3.5512258966e-05 1.6948642945e+00 -2.9355910700e+00 1.6948642945e+00 2.9355910700e+00 
34500 5.8911644987e+00 2.6763800791e-05 1.6948642945e+00 -2.9355910700e+00 1.6948642945e+00 2.9355910700e+00 
34600 5.8911621384e+00 1.8032813503e-05 1.6948642945e+00 -2.9355910700e+00 1.6948642945e+00 2.9355910700e+00 
34700 5.8911598027e+00 9.3205575917e-06 1.6948642945e+00 -2.9355910700e+00 1.6948642945e+00 2.9355910700e+00 
34800 5.8911574915e+00 6.2824307394e-07 1.6948642945e+00 -2.9355910700e+00 1.6948642945e+00 2.9355910700e+00 
34900 5.8911552043e+00 -8.0429708467e-06 1.6948642945e+00 -2.9355910700e+00 1.6948642945e+00 2.9355910700e+00 
35000 5.8911529410e+00 -1.6691975969e-05 1.6948642945e+00 -2.9355910700e+00 1.6948642945e+00 2.9355910700e+00 
35100 5.8911507012e+00 -2.5317715168e-05 1.6948642945e+00 -2.9355910700e+00 1.6948642945e+00 2.9355910700e+00 
35200 5.8911484849e+00 -3.3919182334e-05 1.6948642945e+00 -2.9355910700e+00 1.6948642945e+00 2.9355910700e+00 
35300 5.8911462915e+00 -4.2495422211e-05 1.6948642945e+00 -2.9355910700e+00 1.6948642945e+00 2.9355910700e+00 
35400 5.8911441211e+00 -5.1045530118e-05 1.6948642945e+00 -2.9355910700e+00 1.6948642945e+00 2.9355910700e+00 
35500 5.8911419732e+00 -5.9568651579e-05 1.6948642945e+00 -2.9355910700e+00 1.6948642945e+00 2.9355910700e+00 
35600 5.8911398476e+00 -6.8063981847e-05 1.6948642945e+00 -2.9355910700e+00 1.6948642945e+00 2.9355910700e+00 
35700 5.8911377441e+00 -7.6530765355e-05 1.6948642945e+00 -2.9355910700e+00 1.6948642945e+00 2.9355910700e+00 
35800 5.8911356622e+00 -8.3872324895e-05 1.6948665522e+00 -2.9355949804e+00 1.6948665522e+00 2.9355949804e+00 
35900 5.8911336019e+00 -9.1076765271e-05 1.6948690265e+00 -2.9355992661e+00 1.6948690265e+00 2.9355992661e+00 
36000 5.8911315629e+00 -9.8145282692e-05 1.6948717133e+00 -2.9356039198e+00 1.6948717133e+00 2.9356039198e+00 
36100 5.8911295449e+00 -1.0507910820e-04 1.6948746087e+00 -2.9356089347e+00 1.6948746087e+00 2.9356089347e+00 
36200 5.8911275477e+00 -1.1187950632e-04 1.6948777086e+00 -2.9356143039e+00 1.6948777086e+00 2.9356143039e+00 
36300 5.8911255711e+00 -1.1854777372e-04 1.6948810091e+00 -2.9356200206e+00 1.6948810091e+00 2.9356200206e+00 
36400 5.8911236149e+00 -1.2508523778e-04 1.6948845064e+00 -2.9356260780e+00 1.6948845064e+00 2.9356260780e+00 
36500 5.8911216789e+00 -1.3149325516e-04 1.6948881964e+00 -2.9356324694e+00 1.6948881964e+00 2.9356324694e+00 
36600 5.8911197627e+00 -1.3777321036e-04 1.6948920756e+00 -2.9356391882e+00 1.6948920756e+00 2.9356391882e+00 
36700 5.8911178663e+00 -1.4392651422e-04 1.6948961399e+00 -2.9356462279e+00 1.6948961399e+00 2.9356462279e+00 
36800 5.8911159893e+00 -1.4995460241e-04 1.6949003858e+00 -2.9356535820e+00 1.6949003858e+00 2.9356535820e+00 
36900 5.8911141317e+00 -1.5585893395e-04 1.6949048095e+00 -2.9356612441e+00 1.6949048095e+00 2.9356612441e+00 
37000 5.8911122931e+00 -1.6164098967e-04 1.6949094074e+00 -2.9356692078e+00 1.6949094074e+00 2.9356692078e+00 
37100 5.8911104733e+00 -1.6730227069e-04 1.6949141758e+00 -2.9356774670e+00 1.6949141758e+00 2.9356774670e+00 
37200 5.8911086722e+00 -1.7284429686e-04 1.6949191112e+00 -2.9356860154e+00 1.6949191112e+00 2.9356860154e+00 
37300 5.8911068896e+00 -1.7826860530e-04 1.6949242101e+00 -2.9356948469e+00 1.6949242101e+00 2.9356948469e+00 
37400 5.8911051252e+00 -1.8357674880e-04 1.6949294690e+00 -2.9357039556e+00 1.6949294690e+00 2.9357039556e+00 
37500 5.8911033788e+00 -1.8877029436e-04 1.6949348845e+00 -2.9357133355e+00 1.6949348845e+00 2.9357133355e+00 
37600 5.8911016503e+00 -1.9385082164e-04 1.6949404532e+00 -2.9357229807e+00 1.6949404532e+00 2.9357229807e+00 
37700 5.8910999395e+00 -1.9881992150e-04 1.6949461717e+00 -2.9357328854e+00 1.6949461717e+00 2.9357328854e+00 
37800 5.8910982462e+00 -2.0367919451e-04 1.6949520368e+00 -2.9357430441e+00 1.6949520368e+00 2.9357430441e+00 
37900 5.8910965701e+00 -2.0843024948e-04 1.6949580452e+00 -2.9357534509e+00 1.6949580452e+00 2.9357534509e+00 
38000 5.8910949111e+00 -2.1307470203e-04 1.6949641937e+00 -2.9357641005e+00 1.6949641937e+00 2.9357641005e+00 
38100 5.8910932691e+00 -2.1761417317e-04 1.6949704792e+00 -2.9357749874e+00 1.6949704792e+00 2.9357749874e+00 
38200 5.8910916438e+00 -2.2205028790e-04 1.6949768986e+00 -2.9357861061e+00 1.6949768986e+00 2.9357861061e+00 
38300 5.8910900350e+00 -2.2638467386e-04 1.6949834489e+00 -2.9357974515e+00 1.6949834489e+00 2.9357974515e+00 
38400 5.8910884426e+00 -2.3061895997e-04 1.6949901270e+00 -2.9358090183e+00 1.6949901270e+00 2.9358090183e+00 
38500 5.8910868664e+00 -2.3475477512e-04 1.6949969299e+00 -2.9358208013e+00 1.6949969299e+00 2.9358208013e+00 
38600 5.8910853063e+00 -2.3879374692e-04 1.6950038549e+00 -2.9358327957e+00 1.6950038549e+00 2.9358327957e+00 
38700 5.8910837620e+00 -2.4273750040e-04 1.6950108989e+00 -2.9358449963e+00 1.6950108989e+00 2.9358449963e+00 
38800 5.8910822334e+00 -2.4658765685e-04 1.6950180593e+00 -2.9358573984e+00 1.6950180593e+00 2.9358573984e+00 
38900 5.8910807203e+00 -2.5034583262e-04 1.6950253332e+00 -2.9358699972e+00 1.6950253332e+00 2.9358699972e+00 
39000 5.8910792225e+00 -2.5401363797e-04 1.6950327179e+00 -2.9358827879e+00 1.6950327179e+00 2.9358827879e+00 
39100 5.8910777399e+00 -2.5759267597e-04 1.6950402108e+00 -2.9358957660e+00 1.6950402108e+00 2.9358957660e+00 
39200 5.8910762724e+00 -2.6108454145e-04 1.6950478092e+00 -2.9359089269e+00 1.6950478092e+00 2.9359089269e+00 
39300 5.8910748197e+00 -2.6449081994e-04 1.6950555106e+00 -2.9359222661e+00 1.6950555106e+00 2.9359222661e+00 
39400 5.8910733817e+00 -2.6781308669e-04 1.6950633125e+00 -2.9359357792e+00 1.6950633125e+00 2.9359357792e+00 
39500 5.8910719583e+00 -2.7105290573e-04 1.6950712123e+00 -2.9359494621e+00 1.6950712123e+00 2.9359494621e+00 
39600 5.8910705493e+00 -2.7421182894e-04 1.6950792076e+00 -2.9359633104e+00 1.6950792076e+00 2.9359633104e+00 
39700 5.8910691545e+00 -2.7729139519e-04 1.6950872961e+00 -2.9359773201e+00 1.6950872961e+00 2.9359773201e+00 
39800 5.8910677737e+00 -2.8029312950e-04 1.6950954754e+00 -2.9359914870e+00 1.6950954754e+00 2.9359914870e+00 
39900 5.8910664070e+00 -2.8321854224e-04 1.6951037431e+00 -2.9360058072e+00 1.6951037431e+00 2.9360058072e+00 
40000 5.8910650540e+00 -2.8606912841e-04 1.6951120972e+00 -2.9360202768e+00 1.6951120972e+00 2.9360202768e+00 
40100 5.8910637146e+00 -2.8884636690e-04 1.6951205352e+00 -2.9360348919e+00 1.6951205352e+00 2.9360348919e+00 
40200 5.8910623888e+00 -2.9155171980e-04 1.6951290552e+00 -2.9360496489e+00 1.6951290552e+00 2.9360496489e+00 
40300 5.8910610763e+00 -2.9418663182e-04 1.6951376549e+00 -2.9360645440e+00 1.6951376549e+00 2.9360645440e+00 
40400 5.8910597770e+00 -2.9675252966e-04 1.6951463322e+00 -2.9360795737e+00 1.6951463322e+00 2.9360795737e+00 
40500 5.8910584908e+00 -2.9925082148e-04 1.6951550852e+00 -2.9360947344e+00 1.6951550852e+00 2.9360947344e+00 
40600 5.8910572176e+00 -3.0168289635e-04 1.6951639119e+00 -2.9361100226e+00 1.6951639119e+00 2.9361100226e+00 
40700 5.8910559571e+00 -3.0405012382e-04 1.6951728103e+00 -2.9361254350e+00 1.6951728103e+00 2.9361254350e+00 
40800 5.8910547093e+00 -3.0635385345e-04 1.6951817784e+00 -2.9361409682e+00 1.6951817784e+00 2.9361409682e+00 
40900 5.8910534740e+00 -3.0859541442e-04 1.6951908144e+00 -2.9361566191e+00 1.6951908144e+00 2.9361566191e+00 
41000 5.8910522511e+00 -3.1077611516e-04 1.6951999165e+00 -2.9361723844e+00 1.6951999165e+00 2.9361723844e+00 
41100 5.8910510405e+00 -3.1289724304e-04 1.6952090829e+00 -2.9361882610e+00 1.6952090829e+00 2.9361882610e+00 
41200 5.8910498420e+00 -3.1496006408e-04 1.6952183117e+00 -2.9362042458e+00 1.6952183117e+00 2.9362042458e+00 
41300 5.8910486555e+00 -3.1696582265e-04 1.6952276014e+00 -2.9362203360e+00 1.6952276014e+00 2.9362203360e+00 
41400 5.8910474809e+00 -3.1891574130e-04 1.6952369502e+00 -2.9362365286e+00 1.6952369502e+00 2.9362365286e+00 
41500 5.8910463181e+00 -3.2081102055e-04 1.6952463564e+00 -2.9362528207e+00 1.6952463564e+00 2.9362528207e+00 
41600 5.8910451669e+00 -3.2265283871e-04 1.6952558185e+00 -2.9362692095e+00 1.6952558185e+00 2.9362692095e+00 
41700 5.8910440272e+00 -3.2444235180e-04 1.6952653349e+00 -2.9362856923e+00 1.6952653349e+00 2.9362856923e+00 
41800 5.8910428988e+00 -3.2618069341e-04 1.6952749039e+00 -2.9363022664e+00 1.6952749039e+00 2.9363022664e+00 
41900 5.8910417818e+00 -3.2786897467e-04 1.6952845242e+00 -2.9363189293e+00 1.6952845242e+00 2.9363189293e+00 
42000 5.8910406759e+00 -3.2950828419e-04 1.6952941943e+00 -2.9363356783e+00 1.6952941943e+00 2.9363356783e+00 
42100 5.8910395810e+00 -3.3109968805e-04 1.6953039126e+00 -2.9363525109e+00 1.6953039126e+00 2.9363525109e+00 
42200 5.8910384971e+00 -3.3264422984e-04 1.6953136778e+00 -2.9363694248e+00 1.6953136778e+00 2.9363694248e+00 
42300 5.8910374240e+00 -3.3414293069e-04 1.6953234885e+00 -2.9363864174e+00 1.6953234885e+00 2.9363864174e+00 
42400 5.8910363615e+00 -3.3559678934e-04 1.6953333434e+00 -2.9364034865e+00 1.6953333434e+00 2.9364034865e+00 
42500 5.8910353096e+00 -3.3700678222e-04 1.6953432411e+00 -2.9364206298e+00 1.6953432411e+00 2.9364206298e+00 
42600 5.8910342683e+00 -3.3837386359e-04 1.6953531803e+00 -2.9364378450e+00 1.6953531803e+00 2.9364378450e+00 
42700 5.8910332372e+00 -3.3969896568e-04 1.6953631597e+00 -2.9364551299e+00 1.6953631597e+00 2.9364551299e+00 
42800 5.8910322164e+00 -3.4098299880e-04 1.6953731782e+00 -2.9364724824e+00 1.6953731782e+00 2.9364724824e+00 
42900 5.8910312058e+00 -3.4222685160e-04 1.6953832345e+00 -2.9364899004e+00 1.6953832345e+00 2.9364899004e+00 
43000 5.8910302052e+00 -3.4343139120e-04 1.6953933274e+00 -2.9365073819e+00 1.6953933274e+00 2.9365073819e+00 
43100 5.8910292145e+00 -3.4459746342e-04 1.6954034558e+00 -2.9365249247e+00 1.6954034558e+00 2.9365249247e+00 
43200 5.8910282337e+00 -3.4572589305e-04 1.6954136185e+00 -2.9365425271e+00 1.6954136185e+00 2.9365425271e+00 
43300 5.8910272626e+00 -3.4681748407e-04 1.6954238144e+00 -2.9365601869e+00 1.6954238144e+00 2.9365601869e+00 
43400 5.8910263012e+00 -3.4787301990e-04 1.6954340425e+00 -2.9365779024e+00 1.6954340425e+00 2.9365779024e+00 
43500 5.8910253492e+00 -3.4889326371e-04 1.6954443016e+00 -2.9365956718e+00 1.6954443016e+00 2.9365956718e+00 
43600 5.8910244067e+00 -3.4987895871e-04 1.6954545907e+00 -2.9366134931e+00 1.6954545907e+00 2.9366134931e+00 
43700 5.8910234735e+00 -3.5083082843e-04 1.6954649089e+00 -2.9366313647e+00 1.6954649089e+00 2.9366313647e+00 
43800 5.8910225496e+00 -3.5174957707e-04 1.6954752551e+00 -2.9366492848e+00 1.6954752551e+00 2.9366492848e+00 
43900 5.8910216348e+00 -3.5263588979e-04 1.6954856283e+00 -2.9366672517e+00 1.6954856283e+00 2.9366672517e+00 
44000 5.8910207291e+00 -3.5349043307e-04 1.6954960275e+00 -2.9366852637e+00 1.6954960275e+00 2.9366852637e+00 
44100 5.8910198323e+00 -3.5431385506e-04 1.6955064519e+00 -2.9367033193e+00 1.6955064519e+00 2.9367033193e+00 
44200 5.8910189444e+00 -3.5510678593e-04 1.6955169006e+00 -2.9367214169e+00 1.6955169006e+00 2.9367214169e+00 
44300 5.8910180652e+00 -3.5586983820e-04 1.6955273725e+00 -2.9367395548e+00 1.6955273725e+00 2.9367395548e+00 
44400 5.8910171947e+00 -3.5660360716e-04 1.6955378669e+00 -2.9367577316e+00 1.6955378669e+00 2.9367577316e+00 
44500 5.8910163328e+00 -3.5730867120e-04 1.6955483828e+00 -2.9367759458e+00 1.6955483828e+00 2.9367759458e+00 
44600 5.8910154795e+00 -3.5798559220e-04 1.6955589195e+00 -2.9367941958e+00 1.6955589195e+00 2.9367941958e+00 
44700 5.8910146345e+00 -3.5863491593e-04 1.6955694761e+00 -2.9368124804e+00 1.6955694761e+00 2.9368124804e+00 
44800 5.8910137979e+00 -3.5925717240e-04 1.6955800518e+00 -2.9368307980e+00 1.6955800518e+00 2.9368307980e+00 
44900 5.8910129695e+00 -3.5985287627e-04 1.6955906457e+00 -2.9368491472e+00 1.6955906457e+00 2.9368491472e+00 
45000 5.8910121492e+00 -3.6042252725e-04 1.6956012571e+00 -2.9368675268e+00 1.6956012571e+00 2.9368675268e+00 
45100 5.8910113371e+00 -3.6096661046e-04 1.6956118853e+00 -2.9368859353e+00 1.6956118853e+00 2.9368859353e+00 
45200 5.8910105329e+00 -3.6148559683e-04 1.6956225295e+00 -2.9369043715e+00 1.6956225295e+00 2.9369043715e+00 
45300 5.8910097367e+00 -3.6197994354e-04 1.6956331889e+00 -2.9369228341e+00 1.6956331889e+00 2.9369228341e+00 
45400 5.8910089483e+00 -3.6245009431e-04 1.6956438628e+00 -2.9369413218e+00 1.6956438628e+00 2.9369413218e+00 
45500 5.8910081676e+00 -3.6289647991e-04 1.6956545505e+00 -2.9369598335e+00 1.6956545505e+00 2.9369598335e+00 
45600 5.8910073946e+00 -3.6331951843e-04 1.6956652512e+00 -2.9369783678e+00 1.6956652512e+00 2.9369783678e+00 
45700 5.8910066292e+00 -3.6371961577e-04 1.6956759644e+00 -2.9369969236e+00 1.6956759644e+00 2.9369969236e+00 
45800 5.8910058713e+00 -3.6409716596e-04 1.6956866894e+00 -2.9370154997e+00 1.6956866894e+00 2.9370154997e+00 
45900 5.8910051209e+00 -3.6445255155e-04 1.6956974254e+00 -2.9370340950e+00 1.6956974254e+00 2.9370340950e+00 
46000 5.8910043778e+00 -3.6478614401e-04 1.6957081718e+00 -2.9370527083e+00 1.6957081718e+00 2.9370527083e+00 
46100 5.8910036420e+00 -3.6509830407e-04 1.6957189279e+00 -2.9370713385e+00 1.6957189279e+00 2.9370713385e+00 
46200 5.8910029134e+00 -3.6538938213e-04 1.6957296932e+00 -2.9370899846e+00 1.6957296932e+00 2.9370899846e+00 
46300 5.8910021920e+00 -3.6565971857e-04 1.6957404671e+00 -2.9371086454e+00 1.6957404671e+00 2.9371086454e+00 
46400 5.8910014776e+00 -3.6590964416e-04 1.6957512488e+00 -2.9371273199e+00 1.6957512488e+00 2.9371273199e+00 
46500 5.8910007702e+00 -3.6613948040e-04 1.6957620378e+00 -2.9371460070e+00 1.6957620378e+00 2.9371460070e+00 
46600 5.8910000698e+00 -3.6634953983e-04 1.6957728335e+00 -2.9371647058e+00 1.6957728335e+00 2.9371647058e+00 
46700 5.8909993762e+00 -3.6654012643e-04 1.6957836354e+00 -2.9371834152e+00 1.6957836354e+00 2.9371834152e+00 
46800 5.8909986894e+00 -3.6671153591e-04 1.6957944428e+00 -2.9372021341e+00 1.6957944428e+00 2.9372021341e+00 
46900 5.8909980093e+00 -3.6686405606e-04 1.6958052552e+00 -2.9372208617e+00 1.6958052552e+00 2.9372208617e+00 
47000 5.8909973359e+00 -3.6699796708e-04 1.6958160720e+00 -2.9372395970e+00 1.6958160720e+00 2.9372395970e+00 
47100 5.8909966690e+00 -3.6711354186e-04 1.6958268927e+00 -2.9372583390e+00 1.6958268927e+00 2.9372583390e+00 
47200 5.8909960087e+00 -3.6721104633e-04 1.6958377168e+00 -2.9372770868e+00 1.6958377168e+00 2.9372770868e+00 
47300 5.8909953548e+00 -3.6729073975e-04 1.6958485436e+00 -2.9372958395e+00 1.6958485436e+00 2.9372958395e+00 
47400 5.8909947073e+00 -3.6735287496e-04 1.6958593727e+00 -2.9373145961e+00 1.6958593727e+00 2.9373145961e+00 
47500 5.8909940661e+00 -3.6739769875e-04 1.6958702036e+00 -2.9373333557e+00 1.6958702036e+00 2.9373333557e+00 
47600 5.8909934311e+00 -3.6742545206e-04 1.6958810358e+00 -2.9373521175e+00 1.6958810358e+00 2.9373521175e+00 
47700 5.8909928024e+00 -3.6743637029e-04 1.6958918686e+00 -2.9373708806e+00 1.6958918686e+00 2.9373708806e+00 
47800 5.8909921798e+00 -3.6743068354e-04 1.6959027018e+00 -2.9373896442e+00 1.6959027018e+00 2.9373896442e+00 
47900 5.8909915633e+00 -3.6740861691e-04 1.6959135347e+00 -2.9374084073e+00 1.6959135347e+00 2.9374084073e+00 
48000 5.8909909527e+00 -3.6737039068e-04 1.6959243669e+00 -2.9374271692e+00 1.6959243669e+00 2.9374271692e+00 
48100 5.8909903481e+00 -3.6731622061e-04 1.6959351979e+00 -2.9374459291e+00 1.6959351979e+00 2.9374459291e+00 
48200 5.8909897494e+00 -3.6724631814e-04 1.6959460272e+00 -2.9374646860e+00 1.6959460272e+00 2.9374646860e+00 
48300 5.8909891566e+00 -3.6716089062e-04 1.6959568544e+00 -2.9374834392e+00 1.6959568544e+00 2.9374834392e+00 
48400 5.8909885695e+00 -3.6706014151e-04 1.6959676790e+00 -2.9375021880e+00 1.6959676790e+00 2.9375021880e+00 
48500 5.8909879881e+00 -3.6694427063e-04 1.6959785006e+00 -2.9375209315e+00 1.6959785006e+00 2.9375209315e+00 
48600 5.8909874123e+00 -3.6681347430e-04 1.6959893186e+00 -2.9375396690e+00 1.6959893186e+00 2.9375396690e+00 
48700 5.8909868422e+00 -3.6666794558e-04 1.6960001328e+00 -2.9375583996e+00 1.6960001328e+00 2.9375583996e+00 
48800 5.8909862776e+00 -3.6650787444e-04 1.6960109426e+00 -2.9375771228e+00 1.6960109426e+00 2.9375771228e+00 
48900 5.8909857185e+00 -3.6633344791e-04 1.6960217476e+00 -2.9375958376e+00 1.6960217476e+00 2.9375958376e+00 
49000 5.8909851648e+00 -3.6614485031e-04 1.6960325474e+00 -2.9376145434e+00 1.6960325474e+00 2.9376145434e+00 
49100 5.8909846165e+00 -3.6594226332e-04 1.6960433416e+00 -2.9376332394e+00 1.6960433416e+00 2.9376332394e+00 
49200 5.8909840735e+00 -3.6572586624e-04 1.6960541297e+00 -2.9376519250e+00 1.6960541297e+00 2.9376519250e+00 
49300 5.8909835358e+00 -3.6549583603e-04 1.6960649114e+00 -2.9376705994e+00 1.6960649114e+00 2.9376705994e+00 
49400 5.8909830033e+00 -3.6525234754e-04 1.6960756862e+00 -2.9376892620e+00 1.6960756862e+00 2.9376892620e+00 
49500 5.8909824759e+00 -3.6499557357e-04 1.6960864538e+00 -2.9377079120e+00 1.6960864538e+00 2.9377079120e+00 
49600 5.8909819537e+00 -3.6472568505e-04 1.6960972137e+00 -2.9377265488e+00 1.6960972137e+00 2.9377265488e+00 
49700 5.8909814365e+00 -3.6444285114e-04 1.6961079657e+00 -2.9377451716e+00 1.6961079657e+00 2.9377451716e+00 
49800 5.8909809244e+00 -3.6414723930e-04 1.6961187092e+00 -2.9377637800e+00 1.6961187092e+00 2.9377637800e+00 
49900 5.8909804172e+00 -3.6383901546e-04 1.6961294439e+00 -2.9377823731e+00 1.6961294439e+00 2.9377823731e+00 
50000 5.8909799149e+00 -3.6351834409e-04 1.6961401695e+00 -2.9378009503e+00 1.6961401695e+00 2.9378009503e+00 
50100 5.8909794174e+00 -3.6318538828e-04 1.6961508855e+00 -2.9378195111e+00 1.6961508855e+00 2.9378195111e+00 
50200 5.8909789248e+00 -3.6284030984e-04 1.6961615917e+00 -2.9378380547e+00 1.6961615917e+00 2.9378380547e+00 
50300 5.8909784370e+00 -3.6248326938e-04 1.6961722877e+00 -2.9378565806e+00 1.6961722877e+00 2.9378565806e+00 
50400 5.8909779538e+00 -3.6211442638e-04 1.6961829730e+00 -2.9378750882e+00 1.6961829730e+00 2.9378750882e+00 
50500 5.8909774754e+00 -3.6173393925e-04 1.6961936474e+00 -2.9378935768e+00 1.6961936474e+00 2.9378935768e+00 
50600 5.8909770015e+00 -3.6134196544e-04 1.6962043105e+00 -2.9379120458e+00 1.6962043105e+00 2.9379120458e+00 
50700 5.8909765323e+00 -3.6093866141e-04 1.6962149620e+00 -2.9379304948e+00 1.6962149620e+00 2.9379304948e+00 
50800 5.8909760675e+00 -3.6052418279e-04 1.6962256016e+00 -2.9379489230e+00 1.6962256016e+00 2.9379489230e+00 
50900 5.8909756073e+00 -3.6009868433e-04 1.6962362288e+00 -2.9379673300e+00 1.6962362288e+00 2.9379673300e+00 
51000 5.8909751515e+00 -3.5966232001e-04 1.6962468435e+00 -2.9379857151e+00 1.6962468435e+00 2.9379857151e+00 
51100 5.8909747001e+00 -3.5921524306e-04 1.6962574452e+00 -2.9380040778e+00 1.6962574452e+00 2.9380040778e+00 
51200 5.8909742531e+00 -3.5875760597e-04 1.6962680337e+00 -2.9380224176e+00 1.6962680337e+00 2.9380224176e+00 
51300 5.8909738103e+00 -3.5828956055e-04 1.6962786086e+00 -2.9380407339e+00 1.6962786086e+00 2.9380407339e+00 
51400 5.8909733719e+00 -3.5781125797e-04 1.6962891696e+00 -2.9380590261e+00 1.6962891696e+00 2.9380590261e+00 
51500 5.8909729376e+00 -3.5732284874e-04 1.6962997165e+00 -2.9380772939e+00 1.6962997165e+00 2.9380772939e+00 
51600 5.8909725076e+00 -3.5682448274e-04 1.6963102490e+00 -2.9380955366e+00 1.6963102490e+00 2.9380955366e+00 
51700 5.8909720816e+00 -3.5631630927e-04 1.6963207666e+00 -2.9381137538e+00 1.6963207666e+00 2.9381137538e+00 
51800 5.8909716598e+00 -3.5579847703e-04 1.6963312693e+00 -2.9381319449e+00 1.6963312693e+00 2.9381319449e+00 
51900 5.8909712421e+00 -3.5527113412e-04 1.6963417566e+00 -2.9381501094e+00 1.6963417566e+00 2.9381501094e+00 
52000 5.8909708284e+00 -3.5473442808e-04 1.6963522283e+00 -2.9381682469e+00 1.6963522283e+00 2.9381682469e+00 
52100 5.8909704186e+00 -3.5418850587e-04 1.6963626841e+00 -2.9381863569e+00 1.6963626841e+00 2.9381863569e+00 
52200 5.8909700128e+00 -3.5363351389e-04 1.6963731237e+00 -2.9382044389e+00 1.6963731237e+00 2.9382044389e+00 
52300 5.8909696109e+00 -3.5306959794e-04 1.6963835470e+00 -2.9382224925e+00 1.6963835470e+00 2.9382224925e+00 
52400 5.8909692129e+00 -3.5249690325e-04 1.6963939535e+00 -2.9382405172e+00 1.6963939535e+00 2.9382405172e+00 
52500 5.8909688187e+00 -3.5191557449e-04 1.6964043431e+00 -2.9382585125e+00 1.6964043431e+00 2.9382585125e+00 
52600 5.8909684282e+00 -3.5132575569e-04 1.6964147155e+00 -2.9382764780e+00 1.6964147155e+00 2.9382764780e+00 
52700 5.8909680416e+00 -3.5072759031e-04 1.6964250705e+00 -2.9382944133e+00 1.6964250705e+00 2.9382944133e+00 
52800 5.8909676586e+00 -3.5012122118e-04 1.6964354078e+00 -2.9383123180e+00 1.6964354078e+00 2.9383123180e+00 
52900 5.8909672793e+00 -3.4950679051e-04 1.6964457271e+00 -2.9383301916e+00 1.6964457271e+00 2.9383301916e+00 
53000 5.8909669037e+00 -3.4888443985e-04 1.6964560283e+00 -2.9383480337e+00 1.6964560283e+00 2.9383480337e+00 
53100 5.8909665317e+00 -3.4825431010e-04 1.6964663110e+00 -2.9383658440e+00 1.6964663110e+00 2.9383658440e+00 
53200 5.8909661632e+00 -3.4761654147e-04 1.6964765751e+00 -2.9383836220e+00 1.6964765751e+00 2.9383836220e+00 
53300 5.8909657983e+00 -3.4697127349e-04 1.6964868204e+00 -2.9384013673e+00 1.6964868204e+00 2.9384013673e+00 
53400 5.8909654369e+00 -3.4631864496e-04 1.6964970466e+00 -2.9384190795e+00 1.6964970466e+00 2.9384190795e+00 
53500 5.8909650789e+00 -3.4565879393e-04 1.6965072535e+00 -2.9384367584e+00 1.6965072535e+00 2.9384367584e+00 
53600 5.8909647244e+00 -3.4499185772e-04 1.6965174408e+00 -2.9384544034e+00 1.6965174408e+00 2.9384544034e+00 
53700 5.8909643732e+00 -3.4431797284e-04 1.6965276085e+00 -2.9384720143e+00 1.6965276085e+00 2.9384720143e+00 
53800 5.8909640255e+00 -3.4363727503e-04 1.6965377562e+00 -2.9384895907e+00 1.6965377562e+00 2.9384895907e+00 
53900 5.8909636810e+00 -3.4294989917e-04 1.6965478838e+00 -2.9385071323e+00 1.6965478838e+00 2.9385071323e+00 
54000 5.8909633399e+00 -3.4225597930e-04 1.6965579911e+00 -2.9385246386e+00 1.6965579911e+00 2.9385246386e+00 
54100 5.8909630020e+00 -3.4155564861e-04 1.6965680779e+00 -2.9385421095e+00 1.6965680779e+00 2.9385421095e+00 
54200 5.8909626674e+00 -3.4084903937e-04 1.6965781440e+00 -2.9385595444e+00 1.6965781440e+00 2.9385595444e+00 
54300 5.8909623359e+00 -3.4013628293e-04 1.6965881892e+00 -2.9385769432e+00 1.6965881892e+00 2.9385769432e+00 
54400 5.8909620077e+00 -3.3941750972e-04 1.6965982133e+00 -2.9385943055e+00 1.6965982133e+00 2.9385943055e+00 
54500 5.8909616825e+00 -3.3869284919e-04 1.6966082162e+00 -2.9386116311e+00 1.6966082162e+00 2.9386116311e+00 
54600 5.8909613605e+00 -3.3796242979e-04 1.6966181977e+00 -2.9386289195e+00 1.6966181977e+00 2.9386289195e+00 
54700 5.8909610416e+00 -3.3722637898e-04 1.6966281576e+00 -2.9386461705e+00 1.6966281576e+00 2.9386461705e+00 
54800 5.8909607257e+00 -3.3648482317e-04 1.6966380958e+00 -2.9386633839e+00 1.6966380958e+00 2.9386633839e+00 
54900 5.8909604128e+00 -3.3573788773e-04 1.6966480120e+00 -2.9386805593e+00 1.6966480120e+00 2.9386805593e+00 
55000 5.8909601029e+00 -3.3498569694e-04 1.6966579061e+00 -2.9386976965e+00 1.6966579061e+00 2.9386976965e+00 
55100 5.8909597960e+00 -3.3422837399e-04 1.6966677781e+00 -2.9387147952e+00 1.6966677781e+00 2.9387147952e+00 
55200 5.8909594920e+00 -3.3346604093e-04 1.6966776276e+00 -2.9387318552e+00 1.6966776276e+00 2.9387318552e+00 
55300 5.8909591909e+00 -3.3269881870e-04 1.6966874547e+00 -2.9387488761e+00 1.6966874547e+00 2.9387488761e+00 
55400 5.8909588927e+00 -3.3192682706e-04 1.6966972591e+00 -2.9387658578e+00 1.6966972591e+00 2.9387658578e+00 
55500 5.8909585973e+00 -3.3115018461e-04 1.6967070406e+00 -2.9387827999e+00 1.6967070406e+00 2.9387827999e+00 
55600 5.8909583048e+00 -3.3036900874e-04 1.6967167993e+00 -2.9387997024e+00 1.6967167993e+00 2.9387997024e+00 
55700 5.8909580150e+00 -3.2958341563e-04 1.6967265348e+00 -2.9388165648e+00 1.6967265348e+00 2.9388165648e+00 
55800 5.8909577280e+00 -3.2879352023e-04 1.6967362471e+00 -2.9388333871e+00 1.6967362471e+00 2.9388333871e+00 
55900 5.8909574438e+00 -3.2799943627e-04 1.6967459361e+00 -2.9388501689e+00 1.6967459361e+00 2.9388501689e+00 
56000 5.8909571622e+00 -3.2720127618e-04 1.6967556017e+00 -2.9388669102e+00 1.6967556017e+00 2.9388669102e+00 
56100 5.8909568834e+00 -3.2639915116e-04 1.6967652437e+00 -2.9388836106e+00 1.6967652437e+00 2.9388836106e+00 
56200 5.8909566071e+00 -3.2559317108e-04 1.6967748620e+00 -2.9389002699e+00 1.6967748620e+00 2.9389002699e+00 
56300 5.8909563336e+00 -3.2478344454e-04 1.6967844564e+00 -2.9389168881e+00 1.6967844564e+00 2.9389168881e+00 
56400 5.8909560626e+00 -3.2397007883e-04 1.6967940270e+00 -2.9389334648e+00 1.6967940270e+00 2.9389334648e+00 
56500 5.8909557942e+00 -3.2315317991e-04 1.6968035736e+00 -2.9389499999e+00 1.6968035736e+00 2.9389499999e+00 
56600 5.8909555283e+00 -3.2233285242e-04 1.6968130960e+00 -2.9389664932e+00 1.6968130960e+00 2.9389664932e+00 
56700 5.8909552650e+00 -3.2150919966e-04 1.6968225942e+00 -2.9389829445e+00 1.6968225942e+00 2.9389829445e+00 
56800 5.8909550042e+00 -3.2068232357e-04 1.6968320680e+00 -2.9389993538e+00 1.6968320680e+00 2.9389993538e+00 
56900 5.8909547459e+00 -3.1985232477e-04 1.6968415175e+00 -2.9390157207e+00 1.6968415175e+00 2.9390157207e+00 
57000 5.8909544900e+00 -3.1901930248e-04 1.6968509424e+00 -2.9390320452e+00 1.6968509424e+00 2.9390320452e+00 
57100 5.8909542366e+00 -3.1818335459e-04 1.6968603428e+00 -2.9390483270e+00 1.6968603428e+00 2.9390483270e+00 
57200 5.8909539856e+00 -3.1734457762e-04 1.6968697184e+00 -2.9390645661e+00 1.6968697184e+00 2.9390645661e+00 
57300 5.8909537369e+00 -3.1650306672e-04 1.6968790693e+00 -2.9390807624e+00 1.6968790693e+00 2.9390807624e+00 
57400 5.8909534907e+00 -3.1565891564e-04 1.6968883954e+00 -2.9390969155e+00 1.6968883954e+00 2.9390969155e+00 
57500 5.8909532467e+00 -3.1481221679e-04 1.6968976965e+00 -2.9391130256e+00 1.6968976965e+00 2.9391130256e+00 
57600 5.8909530051e+00 -3.1396306121e-04 1.6969069726e+00 -2.9391290923e+00 1.6969069726e+00 2.9391290923e+00 
57700 5.8909527658e+00 -3.1311153854e-04 1.6969162236e+00 -2.9391451155e+00 1.6969162236e+00 2.9391451155e+00 
57800 5.8909525287e+00 -3.1225773707e-04 1.6969254496e+00 -2.9391610953e+00 1.6969254496e+00 2.9391610953e+00 
57900 5.8909522939e+00 -3.1140174372e-04 1.6969346503e+00 -2.9391770314e+00 1.6969346503e+00 2.9391770314e+00 
58000 5.8909520614e+00 -3.1054364402e-04 1.6969438257e+00 -2.9391929237e+00 1.6969438257e+00 2.9391929237e+00 
58100 5.8909518310e+00 -3.0968352217e-04 1.6969529758e+00 -2.9392087721e+00 1.6969529758e+00 2.9392087721e+00 
58200 5.8909516028e+00 -3.0882146101e-04 1.6969621005e+00 -2.9392245765e+00 1.6969621005e+00 2.9392245765e+00 
58300 5.8909513768e+00 -3.0795754200e-04 1.6969711997e+00 -2.9392403369e+00 1.6969711997e+00 2.9392403369e+00 
58400 5.8909511529e+00 -3.0709184527e-04 1.6969802735e+00 -2.9392560531e+00 1.6969802735e+00 2.9392560531e+00 
58500 5.8909509312e+00 -3.0622444963e-04 1.6969893217e+00 -2.9392717250e+00 1.6969893217e+00 2.9392717250e+00 
58600 5.8909507116e+00 -3.0535543252e-04 1.6969983443e+00 -2.9392873526e+00 1.6969983443e+00 2.9392873526e+00 
58700 5.8909504940e+00 -3.0448487010e-04 1.6970073412e+00 -2.9393029358e+00 1.6970073412e+00 2.9393029358e+00 
58800 5.8909502785e+00 -3.0361283717e-04 1.6970163124e+00 -2.9393184744e+00 1.6970163124e+00 2.9393184744e+00 
58900 5.8909500650e+00 -3.0273940727e-04 1.6970252579e+00 -2.9393339685e+00 1.6970252579e+00 2.9393339685e+00 
59000 5.8909498536e+00 -3.0186465260e-04 1.6970341776e+00 -2.9393494179e+00 1.6970341776e+00 2.9393494179e+00 
59100 5.8909496442e+00 -3.0098864411e-04 1.6970430715e+00 -2.9393648225e+00 1.6970430715e+00 2.9393648225e+00 
59200 5.8909494367e+00 -3.0011145147e-04 1.6970519396e+00 -2.9393801824e+00 1.6970519396e+00 2.9393801824e+00 
59300 5.8909492312e+00 -2.9923314308e-04 1.6970607817e+00 -2.9393954975e+00 1.6970607817e+00 2.9393954975e+00 
59400 5.8909490277e+00 -2.9835378608e-04 1.6970695980e+00 -2.9394107676e+00 1.6970695980e+00 2.9394107676e+00 
59500 5.8909488261e+00 -2.9747344641e-04 1.6970783882e+00 -2.9394259928e+00 1.6970783882e+00 2.9394259928e+00 
59600 5.8909486264e+00 -2.9659218875e-04 1.6970871525e+00 -2.9394411730e+00 1.6970871525e+00 2.9394411730e+00 
59700 5.8909484285e+00 -2.9571007658e-04 1.6970958908e+00 -2.9394563082e+00 1.6970958908e+00 2.9394563082e+00 
59800 5.8909482326e+00 -2.9482717220e-04 1.6971046030e+00 -2.9394713982e+00 1.6971046030e+00 2.9394713982e+00 
59900 5.8909480385e+00 -2.9394353670e-04 1.6971132892e+00 -2.9394864432e+00 1.6971132892e+00 2.9394864432e+00 
60000 5.8909478462e+00 -2.9305923004e-04 1.6971219493e+00 -2.9395014429e+00 1.6971219493e+00 2.9395014429e+00 
60100 5.8909476558e+00 -2.9217431098e-04 1.6971305834e+00 -2.9395163975e+00 1.6971305834e+00 2.9395163975e+00 
60200 5.8909474672e+00 -2.9128883719e-04 1.6971391913e+00 -2.9395313068e+00 1.6971391913e+00 2.9395313068e+00 
60300 5.8909472803e+00 -2.9040286520e-04 1.6971477730e+00 -2.9395461708e+00 1.6971477730e+00 2.9395461708e+00 
60400 5.8909470952e+00 -2.8951645041e-04 1.6971563286e+00 -2.9395609896e+00 1.6971563286e+00 2.9395609896e+00 
60500 5.8909469119e+00 -2.8862964717e-04 1.6971648581e+00 -2.9395757631e+00 1.6971648581e+00 2.9395757631e+00 
60600 5.8909467302e+00 -2.8774250873e-04 1.6971733614e+00 -2.9395904912e+00 1.6971733614e+00 2.9395904912e+00 
60700 5.8909465504e+00 -2.8685508729e-04 1.6971818385e+00 -2.9396051740e+00 1.6971818385e+00 2.9396051740e+00 
60800 5.8909463722e+00 -2.8596743403e-04 1.6971902895e+00 -2.9396198114e+00 1.6971902895e+00 2.9396198114e+00 
60900 5.8909461956e+00 -2.8507959906e-04 1.6971987142e+00 -2.9396344035e+00 1.6971987142e+00 2.9396344035e+00 
61000 5.8909460208e+00 -2.8419163153e-04 1.6972071127e+00 -2.9396489502e+00 1.6972071127e+00 2.9396489502e+00 
61100 5.8909458476e+00 -2.8330357957e-04 1.6972154851e+00 -2.9396634515e+00 1.6972154851e+00 2.9396634515e+00 
61200 5.8909456760e+00 -2.8241549034e-04 1.6972238312e+00 -2.9396779075e+00 1.6972238312e+00 2.9396779075e+00 
61300 5.8909455061e+00 -2.8152741006e-04 1.6972321511e+00 -2.9396923180e+00 1.6972321511e+00 2.9396923180e+00 
61400 5.8909453377e+00 -2.8063938399e-04 1.6972404449e+00 -2.9397066832e+00 1.6972404449e+00 2.9397066832e+00 
61500 5.8909451710e+00 -2.7975145649e-04 1.6972487124e+00 -2.9397210029e+00 1.6972487124e+00 2.9397210029e+00 
61600 5.8909450058e+00 -2.7886367099e-04 1.6972569537e+00 -2.9397352773e+00 1.6972569537e+00 2.9397352773e+00 
61700 5.8909448422e+00 -2.7797607004e-04 1.6972651689e+00 -2.9397495064e+00 1.6972651689e+00 2.9397495064e+00 
61800 5.8909446801e+00 -2.7708869533e-04 1.6972733578e+00 -2.9397636900e+00 1.6972733578e+00 2.9397636900e+00 
61900 5.8909445195e+00 -2.7620158768e-04 1.6972815206e+00 -2.9397778284e+00 1.6972815206e+00 2.9397778284e+00 
62000 5.8909443605e+00 -2.7531478708e-04 1.6972896572e+00 -2.9397919214e+00 1.6972896572e+00 2.9397919214e+00 
62100 5.8909442029e+00 -2.7442833269e-04 1.6972977676e+00 -2.9398059690e+00 1.6972977676e+00 2.9398059690e+00 
62200 5.8909440469e+00 -2.7354226288e-04 1.6973058519e+00 -2.9398199714e+00 1.6973058519e+00 2.9398199714e+00 
62300 5.8909438923e+00 -2.7265661521e-04 1.6973139100e+00 -2.9398339285e+00 1.6973139100e+00 2.9398339285e+00 
62400 5.8909437392e+00 -2.7177142649e-04 1.6973219420e+00 -2.9398478404e+00 1.6973219420e+00 2.9398478404e+00 
62500 5.8909435875e+00 -2.7088673276e-04 1.6973299479e+00 -2.9398617070e+00 1.6973299479e+00 2.9398617070e+00 
62600 5.8909434372e+00 -2.7000256932e-04 1.6973379277e+00 -2.9398755284e+00 1.6973379277e+00 2.9398755284e+00 
62700 5.8909432883e+00 -2.6911897076e-04 1.6973458814e+00 -2.9398893046e+00 1.6973458814e+00 2.9398893046e+00 
62800 5.8909431409e+00 -2.6823597094e-04 1.6973538091e+00 -2.9399030357e+00 1.6973538091e+00 2.9399030357e+00 
62900 5.8909429948e+00 -2.6735360304e-04 1.6973617107e+00 -2.9399167217e+00 1.6973617107e+00 2.9399167217e+00 
63000 5.8909428501e+00 -2.6647189956e-04 1.6973695862e+00 -2.9399303626e+00 1.6973695862e+00 2.9399303626e+00 
63100 5.8909427068e+00 -2.6559089233e-04 1.6973774358e+00 -2.9399439584e+00 1.6973774358e+00 2.9399439584e+00 
63200 5.8909425648e+00 -2.6471061256e-04 1.6973852594e+00 -2.9399575093e+00 1.6973852594e+00 2.9399575093e+00 
63300 5.8909424242e+00 -2.6383109078e-04 1.6973930570e+00 -2.9399710151e+00 1.6973930570e+00 2.9399710151e+00 
63400 5.8909422849e+00 -2.6295235693e-04 1.6974008286e+00 -2.9399844760e+00 1.6974008286e+00 2.9399844760e+00 
63500 5.8909421469e+00 -2.6207444036e-04 1.6974085744e+00 -2.9399978920e+00 1.6974085744e+00 2.9399978920e+00 
63600 5.8909420101e+00 -2.6119736978e-04 1.6974162942e+00 -2.9400112632e+00 1.6974162942e+00 2.9400112632e+00 
63700 5.8909418747e+00 -2.6032117338e-04 1.6974239882e+00 -2.9400245896e+00 1.6974239882e+00 2.9400245896e+00 
63800 5.8909417406e+00 -2.5944587874e-04 1.6974316563e+00 -2.9400378711e+00 1.6974316563e+00 2.9400378711e+00 
63900 5.8909416077e+00 -2.5857151291e-04 1.6974392986e+00 -2.9400511080e+00 1.6974392986e+00 2.9400511080e+00 
64000 5.8909414760e+00 -2.5769810240e-04 1.6974469152e+00 -2.9400643002e+00 1.6974469152e+00 2.9400643002e+00 
64100 5.8909413456e+00 -2.5682567319e-04 1.6974545059e+00 -2.9400774478e+00 1.6974545059e+00 2.9400774478e+00 
64200 5.8909412164e+00 -2.5595425075e-04 1.6974620710e+00 -2.9400905508e+00 1.6974620710e+00 2.9400905508e+00 
64300 5.8909410884e+00 -2.5508386006e-04 1.6974696103e+00 -2.9401036093e+00 1.6974696103e+00 2.9401036093e+00 
64400 5.8909409617e+00 -2.5421452558e-04 1.6974771239e+00 -2.9401166234e+00 1.6974771239e+00 2.9401166234e+00 
64500 5.8909408361e+00 -2.5334627132e-04 1.6974846120e+00 -2.9401295930e+00 1.6974846120e+00 2.9401295930e+00 
64600 5.8909407117e+00 -2.5247912081e-04 1.6974920744e+00 -2.9401425182e+00 1.6974920744e+00 2.9401425182e+00 
64700 5.8909405884e+00 -2.5161309713e-04 1.6974995112e+00 -2.9401553992e+00 1.6974995112e+00 2.9401553992e+00 
64800 5.8909404664e+00 -2.5074822291e-04 1.6975069225e+00 -2.9401682360e+00 1.6975069225e+00 2.9401682360e+00 
64900 5.8909403454e+00 -2.4988452036e-04 1.6975143083e+00 -2.9401810285e+00 1.6975143083e+00 2.9401810285e+00 
65000 5.8909402256e+00 -2.4902201123e-04 1.6975216686e+00 -2.9401937769e+00 1.6975216686e+00 2.9401937769e+00 
65100 5.8909401070e+00 -2.4816071690e-04 1.6975290035e+00 -2.9402064813e+00 1.6975290035e+00 2.9402064813e+00 
65200 5.8909399894e+00 -2.4730065831e-04 1.6975363129e+00 -2.9402191417e+00 1.6975363129e+00 2.9402191417e+00 
65300 5.8909398729e+00 -2.4644185602e-04 1.6975435970e+00 -2.9402317582e+00 1.6975435970e+00 2.9402317582e+00 
65400 5.8909397576e+00 -2.4558433021e-04 1.6975508558e+00 -2.9402443307e+00 1.6975508558e+00 2.9402443307e+00 
65500 5.8909396433e+00 -2.4472810066e-04 1.6975580893e+00 -2.9402568595e+00 1.6975580893e+00 2.9402568595e+00 
65600 5.8909395301e+00 -2.4387318679e-04 1.6975652976e+00 -2.9402693446e+00 1.6975652976e+00 2.9402693446e+00 
65700 5.8909394179e+00 -2.4301960767e-04 1.6975724806e+00 -2.9402817859e+00 1.6975724806e+00 2.9402817859e+00 
65800 5.8909393068e+00 -2.4216738200e-04 1.6975796385e+00 -2.9402941837e+00 1.6975796385e+00 2.9402941837e+00 
65900 5.8909391967e+00 -2.4131652815e-04 1.6975867712e+00 -2.9403065380e+00 1.6975867712e+00 2.9403065380e+00 
66000 5.8909390877e+00 -2.4046706413e-04 1.6975938788e+00 -2.9403188488e+00 1.6975938788e+00 2.9403188488e+00 
66100 5.8909389797e+00 -2.3961900765e-04 1.6976009614e+00 -2.9403311162e+00 1.6976009614e+00 2.9403311162e+00 
66200 5.8909388727e+00 -2.3877237607e-04 1.6976080190e+00 -2.9403433403e+00 1.6976080190e+00 2.9403433403e+00 
66300 5.8909387667e+00 -2.3792718644e-04 1.6976150516e+00 -2.9403555211e+00 1.6976150516e+00 2.9403555211e+00 
66400 5.8909386617e+00 -2.3708345550e-04 1.6976220593e+00 -2.9403676588e+00 1.6976220593e+00 2.9403676588e+00 
66500 5.8909385577e+00 -2.3624119970e-04 1.6976290421e+00 -2.9403797534e+00 1.6976290421e+00 2.9403797534e+00 
66600 5.8909384546e+00 -2.3540043517e-04 1.6976360001e+00 -2.9403918050e+00 1.6976360001e+00 2.9403918050e+00 
66700 5.8909383525e+00 -2.3456117775e-04 1.6976429333e+00 -2.9404038136e+00 1.6976429333e+00 2.9404038136e+00 
66800 5.8909382514e+00 -2.3372344301e-04 1.6976498417e+00 -2.9404157794e+00 1.6976498417e+00 2.9404157794e+00 
66900 5.8909381512e+00 -2.3288724622e-04 1.6976567255e+00 -2.9404277023e+00 1.6976567255e+00 2.9404277023e+00 
67000 5.8909380520e+00 -2.3205260239e-04 1.6976635846e+00 -2.9404395826e+00 1.6976635846e+00 2.9404395826e+00 
67100 5.8909379536e+00 -2.3121952625e-04 1.6976704190e+00 -2.9404514203e+00 1.6976704190e+00 2.9404514203e+00 
67200 5.8909378562e+00 -2.3038803227e-04 1.6976772290e+00 -2.9404632154e+00 1.6976772290e+00 2.9404632154e+00 
67300 5.8909377597e+00 -2.2955813465e-04 1.6976840143e+00 -2.9404749680e+00 1.6976840143e+00 2.9404749680e+00 
67400 5.8909376642e+00 -2.2872984734e-04 1.6976907753e+00 -2.9404866783e+00 1.6976907753e+00 2.9404866783e+00 
67500 5.8909375695e+00 -2.2790318404e-04 1.6976975118e+00 -2.9404983463e+00 1.6976975118e+00 2.9404983463e+00 
67600 5.8909374757e+00 -2.2707815819e-04 1.6977042239e+00 -2.9405099720e+00 1.6977042239e+00 2.9405099720e+00 
67700 5.8909373827e+00 -2.2625478300e-04 1.6977109117e+00 -2.9405215556e+00 1.6977109117e+00 2.9405215556e+00 
67800 5.8909372907e+00 -2.2543307143e-04 1.6977175752e+00 -2.9405330972e+00 1.6977175752e+00 2.9405330972e+00 
67900 5.8909371995e+00 -2.2461303621e-04 1.6977242145e+00 -2.9405445968e+00 1.6977242145e+00 2.9405445968e+00 
68000 5.8909371091e+00 -2.2379468983e-04 1.6977308297e+00 -2.9405560546e+00 1.6977308297e+00 2.9405560546e+00 
68100 5.8909370196e+00 -2.2297804455e-04 1.6977374207e+00 -2.9405674705e+00 1.6977374207e+00 2.9405674705e+00 
68200 5.8909369309e+00 -2.2216311241e-04 1.6977439876e+00 -2.9405788447e+00 1.6977439876e+00 2.9405788447e+00 
68300 5.8909368431e+00 -2.2134990523e-04 1.6977505305e+00 -2.9405901774e+00 1.6977505305e+00 2.9405901774e+00 
68400 5.8909367561e+00 -2.2053843459e-04 1.6977570494e+00 -2.9406014685e+00 1.6977570494e+00 2.9406014685e+00 
68500 5.8909366699e+00 -2.1972871188e-04 1.6977635444e+00 -2.9406127181e+00 1.6977635444e+00 2.9406127181e+00 
68600 5.8909365845e+00 -2.1892074825e-04 1.6977700155e+00 -2.9406239265e+00 1.6977700155e+00 2.9406239265e+00 
68700 5.8909364999e+00 -2.1811455465e-04 1.6977764628e+00 -2.9406350935e+00 1.6977764628e+00 2.9406350935e+00 
68800 5.8909364160e+00 -2.1731014182e-04 1.6977828864e+00 -2.9406462194e+00 1.6977828864e+00 2.9406462194e+00 
68900 5.8909363330e+00 -2.1650752030e-04 1.6977892862e+00 -2.9406573043e+00 1.6977892862e+00 2.9406573043e+00 
69000 5.8909362507e+00 -2.1570670041e-04 1.6977956624e+00 -2.9406683481e+00 1.6977956624e+00 2.9406683481e+00 
69100 5.8909361693e+00 -2.1490769227e-04 1.6978020149e+00 -2.9406793510e+00 1.6978020149e+00 2.9406793510e+00 
69200 5.8909360885e+00 -2.1411050582e-04 1.6978083439e+00 -2.9406903132e+00 1.6978083439e+00 2.9406903132e+00 
69300 5.8909360085e+00 -2.1331515077e-04 1.6978146494e+00 -2.9407012346e+00 1.6978146494e+00 2.9407012346e+00 
69400 5.8909359293e+00 -2.1252163666e-04 1.6978209315e+00 -2.9407121155e+00 1.6978209315e+00 2.9407121155e+00 
69500 5.8909358508e+00 -2.1172997282e-04 1.6978271901e+00 -2.9407229558e+00 1.6978271901e+00 2.9407229558e+00 
69600 5.8909357731e+00 -2.1094016840e-04 1.6978334255e+00 -2.9407337557e+00 1.6978334255e+00 2.9407337557e+00 
69700 5.8909356960e+00 -2.1015223235e-04 1.6978396375e+00 -2.9407445153e+00 1.6978396375e+00 2.9407445153e+00 
69800 5.8909356197e+00 -2.0936617343e-04 1.6978458263e+00 -2.9407552346e+00 1.6978458263e+00 2.9407552346e+00 
69900 5.8909355441e+00 -2.0858200022e-04 1.6978519920e+00 -2.9407659138e+00 1.6978519920e+00 2.9407659138e+00 
70000 5.8909354692e+00 -2.0779972112e-04 1.6978581345e+00 -2.9407765530e+00 1.6978581345e+00 2.9407765530e+00 
70100 5.8909353950e+00 -2.0701934433e-04 1.6978642540e+00 -2.9407871522e+00 1.6978642540e+00 2.9407871522e+00 
70200 5.8909353215e+00 -2.0624087787e-04 1.6978703504e+00 -2.9407977116e+00 1.6978703504e+00 2.9407977116e+00 
70300 5.8909352486e+00 -2.0546432960e-04 1.6978764240e+00 -2.9408082313e+00 1.6978764240e+00 2.9408082313e+00 
70400 5.8909351765e+00 -2.0468970717e-04 1.6978824746e+00 -2.9408187113e+00 1.6978824746e+00 2.9408187113e+00 
70500 5.8909351050e+00 -2.0391701808e-04 1.6978885024e+00 -2.9408291517e+00 1.6978885024e+00 2.9408291517e+00 
70600 5.8909350342e+00 -2.0314626964e-04 1.6978945074e+00 -2.9408395527e+00 1.6978945074e+00 2.9408395527e+00 
70700 5.8909349641e+00 -2.0237746897e-04 1.6979004897e+00 -2.9408499144e+00 1.6979004897e+00 2.9408499144e+00 
70800 5.8909348946e+00 -2.0161062305e-04 1.6979064494e+00 -2.9408602368e+00 1.6979064494e+00 2.9408602368e+00 
70900 5.8909348257e+00 -2.0084573866e-04 1.6979123864e+00 -2.9408705200e+00 1.6979123864e+00 2.9408705200e+00 
71000 5.8909347575e+00 -2.0008282243e-04 1.6979183009e+00 -2.9408807642e+00 1.6979183009e+00 2.9408807642e+00 
71100 5.8909346899e+00 -1.9932188079e-04 1.6979241929e+00 -2.9408909695e+00 1.6979241929e+00 2.9408909695e+00 
71200 5.8909346230e+00 -1.9856292004e-04 1.6979300625e+00 -2.9409011359e+00 1.6979300625e+00 2.9409011359e+00 
71300 5.8909345567e+00 -1.9780594629e-04 1.6979359097e+00 -2.9409112636e+00 1.6979359097e+00 2.9409112636e+00 
71400 5.8909344910e+00 -1.9705096547e-04 1.6979417346e+00 -2.9409213526e+00 1.6979417346e+00 2.9409213526e+00 
71500 5.8909344259e+00 -1.9629798337e-04 1.6979475372e+00 -2.9409314031e+00 1.6979475372e+00 2.9409314031e+00 
71600 5.8909343614e+00 -1.9554700562e-04 1.6979533177e+00 -2.9409414151e+00 1.6979533177e+00 2.9409414151e+00 
71700 5.8909342975e+00 -1.9479803766e-04 1.6979590760e+00 -2.9409513888e+00 1.6979590760e+00 2.9409513888e+00 
71800 5.8909342342e+00 -1.9405108480e-04 1.6979648122e+00 -2.9409613243e+00 1.6979648122e+00 2.9409613243e+00 
71900 5.8909341715e+00 -1.9330615216e-04 1.6979705265e+00 -2.9409712216e+00 1.6979705265e+00 2.9409712216e+00 
72000 5.8909341094e+00 -1.9256324473e-04 1.6979762187e+00 -2.9409810809e+00 1.6979762187e+00 2.9409810809e+00 
72100 5.8909340478e+00 -1.9182236731e-04 1.6979818891e+00 -2.9409909023e+00 1.6979818891e+00 2.9409909023e+00 
72200 5.8909339868e+00 -1.9108352458e-04 1.6979875377e+00 -2.9410006859e+00 1.6979875377e+00 2.9410006859e+00 
72300 5.8909339264e+00 -1.9034672104e-04 1.6979931644e+00 -2.9410104317e+00 1.6979931644e+00 2.9410104317e+00 
72400 5.8909338666e+00 -1.8961196105e-04 1.6979987695e+00 -2.9410201399e+00 1.6979987695e+00 2.9410201399e+00 
72500 5.8909338073e+00 -1.8887924879e-04 1.6980043529e+00 -2.9410298107e+00 1.6980043529e+00 2.9410298107e+00 
72600 5.8909337486e+00 -1.8814858834e-04 1.6980099147e+00 -2.9410394440e+00 1.6980099147e+00 2.9410394440e+00 
72700 5.8909336904e+00 -1.8741998357e-04 1.6980154550e+00 -2.9410490400e+00 1.6980154550e+00 2.9410490400e+00 
72800 5.8909336327e+00 -1.8669343824e-04 1.6980209738e+00 -2.9410585989e+00 1.6980209738e+00 2.9410585989e+00 
72900 5.8909335756e+00 -1.8596895596e-04 1.6980264711e+00 -2.9410681206e+00 1.6980264711e+00 2.9410681206e+00 
73000 5.8909335190e+00 -1.8524654018e-04 1.6980319472e+00 -2.9410776054e+00 1.6980319472e+00 2.9410776054e+00 
73100 5.8909334630e+00 -1.8452619421e-04 1.6980374019e+00 -2.9410870533e+00 1.6980374019e+00 2.9410870533e+00 
73200 5.8909334074e+00 -1.8380792122e-04 1.6980428354e+00 -2.9410964644e+00 1.6980428354e+00 2.9410964644e+00 
73300 5.8909333524e+00 -1.8309172424e-04 1.6980482478e+00 -2.9411058389e+00 1.6980482478e+00 2.9411058389e+00 
73400 5.8909332979e+00 -1.8237760613e-04 1.6980536390e+00 -2.9411151768e+00 1.6980536390e+00 2.9411151768e+00 
73500 5.8909332439e+00 -1.8166556966e-04 1.6980590092e+00 -2.9411244782e+00 1.6980590092e+00 2.9411244782e+00 
73600 5.8909331904e+00 -1.8095561742e-04 1.6980643584e+00 -2.9411337433e+00 1.6980643584e+00 2.9411337433e+00 
73700 5.8909331374e+00 -1.8024775188e-04 1.6980696867e+00 -2.9411429722e+00 1.6980696867e+00 2.9411429722e+00 
73800 5.8909330849e+00 -1.7954197537e-04 1.6980749942e+00 -2.9411521650e+00 1.6980749942e+00 2.9411521650e+00 
73900 5.8909330329e+00 -1.7883829010e-04 1.6980802808e+00 -2.9411613217e+00 1.6980802808e+00 2.9411613217e+00 
74000 5.8909329813e+00 -1.7813669811e-04 1.6980855467e+00 -2.9411704425e+00 1.6980855467e+00 2.9411704425e+00 
74100 5.8909329303e+00 -1.7743720135e-04 1.6980907919e+00 -2.9411795275e+00 1.6980907919e+00 2.9411795275e+00 
74200 5.8909328797e+00 -1.7673980161e-04 1.6980960165e+00 -2.9411885768e+00 1.6980960165e+00 2.9411885768e+00 
74300 5.8909328296e+00 -1.7604450057e-04 1.6981012206e+00 -2.9411975905e+00 1.6981012206e+00 2.9411975905e+00 
74400 5.8909327799e+00 -1.7535129977e-04 1.6981064042e+00 -2.9412065687e+00 1.6981064042e+00 2.9412065687e+00 
74500 5.8909327307e+00 -1.7466020064e-04 1.6981115673e+00 -2.9412155115e+00 1.6981115673e+00 2.9412155115e+00 
74600 5.8909326820e+00 -1.7397120445e-04 1.6981167101e+00 -2.9412244191e+00 1.6981167101e+00 2.9412244191e+00 
74700 5.8909326337e+00 -1.7328431239e-04 1.6981218326e+00 -2.9412332915e+00 1.6981218326e+00 2.9412332915e+00 
74800 5.8909325858e+00 -1.7259952550e-04 1.6981269348e+00 -2.9412421288e+00 1.6981269348e+00 2.9412421288e+00 
74900 5.8909325385e+00 -1.7191684471e-04 1.6981320169e+00 -2.9412509312e+00 1.6981320169e+00 2.9412509312e+00 
75000 5.8909324915e+00 -1.7123627083e-04 1.6981370788e+00 -2.9412596987e+00 1.6981370788e+00 2.9412596987e+00 
75100 5.8909324450e+00 -1.7055780454e-04 1.6981421207e+00 -2.9412684315e+00 1.6981421207e+00 2.9412684315e+00 
75200 5.8909323989e+00 -1.6988144643e-04 1.6981471426e+00 -2.9412771297e+00 1.6981471426e+00 2.9412771297e+00 
75300 5.8909323532e+00 -1.6920719695e-04 1.6981521446e+00 -2.9412857934e+00 1.6981521446e+00 2.9412857934e+00 
75400 5.8909323080e+00 -1.6853505645e-04 1.6981571267e+00 -2.9412944226e+00 1.6981571267e+00 2.9412944226e+00 
75500 5.8909322632e+00 -1.6786502517e-04 1.6981620890e+00 -2.9413030176e+00 1.6981620890e+00 2.9413030176e+00 
75600 5.8909322188e+00 -1.6719710323e-04 1.6981670315e+00 -2.9413115783e+00 1.6981670315e+00 2.9413115783e+00 
75700 5.8909321748e+00 -1.6653129064e-04 1.6981719544e+00 -2.9413201050e+00 1.6981719544e+00 2.9413201050e+00 
75800 5.8909321312e+00 -1.6586758732e-04 1.6981768576e+00 -2.9413285977e+00 1.6981768576e+00 2.9413285977e+00 
75900 5.8909320880e+00 -1.6520599306e-04 1.6981817413e+00 -2.9413370565e+00 1.6981817413e+00 2.9413370565e+00 
76000 5.8909320453e+00 -1.6454650757e-04 1.6981866055e+00 -2.9413454815e+00 1.6981866055e+00 2.9413454815e+00 
76100 5.8909320029e+00 -1.6388913045e-04 1.6981914503e+00 -2.9413538729e+00 1.6981914503e+00 2.9413538729e+00 
76200 5.8909319609e+00 -1.6323386118e-04 1.6981962757e+00 -2.9413622308e+00 1.6981962757e+00 2.9413622308e+00 
76300 5.8909319193e+00 -1.6258069917e-04 1.6982010818e+00 -2.9413705552e+00 1.6982010818e+00 2.9413705552e+00 
76400 5.8909318781e+00 -1.6192964371e-04 1.6982058687e+00 -2.9413788463e+00 1.6982058687e+00 2.9413788463e+00 
76500 5.8909318372e+00 -1.6128069400e-04 1.6982106363e+00 -2.9413871041e+00 1.6982106363e+00 2.9413871041e+00 
76600 5.8909317968e+00 -1.6063384914e-04 1.6982153849e+00 -2.9413953288e+00 1.6982153849e+00 2.9413953288e+00 
76700 5.8909317567e+00 -1.5998910815e-04 1.6982201144e+00 -2.9414035206e+00 1.6982201144e+00 2.9414035206e+00 
76800 5.8909317170e+00 -1.5934646995e-04 1.6982248249e+00 -2.9414116794e+00 1.6982248249e+00 2.9414116794e+00 
76900 5.8909316776e+00 -1.5870593335e-04 1.6982295164e+00 -2.9414198054e+00 1.6982295164e+00 2.9414198054e+00 
77000 5.8909316387e+00 -1.5806749711e-04 1.6982341891e+00 -2.9414278987e+00 1.6982341891e+00 2.9414278987e+00 
77100 5.8909316001e+00 -1.5743115987e-04 1.6982388430e+00 -2.9414359595e+00 1.6982388430e+00 2.9414359595e+00 
77200 5.8909315618e+00 -1.5679692019e-04 1.6982434781e+00 -2.9414439878e+00 1.6982434781e+00 2.9414439878e+00 
77300 5.8909315239e+00 -1.5616477656e-04 1.6982480946e+00 -2.9414519837e+00 1.6982480946e+00 2.9414519837e+00 
77400 5.8909314863e+00 -1.5553472737e-04 1.6982526924e+00 -2.9414599474e+00 1.6982526924e+00 2.9414599474e+00 
77500 5.8909314491e+00 -1.5490677093e-04 1.6982572717e+00 -2.9414678789e+00 1.6982572717e+00 2.9414678789e+00 
77600 5.8909314123e+00 -1.5428090547e-04 1.6982618324e+00 -2.9414757783e+00 1.6982618324e+00 2.9414757783e+00 
77700 5.8909313758e+00 -1.5365712915e-04 1.6982663748e+00 -2.9414836459e+00 1.6982663748e+00 2.9414836459e+00 
77800 5.8909313396e+00 -1.5303544005e-04 1.6982708987e+00 -2.9414914816e+00 1.6982708987e+00 2.9414914816e+00 
77900 5.8909313037e+00 -1.5241583616e-04 1.6982754043e+00 -2.9414992855e+00 1.6982754043e+00 2.9414992855e+00 
78000 5.8909312682e+00 -1.5179831541e-04 1.6982798917e+00 -2.9415070579e+00 1.6982798917e+00 2.9415070579e+00 
78100 5.8909312330e+00 -1.5118287565e-04 1.6982843609e+00 -2.9415147987e+00 1.6982843609e+00 2.9415147987e+00 
78200 5.8909311982e+00 -1.5056951465e-04 1.6982888119e+00 -2.9415225082e+00 1.6982888119e+00 2.9415225082e+00 
78300 5.8909311636e+00 -1.4995823013e-04 1.6982932449e+00 -2.9415301863e+00 1.6982932449e+00 2.9415301863e+00 
78400 5.8909311294e+00 -1.4934901971e-04 1.6982976599e+00 -2.9415378333e+00 1.6982976599e+00 2.9415378333e+00 
78500 5.8909310955e+00 -1.4874188097e-04 1.6983020569e+00 -2.9415454491e+00 1.6983020569e+00 2.9415454491e+00 
78600 5.8909310619e+00 -1.4813681142e-04 1.6983064360e+00 -2.9415530340e+00 1.6983064360e+00 2.9415530340e+00 
78700 5.8909310286e+00 -1.4753380849e-04 1.6983107973e+00 -2.9415605880e+00 1.6983107973e+00 2.9415605880e+00 
78800 5.8909309957e+00 -1.4693286954e-04 1.6983151409e+00 -2.9415681113e+00 1.6983151409e+00 2.9415681113e+00 
78900 5.8909309630e+00 -1.4633399190e-04 1.6983194667e+00 -2.9415756039e+00 1.6983194667e+00 2.9415756039e+00 
79000 5.8909309306e+00 -1.4573717281e-04 1.6983237749e+00 -2.9415830659e+00 1.6983237749e+00 2.9415830659e+00 
79100 5.8909308986e+00 -1.4514240945e-04 1.6983280656e+00 -2.9415904975e+00 1.6983280656e+00 2.9415904975e+00 
79200 5.8909308668e+00 -1.4454969895e-04 1.6983323387e+00 -2.9415978987e+00 1.6983323387e+00 2.9415978987e+00 
79300 5.8909308353e+00 -1.4395903839e-04 1.6983365943e+00 -2.9416052697e+00 1.6983365943e+00 2.9416052697e+00 
79400 5.8909308041e+00 -1.4337042478e-04 1.6983408325e+00 -2.9416126105e+00 1.6983408325e+00 2.9416126105e+00 
79500 5.8909307732e+00 -1.4278385507e-04 1.6983450534e+00 -2.9416199213e+00 1.6983450534e+00 2.9416199213e+00 
79600 5.8909307426e+00 -1.4219932616e-04 1.6983492571e+00 -2.9416272022e+00 1.6983492571e+00 2.9416272022e+00 
79700 5.8909307123e+00 -1.4161683491e-04 1.6983534435e+00 -2.9416344533e+00 1.6983534435e+00 2.9416344533e+00 
79800 5.8909306822e+00 -1.4103637812e-04 1.6983576127e+00 -2.9416416746e+00 1.6983576127e+00 2.9416416746e+00 
79900 5.8909306525e+00 -1.4045795253e-04 1.6983617648e+00 -2.9416488663e+00 1.6983617648e+00 2.9416488663e+00 
80000 5.8909306230e+00 -1.3988155483e-04 1.6983658999e+00 -2.9416560285e+00 1.6983658999e+00 2.9416560285e+00 
80100 5.8909305938e+00 -1.3930718168e-04 1.6983700181e+00 -2.9416631613e+00 1.6983700181e+00 2.9416631613e+00 
80200 5.8909305648e+00 -1.3873482967e-04 1.6983741193e+00 -2.9416702648e+00 1.6983741193e+00 2.9416702648e+00 
80300 5.8909305361e+00 -1.3816449536e-04 1.6983782036e+00 -2.9416773391e+00 1.6983782036e+00 2.9416773391e+00 
80400 5.8909305077e+00 -1.3759617526e-04 1.6983822712e+00 -2.9416843843e+00 1.6983822712e+00 2.9416843843e+00 
80500 5.8909304795e+00 -1.3702986583e-04 1.6983863220e+00 -2.9416914005e+00 1.6983863220e+00 2.9416914005e+00 
80600 5.8909304516e+00 -1.3646556349e-04 1.6983903561e+00 -2.9416983878e+00 1.6983903561e+00 2.9416983878e+00 
80700 5.8909304240e+00 -1.3590326462e-04 1.6983943736e+00 -2.9417053463e+00 1.6983943736e+00 2.9417053463e+00 
80800 5.8909303966e+00 -1.3534296555e-04 1.6983983745e+00 -2.9417122761e+00 1.6983983745e+00 2.9417122761e+00 
80900 5.8909303695e+00 -1.3478466258e-04 1.6984023589e+00 -2.9417191774e+00 1.6984023589e+00 2.9417191774e+00 
81000 5.8909303426e+00 -1.3422835197e-04 1.6984063269e+00 -2.9417260501e+00 1.6984063269e+00 2.9417260501e+00 
81100 5.8909303160e+00 -1.3367402992e-04 1.6984102785e+00 -2.9417328945e+00 1.6984102785e+00 2.9417328945e+00 
81200 5.8909302896e+00 -1.3312169263e-04 1.6984142138e+00 -2.9417397106e+00 1.6984142138e+00 2.9417397106e+00 
81300 5.8909302634e+00 -1.3257133624e-04 1.6984181328e+00 -2.9417464985e+00 1.6984181328e+00 2.9417464985e+00 
81400 5.8909302375e+00 -1.3202295684e-04 1.6984220356e+00 -2.9417532583e+00 1.6984220356e+00 2.9417532583e+00 
81500 5.8909302119e+00 -1.3147655052e-04 1.6984259222e+00 -2.9417599902e+00 1.6984259222e+00 2.9417599902e+00 
81600 5.8909301865e+00 -1.3093211330e-04 1.6984297928e+00 -2.9417666942e+00 1.6984297928e+00 2.9417666942e+00 
81700 5.8909301613e+00 -1.3038964120e-04 1.6984336473e+00 -2.9417733704e+00 1.6984336473e+00 2.9417733704e+00 
81800 5.8909301363e+00 -1.2984913019e-04 1.6984374858e+00 -2.9417800189e+00 1.6984374858e+00 2.9417800189e+00 
81900 5.8909301116e+00 -1.2931057620e-04 1.6984413084e+00 -2.9417866398e+00 1.6984413084e+00 2.9417866398e+00 
82000 5.8909300871e+00 -1.2877397515e-04 1.6984451152e+00 -2.9417932333e+00 1.6984451152e+00 2.9417932333e+00 
82100 5.8909300628e+00 -1.2823932290e-04 1.6984489061e+00 -2.9417997994e+00 1.6984489061e+00 2.9417997994e+00 
82200 5.8909300388e+00 -1.2770661533e-04 1.6984526813e+00 -2.9418063382e+00 1.6984526813e+00 2.9418063382e+00 
82300 5.8909300149e+00 -1.2717584823e-04 1.6984564408e+00 -2.9418128499e+00 1.6984564408e+00 2.9418128499e+00 
82400 5.8909299913e+00 -1.2664701741e-04 1.6984601846e+00 -2.9418193344e+00 1.6984601846e+00 2.9418193344e+00 
82500 5.8909299679e+00 -1.2612011864e-04 1.6984639129e+00 -2.9418257920e+00 1.6984639129e+00 2.9418257920e+00 
82600 5.8909299447e+00 -1.2559514765e-04 1.6984676257e+00 -2.9418322227e+00 1.6984676257e+00 2.9418322227e+00 
82700 5.8909299218e+00 -1.2507210015e-04 1.6984713230e+00 -2.9418386267e+00 1.6984713230e+00 2.9418386267e+00 
82800 5.8909298990e+00 -1.2455097184e-04 1.6984750049e+00 -2.9418450039e+00 1.6984750049e+00 2.9418450039e+00 
82900 5.8909298765e+00 -1.2403175838e-04 1.6984786715e+00 -2.9418513546e+00 1.6984786715e+00 2.9418513546e+00 
83000 5.8909298542e+00 -1.2351445540e-04 1.6984823227e+00 -2.9418576787e+00 1.6984823227e+00 2.9418576787e+00 
83100 5.8909298320e+00 -1.2299905854e-04 1.6984859588e+00 -2.9418639765e+00 1.6984859588e+00 2.9418639765e+00 
83200 5.8909298101e+00 -1.2248556338e-04 1.6984895796e+00 -2.9418702480e+00 1.6984895796e+00 2.9418702480e+00 
83300 5.8909297884e+00 -1.2197396549e-04 1.6984931853e+00 -2.9418764933e+00 1.6984931853e+00 2.9418764933e+00 
83400 5.8909297669e+00 -1.2146426043e-04 1.6984967760e+00 -2.9418827125e+00 1.6984967760e+00 2.9418827125e+00 
83500 5.8909297456e+00 -1.2095644373e-04 1.6985003516e+00 -2.9418889057e+00 1.6985003516e+00 2.9418889057e+00 
83600 5.8909297244e+00 -1.2045051090e-04 1.6985039123e+00 -2.9418950730e+00 1.6985039123e+00 2.9418950730e+00 
83700 5.8909297035e+00 -1.1994645743e-04 1.6985074581e+00 -2.9419012145e+00 1.6985074581e+00 2.9419012145e+00 
83800 5.8909296828e+00 -1.1944427880e-04 1.6985109890e+00 -2.9419073302e+00 1.6985109890e+00 2.9419073302e+00 
83900 5.8909296622e+00 -1.1894397045e-04 1.6985145052e+00 -2.9419134204e+00 1.6985145052e+00 2.9419134204e+00 
84000 5.8909296419e+00 -1.1844552784e-04 1.6985180066e+00 -2.9419194850e+00 1.6985180066e+00 2.9419194850e+00 
84100 5.8909296217e+00 -1.1794894637e-04 1.6985214933e+00 -2.9419255242e+00 1.6985214933e+00 2.9419255242e+00 
84200 5.8909296017e+00 -1.1745422144e-04 1.6985249654e+00 -2.9419315381e+00 1.6985249654e+00 2.9419315381e+00 
84300 5.8909295819e+00 -1.1696134845e-04 1.6985284230e+00 -2.9419375267e+00 1.6985284230e+00 2.9419375267e+00 
84400 5.8909295623e+00 -1.1647032277e-04 1.6985318660e+00 -2.9419434902e+00 1.6985318660e+00 2.9419434902e+00 
84500 5.8909295428e+00 -1.1598113974e-04 1.6985352946e+00 -2.9419494286e+00 1.6985352946e+00 2.9419494286e+00 
84600 5.8909295236e+00 -1.1549379472e-04 1.6985387087e+00 -2.9419553421e+00 1.6985387087e+00 2.9419553421e+00 
84700 5.8909295045e+00 -1.1500828301e-04 1.6985421085e+00 -2.9419612307e+00 1.6985421085e+00 2.9419612307e+00 
84800 5.8909294856e+00 -1.1452459995e-04 1.6985454940e+00 -2.9419670946e+00 1.6985454940e+00 2.9419670946e+00 
84900 5.8909294669e+00 -1.1404274082e-04 1.6985488653e+00 -2.9419729338e+00 1.6985488653e+00 2.9419729338e+00 
85000 5.8909294483e+00 -1.1356270091e-04 1.6985522223e+00 -2.9419787484e+00 1.6985522223e+00 2.9419787484e+00 
85100 5.8909294299e+00 -1.1308447550e-04 1.6985555653e+00 -2.9419845385e+00 1.6985555653e+00 2.9419845385e+00 
85200 5.8909294117e+00 -1.1260805983e-04 1.6985588941e+00 -2.9419903042e+00 1.6985588941e+00 2.9419903042e+00 
85300 5.8909293937e+00 -1.1213344917e-04 1.6985622089e+00 -2.9419960457e+00 1.6985622089e+00 2.9419960457e+00 
85400 5.8909293758e+00 -1.1166063874e-04 1.6985655097e+00 -2.9420017629e+00 1.6985655097e+00 2.9420017629e+00 
85500 5.8909293581e+00 -1.1118962378e-04 1.6985687967e+00 -2.9420074560e+00 1.6985687967e+00 2.9420074560e+00 
85600 5.8909293405e+00 -1.1072039949e-04 1.6985720697e+00 -2.9420131250e+00 1.6985720697e+00 2.9420131250e+00 
85700 5.8909293231e+00 -1.1025296109e-04 1.6985753289e+00 -2.9420187702e+00 1.6985753289e+00 2.9420187702e+00 
85800 5.8909293059e+00 -1.0978730377e-04 1.6985785744e+00 -2.9420243915e+00 1.6985785744e+00 2.9420243915e+00 
85900 5.8909292888e+00 -1.0932342271e-04 1.6985818061e+00 -2.9420299890e+00 1.6985818061e+00 2.9420299890e+00 
86000 5.8909292719e+00 -1.0886131309e-04 1.6985850242e+00 -2.9420355629e+00 1.6985850242e+00 2.9420355629e+00 
86100 5.8909292551e+00 -1.0840097007e-04 1.6985882287e+00 -2.9420411132e+00 1.6985882287e+00 2.9420411132e+00 
86200 5.8909292385e+00 -1.0794238882e-04 1.6985914196e+00 -2.9420466400e+00 1.6985914196e+00 2.9420466400e+00 
86300 5.8909292221e+00 -1.0748556449e-04 1.6985945970e+00 -2.9420521435e+00 1.6985945970e+00 2.9420521435e+00 
86400 5.8909292058e+00 -1.0703049221e-04 1.6985977609e+00 -2.9420576236e+00 1.6985977609e+00 2.9420576236e+00 
86500 5.8909291896e+00 -1.0657716713e-04 1.6986009115e+00 -2.9420630805e+00 1.6986009115e+00 2.9420630805e+00 
86600 5.8909291736e+00 -1.0612558437e-04 1.6986040487e+00 -2.9420685143e+00 1.6986040487e+00 2.9420685143e+00 
86700 5.8909291577e+00 -1.0567573905e-04 1.6986071726e+00 -2.9420739251e+00 1.6986071726e+00 2.9420739251e+00 
86800 5.8909291420e+00 -1.0522762629e-04 1.6986102833e+00 -2.9420793129e+00 1.6986102833e+00 2.9420793129e+00 
86900 5.8909291265e+00 -1.0478124120e-04 1.6986133807e+00 -2.9420846779e+00 1.6986133807e+00 2.9420846779e+00 
87000 5.8909291110e+00 -1.0433657887e-04 1.6986164651e+00 -2.9420900201e+00 1.6986164651e+00 2.9420900201e+00 
87100 5.8909290958e+00 -1.0389363440e-04 1.6986195363e+00 -2.9420953396e+00 1.6986195363e+00 2.9420953396e+00 
87200 5.8909290806e+00 -1.0345240289e-04 1.6986225945e+00 -2.9421006365e+00 1.6986225945e+00 2.9421006365e+00 
87300 5.8909290656e+00 -1.0301287942e-04 1.6986256396e+00 -2.9421059109e+00 1.6986256396e+00 2.9421059109e+00 
87400 5.8909290508e+00 -1.0257505907e-04 1.6986286719e+00 -2.9421111629e+00 1.6986286719e+00 2.9421111629e+00 
87500 5.8909290360e+00 -1.0213893692e-04 1.6986316912e+00 -2.9421163926e+00 1.6986316912e+00 2.9421163926e+00 
87600 5.8909290214e+00 -1.0170450804e-04 1.6986346977e+00 -2.9421216000e+00 1.6986346977e+00 2.9421216000e+00 
87700 5.8909290070e+00 -1.0127176749e-04 1.6986376915e+00 -2.9421267853e+00 1.6986376915e+00 2.9421267853e+00 
87800 5.8909289927e+00 -1.0084071035e-04 1.6986406724e+00 -2.9421319485e+00 1.6986406724e+00 2.9421319485e+00 
87900 5.8909289785e+00 -1.0041133167e-04 1.6986436407e+00 -2.9421370897e+00 1.6986436407e+00 2.9421370897e+00 
88000 5.8909289644e+00 -9.9983626512e-05 1.6986465963e+00 -2.9421422090e+00 1.6986465963e+00 2.9421422090e+00 
88100 5.8909289505e+00 -9.9557589928e-05 1.6986495394e+00 -2.9421473065e+00 1.6986495394e+00 2.9421473065e+00 
88200 5.8909289367e+00 -9.9133216969e-05 1.6986524699e+00 -2.9421523822e+00 1.6986524699e+00 2.9421523822e+00 
88300 5.8909289230e+00 -9.8710502685e-05 1.6986553879e+00 -2.9421574363e+00 1.6986553879e+00 2.9421574363e+00 
88400 5.8909289094e+00 -9.8289442124e-05 1.6986582934e+00 -2.9421624689e+00 1.6986582934e+00 2.9421624689e+00 
88500 5.8909288960e+00 -9.7870030328e-05 1.6986611866e+00 -2.9421674800e+00 1.6986611866e+00 2.9421674800e+00 
88600 5.8909288827e+00 -9.7452262341e-05 1.6986640674e+00 -2.9421724697e+00 1.6986640674e+00 2.9421724697e+00 
88700 5.8909288695e+00 -9.7036133204e-05 1.6986669359e+00 -2.9421774381e+00 1.6986669359e+00 2.9421774381e+00 
88800 5.8909288565e+00 -9.6621637958e-05 1.6986697921e+00 -2.9421823852e+00 1.6986697921e+00 2.9421823852e+00 
88900 5.8909288435e+00 -9.6208771638e-05 1.6986726362e+00 -2.9421873112e+00 1.6986726362e+00 2.9421873112e+00 
89000 5.8909288307e+00 -9.5797529286e-05 1.6986754680e+00 -2.9421922162e+00 1.6986754680e+00 2.9421922162e+00 
89100 5.8909288180e+00 -9.5387905935e-05 1.6986782878e+00 -2.9421971002e+00 1.6986782878e+00 2.9421971002e+00 
89200 5.8909288054e+00 -9.4979896622e-05 1.6986810955e+00 -2.9422019633e+00 1.6986810955e+00 2.9422019633e+00 
89300 5.8909287929e+00 -9.4573496386e-05 1.6986838912e+00 -2.9422068056e+00 1.6986838912e+00 2.9422068056e+00 
89400 5.8909287806e+00 -9.4168700259e-05 1.6986866749e+00 -2.9422116271e+00 1.6986866749e+00 2.9422116271e+00 
89500 5.8909287683e+00 -9.3765503278e-05 1.6986894468e+00 -2.9422164281e+00 1.6986894468e+00 2.9422164281e+00 
89600 5.8909287562e+00 -9.3363900480e-05 1.6986922067e+00 -2.9422212084e+00 1.6986922067e+00 2.9422212084e+00 
89700 5.8909287442e+00 -9.2963886902e-05 1.6986949548e+00 -2.9422259683e+00 1.6986949548e+00 2.9422259683e+00 
89800 5.8909287323e+00 -9.2565457580e-05 1.6986976911e+00 -2.9422307077e+00 1.6986976911e+00 2.9422307077e+00 
89900 5.8909287205e+00 -9.2168607552e-05 1.6987004157e+00 -2.9422354269e+00 1.6987004157e+00 2.9422354269e+00 
90000 5.8909287088e+00 -9.1773331858e-05 1.6987031287e+00 -2.9422401258e+00 1.6987031287e+00 2.9422401258e+00 
90100 5.8909286972e+00 -9.1379625539e-05 1.6987058299e+00 -2.9422448045e+00 1.6987058299e+00 2.9422448045e+00 
90200 5.8909286857e+00 -9.0987483635e-05 1.6987085196e+00 -2.9422494632e+00 1.6987085196e+00 2.9422494632e+00 
90300 5.8909286744e+00 -9.0596901191e-05 1.6987111977e+00 -2.9422541019e+00 1.6987111977e+00 2.9422541019e+00 
90400 5.8909286631e+00 -9.0207873253e-05 1.6987138644e+00 -2.9422587206e+00 1.6987138644e+00 2.9422587206e+00 
90500 5.8909286519e+00 -8.9820394867e-05 1.6987165196e+00 -2.9422633195e+00 1.6987165196e+00 2.9422633195e+00 
90600 5.8909286409e+00 -8.9434461084e-05 1.6987191633e+00 -2.9422678987e+00 1.6987191633e+00 2.9422678987e+00 
90700 5.8909286299e+00 -8.9050066955e-05 1.6987217958e+00 -2.9422724582e+00 1.6987217958e+00 2.9422724582e+00 
90800 5.8909286190e+00 -8.8667207533e-05 1.6987244168e+00 -2.9422769980e+00 1.6987244168e+00 2.9422769980e+00 
90900 5.8909286083e+00 -8.8285877878e-05 1.6987270267e+00 -2.9422815184e+00 1.6987270267e+00 2.9422815184e+00 
91000 5.8909285976e+00 -8.7906073047e-05 1.6987296253e+00 -2.9422860193e+00 1.6987296253e+00 2.9422860193e+00 
91100 5.8909285871e+00 -8.7527788104e-05 1.6987322127e+00 -2.9422905008e+00 1.6987322127e+00 2.9422905008e+00 
91200 5.8909285766e+00 -8.7151018117e-05 1.6987347889e+00 -2.9422949630e+00 1.6987347889e+00 2.9422949630e+00 
91300 5.8909285662e+00 -8.6775758154e-05 1.6987373541e+00 -2.9422994060e+00 1.6987373541e+00 2.9422994060e+00 
91400 5.8909285560e+00 -8.6402003287e-05 1.6987399082e+00 -2.9423038299e+00 1.6987399082e+00 2.9423038299e+00 
91500 5.8909285458e+00 -8.6029748594e-05 1.6987424513e+00 -2.9423082347e+00 1.6987424513e+00 2.9423082347e+00 
91600 5.8909285357e+00 -8.5658989156e-05 1.6987449835e+00 -2.9423126205e+00 1.6987449835e+00 2.9423126205e+00 
91700 5.8909285257e+00 -8.5289720057e-05 1.6987475048e+00 -2.9423169875e+00 1.6987475048e+00 2.9423169875e+00 
91800 5.8909285158e+00 -8.4921936385e-05 1.6987500151e+00 -2.9423213356e+00 1.6987500151e+00 2.9423213356e+00 
91900 5.8909285060e+00 -8.4555633233e-05 1.6987525147e+00 -2.9423256649e+00 1.6987525147e+00 2.9423256649e+00 
92000 5.8909284963e+00 -8.4190805700e-05 1.6987550034e+00 -2.9423299755e+00 1.6987550034e+00 2.9423299755e+00 
92100 5.8909284866e+00 -8.3827448887e-05 1.6987574814e+00 -2.9423342676e+00 1.6987574814e+00 2.9423342676e+00 
92200 5.8909284771e+00 -8.3465557900e-05 1.6987599488e+00 -2.9423385411e+00 1.6987599488e+00 2.9423385411e+00 
92300 5.8909284676e+00 -8.3105127853e-05 1.6987624054e+00 -2.9423427962e+00 1.6987624054e+00 2.9423427962e+00 
92400 5.8909284583e+00 -8.2746153859e-05 1.6987648515e+00 -2.9423470329e+00 1.6987648515e+00 2.9423470329e+00 
92500 5.8909284490e+00 -8.2388631043e-05 1.6987672869e+00 -2.9423512512e+00 1.6987672869e+00 2.9423512512e+00 
92600 5.8909284398e+00 -8.2032554531e-05 1.6987697119e+00 -2.9423554514e+00 1.6987697119e+00 2.9423554514e+00 
92700 5.8909284307e+00 -8.1677919457e-05 1.6987721264e+00 -2.9423596334e+00 1.6987721264e+00 2.9423596334e+00 
92800 5.8909284216e+00 -8.1324720957e-05 1.6987745304e+00 -2.9423637973e+00 1.6987745304e+00 2.9423637973e+00 
92900 5.8909284127e+00 -8.0972954177e-05 1.6987769240e+00 -2.9423679431e+00 1.6987769240e+00 2.9423679431e+00 
93000 5.8909284038e+00 -8.0622614265e-05 1.6987793073e+00 -2.9423720711e+00 1.6987793073e+00 2.9423720711e+00 
93100 5.8909283950e+00 -8.0273696378e-05 1.6987816803e+00 -2.9423761812e+00 1.6987816803e+00 2.9423761812e+00 
93200 5.8909283863e+00 -7.9926195677e-05 1.6987840429e+00 -2.9423802735e+00 1.6987840429e+00 2.9423802735e+00 
93300 5.8909283777e+00 -7.9580107331e-05 1.6987863954e+00 -2.9423843480e+00 1.6987863954e+00 2.9423843480e+00 
93400 5.8909283692e+00 -7.9235426513e-05 1.6987887377e+00 -2.9423884050e+00 1.6987887377e+00 2.9423884050e+00 
93500 5.8909283607e+00 -7.8892148407e-05 1.6987910698e+00 -2.9423924443e+00 1.6987910698e+00 2.9423924443e+00 
93600 5.8909283523e+00 -7.8550268198e-05 1.6987933918e+00 -2.9423964661e+00 1.6987933918e+00 2.9423964661e+00 
93700 5.8909283440e+00 -7.8209781082e-05 1.6987957037e+00 -2.9424004705e+00 1.6987957037e+00 2.9424004705e+00 
93800 5.8909283358e+00 -7.7870682258e-05 1.6987980057e+00 -2.9424044576e+00 1.6987980057e+00 2.9424044576e+00 
93900 5.8909283276e+00 -7.7532966936e-05 1.6988002976e+00 -2.9424084273e+00 1.6988002976e+00 2.9424084273e+00 
94000 5.8909283195e+00 -7.7196630331e-05 1.6988025796e+00 -2.9424123799e+00 1.6988025796e+00 2.9424123799e+00 
94100 5.8909283115e+00 -7.6861667665e-05 1.6988048517e+00 -2.9424163152e+00 1.6988048517e+00 2.9424163152e+00 
94200 5.8909283036e+00 -7.6528074168e-05 1.6988071139e+00 -2.9424202335e+00 1.6988071139e+00 2.9424202335e+00 
94300 5.8909282957e+00 -7.6195845076e-05 1.6988093663e+00 -2.9424241348e+00 1.6988093663e+00 2.9424241348e+00 
94400 5.8909282879e+00 -7.5864975636e-05 1.6988116089e+00 -2.9424280192e+00 1.6988116089e+00 2.9424280192e+00 
94500 5.8909282802e+00 -7.5535461099e-05 1.6988138418e+00 -2.9424318866e+00 1.6988138418e+00 2.9424318866e+00 
94600 5.8909282726e+00 -7.5207296724e-05 1.6988160650e+00 -2.9424357373e+00 1.6988160650e+00 2.9424357373e+00 
94700 5.8909282650e+00 -7.4880477781e-05 1.6988182785e+00 -2.9424395712e+00 1.6988182785e+00 2.9424395712e+00 
94800 5.8909282575e+00 -7.4554999544e-05 1.6988204824e+00 -2.9424433885e+00 1.6988204824e+00 2.9424433885e+00 
94900 5.8909282500e+00 -7.4230857299e-05 1.6988226767e+00 -2.9424471892e+00 1.6988226767e+00 2.9424471892e+00 
95000 5.8909282427e+00 -7.3908046335e-05 1.6988248615e+00 -2.9424509733e+00 1.6988248615e+00 2.9424509733e+00 
95100 5.8909282354e+00 -7.3586561954e-05 1.6988270368e+00 -2.9424547410e+00 1.6988270368e+00 2.9424547410e+00 
95200 5.8909282281e+00 -7.3266399465e-05 1.6988292026e+00 -2.9424584923e+00 1.6988292026e+00 2.9424584923e+00 
95300 5.8909282210e+00 -7.2947554183e-05 1.6988313590e+00 -2.9424622272e+00 1.6988313590e+00 2.9424622272e+00 
95400 5.8909282139e+00 -7.2630021436e-05 1.6988335060e+00 -2.9424659459e+00 1.6988335060e+00 2.9424659459e+00 
95500 5.8909282068e+00 -7.2313796556e-05 1.6988356436e+00 -2.9424696484e+00 1.6988356436e+00 2.9424696484e+00 
95600 5.8909281998e+00 -7.1998874887e-05 1.6988377719e+00 -2.9424733348e+00 1.6988377719e+00 2.9424733348e+00 
95700 5.8909281929e+00 -7.1685251780e-05 1.6988398910e+00 -2.9424770051e+00 1.6988398910e+00 2.9424770051e+00 
95800 5.8909281861e+00 -7.1372922595e-05 1.6988420008e+00 -2.9424806595e+00 1.6988420008e+00 2.9424806595e+00 
95900 5.8909281793e+00 -7.1061882702e-05 1.6988441015e+00 -2.9424842979e+00 1.6988441015e+00 2.9424842979e+00 
96000 5.8909281726e+00 -7.0752127479e-05 1.6988461929e+00 -2.9424879204e+00 1.6988461929e+00 2.9424879204e+00 
96100 5.8909281659e+00 -7.0443652314e-05 1.6988482753e+00 -2.9424915272e+00 1.6988482753e+00 2.9424915272e+00 
96200 5.8909281595e+00 -7.1117769659e-05 1.6988482753e+00 -2.9424915272e+00 1.6988482753e+00 2.9424915272e+00 
96300 5.8909281529e+00 -7.0800204915e-05 1.6988503684e+00 -2.9424951526e+00 1.6988503684e+00 2.9424951526e+00 
96400 5.8909281465e+00 -7.0484008721e-05 1.6988524522e+00 -2.9424987617e+00 1.6988524522e+00 2.9424987617e+00 
96500 5.8909281402e+00 -7.1151035299e-05 1.6988524522e+00 -2.9424987617e+00 1.6988524522e+00 2.9424987617e+00 
96600 5.8909281338e+00 -7.0825920386e-05 1.6988545463e+00 -2.9425023888e+00 1.6988545463e+00 2.9425023888e+00 
96700 5.8909281275e+00 -7.0502262183e-05 1.6988566308e+00 -2.9425059993e+00 1.6988566308e+00 2.9425059993e+00 
96800 5.8909281215e+00 -7.1162148319e-05 1.6988566308e+00 -2.9425059993e+00 1.6988566308e+00 2.9425059993e+00 
96900 5.8909281153e+00 -7.0829743532e-05 1.6988587252e+00 -2.9425096269e+00 1.6988587252e+00 2.9425096269e+00 
97000 5.8909281091e+00 -7.0498881695e-05 1.6988608098e+00 -2.9425132376e+00 1.6988608098e+00 2.9425132376e+00 
97100 5.8909281032e+00 -7.1151582266e-05 1.6988608098e+00 -2.9425132376e+00 1.6988608098e+00 2.9425132376e+00 
97200 5.8909280972e+00 -7.0812144664e-05 1.6988629039e+00 -2.9425168647e+00 1.6988629039e+00 2.9425168647e+00 
97300 5.8909280912e+00 -7.0474333375e-05 1.6988649880e+00 -2.9425204745e+00 1.6988649880e+00 2.9425204745e+00 
97400 5.8909280855e+00 -7.1119804783e-05 1.6988649880e+00 -2.9425204745e+00 1.6988649880e+00 2.9425204745e+00 
97500 5.8909280796e+00 -7.0773585736e-05 1.6988670812e+00 -2.9425240999e+00 1.6988670812e+00 2.9425240999e+00 
97600 5.8909280738e+00 -7.0429072994e-05 1.6988691642e+00 -2.9425277077e+00 1.6988691642e+00 2.9425277077e+00 
97700 5.8909280682e+00 -7.1067271467e-05 1.6988691642e+00 -2.9425277077e+00 1.6988691642e+00 2.9425277077e+00 
97800 5.8909280625e+00 -7.0714515476e-05 1.6988712558e+00 -2.9425313305e+00 1.6988712558e+00 2.9425313305e+00 
97900 5.8909280569e+00 -7.0363542269e-05 1.6988733370e+00 -2.9425349353e+00 1.6988733370e+00 2.9425349353e+00 
98000 5.8909280514e+00 -7.0994423146e-05 1.6988733370e+00 -2.9425349353e+00 1.6988733370e+00 2.9425349353e+00 
98100 5.8909280459e+00 -7.0635367608e-05 1.6988754264e+00 -2.9425385543e+00 1.6988754264e+00 2.9425385543e+00 
98200 5.8909280406e+00 -7.1262022753e-05 1.6988754264e+00 -2.9425385543e+00 1.6988754264e+00 2.9425385543e+00 
98300 5.8909280351e+00 -7.0895004318e-05 1.6988775238e+00 -2.9425421870e+00 1.6988775238e+00 2.9425421870e+00 
98400 5.8909280297e+00 -7.0529923229e-05 1.6988796103e+00 -2.9425458010e+00 1.6988796103e+00 2.9425458010e+00 
98500 5.8909280245e+00 -7.1149135120e-05 1.6988796103e+00 -2.9425458010e+00 1.6988796103e+00 2.9425458010e+00 
98600 5.8909280192e+00 -7.0776248940e-05 1.6988817043e+00 -2.9425494279e+00 1.6988817043e+00 2.9425494279e+00 
98700 5.8909280140e+00 -7.0405368253e-05 1.6988837873e+00 -2.9425530358e+00 1.6988837873e+00 2.9425530358e+00 
98800 5.8909280089e+00 -7.1017093514e-05 1.6988837873e+00 -2.9425530358e+00 1.6988837873e+00 2.9425530358e+00 
98900 5.8909280038e+00 -7.0638562179e-05 1.6988858774e+00 -2.9425566560e+00 1.6988858774e+00 2.9425566560e+00 
99000 5.8909279988e+00 -7.1245950237e-05 1.6988858774e+00 -2.9425566560e+00 1.6988858774e+00 2.9425566560e+00 
99100 5.8909279937e+00 -7.0859883960e-05 1.6988879743e+00 -2.9425602878e+00 1.6988879743e+00 2.9425602878e+00 
99200 5.8909279887e+00 -7.0475965062e-05 1.6988900598e+00 -2.9425639000e+00 1.6988900598e+00 2.9425639000e+00 
99300 5.8909279839e+00 -7.1075745294e-05 1.6988900598e+00 -2.9425639000e+00 1.6988900598e+00 2.9425639000e+00 
99400 5.8909279790e+00 -7.0684445008e-05 1.6988921516e+00 -2.9425675231e+00 1.6988921516e+00 2.9425675231e+00 
99500 5.8909279743e+00 -7.1279810923e-05 1.6988921516e+00 -2.9425675231e+00 1.6988921516e+00 2.9425675231e+00 
99600 5.8909279694e+00 -7.0881244727e-05 1.6988942494e+00 -2.9425711567e+00 1.6988942494e+00 2.9425711567e+00 
99700 5.8909279646e+00 -7.0484962356e-05 1.6988963355e+00 -2.9425747699e+00 1.6988963355e+00 2.9425747699e+00 
99800 5.8909279600e+00 -7.1072609555e-05 1.6988963355e+00 -2.9425747699e+00 1.6988963355e+00 2.9425747699e+00 
99900 5.8909279553e+00 -7.0669215217e-05 1.6988984273e+00 -2.9425783929e+00 1.6988984273e+00 2.9425783929e+00 
100000 5.8909279508e+00 -7.1252378504e-05 1.6988984273e+00 -2.9425783929e+00 1.6988984273e+00 2.9425783929e+00 
100100 5.8909279462e+00 -7.0841988472e-05 1.6989005243e+00 -2.9425820250e+00 1.6989005243e+00 2.9425820250e+00 
100200 5.8909279416e+00 -7.0434014667e-05 1.6989026092e+00 -2.9425856363e+00 1.6989026092e+00 2.9425856363e+00 
100300 5.8909279372e+00 -7.1009362717e-05 1.6989026092e+00 -2.9425856363e+00 1.6989026092e+00 2.9425856363e+00 
100400 5.8909279327e+00 -7.0594549191e-05 1.6989046991e+00 -2.9425892560e+00 1.6989046991e+00 2.9425892560e+00 
100500 5.8909279284e+00 -7.1165354263e-05 1.6989046991e+00 -2.9425892560e+00 1.6989046991e+00 2.9425892560e+00 
100600 5.8909279240e+00 -7.0743819160e-05 1.6989067935e+00 -2.9425928837e+00 1.6989067935e+00 2.9425928837e+00 
100700 5.8909279196e+00 -7.0324830133e-05 1.6989088756e+00 -2.9425964899e+00 1.6989088756e+00 2.9425964899e+00 
100800 5.8909279154e+00 -7.0887742430e-05 1.6989088756e+00 -2.9425964899e+00 1.6989088756e+00 2.9425964899e+00 
100900 5.8909279111e+00 -7.0462191362e-05 1.6989109618e+00 -2.9426001034e+00 1.6989109618e+00 2.9426001034e+00 
101000 5.8909279070e+00 -7.1020515180e-05 1.6989109618e+00 -2.9426001034e+00 1.6989109618e+00 2.9426001034e+00 
101100 5.8909279028e+00 -7.0588522985e-05 1.6989130520e+00 -2.9426037237e+00 1.6989130520e+00 2.9426037237e+00 
101200 5.8909278988e+00 -7.1142225990e-05 1.6989130520e+00 -2.9426037237e+00 1.6989130520e+00 2.9426037237e+00 
101300 5.8909278946e+00 -7.0703916010e-05 1.6989151458e+00 -2.9426073502e+00 1.6989151458e+00 2.9426073502e+00 
101400 5.8909278907e+00 -7.1252969412e-05 1.6989151458e+00 -2.9426073502e+00 1.6989151458e+00 2.9426073502e+00 
101500 5.8909278866e+00 -7.0808467101e-05 1.6989172428e+00 -2.9426109823e+00 1.6989172428e+00 2.9426109823e+00 
101600 5.8909278825e+00 -7.0366783771e-05 1.6989193267e+00 -2.9426145918e+00 1.6989193267e+00 2.9426145918e+00 
101700 5.8909278787e+00 -7.0907808003e-05 1.6989193267e+00 -2.9426145918e+00 1.6989193267e+00 2.9426145918e+00 
101800 5.8909278747e+00 -7.0460102288e-05 1.6989214136e+00 -2.9426182063e+00 1.6989214136e+00 2.9426182063e+00 
101900 5.8909278710e+00 -7.0996464248e-05 1.6989214136e+00 -2.9426182063e+00 1.6989214136e+00 2.9426182063e+00 
102000 5.8909278670e+00 -7.0542863725e-05 1.6989235030e+00 -2.9426218254e+00 1.6989235030e+00 2.9426218254e+00 
102100 5.8909278634e+00 -7.1074544293e-05 1.6989235030e+00 -2.9426218254e+00 1.6989235030e+00 2.9426218254e+00 
102200 5.8909278595e+00 -7.0615178786e-05 1.6989255948e+00 -2.9426254484e+00 1.6989255948e+00 2.9426254484e+00 
102300 5.8909278559e+00 -7.1142162478e-05 1.6989255948e+00 -2.9426254484e+00 1.6989255948e+00 2.9426254484e+00 
102400 5.8909278521e+00 -7.0677163735e-05 1.6989276885e+00 -2.9426290749e+00 1.6989276885e+00 2.9426290749e+00 
102500 5.8909278486e+00 -7.1199438487e-05 1.6989276885e+00 -2.9426290749e+00 1.6989276885e+00 2.9426290749e+00 
102600 5.8909278449e+00 -7.0728939915e-05 1.6989297839e+00 -2.9426327043e+00 1.6989297839e+00 2.9426327043e+00 
102700 5.8909278412e+00 -7.0261603150e-05 1.6989318655e+00 -2.9426363097e+00 1.6989318655e+00 2.9426363097e+00 
102800 5.8909278377e+00 -7.0775791929e-05 1.6989318655e+00 -2.9426363097e+00 1.6989318655e+00 2.9426363097e+00 
102900 5.8909278341e+00 -7.0303136466e-05 1.6989339485e+00 -2.9426399174e+00 1.6989339485e+00 2.9426399174e+00 
103000 5.8909278307e+00 -7.0812645053e-05 1.6989339485e+00 -2.9426399174e+00 1.6989339485e+00 2.9426399174e+00 
103100 5.8909278272e+00 -7.0334805385e-05 1.6989360325e+00 -2.9426435271e+00 1.6989360325e+00 2.9426435271e+00 
103200 5.8909278239e+00 -7.0839631094e-05 1.6989360325e+00 -2.9426435271e+00 1.6989360325e+00 2.9426435271e+00 
103300 5.8909278204e+00 -7.0356743523e-05 1.6989381173e+00 -2.9426471381e+00 1.6989381173e+00 2.9426471381e+00 
103400 5.8909278171e+00 -7.0856887179e-05 1.6989381173e+00 -2.9426471381e+00 1.6989381173e+00 2.9426471381e+00 
103500 5.8909278137e+00 -7.0369089484e-05 1.6989402026e+00 -2.9426507500e+00 1.6989402026e+00 2.9426507500e+00 
103600 5.8909278105e+00 -7.0864555172e-05 1.6989402026e+00 -2.9426507500e+00 1.6989402026e+00 2.9426507500e+00 
103700 5.8909278071e+00 -7.0371986298e-05 1.6989422882e+00 -2.9426543623e+00 1.6989422882e+00 2.9426543623e+00 
103800 5.8909278040e+00 -7.0862781148e-05 1.6989422882e+00 -2.9426543623e+00 1.6989422882e+00 2.9426543623e+00 
103900 5.8909278007e+00 -7.0365580947e-05 1.6989443737e+00 -2.9426579745e+00 1.6989443737e+00 2.9426579745e+00 
104000 5.8909277976e+00 -7.0851714938e-05 1.6989443737e+00 -2.9426579745e+00 1.6989443737e+00 2.9426579745e+00 
104100 5.8909277944e+00 -7.0350023938e-05 1.6989464589e+00 -2.9426615861e+00 1.6989464589e+00 2.9426615861e+00 
104200 5.8909277913e+00 -7.0831509728e-05 1.6989464589e+00 -2.9426615861e+00 1.6989464589e+00 2.9426615861e+00 
104300 5.8909277881e+00 -7.0325468918e-05 1.6989485434e+00 -2.9426651967e+00 1.6989485434e+00 2.9426651967e+00 
104400 5.8909277852e+00 -7.0802321692e-05 1.6989485434e+00 -2.9426651967e+00 1.6989485434e+00 2.9426651967e+00 
104500 5.8909277820e+00 -7.0292072342e-05 1.6989506271e+00 -2.9426688058e+00 1.6989506271e+00 2.9426688058e+00 
104600 5.8909277791e+00 -7.0764309665e-05 1.6989506271e+00 -2.9426688058e+00 1.6989506271e+00 2.9426688058e+00 
104700 5.8909277760e+00 -7.0249993146e-05 1.6989527097e+00 -2.9426724129e+00 1.6989527097e+00 2.9426724129e+00 
104800 5.8909277732e+00 -7.0717634840e-05 1.6989527097e+00 -2.9426724129e+00 1.6989527097e+00 2.9426724129e+00 
104900 5.8909277702e+00 -7.0199392474e-05 1.6989547909e+00 -2.9426760177e+00 1.6989547909e+00 2.9426760177e+00 
105000 5.8909277673e+00 -7.0662460492e-05 1.6989547909e+00 -2.9426760177e+00 1.6989547909e+00 2.9426760177e+00 
105100 5.8909277645e+00 -7.1124280138e-05 1.6989547909e+00 -2.9426760177e+00 1.6989547909e+00 2.9426760177e+00 
105200 5.8909277616e+00 -7.0594567473e-05 1.6989568841e+00 -2.9426796432e+00 1.6989568841e+00 2.9426796432e+00 
105300 5.8909277589e+00 -7.1051804109e-05 1.6989568841e+00 -2.9426796432e+00 1.6989568841e+00 2.9426796432e+00 
105400 5.8909277560e+00 -7.0518540459e-05 1.6989589752e+00 -2.9426832650e+00 1.6989589752e+00 2.9426832650e+00 
105500 5.8909277533e+00 -7.0971222697e-05 1.6989589752e+00 -2.9426832650e+00 1.6989589752e+00 2.9426832650e+00 
105600 5.8909277505e+00 -7.0434549795e-05 1.6989610638e+00 -2.9426868826e+00 1.6989610638e+00 2.9426868826e+00 
105700 5.8909277478e+00 -7.0882707216e-05 1.6989610638e+00 -2.9426868826e+00 1.6989610638e+00 2.9426868826e+00 
105800 5.8909277450e+00 -7.0342765426e-05 1.6989631499e+00 -2.9426904958e+00 1.6989631499e+00 2.9426904958e+00 
105900 5.8909277424e+00 -7.0786428664e-05 1.6989631499e+00 -2.9426904958e+00 1.6989631499e+00 2.9426904958e+00 
106000 5.8909277397e+00 -7.0243357047e-05 1.6989652331e+00 -2.9426941041e+00 1.6989652331e+00 2.9426941041e+00 
106100 5.8909277372e+00 -7.0682557836e-05 1.6989652331e+00 -2.9426941041e+00 1.6989652331e+00 2.9426941041e+00 
106200 5.8909277346e+00 -7.1120569660e-05 1.6989652331e+00 -2.9426941041e+00 1.6989652331e+00 2.9426941041e+00 
106300 5.8909277320e+00 -7.0567213263e-05 1.6989673262e+00 -2.9426977293e+00 1.6989673262e+00 2.9426977293e+00 
106400 5.8909277295e+00 -7.1000766332e-05 1.6989673262e+00 -2.9426977293e+00 1.6989673262e+00 2.9426977293e+00 
106500 5.8909277269e+00 -7.0444645036e-05 1.6989694157e+00 -2.9427013485e+00 1.6989694157e+00 2.9427013485e+00 
106600 5.8909277245e+00 -7.0873775751e-05 1.6989694157e+00 -2.9427013485e+00 1.6989694157e+00 2.9427013485e+00 
106700 5.8909277219e+00 -7.0315025969e-05 1.6989715015e+00 -2.9427049612e+00 1.6989715015e+00 2.9427049612e+00 
106800 5.8909277195e+00 -7.0739771081e-05 1.6989715015e+00 -2.9427049612e+00 1.6989715015e+00 2.9427049612e+00 
106900 5.8909277170e+00 -7.0178527249e-05 1.6989735833e+00 -2.9427085670e+00 1.6989735833e+00 2.9427085670e+00 
107000 5.8909277146e+00 -7.0598924010e-05 1.6989735833e+00 -2.9427085670e+00 1.6989735833e+00 2.9427085670e+00 
107100 5.8909277123e+00 -7.1018189627e-05 1.6989735833e+00 -2.9427085670e+00 1.6989735833e+00 2.9427085670e+00 
107200 5.8909277099e+00 -7.0447611466e-05 1.6989756734e+00 -2.9427121871e+00 1.6989756734e+00 2.9427121871e+00 
107300 5.8909277076e+00 -7.0862539798e-05 1.6989756734e+00 -2.9427121871e+00 1.6989756734e+00 2.9427121871e+00 
107400 5.8909277052e+00 -7.0289818618e-05 1.6989777588e+00 -2.9427157992e+00 1.6989777588e+00 2.9427157992e+00 
107500 5.8909277029e+00 -7.0700450412e-05 1.6989777588e+00 -2.9427157992e+00 1.6989777588e+00 2.9427157992e+00 
107600 5.8909277007e+00 -7.1109979605e-05 1.6989777588e+00 -2.9427157992e+00 1.6989777588e+00 2.9427157992e+00 
107700 5.8909276984e+00 -7.0528437303e-05 1.6989798515e+00 -2.9427194239e+00 1.6989798515e+00 2.9427194239e+00 
107800 5.8909276962e+00 -7.0933685049e-05 1.6989798515e+00 -2.9427194239e+00 1.6989798515e+00 2.9427194239e+00 
107900 5.8909276939e+00 -7.0350343629e-05 1.6989819391e+00 -2.9427230396e+00 1.6989819391e+00 2.9427230396e+00 
108000 5.8909276918e+00 -7.0751352802e-05 1.6989819391e+00 -2.9427230396e+00 1.6989819391e+00 2.9427230396e+00 
108100 5.8909276895e+00 -7.0166338759e-05 1.6989840212e+00 -2.9427266461e+00 1.6989840212e+00 2.9427266461e+00 
108200 5.8909276874e+00 -7.0563151842e-05 1.6989840212e+00 -2.9427266461e+00 1.6989840212e+00 2.9427266461e+00 
108300 5.8909276853e+00 -7.0958911227e-05 1.6989840212e+00 -2.9427266461e+00 1.6989840212e+00 2.9427266461e+00 
108400 5.8909276831e+00 -7.0365781092e-05 1.6989861095e+00 -2.9427302630e+00 1.6989861095e+00 2.9427302630e+00 
108500 5.8909276811e+00 -7.0757361965e-05 1.6989861095e+00 -2.9427302630e+00 1.6989861095e+00 2.9427302630e+00 
108600 5.8909276789e+00 -7.0162887325e-05 1.6989881919e+00 -2.9427338698e+00 1.6989881919e+00 2.9427338698e+00 
108700 5.8909276769e+00 -7.0550334053e-05 1.6989881919e+00 -2.9427338698e+00 1.6989881919e+00 2.9427338698e+00 
108800 5.8909276749e+00 -7.0936758508e-05 1.6989881919e+00 -2.9427338698e+00 1.6989881919e+00 2.9427338698e+00 
108900 5.8909276728e+00 -7.0334653811e-05 1.6989902795e+00 -2.9427374856e+00 1.6989902795e+00 2.9427374856e+00 
109000 5.8909276709e+00 -7.0716963910e-05 1.6989902795e+00 -2.9427374856e+00 1.6989902795e+00 2.9427374856e+00 
109100 5.8909276688e+00 -7.0113833001e-05 1.6989923606e+00 -2.9427410903e+00 1.6989923606e+00 2.9427410903e+00 
109200 5.8909276669e+00 -7.0492074259e-05 1.6989923606e+00 -2.9427410903e+00 1.6989923606e+00 2.9427410903e+00 
109300 5.8909276650e+00 -7.0869325457e-05 1.6989923606e+00 -2.9427410903e+00 1.6989923606e+00 2.9427410903e+00 
109400 5.8909276629e+00 -7.0259038542e-05 1.6989944463e+00 -2.9427447027e+00 1.6989944463e+00 2.9427447027e+00 
109500 5.8909276611e+00 -7.0632242084e-05 1.6989944463e+00 -2.9427447027e+00 1.6989944463e+00 2.9427447027e+00 
109600 5.8909276593e+00 -7.1004468780e-05 1.6989944463e+00 -2.9427447027e+00 1.6989944463e+00 2.9427447027e+00 
109700 5.8909276573e+00 -7.0387300649e-05 1.6989965359e+00 -2.9427483220e+00 1.6989965359e+00 2.9427483220e+00 
109800 5.8909276555e+00 -7.0755502712e-05 1.6989965359e+00 -2.9427483220e+00 1.6989965359e+00 2.9427483220e+00 
109900 5.8909276535e+00 -7.0137804292e-05 1.6989986181e+00 -2.9427519286e+00 1.6989986181e+00 2.9427519286e+00 
110000 5.8909276518e+00 -7.0502028766e-05 1.6989986181e+00 -2.9427519286e+00 1.6989986181e+00 2.9427519286e+00 
110100 5.8909276500e+00 -7.0865309462e-05 1.6989986181e+00 -2.9427519286e+00 1.6989986181e+00 2.9427519286e+00 
110200 5.8909276481e+00 -7.0241184959e-05 1.6990007036e+00 -2.9427555408e+00 1.6990007036e+00 2.9427555408e+00 
110300 5.8909276464e+00 -7.0600510827e-05 1.6990007036e+00 -2.9427555408e+00 1.6990007036e+00 2.9427555408e+00 
110400 5.8909276447e+00 -7.0958906147e-05 1.6990007036e+00 -2.9427555408e+00 1.6990007036e+00 2.9427555408e+00 
110500 5.8909276428e+00 -7.0328617611e-05 1.6990027919e+00 -2.9427591578e+00 1.6990027919e+00 2.9427591578e+00 
110600 5.8909276412e+00 -7.0683082155e-05 1.6990027919e+00 -2.9427591578e+00 1.6990027919e+00 2.9427591578e+00 
110700 5.8909276395e+00 -7.1036629630e-05 1.6990027919e+00 -2.9427591578e+00 1.6990027919e+00 2.9427591578e+00 
110800 5.8909276377e+00 -7.0400435634e-05 1.6990048824e+00 -2.9427627787e+00 1.6990048824e+00 2.9427627787e+00 
110900 5.8909276361e+00 -7.0750077085e-05 1.6990048824e+00 -2.9427627787e+00 1.6990048824e+00 2.9427627787e+00 
111000 5.8909276343e+00 -7.0113994079e-05 1.6990069645e+00 -2.9427663850e+00 1.6990069645e+00 2.9427663850e+00 
111100 5.8909276327e+00 -7.0459777308e-05 1.6990069645e+00 -2.9427663850e+00 1.6990069645e+00 2.9427663850e+00 
111200 5.8909276311e+00 -7.0804676128e-05 1.6990069645e+00 -2.9427663850e+00 1.6990069645e+00 2.9427663850e+00 
111300 5.8909276294e+00 -7.0163113551e-05 1.6990090482e+00 -2.9427699941e+00 1.6990090482e+00 2.9427699941e+00 
111400 5.8909276279e+00 -7.0504177693e-05 1.6990090482e+00 -2.9427699941e+00 1.6990090482e+00 2.9427699941e+00 
111500 5.8909276263e+00 -7.0844370189e-05 1.6990090482e+00 -2.9427699941e+00 1.6990090482e+00 2.9427699941e+00 
111600 5.8909276246e+00 -7.0197572123e-05 1.6990111331e+00 -2.9427736052e+00 1.6990111331e+00 2.9427736052e+00 
111700 5.8909276231e+00 -7.0533954603e-05 1.6990111331e+00 -2.9427736052e+00 1.6990111331e+00 2.9427736052e+00 
111800 5.8909276216e+00 -7.0869478431e-05 1.6990111331e+00 -2.9427736052e+00 1.6990111331e+00 2.9427736052e+00 
111900 5.8909276200e+00 -7.0217685649e-05 1.6990132187e+00 -2.9427772176e+00 1.6990132187e+00 2.9427772176e+00 
112000 5.8909276185e+00 -7.0549424839e-05 1.6990132187e+00 -2.9427772176e+00 1.6990132187e+00 2.9427772176e+00 
112100 5.8909276171e+00 -7.0880318447e-05 1.6990132187e+00 -2.9427772176e+00 1.6990132187e+00 2.9427772176e+00 
112200 5.8909276155e+00 -7.0223767960e-05 1.6990153047e+00 -2.9427808305e+00 1.6990153047e+00 2.9427808305e+00 
112300 5.8909276141e+00 -7.0550902778e-05 1.6990153047e+00 -2.9427808305e+00 1.6990153047e+00 2.9427808305e+00 
112400 5.8909276126e+00 -7.0877205073e-05 1.6990153047e+00 -2.9427808305e+00 1.6990153047e+00 2.9427808305e+00 
112500 5.8909276111e+00 -7.0216129882e-05 1.6990173905e+00 -2.9427844433e+00 1.6990173905e+00 2.9427844433e+00 
112600 5.8909276097e+00 -7.0538699569e-05 1.6990173905e+00 -2.9427844433e+00 1.6990173905e+00 2.9427844433e+00 
112700 5.8909276083e+00 -7.0860449736e-05 1.6990173905e+00 -2.9427844433e+00 1.6990173905e+00 2.9427844433e+00 
112800 5.8909276068e+00 -7.0195078760e-05 1.6990194758e+00 -2.9427880552e+00 1.6990194758e+00 2.9427880552e+00 
112900 5.8909276054e+00 -7.0513122780e-05 1.6990194758e+00 -2.9427880552e+00 1.6990194758e+00 2.9427880552e+00 
113000 5.8909276041e+00 -7.0830360225e-05 1.6990194758e+00 -2.9427880552e+00 1.6990194758e+00 2.9427880552e+00 
113100 5.8909276026e+00 -7.0160918315e-05 1.6990215603e+00 -2.9427916655e+00 1.6990215603e+00 2.9427916655e+00 
113200 5.8909276013e+00 -7.0474476361e-05 1.6990215603e+00 -2.9427916655e+00 1.6990215603e+00 2.9427916655e+00 
113300 5.8909276000e+00 -7.0787240738e-05 1.6990215603e+00 -2.9427916655e+00 1.6990215603e+00 2.9427916655e+00 
113400 5.8909275986e+00 -7.0113948777e-05 1.6990236434e+00 -2.9427952737e+00 1.6990236434e+00 2.9427952737e+00 
113500 5.8909275973e+00 -7.0423060835e-05 1.6990236434e+00 -2.9427952737e+00 1.6990236434e+00 2.9427952737e+00 
113600 5.8909275960e+00 -7.0731392121e-05 1.6990236434e+00 -2.9427952737e+00 1.6990236434e+00 2.9427952737e+00 
113700 5.8909275946e+00 -7.0054467163e-05 1.6990257250e+00 -2.9427988790e+00 1.6990257250e+00 2.9427988790e+00 
113800 5.8909275934e+00 -7.0359173611e-05 1.6990257250e+00 -2.9427988790e+00 1.6990257250e+00 2.9427988790e+00 
113900 5.8909275922e+00 -7.0663112220e-05 1.6990257250e+00 -2.9427988790e+00 1.6990257250e+00 2.9427988790e+00 
114000 5.8909275909e+00 -7.0966276417e-05 1.6990257250e+00 -2.9427988790e+00 1.6990257250e+00 2.9427988790e+00 
114100 5.8909275896e+00 -7.0280933727e-05 1.6990278134e+00 -2.9428024963e+00 1.6990278134e+00 2.9428024963e+00 
114200 5.8909275884e+00 -7.0580480084e-05 1.6990278134e+00 -2.9428024963e+00 1.6990278134e+00 2.9428024963e+00 
114300 5.8909275872e+00 -7.0879265963e-05 1.6990278134e+00 -2.9428024963e+00 1.6990278134e+00 2.9428024963e+00 
114400 5.8909275859e+00 -7.0190779446e-05 1.6990298993e+00 -2.9428061092e+00 1.6990298993e+00 2.9428061092e+00 
114500 5.8909275847e+00 -7.0485977433e-05 1.6990298993e+00 -2.9428061092e+00 1.6990298993e+00 2.9428061092e+00 
114600 5.8909275836e+00 -7.0780428438e-05 1.6990298993e+00 -2.9428061092e+00 1.6990298993e+00 2.9428061092e+00 
114700 5.8909275822e+00 -7.0089005682e-05 1.6990319823e+00 -2.9428097170e+00 1.6990319823e+00 2.9428097170e+00 
114800 5.8909275811e+00 -7.0379898462e-05 1.6990319823e+00 -2.9428097170e+00 1.6990319823e+00 2.9428097170e+00 
114900 5.8909275800e+00 -7.0670057556e-05 1.6990319823e+00 -2.9428097170e+00 1.6990319823e+00 2.9428097170e+00 
115000 5.8909275789e+00 -7.0959476478e-05 1.6990319823e+00 -2.9428097170e+00 1.6990319823e+00 2.9428097170e+00 
115100 5.8909275776e+00 -7.0260548265e-05 1.6990340705e+00 -2.9428133339e+00 1.6990340705e+00 2.9428133339e+00 
115200 5.8909275765e+00 -7.0546418358e-05 1.6990340705e+00 -2.9428133339e+00 1.6990340705e+00 2.9428133339e+00 
115300 5.8909275755e+00 -7.0831562467e-05 1.6990340705e+00 -2.9428133339e+00 1.6990340705e+00 2.9428133339e+00 
115400 5.8909275742e+00 -7.0130163162e-05 1.6990361550e+00 -2.9428169443e+00 1.6990361550e+00 2.9428169443e+00 
115500 5.8909275732e+00 -7.0411790103e-05 1.6990361550e+00 -2.9428169443e+00 1.6990361550e+00 2.9428169443e+00 
115600 5.8909275721e+00 -7.0692704837e-05 1.6990361550e+00 -2.9428169443e+00 1.6990361550e+00 2.9428169443e+00 
115700 5.8909275711e+00 -7.0972901005e-05 1.6990361550e+00 -2.9428169443e+00 1.6990361550e+00 2.9428169443e+00 
115800 5.8909275699e+00 -7.0264605586e-05 1.6990382436e+00 -2.9428205619e+00 1.6990382436e+00 2.9428205619e+00 
115900 5.8909275689e+00 -7.0541296158e-05 1.6990382436e+00 -2.9428205619e+00 1.6990382436e+00 2.9428205619e+00 
116000 5.8909275679e+00 -7.0817282711e-05 1.6990382436e+00 -2.9428205619e+00 1.6990382436e+00 2.9428205619e+00 
116100 5.8909275667e+00 -7.0106967104e-05 1.6990403276e+00 -2.9428241716e+00 1.6990403276e+00 2.9428241716e+00 
116200 5.8909275657e+00 -7.0379481228e-05 1.6990403276e+00 -2.9428241716e+00 1.6990403276e+00 2.9428241716e+00 
116300 5.8909275647e+00 -7.0651305457e-05 1.6990403276e+00 -2.9428241716e+00 1.6990403276e+00 2.9428241716e+00 
116400 5.8909275638e+00 -7.0922433558e-05 1.6990403276e+00 -2.9428241716e+00 1.6990403276e+00 2.9428241716e+00 
116500 5.8909275626e+00 -7.0205815242e-05 1.6990424148e+00 -2.9428277866e+00 1.6990424148e+00 2.9428277866e+00 
116600 5.8909275617e+00 -7.0473484530e-05 1.6990424148e+00 -2.9428277866e+00 1.6990424148e+00 2.9428277866e+00 
116700 5.8909275607e+00 -7.0740472634e-05 1.6990424148e+00 -2.9428277866e+00 1.6990424148e+00 2.9428277866e+00 
116800 5.8909275596e+00 -7.0022270547e-05 1.6990444965e+00 -2.9428313923e+00 1.6990444965e+00 2.9428313923e+00 
116900 5.8909275587e+00 -7.0285834632e-05 1.6990444965e+00 -2.9428313923e+00 1.6990444965e+00 2.9428313923e+00 
117000 5.8909275578e+00 -7.0548732116e-05 1.6990444965e+00 -2.9428313923e+00 1.6990444965e+00 2.9428313923e+00 
117100 5.8909275569e+00 -7.0810956949e-05 1.6990444965e+00 -2.9428313923e+00 1.6990444965e+00 2.9428313923e+00 
117200 5.8909275558e+00 -7.0087030243e-05 1.6990465804e+00 -2.9428350016e+00 1.6990465804e+00 2.9428350016e+00 
117300 5.8909275549e+00 -7.0345847071e-05 1.6990465804e+00 -2.9428350016e+00 1.6990465804e+00 2.9428350016e+00 
117400 5.8909275540e+00 -7.0604006749e-05 1.6990465804e+00 -2.9428350016e+00 1.6990465804e+00 2.9428350016e+00 
117500 5.8909275532e+00 -7.0861503458e-05 1.6990465804e+00 -2.9428350016e+00 1.6990465804e+00 2.9428350016e+00 
117600 5.8909275521e+00 -7.0132165671e-05 1.6990486657e+00 -2.9428386135e+00 1.6990486657e+00 2.9428386135e+00 
117700 5.8909275513e+00 -7.0386272903e-05 1.6990486657e+00 -2.9428386135e+00 1.6990486657e+00 2.9428386135e+00 
117800 5.8909275504e+00 -7.0639733246e-05 1.6990486657e+00 -2.9428386135e+00 1.6990486657e+00 2.9428386135e+00 
117900 5.8909275496e+00 -7.0892541030e-05 1.6990486657e+00 -2.9428386135e+00 1.6990486657e+00 2.9428386135e+00 
118000 5.8909275486e+00 -7.0158103409e-05 1.6990507520e+00 -2.9428422270e+00 1.6990507520e+00 2.9428422270e+00 
118100 5.8909275478e+00 -7.0407542056e-05 1.6990507520e+00 -2.9428422270e+00 1.6990507520e+00 2.9428422270e+00 
118200 5.8909275469e+00 -7.0656344610e-05 1.6990507520e+00 -2.9428422270e+00 1.6990507520e+00 2.9428422270e+00 
118300 5.8909275461e+00 -7.0904505505e-05 1.6990507520e+00 -2.9428422270e+00 1.6990507520e+00 2.9428422270e+00 
118400 5.8909275451e+00 -7.0165275857e-05 1.6990528385e+00 -2.9428458411e+00 1.6990528385e+00 2.9428458411e+00 
118500 5.8909275443e+00 -7.0410089390e-05 1.6990528385e+00 -2.9428458411e+00 1.6990528385e+00 2.9428458411e+00 
118600 5.8909275436e+00 -7.0654278022e-05 1.6990528385e+00 -2.9428458411e+00 1.6990528385e+00 2.9428458411e+00 
118700 5.8909275428e+00 -7.0897836275e-05 1.6990528385e+00 -2.9428458411e+00 1.6990528385e+00 2.9428458411e+00 
118800 5.8909275418e+00 -7.0154118409e-05 1.6990549249e+00 -2.9428494549e+00 1.6990549249e+00 2.9428494549e+00 
118900 5.8909275411e+00 -7.0394352340e-05 1.6990549249e+00 -2.9428494549e+00 1.6990549249e+00 2.9428494549e+00 
119000 5.8909275403e+00 -7.0633972908e-05 1.6990549249e+00 -2.9428494549e+00 1.6990549249e+00 2.9428494549e+00 
119100 5.8909275395e+00 -7.0872974727e-05 1.6990549249e+00 -2.9428494549e+00 1.6990549249e+00 2.9428494549e+00 
119200 5.8909275386e+00 -7.0125068243e-05 1.6990570106e+00 -2.9428530673e+00 1.6990570106e+00 2.9428530673e+00 
119300 5.8909275379e+00 -7.0360770008e-05 1.6990570106e+00 -2.9428530673e+00 1.6990570106e+00 2.9428530673e+00 
119400 5.8909275372e+00 -7.0595870305e-05 1.6990570106e+00 -2.9428530673e+00 1.6990570106e+00 2.9428530673e+00 
119500 5.8909275364e+00 -7.0830363841e-05 1.6990570106e+00 -2.9428530673e+00 1.6990570106e+00 2.9428530673e+00 
119600 5.8909275355e+00 -7.0078564138e-05 1.6990590950e+00 -2.9428566776e+00 1.6990590950e+00 2.9428566776e+00 
119700 5.8909275348e+00 -7.0309783159e-05 1.6990590950e+00 -2.9428566776e+00 1.6990590950e+00 2.9428566776e+00 
119800 5.8909275341e+00 -7.0540412994e-05 1.6990590950e+00 -2.9428566776e+00 1.6990590950e+00 2.9428566776e+00 
119900 5.8909275334e+00 -7.0770448460e-05 1.6990590950e+00 -2.9428566776e+00 1.6990590950e+00 2.9428566776e+00 
120000 5.8909275326e+00 -7.0015046837e-05 1.6990611776e+00 -2.9428602848e+00 1.6990611776e+00 2.9428602848e+00 
120100 5.8909275319e+00 -7.0241834665e-05 1.6990611776e+00 -2.9428602848e+00 1.6990611776e+00 2.9428602848e+00 
120200 5.8909275312e+00 -7.0468046021e-05 1.6990611776e+00 -2.9428602848e+00 1.6990611776e+00 2.9428602848e+00 
120300 5.8909275305e+00 -7.0693675844e-05 1.6990611776e+00 -2.9428602848e+00 1.6990611776e+00 2.9428602848e+00 
120400 5.8909275299e+00 -7.0918719381e-05 1.6990611776e+00 -2.9428602848e+00 1.6990611776e+00 2.9428602848e+00 
120500 5.8909275290e+00 -7.0156282238e-05 1.6990632646e+00 -2.9428638996e+00 1.6990632646e+00 2.9428638996e+00 
120600 5.8909275284e+00 -7.0378091104e-05 1.6990632646e+00 -2.9428638996e+00 1.6990632646e+00 2.9428638996e+00 
120700 5.8909275277e+00 -7.0599332597e-05 1.6990632646e+00 -2.9428638996e+00 1.6990632646e+00 2.9428638996e+00 
120800 5.8909275271e+00 -7.0820001884e-05 1.6990632646e+00 -2.9428638996e+00 1.6990632646e+00 2.9428638996e+00 
120900 5.8909275263e+00 -7.0054587867e-05 1.6990653487e+00 -2.9428675094e+00 1.6990653487e+00 2.9428675094e+00 
121000 5.8909275256e+00 -7.0272053379e-05 1.6990653487e+00 -2.9428675094e+00 1.6990653487e+00 2.9428675094e+00 
121100 5.8909275250e+00 -7.0488965468e-05 1.6990653487e+00 -2.9428675094e+00 1.6990653487e+00 2.9428675094e+00 
121200 5.8909275244e+00 -7.0705319314e-05 1.6990653487e+00 -2.9428675094e+00 1.6990653487e+00 2.9428675094e+00 
121300 5.8909275238e+00 -7.0921110387e-05 1.6990653487e+00 -2.9428675094e+00 1.6990653487e+00 2.9428675094e+00 
121400 5.8909275230e+00 -7.0149431842e-05 1.6990674358e+00 -2.9428711243e+00 1.6990674358e+00 2.9428711243e+00 
121500 5.8909275224e+00 -7.0362035869e-05 1.6990674358e+00 -2.9428711243e+00 1.6990674358e+00 2.9428711243e+00 
121600 5.8909275218e+00 -7.0574096637e-05 1.6990674358e+00 -2.9428711243e+00 1.6990674358e+00 2.9428711243e+00 
121700 5.8909275212e+00 -7.0785609494e-05 1.6990674358e+00 -2.9428711243e+00 1.6990674358e+00 2.9428711243e+00 
121800 5.8909275205e+00 -7.0011562435e-05 1.6990695189e+00 -2.9428747323e+00 1.6990695189e+00 2.9428747323e+00 
121900 5.8909275199e+00 -7.0219921678e-05 1.6990695189e+00 -2.9428747323e+00 1.6990695189e+00 2.9428747323e+00 
122000 5.8909275193e+00 -7.0427752303e-05 1.6990695189e+00 -2.9428747323e+00 1.6990695189e+00 2.9428747323e+00 
122100 5.8909275187e+00 -7.0635049663e-05 1.6990695189e+00 -2.9428747323e+00 1.6990695189e+00 2.9428747323e+00 
122200 5.8909275182e+00 -7.0841809399e-05 1.6990695189e+00 -2.9428747323e+00 1.6990695189e+00 2.9428747323e+00 
122300 5.8909275174e+00 -7.0062248386e-05 1.6990716036e+00 -2.9428783431e+00 1.6990716036e+00 2.9428783431e+00 
122400 5.8909275169e+00 -7.0265874240e-05 1.6990716036e+00 -2.9428783431e+00 1.6990716036e+00 2.9428783431e+00 
122500 5.8909275163e+00 -7.0468982481e-05 1.6990716036e+00 -2.9428783431e+00 1.6990716036e+00 2.9428783431e+00 
122600 5.8909275158e+00 -7.0671568643e-05 1.6990716036e+00 -2.9428783431e+00 1.6990716036e+00 2.9428783431e+00 
122700 5.8909275153e+00 -7.0873628524e-05 1.6990716036e+00 -2.9428783431e+00 1.6990716036e+00 2.9428783431e+00 
122800 5.8909275146e+00 -7.0088946877e-05 1.6990736892e+00 -2.9428819556e+00 1.6990736892e+00 2.9428819556e+00 
122900 5.8909275140e+00 -7.0287895073e-05 1.6990736892e+00 -2.9428819556e+00 1.6990736892e+00 2.9428819556e+00 
123000 5.8909275135e+00 -7.0486337393e-05 1.6990736892e+00 -2.9428819556e+00 1.6990736892e+00 2.9428819556e+00 
123100 5.8909275130e+00 -7.0684269468e-05 1.6990736892e+00 -2.9428819556e+00 1.6990736892e+00 2.9428819556e+00 
123200 5.8909275125e+00 -7.0881687189e-05 1.6990736892e+00 -2.9428819556e+00 1.6990736892e+00 2.9428819556e+00 
123300 5.8909275118e+00 -7.0092273611e-05 1.6990757751e+00 -2.9428855685e+00 1.6990757751e+00 2.9428855685e+00 
123400 5.8909275113e+00 -7.0286603542e-05 1.6990757751e+00 -2.9428855685e+00 1.6990757751e+00 2.9428855685e+00 
123500 5.8909275108e+00 -7.0480439762e-05 1.6990757751e+00 -2.9428855685e+00 1.6990757751e+00 2.9428855685e+00 
123600 5.8909275103e+00 -7.0673777976e-05 1.6990757751e+00 -2.9428855685e+00 1.6990757751e+00 2.9428855685e+00 
123700 5.8909275098e+00 -7.0866614141e-05 1.6990757751e+00 -2.9428855685e+00 1.6990757751e+00 2.9428855685e+00 
123800 5.8909275091e+00 -7.0072851315e-05 1.6990778606e+00 -2.9428891805e+00 1.6990778606e+00 2.9428891805e+00 
123900 5.8909275087e+00 -7.0262624958e-05 1.6990778606e+00 -2.9428891805e+00 1.6990778606e+00 2.9428891805e+00 
124000 5.8909275082e+00 -7.0451917388e-05 1.6990778606e+00 -2.9428891805e+00 1.6990778606e+00 2.9428891805e+00 
124100 5.8909275077e+00 -7.0640724374e-05 1.6990778606e+00 -2.9428891805e+00 1.6990778606e+00 2.9428891805e+00 
124200 5.8909275072e+00 -7.0829041944e-05 1.6990778606e+00 -2.9428891805e+00 1.6990778606e+00 2.9428891805e+00 
124300 5.8909275066e+00 -7.0031306068e-05 1.6990799449e+00 -2.9428927907e+00 1.6990799449e+00 2.9428927907e+00 
124400 5.8909275062e+00 -7.0216587699e-05 1.6990799449e+00 -2.9428927907e+00 1.6990799449e+00 2.9428927907e+00 
124500 5.8909275057e+00 -7.0401400949e-05 1.6990799449e+00 -2.9428927907e+00 1.6990799449e+00 2.9428927907e+00 
124600 5.8909275052e+00 -7.0585741665e-05 1.6990799449e+00 -2.9428927907e+00 1.6990799449e+00 2.9428927907e+00 
124700 5.8909275048e+00 -7.0769605954e-05 1.6990799449e+00 -2.9428927907e+00 1.6990799449e+00 2.9428927907e+00 
124800 5.8909275042e+00 -6.9968266774e-05 1.6990820275e+00 -2.9428963979e+00 1.6990820275e+00 2.9428963979e+00 
124900 5.8909275037e+00 -7.0149123092e-05 1.6990820275e+00 -2.9428963979e+00 1.6990820275e+00 2.9428963979e+00 
125000 5.8909275033e+00 -7.0329524249e-05 1.6990820275e+00 -2.9428963979e+00 1.6990820275e+00 2.9428963979e+00 
125100 5.8909275029e+00 -7.0509466185e-05 1.6990820275e+00 -2.9428963979e+00 1.6990820275e+00 2.9428963979e+00 
125200 5.8909275025e+00 -7.0688945102e-05 1.6990820275e+00 -2.9428963979e+00 1.6990820275e+00 2.9428963979e+00 
125300 5.8909275020e+00 -7.0867957414e-05 1.6990820275e+00 -2.9428963979e+00 1.6990820275e+00 2.9428963979e+00 
125400 5.8909275014e+00 -7.0060418789e-05 1.6990841130e+00 -2.9429000100e+00 1.6990841130e+00 2.9429000100e+00 
125500 5.8909275010e+00 -7.0236440709e-05 1.6990841130e+00 -2.9429000100e+00 1.6990841130e+00 2.9429000100e+00 
125600 5.8909275006e+00 -7.0412018009e-05 1.6990841130e+00 -2.9429000100e+00 1.6990841130e+00 2.9429000100e+00 
125700 5.8909275002e+00 -7.0587146785e-05 1.6990841130e+00 -2.9429000100e+00 1.6990841130e+00 2.9429000100e+00 
125800 5.8909274998e+00 -7.0761823369e-05 1.6990841130e+00 -2.9429000100e+00 1.6990841130e+00 2.9429000100e+00 
125900 5.8909274992e+00 -6.9951449725e-05 1.6990861953e+00 -2.9429036168e+00 1.6990861953e+00 2.9429036168e+00 
126000 5.8909274988e+00 -7.0123167688e-05 1.6990861953e+00 -2.9429036168e+00 1.6990861953e+00 2.9429036168e+00 
126100 5.8909274985e+00 -7.0294455299e-05 1.6990861953e+00 -2.9429036168e+00 1.6990861953e+00 2.9429036168e+00 
126200 5.8909274981e+00 -7.0465308662e-05 1.6990861953e+00 -2.9429036168e+00 1.6990861953e+00 2.9429036168e+00 
126300 5.8909274977e+00 -7.0635724136e-05 1.6990861953e+00 -2.9429036168e+00 1.6990861953e+00 2.9429036168e+00 
126400 5.8909274973e+00 -7.0805698285e-05 1.6990861953e+00 -2.9429036168e+00 1.6990861953e+00 2.9429036168e+00 
126500 5.8909274968e+00 -6.9990033369e-05 1.6990882790e+00 -2.9429072257e+00 1.6990882790e+00 2.9429072257e+00 
126600 5.8909274964e+00 -7.0157069968e-05 1.6990882790e+00 -2.9429072257e+00 1.6990882790e+00 2.9429072257e+00 
126700 5.8909274960e+00 -7.0323687631e-05 1.6990882790e+00 -2.9429072257e+00 1.6990882790e+00 2.9429072257e+00 
126800 5.8909274956e+00 -7.0489882595e-05 1.6990882790e+00 -2.9429072257e+00 1.6990882790e+00 2.9429072257e+00 
126900 5.8909274953e+00 -7.0655651334e-05 1.6990882790e+00 -2.9429072257e+00 1.6990882790e+00 2.9429072257e+00 
127000 5.8909274949e+00 -7.0820990513e-05 1.6990882790e+00 -2.9429072257e+00 1.6990882790e+00 2.9429072257e+00 
127100 5.8909274944e+00 -7.0000500098e-05 1.6990903631e+00 -2.9429108355e+00 1.6990903631e+00 2.9429108355e+00 
127200 5.8909274940e+00 -7.0162925098e-05 1.6990903631e+00 -2.9429108355e+00 1.6990903631e+00 2.9429108355e+00 
127300 5.8909274937e+00 -7.0324943174e-05 1.6990903631e+00 -2.9429108355e+00 1.6990903631e+00 2.9429108355e+00 
127400 5.8909274933e+00 -7.0486550624e-05 1.6990903631e+00 -2.9429108355e+00 1.6990903631e+00 2.9429108355e+00 
127500 5.8909274930e+00 -7.0647743980e-05 1.6990903631e+00 -2.9429108355e+00 1.6990903631e+00 2.9429108355e+00 
127600 5.8909274927e+00 -7.0808519964e-05 1.6990903631e+00 -2.9429108355e+00 1.6990903631e+00 2.9429108355e+00 
127700 5.8909274921e+00 -6.9983662310e-05 1.6990924468e+00 -2.9429144446e+00 1.6990924468e+00 2.9429144446e+00 
127800 5.8909274918e+00 -7.0141549025e-05 1.6990924468e+00 -2.9429144446e+00 1.6990924468e+00 2.9429144446e+00 
127900 5.8909274915e+00 -7.0299041147e-05 1.6990924468e+00 -2.9429144446e+00 1.6990924468e+00 2.9429144446e+00 
128000 5.8909274912e+00 -7.0456135024e-05 1.6990924468e+00 -2.9429144446e+00 1.6990924468e+00 2.9429144446e+00 
128100 5.8909274908e+00 -7.0612827240e-05 1.6990924468e+00 -2.9429144446e+00 1.6990924468e+00 2.9429144446e+00 
128200 5.8909274905e+00 -7.0769114565e-05 1.6990924468e+00 -2.9429144446e+00 1.6990924468e+00 2.9429144446e+00 
128300 5.8909274900e+00 -6.9940339083e-05 1.6990945293e+00 -2.9429180517e+00 1.6990945293e+00 2.9429180517e+00 
128400 5.8909274897e+00 -7.0093763428e-05 1.6990945293e+00 -2.9429180517e+00 1.6990945293e+00 2.9429180517e+00 
128500 5.8909274894e+00 -7.0246805813e-05 1.6990945293e+00 -2.9429180517e+00 1.6990945293e+00 2.9429180517e+00 
128600 5.8909274891e+00 -7.0399462648e-05 1.6990945293e+00 -2.9429180517e+00 1.6990945293e+00 2.9429180517e+00 
128700 5.8909274888e+00 -7.0551730582e-05 1.6990945293e+00 -2.9429180517e+00 1.6990945293e+00 2.9429180517e+00 
128800 5.8909274885e+00 -7.0703606451e-05 1.6990945293e+00 -2.9429180517e+00 1.6990945293e+00 2.9429180517e+00 
128900 5.8909274882e+00 -7.0855087246e-05 1.6990945293e+00 -2.9429180517e+00 1.6990945293e+00 2.9429180517e+00 
129000 5.8909274877e+00 -7.0020329924e-05 1.6990966144e+00 -2.9429216632e+00 1.6990966144e+00 2.9429216632e+00 
129100 5.8909274874e+00 -7.0168965444e-05 1.6990966144e+00 -2.9429216632e+00 1.6990966144e+00 2.9429216632e+00 
129200 5.8909274871e+00 -7.0317229331e-05 1.6990966144e+00 -2.9429216632e+00 1.6990966144e+00 2.9429216632e+00 
129300 5.8909274868e+00 -7.0465118103e-05 1.6990966144e+00 -2.9429216632e+00 1.6990966144e+00 2.9429216632e+00 
129400 5.8909274865e+00 -7.0612628498e-05 1.6990966144e+00 -2.9429216632e+00 1.6990966144e+00 2.9429216632e+00 
129500 5.8909274862e+00 -7.0759757430e-05 1.6990966144e+00 -2.9429216632e+00 1.6990966144e+00 2.9429216632e+00 
129600 5.8909274858e+00 -6.9921997814e-05 1.6990986967e+00 -2.9429252698e+00 1.6990986967e+00 2.9429252698e+00 
129700 5.8909274855e+00 -7.0066311336e-05 1.6990986967e+00 -2.9429252698e+00 1.6990986967e+00 2.9429252698e+00 
129800 5.8909274852e+00 -7.0210266707e-05 1.6990986967e+00 -2.9429252698e+00 1.6990986967e+00 2.9429252698e+00 
129900 5.8909274850e+00 -7.0353860458e-05 1.6990986967e+00 -2.9429252698e+00 1.6990986967e+00 2.9429252698e+00 
130000 5.8909274847e+00 -7.0497089358e-05 1.6990986967e+00 -2.9429252698e+00 1.6990986967e+00 2.9429252698e+00 
130100 5.8909274844e+00 -7.0639950364e-05 1.6990986967e+00 -2.9429252698e+00 1.6990986967e+00 2.9429252698e+00 
130200 5.8909274842e+00 -7.0782440590e-05 1.6990986967e+00 -2.9429252698e+00 1.6990986967e+00 2.9429252698e+00 
130300 5.8909274837e+00 -6.9939747968e-05 1.6991007796e+00 -2.9429288775e+00 1.6991007796e+00 2.9429288775e+00 
130400 5.8909274835e+00 -7.0079444034e-05 1.6991007796e+00 -2.9429288775e+00 1.6991007796e+00 2.9429288775e+00 
130500 5.8909274832e+00 -7.0218793122e-05 1.6991007796e+00 -2.9429288775e+00 1.6991007796e+00 2.9429288775e+00 
130600 5.8909274829e+00 -7.0357791892e-05 1.6991007796e+00 -2.9429288775e+00 1.6991007796e+00 2.9429288775e+00 
130700 5.8909274827e+00 -7.0496437228e-05 1.6991007796e+00 -2.9429288775e+00 1.6991007796e+00 2.9429288775e+00 
130800 5.8909274824e+00 -7.0634726201e-05 1.6991007796e+00 -2.9429288775e+00 1.6991007796e+00 2.9429288775e+00 
130900 5.8909274822e+00 -7.0772656019e-05 1.6991007796e+00 -2.9429288775e+00 1.6991007796e+00 2.9429288775e+00 
131000 5.8909274818e+00 -6.9925561065e-05 1.6991028623e+00 -2.9429324848e+00 1.6991028623e+00 2.9429324848e+00 
131100 5.8909274815e+00 -7.0060720562e-05 1.6991028623e+00 -2.9429324848e+00 1.6991028623e+00 2.9429324848e+00 
131200 5.8909274813e+00 -7.0195544972e-05 1.6991028623e+00 -2.9429324848e+00 1.6991028623e+00 2.9429324848e+00 
131300 5.8909274810e+00 -7.0330031035e-05 1.6991028623e+00 -2.9429324848e+00 1.6991028623e+00 2.9429324848e+00 
131400 5.8909274808e+00 -7.0464175717e-05 1.6991028623e+00 -2.9429324848e+00 1.6991028623e+00 2.9429324848e+00 
131500 5.8909274806e+00 -7.0597976165e-05 1.6991028623e+00 -2.9429324848e+00 1.6991028623e+00 2.9429324848e+00 
131600 5.8909274803e+00 -7.0731429667e-05 1.6991028623e+00 -2.9429324848e+00 1.6991028623e+00 2.9429324848e+00 
131700 5.8909274799e+00 -6.9880454264e-05 1.6991049437e+00 -2.9429360899e+00 1.6991049437e+00 2.9429360899e+00 
131800 5.8909274797e+00 -7.0011163308e-05 1.6991049437e+00 -2.9429360899e+00 1.6991049437e+00 2.9429360899e+00 
131900 5.8909274795e+00 -7.0141549692e-05 1.6991049437e+00 -2.9429360899e+00 1.6991049437e+00 2.9429360899e+00 
132000 5.8909274792e+00 -7.0271610237e-05 1.6991049437e+00 -2.9429360899e+00 1.6991049437e+00 2.9429360899e+00 
132100 5.8909274790e+00 -7.0401341995e-05 1.6991049437e+00 -2.9429360899e+00 1.6991049437e+00 2.9429360899e+00 
132200 5.8909274788e+00 -7.0530742194e-05 1.6991049437e+00 -2.9429360899e+00 1.6991049437e+00 2.9429360899e+00 
132300 5.8909274786e+00 -7.0659808215e-05 1.6991049437e+00 -2.9429360899e+00 1.6991049437e+00 2.9429360899e+00 
132400 5.8909274784e+00 -7.0788537544e-05 1.6991049437e+00 -2.9429360899e+00 1.6991049437e+00 2.9429360899e+00 
132500 5.8909274780e+00 -6.9932064537e-05 1.6991070268e+00 -2.9429396980e+00 1.6991070268e+00 2.9429396980e+00 
132600 5.8909274778e+00 -7.0058068795e-05 1.6991070268e+00 -2.9429396980e+00 1.6991070268e+00 2.9429396980e+00 
132700 5.8909274775e+00 -7.0183761125e-05 1.6991070268e+00 -2.9429396980e+00 1.6991070268e+00 2.9429396980e+00 
132800 5.8909274773e+00 -7.0309138461e-05 1.6991070268e+00 -2.9429396980e+00 1.6991070268e+00 2.9429396980e+00 
132900 5.8909274771e+00 -7.0434197947e-05 1.6991070268e+00 -2.9429396980e+00 1.6991070268e+00 2.9429396980e+00 
133000 5.8909274769e+00 -7.0558936899e-05 1.6991070268e+00 -2.9429396980e+00 1.6991070268e+00 2.9429396980e+00 
133100 5.8909274767e+00 -7.0683352768e-05 1.6991070268e+00 -2.9429396980e+00 1.6991070268e+00 2.9429396980e+00 
133200 5.8909274765e+00 -7.0807443108e-05 1.6991070268e+00 -2.9429396980e+00 1.6991070268e+00 2.9429396980e+00 
133300 5.8909274761e+00 -6.9946089727e-05 1.6991091105e+00 -2.9429433070e+00 1.6991091105e+00 2.9429433070e+00 
133400 5.8909274759e+00 -7.0067476970e-05 1.6991091105e+00 -2.9429433070e+00 1.6991091105e+00 2.9429433070e+00 
133500 5.8909274757e+00 -7.0188563619e-05 1.6991091105e+00 -2.9429433070e+00 1.6991091105e+00 2.9429433070e+00 
133600 5.8909274756e+00 -7.0309346657e-05 1.6991091105e+00 -2.9429433070e+00 1.6991091105e+00 2.9429433070e+00 
133700 5.8909274754e+00 -7.0429823276e-05 1.6991091105e+00 -2.9429433070e+00 1.6991091105e+00 2.9429433070e+00 
133800 5.8909274752e+00 -7.0549990839e-05 1.6991091105e+00 -2.9429433070e+00 1.6991091105e+00 2.9429433070e+00 
133900 5.8909274750e+00 -7.0669846845e-05 1.6991091105e+00 -2.9429433070e+00 1.6991091105e+00 2.9429433070e+00 
134000 5.8909274748e+00 -7.0789388899e-05 1.6991091105e+00 -2.9429433070e+00 1.6991091105e+00 2.9429433070e+00 
134100 5.8909274744e+00 -6.9923760218e-05 1.6991111936e+00 -2.9429469151e+00 1.6991111936e+00 2.9429469151e+00 
134200 5.8909274743e+00 -7.0040623036e-05 1.6991111936e+00 -2.9429469151e+00 1.6991111936e+00 2.9429469151e+00 
134300 5.8909274741e+00 -7.0157196999e-05 1.6991111936e+00 -2.9429469151e+00 1.6991111936e+00 2.9429469151e+00 
134400 5.8909274739e+00 -7.0273479153e-05 1.6991111936e+00 -2.9429469151e+00 1.6991111936e+00 2.9429469151e+00 
134500 5.8909274737e+00 -7.0389466755e-05 1.6991111936e+00 -2.9429469151e+00 1.6991111936e+00 2.9429469151e+00 
134600 5.8909274735e+00 -7.0505157241e-05 1.6991111936e+00 -2.9429469151e+00 1.6991111936e+00 2.9429469151e+00 
134700 5.8909274734e+00 -7.0620548186e-05 1.6991111936e+00 -2.9429469151e+00 1.6991111936e+00 2.9429469151e+00 
134800 5.8909274732e+00 -7.0735637275e-05 1.6991111936e+00 -2.9429469151e+00 1.6991111936e+00 2.9429469151e+00 
134900 5.8909274728e+00 -6.9866325551e-05 1.6991132752e+00 -2.9429505205e+00 1.6991132752e+00 2.9429505205e+00 
135000 5.8909274727e+00 -6.9978761432e-05 1.6991132752e+00 -2.9429505205e+00 1.6991132752e+00 2.9429505205e+00 
135100 5.8909274725e+00 -7.0090920800e-05 1.6991132752e+00 -2.9429505205e+00 1.6991132752e+00 2.9429505205e+00 
135200 5.8909274723e+00 -7.0202800800e-05 1.6991132752e+00 -2.9429505205e+00 1.6991132752e+00 2.9429505205e+00 
135300 5.8909274722e+00 -7.0314398795e-05 1.6991132752e+00 -2.9429505205e+00 1.6991132752e+00 2.9429505205e+00 
135400 5.8909274720e+00 -7.0425712326e-05 1.6991132752e+00 -2.9429505205e+00 1.6991132752e+00 2.9429505205e+00 
135500 5.8909274718e+00 -7.0536739081e-05 1.6991132752e+00 -2.9429505205e+00 1.6991132752e+00 2.9429505205e+00 
135600 5.8909274717e+00 -7.0647476862e-05 1.6991132752e+00 -2.9429505205e+00 1.6991132752e+00 2.9429505205e+00 
135700 5.8909274715e+00 -7.0757923557e-05 1.6991132752e+00 -2.9429505205e+00 1.6991132752e+00 2.9429505205e+00 
135800 5.8909274712e+00 -6.9883680774e-05 1.6991153574e+00 -2.9429541269e+00 1.6991153574e+00 2.9429541269e+00 
135900 5.8909274710e+00 -6.9991495712e-05 1.6991153574e+00 -2.9429541269e+00 1.6991153574e+00 2.9429541269e+00 
136000 5.8909274709e+00 -7.0099045412e-05 1.6991153574e+00 -2.9429541269e+00 1.6991153574e+00 2.9429541269e+00 
136100 5.8909274707e+00 -7.0206327154e-05 1.6991153574e+00 -2.9429541269e+00 1.6991153574e+00 2.9429541269e+00 
136200 5.8909274706e+00 -7.0313338424e-05 1.6991153574e+00 -2.9429541269e+00 1.6991153574e+00 2.9429541269e+00 
136300 5.8909274704e+00 -7.0420076877e-05 1.6991153574e+00 -2.9429541269e+00 1.6991153574e+00 2.9429541269e+00 
136400 5.8909274703e+00 -7.0526540305e-05 1.6991153574e+00 -2.9429541269e+00 1.6991153574e+00 2.9429541269e+00 
136500 5.8909274701e+00 -7.0632726612e-05 1.6991153574e+00 -2.9429541269e+00 1.6991153574e+00 2.9429541269e+00 
136600 5.8909274700e+00 -7.0738633777e-05 1.6991153574e+00 -2.9429541269e+00 1.6991153574e+00 2.9429541269e+00 
136700 5.8909274697e+00 -6.9860142017e-05 1.6991174390e+00 -2.9429577324e+00 1.6991174390e+00 2.9429577324e+00 
136800 5.8909274695e+00 -6.9963442160e-05 1.6991174390e+00 -2.9429577324e+00 1.6991174390e+00 2.9429577324e+00 
136900 5.8909274694e+00 -7.0066489262e-05 1.6991174390e+00 -2.9429577324e+00 1.6991174390e+00 2.9429577324e+00 
137000 5.8909274692e+00 -7.0169280685e-05 1.6991174390e+00 -2.9429577324e+00 1.6991174390e+00 2.9429577324e+00 
137100 5.8909274691e+00 -7.0271813997e-05 1.6991174390e+00 -2.9429577324e+00 1.6991174390e+00 2.9429577324e+00 
137200 5.8909274690e+00 -7.0374086937e-05 1.6991174390e+00 -2.9429577324e+00 1.6991174390e+00 2.9429577324e+00 
137300 5.8909274688e+00 -7.0476097377e-05 1.6991174390e+00 -2.9429577324e+00 1.6991174390e+00 2.9429577324e+00 
137400 5.8909274687e+00 -7.0577843303e-05 1.6991174390e+00 -2.9429577324e+00 1.6991174390e+00 2.9429577324e+00 
137500 5.8909274685e+00 -7.0679322782e-05 1.6991174390e+00 -2.9429577324e+00 1.6991174390e+00 2.9429577324e+00 
137600 5.8909274684e+00 -7.0780533939e-05 1.6991174390e+00 -2.9429577324e+00 1.6991174390e+00 2.9429577324e+00 
137700 5.8909274681e+00 -6.9896784781e-05 1.6991195219e+00 -2.9429613400e+00 1.6991195219e+00 2.9429613400e+00 
137800 5.8909274680e+00 -6.9995409737e-05 1.6991195219e+00 -2.9429613400e+00 1.6991195219e+00 2.9429613400e+00 
137900 5.8909274678e+00 -7.0093792825e-05 1.6991195219e+00 -2.9429613400e+00 1.6991195219e+00 2.9429613400e+00 
138000 5.8909274677e+00 -7.0191931491e-05 1.6991195219e+00 -2.9429613400e+00 1.6991195219e+00 2.9429613400e+00 
138100 5.8909274676e+00 -7.0289823381e-05 1.6991195219e+00 -2.9429613400e+00 1.6991195219e+00 2.9429613400e+00 
138200 5.8909274675e+00 -7.0387466300e-05 1.6991195219e+00 -2.9429613400e+00 1.6991195219e+00 2.9429613400e+00 
138300 5.8909274673e+00 -7.0484858186e-05 1.6991195219e+00 -2.9429613400e+00 1.6991195219e+00 2.9429613400e+00 
138400 5.8909274672e+00 -7.0581997079e-05 1.6991195219e+00 -2.9429613400e+00 1.6991195219e+00 2.9429613400e+00 
138500 5.8909274671e+00 -7.0678881106e-05 1.6991195219e+00 -2.9429613400e+00 1.6991195219e+00 2.9429613400e+00 
138600 5.8909274670e+00 -7.0775508446e-05 1.6991195219e+00 -2.9429613400e+00 1.6991195219e+00 2.9429613400e+00 
138700 5.8909274667e+00 -6.9887267336e-05 1.6991216046e+00 -2.9429649474e+00 1.6991216046e+00 2.9429649474e+00 
138800 5.8909274666e+00 -6.9981332073e-05 1.6991216046e+00 -2.9429649474e+00 1.6991216046e+00 2.9429649474e+00 
138900 5.8909274664e+00 -7.0075166735e-05 1.6991216046e+00 -2.9429649474e+00 1.6991216046e+00 2.9429649474e+00 
139000 5.8909274663e+00 -7.0168768828e-05 1.6991216046e+00 -2.9429649474e+00 1.6991216046e+00 2.9429649474e+00 
139100 5.8909274662e+00 -7.0262136053e-05 1.6991216046e+00 -2.9429649474e+00 1.6991216046e+00 2.9429649474e+00 
139200 5.8909274661e+00 -7.0355266277e-05 1.6991216046e+00 -2.9429649474e+00 1.6991216046e+00 2.9429649474e+00 
139300 5.8909274660e+00 -7.0448157503e-05 1.6991216046e+00 -2.9429649474e+00 1.6991216046e+00 2.9429649474e+00 
139400 5.8909274659e+00 -7.0540807841e-05 1.6991216046e+00 -2.9429649474e+00 1.6991216046e+00 2.9429649474e+00 
139500 5.8909274657e+00 -7.0633215486e-05 1.6991216046e+00 -2.9429649474e+00 1.6991216046e+00 2.9429649474e+00 
139600 5.8909274656e+00 -7.0725378695e-05 1.6991216046e+00 -2.9429649474e+00 1.6991216046e+00 2.9429649474e+00 
139700 5.8909274654e+00 -6.9833393126e-05 1.6991236858e+00 -2.9429685522e+00 1.6991236858e+00 2.9429685522e+00 
139800 5.8909274652e+00 -6.9923019945e-05 1.6991236858e+00 -2.9429685522e+00 1.6991236858e+00 2.9429685522e+00 
139900 5.8909274651e+00 -7.0012429171e-05 1.6991236858e+00 -2.9429685522e+00 1.6991236858e+00 2.9429685522e+00 
140000 5.8909274650e+00 -7.0101618399e-05 1.6991236858e+00 -2.9429685522e+00 1.6991236858e+00 2.9429685522e+00 
140100 5.8909274649e+00 -7.0190585429e-05 1.6991236858e+00 -2.9429685522e+00 1.6991236858e+00 2.9429685522e+00 
140200 5.8909274648e+00 -7.0279328229e-05 1.6991236858e+00 -2.9429685522e+00 1.6991236858e+00 2.9429685522e+00 
140300 5.8909274647e+00 -7.0367844905e-05 1.6991236858e+00 -2.9429685522e+00 1.6991236858e+00 2.9429685522e+00 
140400 5.8909274646e+00 -7.0456133675e-05 1.6991236858e+00 -2.9429685522e+00 1.6991236858e+00 2.9429685522e+00 
140500 5.8909274645e+00 -7.0544192847e-05 1.6991236858e+00 -2.9429685522e+00 1.6991236858e+00 2.9429685522e+00 
140600 5.8909274644e+00 -7.0632020791e-05 1.6991236858e+00 -2.9429685522e+00 1.6991236858e+00 2.9429685522e+00 
140700 5.8909274643e+00 -7.0719615927e-05 1.6991236858e+00 -2.9429685522e+00 1.6991236858e+00 2.9429685522e+00 
140800 5.8909274640e+00 -6.9823164477e-05 1.6991257669e+00 -2.9429721567e+00 1.6991257669e+00 2.9429721567e+00 
140900 5.8909274639e+00 -6.9908247101e-05 1.6991257669e+00 -2.9429721567e+00 1.6991257669e+00 2.9429721567e+00 
141000 5.8909274638e+00 -6.9993124168e-05 1.6991257669e+00 -2.9429721567e+00 1.6991257669e+00 2.9429721567e+00 
141100 5.8909274637e+00 -7.0077793390e-05 1.6991257669e+00 -2.9429721567e+00 1.6991257669e+00 2.9429721567e+00 
141200 5.8909274636e+00 -7.0162252675e-05 1.6991257669e+00 -2.9429721567e+00 1.6991257669e+00 2.9429721567e+00 
141300 5.8909274636e+00 -7.0246500096e-05 1.6991257669e+00 -2.9429721567e+00 1.6991257669e+00 2.9429721567e+00 
141400 5.8909274635e+00 -7.0330533855e-05 1.6991257669e+00 -2.9429721567e+00 1.6991257669e+00 2.9429721567e+00 
141500 5.8909274634e+00 -7.0414352268e-05 1.6991257669e+00 -2.9429721567e+00 1.6991257669e+00 2.9429721567e+00 
141600 5.8909274633e+00 -7.0497953730e-05 1.6991257669e+00 -2.9429721567e+00 1.6991257669e+00 2.9429721567e+00 
141700 5.8909274632e+00 -7.0581336704e-05 1.6991257669e+00 -2.9429721567e+00 1.6991257669e+00 2.9429721567e+00 
141800 5.8909274631e+00 -7.0664499695e-05 1.6991257669e+00 -2.9429721567e+00 1.6991257669e+00 2.9429721567e+00 
141900 5.8909274630e+00 -7.0747441238e-05 1.6991257669e+00 -2.9429721567e+00 1.6991257669e+00 2.9429721567e+00 
142000 5.8909274627e+00 -6.9845971048e-05 1.6991278488e+00 -2.9429757626e+00 1.6991278488e+00 2.9429757626e+00 
142100 5.8909274627e+00 -6.9926422313e-05 1.6991278488e+00 -2.9429757626e+00 1.6991278488e+00 2.9429757626e+00 
142200 5.8909274626e+00 -7.0006679659e-05 1.6991278488e+00 -2.9429757626e+00 1.6991278488e+00 2.9429757626e+00 
142300 5.8909274625e+00 -7.0086740866e-05 1.6991278488e+00 -2.9429757626e+00 1.6991278488e+00 2.9429757626e+00 
142400 5.8909274624e+00 -7.0166603904e-05 1.6991278488e+00 -2.9429757626e+00 1.6991278488e+00 2.9429757626e+00 
142500 5.8909274623e+00 -7.0246266897e-05 1.6991278488e+00 -2.9429757626e+00 1.6991278488e+00 2.9429757626e+00 
142600 5.8909274622e+00 -7.0325728103e-05 1.6991278488e+00 -2.9429757626e+00 1.6991278488e+00 2.9429757626e+00 
142700 5.8909274621e+00 -7.0404985881e-05 1.6991278488e+00 -2.9429757626e+00 1.6991278488e+00 2.9429757626e+00 
142800 5.8909274621e+00 -7.0484038676e-05 1.6991278488e+00 -2.9429757626e+00 1.6991278488e+00 2.9429757626e+00 
142900 5.8909274620e+00 -7.0562884994e-05 1.6991278488e+00 -2.9429757626e+00 1.6991278488e+00 2.9429757626e+00 
143000 5.8909274619e+00 -7.0641523387e-05 1.6991278488e+00 -2.9429757626e+00 1.6991278488e+00 2.9429757626e+00 
143100 5.8909274618e+00 -7.0719952437e-05 1.6991278488e+00 -2.9429757626e+00 1.6991278488e+00 2.9429757626e+00 
143200 5.8909274616e+00 -6.9814374412e-05 1.6991299298e+00 -2.9429793671e+00 1.6991299298e+00 2.9429793671e+00 
143300 5.8909274615e+00 -6.9890338356e-05 1.6991299298e+00 -2.9429793671e+00 1.6991299298e+00 2.9429793671e+00 
143400 5.8909274614e+00 -6.9966120626e-05 1.6991299298e+00 -2.9429793671e+00 1.6991299298e+00 2.9429793671e+00 
143500 5.8909274613e+00 -7.0041719058e-05 1.6991299298e+00 -2.9429793671e+00 1.6991299298e+00 2.9429793671e+00 
143600 5.8909274613e+00 -7.0117131680e-05 1.6991299298e+00 -2.9429793671e+00 1.6991299298e+00 2.9429793671e+00 
143700 5.8909274612e+00 -7.0192356682e-05 1.6991299298e+00 -2.9429793671e+00 1.6991299298e+00 2.9429793671e+00 
143800 5.8909274611e+00 -7.0267392386e-05 1.6991299298e+00 -2.9429793671e+00 1.6991299298e+00 2.9429793671e+00 
143900 5.8909274610e+00 -7.0342237224e-05 1.6991299298e+00 -2.9429793671e+00 1.6991299298e+00 2.9429793671e+00 
144000 5.8909274610e+00 -7.0416889714e-05 1.6991299298e+00 -2.9429793671e+00 1.6991299298e+00 2.9429793671e+00 
144100 5.8909274609e+00 -7.0491348443e-05 1.6991299298e+00 -2.9429793671e+00 1.6991299298e+00 2.9429793671e+00 
144200 5.8909274608e+00 -7.0565612044e-05 1.6991299298e+00 -2.9429793671e+00 1.6991299298e+00 2.9429793671e+00 
144300 5.8909274607e+00 -7.0639679185e-05 1.6991299298e+00 -2.9429793671e+00 1.6991299298e+00 2.9429793671e+00 
144400 5.8909274607e+00 -7.0713548556e-05 1.6991299298e+00 -2.9429793671e+00 1.6991299298e+00 2.9429793671e+00 
144500 5.8909274604e+00 -6.9803521854e-05 1.6991320107e+00 -2.9429829713e+00 1.6991320107e+00 2.9429829713e+00 
144600 5.8909274604e+00 -6.9874949763e-05 1.6991320107e+00 -2.9429829713e+00 1.6991320107e+00 2.9429829713e+00 
144700 5.8909274603e+00 -6.9946207846e-05 1.6991320107e+00 -2.9429829713e+00 1.6991320107e+00 2.9429829713e+00 
144800 5.8909274602e+00 -7.0017294023e-05 1.6991320107e+00 -2.9429829713e+00 1.6991320107e+00 2.9429829713e+00 
144900 5.8909274602e+00 -7.0088206399e-05 1.6991320107e+00 -2.9429829713e+00 1.6991320107e+00 2.9429829713e+00 
145000 5.8909274601e+00 -7.0158943243e-05 1.6991320107e+00 -2.9429829713e+00 1.6991320107e+00 2.9429829713e+00 
145100 5.8909274600e+00 -7.0229502952e-05 1.6991320107e+00 -2.9429829713e+00 1.6991320107e+00 2.9429829713e+00 
145200 5.8909274600e+00 -7.0299884035e-05 1.6991320107e+00 -2.9429829713e+00 1.6991320107e+00 2.9429829713e+00 
145300 5.8909274599e+00 -7.0370085085e-05 1.6991320107e+00 -2.9429829713e+00 1.6991320107e+00 2.9429829713e+00 
145400 5.8909274598e+00 -7.0440104764e-05 1.6991320107e+00 -2.9429829713e+00 1.6991320107e+00 2.9429829713e+00 
145500 5.8909274598e+00 -7.0509941785e-05 1.6991320107e+00 -2.9429829713e+00 1.6991320107e+00 2.9429829713e+00 
145600 5.8909274597e+00 -7.0579594894e-05 1.6991320107e+00 -2.9429829713e+00 1.6991320107e+00 2.9429829713e+00 
145700 5.8909274596e+00 -7.0649062861e-05 1.6991320107e+00 -2.9429829713e+00 1.6991320107e+00 2.9429829713e+00 
145800 5.8909274596e+00 -7.0718344465e-05 1.6991320107e+00 -2.9429829713e+00 1.6991320107e+00 2.9429829713e+00 
145900 5.8909274593e+00 -6.9803685091e-05 1.6991340917e+00 -2.9429865758e+00 1.6991340917e+00 2.9429865758e+00 
146000 5.8909274593e+00 -6.9870548177e-05 1.6991340917e+00 -2.9429865758e+00 1.6991340917e+00 2.9429865758e+00 
146100 5.8909274592e+00 -6.9937253078e-05 1.6991340917e+00 -2.9429865758e+00 1.6991340917e+00 2.9429865758e+00 
146200 5.8909274592e+00 -7.0003797778e-05 1.6991340917e+00 -2.9429865758e+00 1.6991340917e+00 2.9429865758e+00 
146300 5.8909274591e+00 -7.0070180450e-05 1.6991340917e+00 -2.9429865758e+00 1.6991340917e+00 2.9429865758e+00 
146400 5.8909274590e+00 -7.0136399424e-05 1.6991340917e+00 -2.9429865758e+00 1.6991340917e+00 2.9429865758e+00 
146500 5.8909274590e+00 -7.0202453159e-05 1.6991340917e+00 -2.9429865758e+00 1.6991340917e+00 2.9429865758e+00 
146600 5.8909274589e+00 -7.0268340225e-05 1.6991340917e+00 -2.9429865758e+00 1.6991340917e+00 2.9429865758e+00 
146700 5.8909274589e+00 -7.0334059280e-05 1.6991340917e+00 -2.9429865758e+00 1.6991340917e+00 2.9429865758e+00 
146800 5.8909274588e+00 -7.0399609050e-05 1.6991340917e+00 -2.9429865758e+00 1.6991340917e+00 2.9429865758e+00 
146900 5.8909274588e+00 -7.0464988312e-05 1.6991340917e+00 -2.9429865758e+00 1.6991340917e+00 2.9429865758e+00 
147000 5.8909274587e+00 -7.0530195883e-05 1.6991340917e+00 -2.9429865758e+00 1.6991340917e+00 2.9429865758e+00 
147100 5.8909274586e+00 -7.0595230603e-05 1.6991340917e+00 -2.9429865758e+00 1.6991340917e+00 2.9429865758e+00 
147200 5.8909274586e+00 -7.0660091325e-05 1.6991340917e+00 -2.9429865758e+00 1.6991340917e+00 2.9429865758e+00 
147300 5.8909274585e+00 -7.0724776905e-05 1.6991340917e+00 -2.9429865758e+00 1.6991340917e+00 2.9429865758e+00 
147400 5.8909274583e+00 -6.9805453653e-05 1.6991361729e+00 -2.9429901805e+00 1.6991361729e+00 2.9429901805e+00 
147500 5.8909274583e+00 -6.9867743206e-05 1.6991361729e+00 -2.9429901805e+00 1.6991361729e+00 2.9429901805e+00 
147600 5.8909274582e+00 -6.9929886001e-05 1.6991361729e+00 -2.9429901805e+00 1.6991361729e+00 2.9429901805e+00 
147700 5.8909274582e+00 -6.9991880087e-05 1.6991361729e+00 -2.9429901805e+00 1.6991361729e+00 2.9429901805e+00 
147800 5.8909274581e+00 -7.0053723695e-05 1.6991361729e+00 -2.9429901805e+00 1.6991361729e+00 2.9429901805e+00 
147900 5.8909274581e+00 -7.0115415217e-05 1.6991361729e+00 -2.9429901805e+00 1.6991361729e+00 2.9429901805e+00 
148000 5.8909274580e+00 -7.0176953179e-05 1.6991361729e+00 -2.9429901805e+00 1.6991361729e+00 2.9429901805e+00 
148100 5.8909274580e+00 -7.0238336212e-05 1.6991361729e+00 -2.9429901805e+00 1.6991361729e+00 2.9429901805e+00 
148200 5.8909274579e+00 -7.0299563042e-05 1.6991361729e+00 -2.9429901805e+00 1.6991361729e+00 2.9429901805e+00 
148300 5.8909274579e+00 -7.0360632460e-05 1.6991361729e+00 -2.9429901805e+00 1.6991361729e+00 2.9429901805e+00 
148400 5.8909274578e+00 -7.0421543319e-05 1.6991361729e+00 -2.9429901805e+00 1.6991361729e+00 2.9429901805e+00 
148500 5.8909274578e+00 -7.0482294510e-05 1.6991361729e+00 -2.9429901805e+00 1.6991361729e+00 2.9429901805e+00 
148600 5.8909274577e+00 -7.0542884951e-05 1.6991361729e+00 -2.9429901805e+00 1.6991361729e+00 2.9429901805e+00 
148700 5.8909274577e+00 -7.0603313577e-05 1.6991361729e+00 -2.9429901805e+00 1.6991361729e+00 2.9429901805e+00 
148800 5.8909274576e+00 -7.0663579332e-05 1.6991361729e+00 -2.9429901805e+00 1.6991361729e+00 2.9429901805e+00 
148900 5.8909274576e+00 -7.0723681154e-05 1.6991361729e+00 -2.9429901805e+00 1.6991361729e+00 2.9429901805e+00 
149000 5.8909274573e+00 -6.9799810963e-05 1.6991382541e+00 -2.9429937852e+00 1.6991382541e+00 2.9429937852e+00 
149100 5.8909274573e+00 -6.9857539475e-05 1.6991382541e+00 -2.9429937852e+00 1.6991382541e+00 2.9429937852e+00 
149200 5.8909274573e+00 -6.9867916294e-05 1.6991382541e+00 -2.9429937852e+00 1.6991382541e+00 2.9429937852e+00 
149200 5.8909274573e+00 -6.9867916294e-05 1.6991382541e+00 -2.9429937852e+00 1.6991382541e+00 2.9429937852e+00 
