# step Hamiltonian StressXX CellTensor1 CellTensor2 CellTensor3 CellTensor4 
0 6.0881050873e+00 2.1311343622e-01 2.8378601290e+00 -4.9153179282e+00 2.8378601290e+00 4.9153179282e+00 
100 6.1174443025e+00 2.4882434343e-01 2.8378601290e+00 -4.9153179282e+00 2.8378601290e+00 4.9153179282e+00 
200 6.1464247370e+00 2.8187536072e-01 2.8334772460e+00 -4.9077265521e+00 2.8334772460e+00 4.9077265521e+00 
300 6.1756696692e+00 3.1277584349e-01 2.8285046854e+00 -4.8991138245e+00 2.8285046854e+00 4.8991138245e+00 
400 6.2051775020e+00 3.4184742626e-01 2.8229774938e+00 -4.8895404479e+00 2.8229774938e+00 4.8895404479e+00 
500 6.2348792348e+00 3.6934657350e-01 2.8169249311e+00 -4.8790571019e+00 2.8169249311e+00 4.8790571019e+00 
600 6.2646304309e+00 3.9543656815e-01 2.8103716331e+00 -4.8677064566e+00 2.8103716331e+00 4.8677064566e+00 
700 6.2941926088e+00 4.2013711772e-01 2.8033392683e+00 -4.8555260435e+00 2.8033392683e+00 4.8555260435e+00 
800 6.3231987732e+00 4.4323844457e-01 2.7958491039e+00 -4.8425526982e+00 2.7958491039e+00 4.8425526982e+00 
900 6.3510998982e+00 4.6417022683e-01 2.7879261368e+00 -4.8288297167e+00 2.7879261368e+00 4.8288297167e+00 
1000 6.3771016969e+00 4.8184672903e-01 2.7796056414e+00 -4.8144181959e+00 2.7796056414e+00 4.8144181959e+00 
1100 6.4001369045e+00 4.9460559583e-01 2.7709426224e+00 -4.7994134069e+00 2.7709426224e+00 4.7994134069e+00 
1200 6.4189787407e+00 5.0052159025e-01 2.7620225672e+00 -4.7839634180e+00 2.7620225672e+00 4.7839634180e+00 
1300 6.4326124653e+00 4.9837862302e-01 2.7529667572e+00 -4.7682782950e+00 2.7529667572e+00 4.7682782950e+00 
1400 6.4407719668e+00 4.8891910273e-01 2.7439200694e+00 -4.7526089721e+00 2.7439200694e+00 4.7526089721e+00 
1500 6.4441841137e+00 4.7501268566e-01 2.7350157709e+00 -4.7371862748e+00 2.7350157709e+00 4.7371862748e+00 
1600 6.4441806334e+00 4.6010643591e-01 2.7263364697e+00 -4.7221532840e+00 2.7263364697e+00 4.7221532840e+00 
1700 6.4420427762e+00 4.4648672099e-01 2.7179026545e+00 -4.7075454877e+00 2.7179026545e+00 4.7075454877e+00 
1800 6.4386487855e+00 4.3488007078e-01 2.7096929942e+00 -4.6933259389e+00 2.7096929942e+00 4.6933259389e+00 
1900 6.4344908331e+00 4.2505402373e-01 2.7016724400e+00 -4.6794339315e+00 2.7016724400e+00 4.6794339315e+00 
2000 6.4298215579e+00 4.1647170978e-01 2.6938097705e+00 -4.6658153885e+00 2.6938097705e+00 4.6658153885e+00 
2100 6.4247737556e+00 4.0863384402e-01 2.6860833164e+00 -4.6524327774e+00 2.6860833164e+00 4.6524327774e+00 
2200 6.4194261782e+00 4.0117838515e-01 2.6784804169e+00 -4.6392641691e+00 2.6784804169e+00 4.6392641691e+00 
2300 6.4138336644e+00 3.9387369888e-01 2.6709949988e+00 -4.6262990447e+00 2.6709949988e+00 4.6262990447e+00 
2400 6.4080397222e+00 3.8658374881e-01 2.6636252361e+00 -4.6135342412e+00 2.6636252361e+00 4.6135342412e+00 
2500 6.4020815745e+00 3.7923512439e-01 2.6563718183e+00 -4.6009709530e+00 2.6563718183e+00 4.6009709530e+00 
2600 6.3959921830e+00 3.7179296773e-01 2.6492368077e+00 -4.5886127522e+00 2.6492368077e+00 4.5886127522e+00 
2700 6.3898011026e+00 3.6424515618e-01 2.6422229310e+00 -4.5764643614e+00 2.6422229310e+00 4.5764643614e+00 
2800 6.3835348958e+00 3.5659245041e-01 2.6353331571e+00 -4.5645309229e+00 2.6353331571e+00 4.5645309229e+00 
2900 6.3772173870e+00 3.4884254892e-01 2.6285704546e+00 -4.5528175787e+00 2.6285704546e+00 4.5528175787e+00 
3000 6.3708698625e+00 3.4100658171e-01 2.6219376591e+00 -4.5413292398e+00 2.6219376591e+00 4.5413292398e+00 
3100 6.3645112545e+00 3.3309708787e-01 2.6154374040e+00 -4.5300704678e+00 2.6154374040e+00 4.5300704678e+00 
3200 6.3581583214e+00 3.2512688244e-01 2.6090720904e+00 -4.5190454211e+00 2.6090720904e+00 4.5190454211e+00 
3300 6.3518258262e+00 3.1710844961e-01 2.6028438767e+00 -4.5082578386e+00 2.6028438767e+00 4.5082578386e+00 
3400 6.3455267124e+00 3.0905364403e-01 2.5967546819e+00 -4.4977110439e+00 2.5967546819e+00 4.4977110439e+00 
3500 6.3392722743e+00 3.0097356939e-01 2.5908061929e+00 -4.4874079586e+00 2.5908061929e+00 4.4874079586e+00 
3600 6.3330723206e+00 2.9287855631e-01 2.5849998756e+00 -4.4773511221e+00 2.5849998756e+00 4.4773511221e+00 
3700 6.3269353286e+00 2.8477819343e-01 2.5793369866e+00 -4.4675427106e+00 2.5793369866e+00 4.4675427106e+00 
3800 6.3208685885e+00 2.7668138455e-01 2.5738185841e+00 -4.4579845571e+00 2.5738185841e+00 4.4579845571e+00 
3900 6.3148783369e+00 2.6859641582e-01 2.5684455386e+00 -4.4486781694e+00 2.5684455386e+00 4.4486781694e+00 
4000 6.3089698793e+00 2.6053102429e-01 2.5632185425e+00 -4.4396247466e+00 2.5632185425e+00 4.4396247466e+00 
4100 6.3031477011e+00 2.5249246262e-01 2.5581381181e+00 -4.4308251934e+00 2.5581381181e+00 4.4308251934e+00 
4200 6.2974155685e+00 2.4448755768e-01 2.5532046253e+00 -4.4222801331e+00 2.5532046253e+00 4.4222801331e+00 
4300 6.2917766183e+00 2.3652276196e-01 2.5484182678e+00 -4.4139899188e+00 2.5484182678e+00 4.4139899188e+00 
4400 6.2862334387e+00 2.2860419744e-01 2.5437790990e+00 -4.4059546428e+00 2.5437790990e+00 4.4059546428e+00 
4500 6.2807881406e+00 2.2073769246e-01 2.5392870271e+00 -4.3981741459e+00 2.5392870271e+00 4.3981741459e+00 
4600 6.2754424206e+00 2.1292881179e-01 2.5349418189e+00 -4.3906480246e+00 2.5349418189e+00 4.3906480246e+00 
4700 6.2701976163e+00 2.0518288071e-01 2.5307431049e+00 -4.3833756385e+00 2.5307431049e+00 4.3833756385e+00 
4800 6.2650547547e+00 1.9750500382e-01 2.5266903819e+00 -4.3763561164e+00 2.5266903819e+00 4.3763561164e+00 
4900 6.2600145942e+00 1.8990007904e-01 2.5227830174e+00 -4.3695883625e+00 2.5227830174e+00 4.3695883625e+00 
5000 6.2550776608e+00 1.8237280762e-01 2.5190202524e+00 -4.3630710625e+00 2.5190202524e+00 4.3630710625e+00 
5100 6.2502442794e+00 1.7492770069e-01 2.5154012052e+00 -4.3568026888e+00 2.5154012052e+00 4.3568026888e+00 
5200 6.2455146003e+00 1.6756908291e-01 2.5119248742e+00 -4.3507815069e+00 2.5119248742e+00 4.3507815069e+00 
5300 6.2408886221e+00 1.6030109371e-01 2.5085901417e+00 -4.3450055808e+00 2.5085901417e+00 4.3450055808e+00 
5400 6.2363662101e+00 1.5312768653e-01 2.5053957773e+00 -4.3394727793e+00 2.5053957773e+00 4.3394727793e+00 
5500 6.2319471127e+00 1.4605262666e-01 2.5023404413e+00 -4.3341807821e+00 2.5023404413e+00 4.3341807821e+00 
5600 6.2276309740e+00 1.3907948776e-01 2.4994226887e+00 -4.3291270864e+00 2.4994226887e+00 4.3291270864e+00 
5700 6.2234173448e+00 1.3221164763e-01 2.4966409732e+00 -4.3243090139e+00 2.4966409732e+00 4.3243090139e+00 
5800 6.2193056908e+00 1.2545228345e-01 2.4939936512e+00 -4.3197237176e+00 2.4939936512e+00 4.3197237176e+00 
5900 6.2152953997e+00 1.1880436671e-01 2.4914789861e+00 -4.3153681898e+00 2.4914789861e+00 4.3153681898e+00 
6000 6.2113857860e+00 1.1227065811e-01 2.4890951530e+00 -4.3112392698e+00 2.4890951530e+00 4.3112392698e+00 
6100 6.2075760954e+00 1.0585370264e-01 2.4868402434e+00 -4.3073336519e+00 2.4868402434e+00 4.3073336519e+00 
6200 6.2038655072e+00 9.9555825014e-02 2.4847122702e+00 -4.3036478941e+00 2.4847122702e+00 4.3036478941e+00 
6300 6.2002531364e+00 9.3379125577e-02 2.4827091723e+00 -4.3001784269e+00 2.4827091723e+00 4.3001784269e+00 
6400 6.1967380353e+00 8.7325476881e-02 2.4808288206e+00 -4.2969215622e+00 2.4808288206e+00 4.2969215622e+00 
6500 6.1933191938e+00 8.1396520991e-02 2.4790690228e+00 -4.2938735029e+00 2.4790690228e+00 4.2938735029e+00 
6600 6.1899955399e+00 7.5593667629e-02 2.4774275289e+00 -4.2910303522e+00 2.4774275289e+00 4.2910303522e+00 
6700 6.1867659401e+00 6.9918093231e-02 2.4759020372e+00 -4.2883881230e+00 2.4759020372e+00 4.2883881230e+00 
6800 6.1836291989e+00 6.4370740958e-02 2.4744901993e+00 -4.2859427481e+00 2.4744901993e+00 4.2859427481e+00 
6900 6.1805840594e+00 5.8952321697e-02 2.4731896264e+00 -4.2836900897e+00 2.4731896264e+00 4.2836900897e+00 
7000 6.1776292026e+00 5.3663316078e-02 2.4719978944e+00 -4.2816259493e+00 2.4719978944e+00 4.2816259493e+00 
7100 6.1747632482e+00 4.8503977492e-02 2.4709125499e+00 -4.2797460775e+00 2.4709125499e+00 4.2797460775e+00 
7200 6.1719847545e+00 4.3474336115e-02 2.4699311156e+00 -4.2780461835e+00 2.4699311156e+00 4.2780461835e+00 
7300 6.1692922195e+00 3.8574203894e-02 2.4690510961e+00 -4.2765219449e+00 2.4690510961e+00 4.2765219449e+00 
7400 6.1666840814e+00 3.3803180467e-02 2.4682699829e+00 -4.2751690171e+00 2.4682699829e+00 4.2751690171e+00 
7500 6.1641587200e+00 2.9160659964e-02 2.4675852600e+00 -4.2739830423e+00 2.4675852600e+00 4.2739830423e+00 
7600 6.1617144587e+00 2.4645838627e-02 2.4669944092e+00 -4.2729596587e+00 2.4669944092e+00 4.2729596587e+00 
7700 6.1593495661e+00 2.0257723187e-02 2.4664949146e+00 -4.2720945087e+00 2.4664949146e+00 4.2720945087e+00 
7800 6.1570622585e+00 1.5995139912e-02 2.4660842679e+00 -4.2713832477e+00 2.4660842679e+00 4.2713832477e+00 
7900 6.1548507028e+00 1.1856744262e-02 2.4657599726e+00 -4.2708215518e+00 2.4657599726e+00 4.2708215518e+00 
8000 6.1527130196e+00 7.8410310559e-03 2.4655195487e+00 -4.2704051255e+00 2.4655195487e+00 4.2704051255e+00 
8100 6.1506472866e+00 3.9463450587e-03 2.4653605367e+00 -4.2701297085e+00 2.4653605367e+00 4.2701297085e+00 
8200 6.1486515426e+00 1.7089191951e-04 2.4652805012e+00 -4.2699910831e+00 2.4652805012e+00 4.2699910831e+00 
8300 6.1467237914e+00 -3.4872506459e-03 2.4652770353e+00 -4.2699850798e+00 2.4652770353e+00 4.2699850798e+00 
8400 6.1448620064e+00 -7.0301215062e-03 2.4653477630e+00 -4.2701075838e+00 2.4653477630e+00 4.2701075838e+00 
8500 6.1430641351e+00 -1.0459864686e-02 2.4654903430e+00 -4.2703545397e+00 2.4654903430e+00 4.2703545397e+00 
8600 6.1413281039e+00 -1.3778717938e-02 2.4657024715e+00 -4.2707219570e+00 2.4657024715e+00 4.2707219570e+00 
8700 6.1396518229e+00 -1.6989001396e-02 2.4659818844e+00 -4.2712059143e+00 2.4659818844e+00 4.2712059143e+00 
8800 6.1380331912e+00 -2.0093106379e-02 2.4663263597e+00 -4.2718025630e+00 2.4663263597e+00 4.2718025630e+00 
8900 6.1364701018e+00 -2.3093484417e-02 2.4667337198e+00 -4.2725081314e+00 2.4667337198e+00 4.2725081314e+00 
9000 6.1349604469e+00 -2.5992636551e-02 2.4672018330e+00 -4.2733189273e+00 2.4672018330e+00 4.2733189273e+00 
9100 6.1335021228e+00 -2.8793102978e-02 2.4677286152e+00 -4.2742313409e+00 2.4677286152e+00 4.2742313409e+00 
9200 6.1320930351e+00 -3.1497453079e-02 2.4683120310e+00 -4.2752418467e+00 2.4683120310e+00 4.2752418467e+00 
9300 6.1307311036e+00 -3.4108275867e-02 2.4689500948e+00 -4.2763470056e+00 2.4689500948e+00 4.2763470056e+00 
9400 6.1294142668e+00 -3.6628170911e-02 2.4696408715e+00 -4.2775434660e+00 2.4696408715e+00 4.2775434660e+00 
9500 6.1281404873e+00 -3.9059739741e-02 2.4703824774e+00 -4.2788279650e+00 2.4703824774e+00 4.2788279650e+00 
9600 6.1269077552e+00 -4.1405577780e-02 2.4711730801e+00 -4.2801973291e+00 2.4711730801e+00 4.2801973291e+00 
9700 6.1257140933e+00 -4.3668266794e-02 2.4720108992e+00 -4.2816484742e+00 2.4720108992e+00 4.2816484742e+00 
9800 6.1245575606e+00 -4.5850367902e-02 2.4728942057e+00 -4.2831784060e+00 2.4728942057e+00 4.2831784060e+00 
9900 6.1234362558e+00 -4.7954415126e-02 2.4738213224e+00 -4.2847842192e+00 2.4738213224e+00 4.2847842192e+00 
10000 6.1223483212e+00 -4.9982909491e-02 2.4747906233e+00 -4.2864630977e+00 2.4747906233e+00 4.2864630977e+00 
10100 6.1212919457e+00 -5.1938313677e-02 2.4758005331e+00 -4.2882123128e+00 2.4758005331e+00 4.2882123128e+00 
10200 6.1202653675e+00 -5.3823047205e-02 2.4768495268e+00 -4.2900292231e+00 2.4768495268e+00 4.2900292231e+00 
10300 6.1192668768e+00 -5.5639482154e-02 2.4779361285e+00 -4.2919112725e+00 2.4779361285e+00 4.2919112725e+00 
10400 6.1182948179e+00 -5.7389939389e-02 2.4790589113e+00 -4.2938559894e+00 2.4790589113e+00 4.2938559894e+00 
10500 6.1173475913e+00 -5.9076685284e-02 2.4802164958e+00 -4.2958609845e+00 2.4802164958e+00 4.2958609845e+00 
10600 6.1164236552e+00 -6.0701928917e-02 2.4814075493e+00 -4.2979239497e+00 2.4814075493e+00 4.2979239497e+00 
10700 6.1155215267e+00 -6.2267819730e-02 2.4826307848e+00 -4.3000426557e+00 2.4826307848e+00 4.3000426557e+00 
10800 6.1146397833e+00 -6.3776445604e-02 2.4838849596e+00 -4.3022149501e+00 2.4838849596e+00 4.3022149501e+00 
10900 6.1137770630e+00 -6.5229831354e-02 2.4851688744e+00 -4.3044387559e+00 2.4851688744e+00 4.3044387559e+00 
11000 6.1129320655e+00 -6.6629937597e-02 2.4864813722e+00 -4.3067120686e+00 2.4864813722e+00 4.3067120686e+00 
11100 6.1121035516e+00 -6.7978659980e-02 2.4878213363e+00 -4.3090329546e+00 2.4878213363e+00 4.3090329546e+00 
11200 6.1112903439e+00 -6.9277828736e-02 2.4891876900e+00 -4.3113995487e+00 2.4891876900e+00 4.3113995487e+00 
11300 6.1104913262e+00 -7.0529208547e-02 2.4905793946e+00 -4.3138100518e+00 2.4905793946e+00 4.3138100518e+00 
11400 6.1097054431e+00 -7.1734498685e-02 2.4919954484e+00 -4.3162627289e+00 2.4919954484e+00 4.3162627289e+00 
11500 6.1089316992e+00 -7.2895333406e-02 2.4934348852e+00 -4.3187559066e+00 2.4934348852e+00 4.3187559066e+00 
11600 6.1081691584e+00 -7.4013282580e-02 2.4948967733e+00 -4.3212879709e+00 2.4948967733e+00 4.3212879709e+00 
11700 6.1074169428e+00 -7.5089852519e-02 2.4963802136e+00 -4.3238573650e+00 2.4963802136e+00 4.3238573650e+00 
11800 6.1066742315e+00 -7.6126487001e-02 2.4978843392e+00 -4.3264625870e+00 2.4978843392e+00 4.3264625870e+00 
11900 6.1059402593e+00 -7.7124568447e-02 2.4994083134e+00 -4.3291021876e+00 2.4994083134e+00 4.3291021876e+00 
12000 6.1052143153e+00 -7.8085419247e-02 2.5009513285e+00 -4.3317747683e+00 2.5009513285e+00 4.3317747683e+00 
12100 6.1044957412e+00 -7.9010303207e-02 2.5025126052e+00 -4.3344789787e+00 2.5025126052e+00 4.3344789787e+00 
12200 6.1037839298e+00 -7.9900427102e-02 2.5040913905e+00 -4.3372135152e+00 2.5040913905e+00 4.3372135152e+00 
12300 6.1030783232e+00 -8.0756942317e-02 2.5056869574e+00 -4.3399771181e+00 2.5056869574e+00 4.3399771181e+00 
12400 6.1023784109e+00 -8.1580946563e-02 2.5072986031e+00 -4.3427685703e+00 2.5072986031e+00 4.3427685703e+00 
12500 6.1016837285e+00 -8.2373485646e-02 2.5089256483e+00 -4.3455866953e+00 2.5089256483e+00 4.3455866953e+00 
12600 6.1009938548e+00 -8.3135555280e-02 2.5105674360e+00 -4.3484303549e+00 2.5105674360e+00 4.3484303549e+00 
12700 6.1003084110e+00 -8.3868102942e-02 2.5122233303e+00 -4.3512984480e+00 2.5122233303e+00 4.3512984480e+00 
12800 6.0996270579e+00 -8.4572029733e-02 2.5138927158e+00 -4.3541899085e+00 2.5138927158e+00 4.3541899085e+00 
12900 6.0989494945e+00 -8.5248192257e-02 2.5155749963e+00 -4.3571037039e+00 2.5155749963e+00 4.3571037039e+00 
13000 6.0982754559e+00 -8.5897404499e-02 2.5172695941e+00 -4.3600388333e+00 2.5172695941e+00 4.3600388333e+00 
13100 6.0976047111e+00 -8.6520439696e-02 2.5189759489e+00 -4.3629943265e+00 2.5189759489e+00 4.3629943265e+00 
13200 6.0969370617e+00 -8.7118032189e-02 2.5206935172e+00 -4.3659692421e+00 2.5206935172e+00 4.3659692421e+00 
13300 6.0962723393e+00 -8.7690879260e-02 2.5224217713e+00 -4.3689626660e+00 2.5224217713e+00 4.3689626660e+00 
13400 6.0956104041e+00 -8.8239642927e-02 2.5241601987e+00 -4.3719737106e+00 2.5241601987e+00 4.3719737106e+00 
13500 6.0949511430e+00 -8.8764951723e-02 2.5259083013e+00 -4.3750015131e+00 2.5259083013e+00 4.3750015131e+00 
13600 6.0942944678e+00 -8.9267402426e-02 2.5276655946e+00 -4.3780452345e+00 2.5276655946e+00 4.3780452345e+00 
13700 6.0936403132e+00 -8.9747561747e-02 2.5294316073e+00 -4.3811040581e+00 2.5294316073e+00 4.3811040581e+00 
13800 6.0929886356e+00 -9.0205967981e-02 2.5312058803e+00 -4.3841771891e+00 2.5312058803e+00 4.3841771891e+00 
13900 6.0923394109e+00 -9.0643132599e-02 2.5329879666e+00 -4.3872638531e+00 2.5329879666e+00 4.3872638531e+00 
14000 6.0916926336e+00 -9.1059541804e-02 2.5347774302e+00 -4.3903632950e+00 2.5347774302e+00 4.3903632950e+00 
14100 6.0910483145e+00 -9.1455658022e-02 2.5365738461e+00 -4.3934747786e+00 2.5365738461e+00 4.3934747786e+00 
14200 6.0904064797e+00 -9.1831921349e-02 2.5383767994e+00 -4.3965975853e+00 2.5383767994e+00 4.3965975853e+00 
14300 6.0897671692e+00 -9.2188750940e-02 2.5401858850e+00 -4.3997310135e+00 2.5401858850e+00 4.3997310135e+00 
14400 6.0891304352e+00 -9.2526546346e-02 2.5420007073e+00 -4.4028743779e+00 2.5420007073e+00 4.4028743779e+00 
14500 6.0884963412e+00 -9.2845688795e-02 2.5438208795e+00 -4.4060270086e+00 2.5438208795e+00 4.4060270086e+00 
14600 6.0878649606e+00 -9.3146542415e-02 2.5456460234e+00 -4.4091882505e+00 2.5456460234e+00 4.4091882505e+00 
14700 6.0872363753e+00 -9.3429455413e-02 2.5474757689e+00 -4.4123574629e+00 2.5474757689e+00 4.4123574629e+00 
14800 6.0866106751e+00 -9.3694761188e-02 2.5493097541e+00 -4.4155340184e+00 2.5493097541e+00 4.4155340184e+00 
14900 6.0859879560e+00 -9.3942779397e-02 2.5511476243e+00 -4.4187173030e+00 2.5511476243e+00 4.4187173030e+00 
15000 6.0853683198e+00 -9.4173816967e-02 2.5529890323e+00 -4.4219067151e+00 2.5529890323e+00 4.4219067151e+00 
15100 6.0847518728e+00 -9.4388169058e-02 2.5548336377e+00 -4.4251016654e+00 2.5548336377e+00 4.4251016654e+00 
15200 6.0841387250e+00 -9.4586119970e-02 2.5566811071e+00 -4.4283015762e+00 2.5566811071e+00 4.4283015762e+00 
15300 6.0835289893e+00 -9.4767944010e-02 2.5585311132e+00 -4.4315058809e+00 2.5585311132e+00 4.4315058809e+00 
15400 6.0829227807e+00 -9.4933906297e-02 2.5603833356e+00 -4.4347140240e+00 2.5603833356e+00 4.4347140240e+00 
15500 6.0823202156e+00 -9.5084263538e-02 2.5622374594e+00 -4.4379254607e+00 2.5622374594e+00 4.4379254607e+00 
15600 6.0817214111e+00 -9.5219264741e-02 2.5640931760e+00 -4.4411396561e+00 2.5640931760e+00 4.4411396561e+00 
15700 6.0811264843e+00 -9.5339151902e-02 2.5659501824e+00 -4.4443560856e+00 2.5659501824e+00 4.4443560856e+00 
15800 6.0805355519e+00 -9.5444160631e-02 2.5678081812e+00 -4.4475742339e+00 2.5678081812e+00 4.4475742339e+00 
15900 6.0799487296e+00 -9.5534520758e-02 2.5696668805e+00 -4.4507935955e+00 2.5696668805e+00 4.4507935955e+00 
16000 6.0793661315e+00 -9.5610456879e-02 2.5715259937e+00 -4.4540136740e+00 2.5715259937e+00 4.4540136740e+00 
16100 6.0787878697e+00 -9.5672188882e-02 2.5733852393e+00 -4.4572339819e+00 2.5733852393e+00 4.4572339819e+00 
16200 6.0782140541e+00 -9.5719932424e-02 2.5752443410e+00 -4.4604540405e+00 2.5752443410e+00 4.4604540405e+00 
16300 6.0776447918e+00 -9.5753899384e-02 2.5771030275e+00 -4.4636733799e+00 2.5771030275e+00 4.4636733799e+00 
16400 6.0770801866e+00 -9.5774298275e-02 2.5789610323e+00 -4.4668915386e+00 2.5789610323e+00 4.4668915386e+00 
16500 6.0765203393e+00 -9.5781334627e-02 2.5808180937e+00 -4.4701080634e+00 2.5808180937e+00 4.4701080634e+00 
16600 6.0759653468e+00 -9.5775211342e-02 2.5826739549e+00 -4.4733225094e+00 2.5826739549e+00 4.4733225094e+00 
16700 6.0754153022e+00 -9.5756129018e-02 2.5845283637e+00 -4.4765344395e+00 2.5845283637e+00 4.4765344395e+00 
16800 6.0748702946e+00 -9.5724286248e-02 2.5863810723e+00 -4.4797434250e+00 2.5863810723e+00 4.4797434250e+00 
16900 6.0743304088e+00 -9.5679879890e-02 2.5882318377e+00 -4.4829490447e+00 2.5882318377e+00 4.4829490447e+00 
17000 6.0737957251e+00 -9.5623105313e-02 2.5900804214e+00 -4.4861508855e+00 2.5900804214e+00 4.4861508855e+00 
17100 6.0732663195e+00 -9.5554156626e-02 2.5919265891e+00 -4.4893485417e+00 2.5919265891e+00 4.4893485417e+00 
17200 6.0727422633e+00 -9.5473226876e-02 2.5937701111e+00 -4.4925416155e+00 2.5937701111e+00 4.4925416155e+00 
17300 6.0722236230e+00 -9.5380508229e-02 2.5956107620e+00 -4.4957297165e+00 2.5956107620e+00 4.4957297165e+00 
17400 6.0717104603e+00 -9.5276192136e-02 2.5974483209e+00 -4.4989124619e+00 2.5974483209e+00 4.4989124619e+00 
17500 6.0712028324e+00 -9.5160469471e-02 2.5992825710e+00 -4.5020894762e+00 2.5992825710e+00 4.5020894762e+00 
17600 6.0707007914e+00 -9.5033530664e-02 2.6011132999e+00 -4.5052603916e+00 2.6011132999e+00 4.5052603916e+00 
17700 6.0702043846e+00 -9.4895565804e-02 2.6029402992e+00 -4.5084248473e+00 2.6029402992e+00 4.5084248473e+00 
17800 6.0697136547e+00 -9.4746764738e-02 2.6047633651e+00 -4.5115824901e+00 2.6047633651e+00 4.5115824901e+00 
17900 6.0692286393e+00 -9.4587317148e-02 2.6065822978e+00 -4.5147329739e+00 2.6065822978e+00 4.5147329739e+00 
18000 6.0687493715e+00 -9.4417412624e-02 2.6083969016e+00 -4.5178759598e+00 2.6083969016e+00 4.5178759598e+00 
18100 6.0682758796e+00 -9.4237240712e-02 2.6102069851e+00 -4.5210111164e+00 2.6102069851e+00 4.5210111164e+00 
18200 6.0678081872e+00 -9.4046990959e-02 2.6120123610e+00 -4.5241381192e+00 2.6120123610e+00 4.5241381192e+00 
18300 6.0673463135e+00 -9.3846852948e-02 2.6138128461e+00 -4.5272566509e+00 2.6138128461e+00 4.5272566509e+00 
18400 6.0668902729e+00 -9.3637016317e-02 2.6156082613e+00 -4.5303664013e+00 2.6156082613e+00 4.5303664013e+00 
18500 6.0664400758e+00 -9.3417670773e-02 2.6173984317e+00 -4.5334670673e+00 2.6173984317e+00 4.5334670673e+00 
18600 6.0659957280e+00 -9.3189006095e-02 2.6191831863e+00 -4.5365583530e+00 2.6191831863e+00 4.5365583530e+00 
18700 6.0655572312e+00 -9.2951212133e-02 2.6209623583e+00 -4.5396399693e+00 2.6209623583e+00 4.5396399693e+00 
18800 6.0651245830e+00 -9.2704478794e-02 2.6227357849e+00 -4.5427116343e+00 2.6227357849e+00 4.5427116343e+00 
18900 6.0646977770e+00 -9.2448996026e-02 2.6245033073e+00 -4.5457730728e+00 2.6245033073e+00 4.5457730728e+00 
19000 6.0642768029e+00 -9.2184953793e-02 2.6262647706e+00 -4.5488240169e+00 2.6262647706e+00 4.5488240169e+00 
19100 6.0638616468e+00 -9.1912542047e-02 2.6280200243e+00 -4.5518642053e+00 2.6280200243e+00 4.5518642053e+00 
19200 6.0634522910e+00 -9.1631950693e-02 2.6297689213e+00 -4.5548933838e+00 2.6297689213e+00 4.5548933838e+00 
19300 6.0630487146e+00 -9.1343369547e-02 2.6315113189e+00 -4.5579113050e+00 2.6315113189e+00 4.5579113050e+00 
19400 6.0626508929e+00 -9.1046988299e-02 2.6332470782e+00 -4.5609177283e+00 2.6332470782e+00 4.5609177283e+00 
19500 6.0622587985e+00 -9.0742996458e-02 2.6349760641e+00 -4.5639124198e+00 2.6349760641e+00 4.5639124198e+00 
19600 6.0618724005e+00 -9.0431583307e-02 2.6366981457e+00 -4.5668951525e+00 2.6366981457e+00 4.5668951525e+00 
19700 6.0614916653e+00 -9.0112937849e-02 2.6384131956e+00 -4.5698657061e+00 2.6384131956e+00 4.5698657061e+00 
19800 6.0611165564e+00 -8.9787248749e-02 2.6401210906e+00 -4.5728238670e+00 2.6401210906e+00 4.5728238670e+00 
19900 6.0607470347e+00 -8.9454704276e-02 2.6418217111e+00 -4.5757694281e+00 2.6418217111e+00 4.5757694281e+00 
20000 6.0603830584e+00 -8.9115492246e-02 2.6435149414e+00 -4.5787021891e+00 2.6435149414e+00 4.5787021891e+00 
20100 6.0600245834e+00 -8.8769799954e-02 2.6452006697e+00 -4.5816219560e+00 2.6452006697e+00 4.5816219560e+00 
20200 6.0596715634e+00 -8.8417814117e-02 2.6468787877e+00 -4.5845285417e+00 2.6468787877e+00 4.5845285417e+00 
20300 6.0593239500e+00 -8.8059720806e-02 2.6485491911e+00 -4.5874217653e+00 2.6485491911e+00 4.5874217653e+00 
20400 6.0589816926e+00 -8.7695705380e-02 2.6502117792e+00 -4.5903014524e+00 2.6502117792e+00 4.5903014524e+00 
20500 6.0586447388e+00 -8.7325952424e-02 2.6518664550e+00 -4.5931674349e+00 2.6518664550e+00 4.5931674349e+00 
20600 6.0583130347e+00 -8.6950645679e-02 2.6535131250e+00 -4.5960195511e+00 2.6535131250e+00 4.5960195511e+00 
20700 6.0579865245e+00 -8.6569967975e-02 2.6551516997e+00 -4.5988576457e+00 2.6551516997e+00 4.5988576457e+00 
20800 6.0576651510e+00 -8.6184101166e-02 2.6567820928e+00 -4.6016815694e+00 2.6567820928e+00 4.6016815694e+00 
20900 6.0573488558e+00 -8.5793226065e-02 2.6584042218e+00 -4.6044911793e+00 2.6584042218e+00 4.6044911793e+00 
21000 6.0570375791e+00 -8.5397522372e-02 2.6600180076e+00 -4.6072863383e+00 2.6600180076e+00 4.6072863383e+00 
21100 6.0567312599e+00 -8.4997168614e-02 2.6616233747e+00 -4.6100669156e+00 2.6616233747e+00 4.6100669156e+00 
21200 6.0564298365e+00 -8.4592342077e-02 2.6632202509e+00 -4.6128327864e+00 2.6632202509e+00 4.6128327864e+00 
21300 6.0561332460e+00 -8.4183218740e-02 2.6648085676e+00 -4.6155838316e+00 2.6648085676e+00 4.6155838316e+00 
21400 6.0558414249e+00 -8.3769973213e-02 2.6663882595e+00 -4.6183199382e+00 2.6663882595e+00 4.6183199382e+00 
21500 6.0555543089e+00 -8.3352778673e-02 2.6679592647e+00 -4.6210409990e+00 2.6679592647e+00 4.6210409990e+00 
21600 6.0552718333e+00 -8.2931806802e-02 2.6695215245e+00 -4.6237469122e+00 2.6695215245e+00 4.6237469122e+00 
21700 6.0549939328e+00 -8.2507227727e-02 2.6710749834e+00 -4.6264375822e+00 2.6710749834e+00 4.6264375822e+00 
21800 6.0547205417e+00 -8.2079209960e-02 2.6726195895e+00 -4.6291129184e+00 2.6726195895e+00 4.6291129184e+00 
21900 6.0544515940e+00 -8.1647920338e-02 2.6741552938e+00 -4.6317728362e+00 2.6741552938e+00 4.6317728362e+00 
22000 6.0541870237e+00 -8.1213523968e-02 2.6756820504e+00 -4.6344172562e+00 2.6756820504e+00 4.6344172562e+00 
22100 6.0539267645e+00 -8.0776184171e-02 2.6771998166e+00 -4.6370461044e+00 2.6771998166e+00 4.6370461044e+00 
22200 6.0536707501e+00 -8.0336062426e-02 2.6787085528e+00 -4.6396593122e+00 2.6787085528e+00 4.6396593122e+00 
22300 6.0534189143e+00 -7.9893318320e-02 2.6802082224e+00 -4.6422568160e+00 2.6802082224e+00 4.6422568160e+00 
22400 6.0531711909e+00 -7.9448109495e-02 2.6816987916e+00 -4.6448385577e+00 2.6816987916e+00 4.6448385577e+00 
22500 6.0529275142e+00 -7.9000591601e-02 2.6831802298e+00 -4.6474044839e+00 2.6831802298e+00 4.6474044839e+00 
22600 6.0526878185e+00 -7.8550918246e-02 2.6846525091e+00 -4.6499545464e+00 2.6846525091e+00 4.6499545464e+00 
22700 6.0524520384e+00 -7.8099240951e-02 2.6861156043e+00 -4.6524887017e+00 2.6861156043e+00 4.6524887017e+00 
22800 6.0522201091e+00 -7.7645709106e-02 2.6875694934e+00 -4.6550069115e+00 2.6875694934e+00 4.6550069115e+00 
22900 6.0519919661e+00 -7.7190469929e-02 2.6890141567e+00 -4.6575091417e+00 2.6890141567e+00 4.6575091417e+00 
23000 6.0517675454e+00 -7.6733668424e-02 2.6904495774e+00 -4.6599953633e+00 2.6904495774e+00 4.6599953633e+00 
23100 6.0515467837e+00 -7.6275447343e-02 2.6918757414e+00 -4.6624655517e+00 2.6918757414e+00 4.6624655517e+00 
23200 6.0513296182e+00 -7.5815947148e-02 2.6932926369e+00 -4.6649196868e+00 2.6932926369e+00 4.6649196868e+00 
23300 6.0511159866e+00 -7.5355305981e-02 2.6947002550e+00 -4.6673577528e+00 2.6947002550e+00 4.6673577528e+00 
23400 6.0509058276e+00 -7.4893659624e-02 2.6960985890e+00 -4.6697797383e+00 2.6960985890e+00 4.6697797383e+00 
23500 6.0506990803e+00 -7.4431141476e-02 2.6974876347e+00 -4.6721856362e+00 2.6974876347e+00 4.6721856362e+00 
23600 6.0504956849e+00 -7.3967882519e-02 2.6988673905e+00 -4.6745754433e+00 2.6988673905e+00 4.6745754433e+00 
23700 6.0502955821e+00 -7.3504011292e-02 2.7002378569e+00 -4.6769491606e+00 2.7002378569e+00 4.6769491606e+00 
23800 6.0500987136e+00 -7.3039653868e-02 2.7015990367e+00 -4.6793067932e+00 2.7015990367e+00 4.6793067932e+00 
23900 6.0499050218e+00 -7.2574933830e-02 2.7029509349e+00 -4.6816483497e+00 2.7029509349e+00 4.6816483497e+00 
24000 6.0497144502e+00 -7.2109972250e-02 2.7042935590e+00 -4.6839738427e+00 2.7042935590e+00 4.6839738427e+00 
24100 6.0495269429e+00 -7.1644887671e-02 2.7056269182e+00 -4.6862832886e+00 2.7056269182e+00 4.6862832886e+00 
24200 6.0493424450e+00 -7.1179796090e-02 2.7069510240e+00 -4.6885767072e+00 2.7069510240e+00 4.6885767072e+00 
24300 6.0491609028e+00 -7.0714810943e-02 2.7082658900e+00 -4.6908541219e+00 2.7082658900e+00 4.6908541219e+00 
24400 6.0489822631e+00 -7.0250043091e-02 2.7095715315e+00 -4.6931155594e+00 2.7095715315e+00 4.6931155594e+00 
24500 6.0488064739e+00 -6.9785600813e-02 2.7108679661e+00 -4.6953610499e+00 2.7108679661e+00 4.6953610499e+00 
24600 6.0486334842e+00 -6.9321589792e-02 2.7121552129e+00 -4.6975906267e+00 2.7121552129e+00 4.6975906267e+00 
24700 6.0484632438e+00 -6.8858113113e-02 2.7134332929e+00 -4.6998043263e+00 2.7134332929e+00 4.6998043263e+00 
24800 6.0482957035e+00 -6.8395271254e-02 2.7147022292e+00 -4.7020021884e+00 2.7147022292e+00 4.7020021884e+00 
24900 6.0481308151e+00 -6.7933162085e-02 2.7159620461e+00 -4.7041842554e+00 2.7159620461e+00 4.7041842554e+00 
25000 6.0479685314e+00 -6.7471880870e-02 2.7172127701e+00 -4.7063505727e+00 2.7172127701e+00 4.7063505727e+00 
25100 6.0478088062e+00 -6.7011520259e-02 2.7184544287e+00 -4.7085011886e+00 2.7184544287e+00 4.7085011886e+00 
25200 6.0476515941e+00 -6.6552170302e-02 2.7196870516e+00 -4.7106361541e+00 2.7196870516e+00 4.7106361541e+00 
25300 6.0474968507e+00 -6.6093918444e-02 2.7209106696e+00 -4.7127555225e+00 2.7209106696e+00 4.7127555225e+00 
25400 6.0473445327e+00 -6.5636849537e-02 2.7221253150e+00 -4.7148593501e+00 2.7221253150e+00 4.7148593501e+00 
25500 6.0471945976e+00 -6.5181045846e-02 2.7233310216e+00 -4.7169476953e+00 2.7233310216e+00 4.7169476953e+00 
25600 6.0470470038e+00 -6.4726587058e-02 2.7245278247e+00 -4.7190206190e+00 2.7245278247e+00 4.7190206190e+00 
25700 6.0469017107e+00 -6.4273550297e-02 2.7257157606e+00 -4.7210781843e+00 2.7257157606e+00 4.7210781843e+00 
25800 6.0467586786e+00 -6.3822010133e-02 2.7268948671e+00 -4.7231204566e+00 2.7268948671e+00 4.7231204566e+00 
25900 6.0466178687e+00 -6.3372038601e-02 2.7280651830e+00 -4.7251475034e+00 2.7280651830e+00 4.7251475034e+00 
26000 6.0464792432e+00 -6.2923705215e-02 2.7292267486e+00 -4.7271593940e+00 2.7292267486e+00 4.7271593940e+00 
26100 6.0463427648e+00 -6.2477076987e-02 2.7303796051e+00 -4.7291562000e+00 2.7303796051e+00 4.7291562000e+00 
26200 6.0462083974e+00 -6.2032218446e-02 2.7315237947e+00 -4.7311379945e+00 2.7315237947e+00 4.7311379945e+00 
26300 6.0460761056e+00 -6.1589191661e-02 2.7326593607e+00 -4.7331048526e+00 2.7326593607e+00 4.7331048526e+00 
26400 6.0459458549e+00 -6.1148056261e-02 2.7337863476e+00 -4.7350568511e+00 2.7337863476e+00 4.7350568511e+00 
26500 6.0458176115e+00 -6.0708869462e-02 2.7349048005e+00 -4.7369940683e+00 2.7349048005e+00 4.7369940683e+00 
26600 6.0456913424e+00 -6.0271686091e-02 2.7360147655e+00 -4.7389165841e+00 2.7360147655e+00 4.7389165841e+00 
26700 6.0455670155e+00 -5.9836558611e-02 2.7371162897e+00 -4.7408244799e+00 2.7371162897e+00 4.7408244799e+00 
26800 6.0454445992e+00 -5.9403537154e-02 2.7382094208e+00 -4.7427178386e+00 2.7382094208e+00 4.7427178386e+00 
26900 6.0453240629e+00 -5.8972669543e-02 2.7392942074e+00 -4.7445967441e+00 2.7392942074e+00 4.7445967441e+00 
27000 6.0452053766e+00 -5.8544001332e-02 2.7403706987e+00 -4.7464612818e+00 2.7403706987e+00 4.7464612818e+00 
27100 6.0450885108e+00 -5.8117575826e-02 2.7414389448e+00 -4.7483115382e+00 2.7414389448e+00 4.7483115382e+00 
27200 6.0449734369e+00 -5.7693434125e-02 2.7424989961e+00 -4.7501476010e+00 2.7424989961e+00 4.7501476010e+00 
27300 6.0448601270e+00 -5.7271615150e-02 2.7435509039e+00 -4.7519695587e+00 2.7435509039e+00 4.7519695587e+00 
27400 6.0447485537e+00 -5.6852155679e-02 2.7445947199e+00 -4.7537775010e+00 2.7445947199e+00 4.7537775010e+00 
27500 6.0446386901e+00 -5.6435090386e-02 2.7456304963e+00 -4.7555715184e+00 2.7456304963e+00 4.7555715184e+00 
27600 6.0445305102e+00 -5.6020451873e-02 2.7466582859e+00 -4.7573517022e+00 2.7466582859e+00 4.7573517022e+00 
27700 6.0444239884e+00 -5.5608270711e-02 2.7476781419e+00 -4.7591181445e+00 2.7476781419e+00 4.7591181445e+00 
27800 6.0443190996e+00 -5.5198575474e-02 2.7486901178e+00 -4.7608709383e+00 2.7486901178e+00 4.7608709383e+00 
27900 6.0442158193e+00 -5.4791392782e-02 2.7496942676e+00 -4.7626101768e+00 2.7496942676e+00 4.7626101768e+00 
28000 6.0441141236e+00 -5.4386747336e-02 2.7506906457e+00 -4.7643359542e+00 2.7506906457e+00 4.7643359542e+00 
28100 6.0440139890e+00 -5.3984661961e-02 2.7516793065e+00 -4.7660483651e+00 2.7516793065e+00 4.7660483651e+00 
28200 6.0439153925e+00 -5.3585157647e-02 2.7526603051e+00 -4.7677475044e+00 2.7526603051e+00 4.7677475044e+00 
28300 6.0438183116e+00 -5.3188253584e-02 2.7536336964e+00 -4.7694334677e+00 2.7536336964e+00 4.7694334677e+00 
28400 6.0437227242e+00 -5.2793967212e-02 2.7545995359e+00 -4.7711063507e+00 2.7545995359e+00 4.7711063507e+00 
28500 6.0436286088e+00 -5.2402314257e-02 2.7555578790e+00 -4.7727662496e+00 2.7555578790e+00 4.7727662496e+00 
28600 6.0435359441e+00 -5.2013308772e-02 2.7565087813e+00 -4.7744132607e+00 2.7565087813e+00 4.7744132607e+00 
28700 6.0434447093e+00 -5.1626963186e-02 2.7574522986e+00 -4.7760474806e+00 2.7574522986e+00 4.7760474806e+00 
28800 6.0433548840e+00 -5.1243288340e-02 2.7583884867e+00 -4.7776690060e+00 2.7583884867e+00 4.7776690060e+00 
28900 6.0432664482e+00 -5.0862293531e-02 2.7593174016e+00 -4.7792779338e+00 2.7593174016e+00 4.7792779338e+00 
29000 6.0431793821e+00 -5.0483986557e-02 2.7602390992e+00 -4.7808743609e+00 2.7602390992e+00 4.7808743609e+00 
29100 6.0430936665e+00 -5.0108373761e-02 2.7611536355e+00 -4.7824583841e+00 2.7611536355e+00 4.7824583841e+00 
29200 6.0430092824e+00 -4.9735460067e-02 2.7620610663e+00 -4.7840301004e+00 2.7620610663e+00 4.7840301004e+00 
29300 6.0429262111e+00 -4.9365249033e-02 2.7629614475e+00 -4.7855896065e+00 2.7629614475e+00 4.7855896065e+00 
29400 6.0428444342e+00 -4.8997742883e-02 2.7638548351e+00 -4.7871369991e+00 2.7638548351e+00 4.7871369991e+00 
29500 6.0427639336e+00 -4.8632942561e-02 2.7647412847e+00 -4.7886723749e+00 2.7647412847e+00 4.7886723749e+00 
29600 6.0426846917e+00 -4.8270847764e-02 2.7656208520e+00 -4.7901958302e+00 2.7656208520e+00 4.7901958302e+00 
29700 6.0426066908e+00 -4.7911456989e-02 2.7664935925e+00 -4.7917074610e+00 2.7664935925e+00 4.7917074610e+00 
29800 6.0425299137e+00 -4.7554767576e-02 2.7673595615e+00 -4.7932073634e+00 2.7673595615e+00 4.7932073634e+00 
29900 6.0424543435e+00 -4.7200775748e-02 2.7682188143e+00 -4.7946956328e+00 2.7682188143e+00 4.7946956328e+00 
30000 6.0423799634e+00 -4.6849476651e-02 2.7690714058e+00 -4.7961723647e+00 2.7690714058e+00 4.7961723647e+00 
30100 6.0423067569e+00 -4.6500864401e-02 2.7699173909e+00 -4.7976376538e+00 2.7699173909e+00 4.7976376538e+00 
30200 6.0422347078e+00 -4.6154932118e-02 2.7707568241e+00 -4.7990915947e+00 2.7707568241e+00 4.7990915947e+00 
30300 6.0421638000e+00 -4.5811671972e-02 2.7715897598e+00 -4.8005342816e+00 2.7715897598e+00 4.8005342816e+00 
30400 6.0420940176e+00 -4.5471075218e-02 2.7724162520e+00 -4.8019658082e+00 2.7724162520e+00 4.8019658082e+00 
30500 6.0420253451e+00 -4.5133132242e-02 2.7732363546e+00 -4.8033862676e+00 2.7732363546e+00 4.8033862676e+00 
30600 6.0419577670e+00 -4.4797832591e-02 2.7740501211e+00 -4.8047957526e+00 2.7740501211e+00 4.8047957526e+00 
30700 6.0418912680e+00 -4.4465165022e-02 2.7748576048e+00 -4.8061943554e+00 2.7748576048e+00 4.8061943554e+00 
30800 6.0418258333e+00 -4.4135117532e-02 2.7756588586e+00 -4.8075821677e+00 2.7756588586e+00 4.8075821677e+00 
30900 6.0417614477e+00 -4.3807677397e-02 2.7764539352e+00 -4.8089592806e+00 2.7764539352e+00 4.8089592806e+00 
31000 6.0416980968e+00 -4.3482831212e-02 2.7772428867e+00 -4.8103257847e+00 2.7772428867e+00 4.8103257847e+00 
31100 6.0416357660e+00 -4.3160564922e-02 2.7780257652e+00 -4.8116817700e+00 2.7780257652e+00 4.8116817700e+00 
31200 6.0415744409e+00 -4.2840863863e-02 2.7788026222e+00 -4.8130273258e+00 2.7788026222e+00 4.8130273258e+00 
31300 6.0415141074e+00 -4.2523712791e-02 2.7795735090e+00 -4.8143625409e+00 2.7795735090e+00 4.8143625409e+00 
31400 6.0414547515e+00 -4.2209095922e-02 2.7803384764e+00 -4.8156875033e+00 2.7803384764e+00 4.8156875033e+00 
31500 6.0413963592e+00 -4.1896996958e-02 2.7810975749e+00 -4.8170023005e+00 2.7810975749e+00 4.8170023005e+00 
31600 6.0413389169e+00 -4.1587399128e-02 2.7818508546e+00 -4.8183070192e+00 2.7818508546e+00 4.8183070192e+00 
31700 6.0412824110e+00 -4.1280285213e-02 2.7825983652e+00 -4.8196017456e+00 2.7825983652e+00 4.8196017456e+00 
31800 6.0412268282e+00 -4.0975637581e-02 2.7833401560e+00 -4.8208865650e+00 2.7833401560e+00 4.8208865650e+00 
31900 6.0411721551e+00 -4.0673438215e-02 2.7840762760e+00 -4.8221615621e+00 2.7840762760e+00 4.8221615621e+00 
32000 6.0411183787e+00 -4.0373668747e-02 2.7848067735e+00 -4.8234268209e+00 2.7848067735e+00 4.8234268209e+00 
32100 6.0410654859e+00 -4.0076310478e-02 2.7855316967e+00 -4.8246824247e+00 2.7855316967e+00 4.8246824247e+00 
32200 6.0410134639e+00 -3.9781344417e-02 2.7862510932e+00 -4.8259284560e+00 2.7862510932e+00 4.8259284560e+00 
32300 6.0409623000e+00 -3.9488751301e-02 2.7869650102e+00 -4.8271649966e+00 2.7869650102e+00 4.8271649966e+00 
32400 6.0409119817e+00 -3.9198511621e-02 2.7876734946e+00 -4.8283921275e+00 2.7876734946e+00 4.8283921275e+00 
32500 6.0408624964e+00 -3.8910605653e-02 2.7883765927e+00 -4.8296099292e+00 2.7883765927e+00 4.8296099292e+00 
32600 6.0408138319e+00 -3.8625013478e-02 2.7890743505e+00 -4.8308184811e+00 2.7890743505e+00 4.8308184811e+00 
32700 6.0407659761e+00 -3.8341715009e-02 2.7897668134e+00 -4.8320178620e+00 2.7897668134e+00 4.8320178620e+00 
32800 6.0407189168e+00 -3.8060690013e-02 2.7904540265e+00 -4.8332081501e+00 2.7904540265e+00 4.8332081501e+00 
32900 6.0406726421e+00 -3.7781918134e-02 2.7911360345e+00 -4.8343894226e+00 2.7911360345e+00 4.8343894226e+00 
33000 6.0406271403e+00 -3.7505378912e-02 2.7918128816e+00 -4.8355617561e+00 2.7918128816e+00 4.8355617561e+00 
33100 6.0405823997e+00 -3.7231051808e-02 2.7924846115e+00 -4.8367252264e+00 2.7924846115e+00 4.8367252264e+00 
33200 6.0405384088e+00 -3.6958916223e-02 2.7931512675e+00 -4.8378799085e+00 2.7931512675e+00 4.8378799085e+00 
33300 6.0404951561e+00 -3.6688951515e-02 2.7938128925e+00 -4.8390258766e+00 2.7938128925e+00 4.8390258766e+00 
33400 6.0404526304e+00 -3.6421137021e-02 2.7944695290e+00 -4.8401632044e+00 2.7944695290e+00 4.8401632044e+00 
33500 6.0404108205e+00 -3.6155452070e-02 2.7951212189e+00 -4.8412919644e+00 2.7951212189e+00 4.8412919644e+00 
33600 6.0403697153e+00 -3.5891876006e-02 2.7957680038e+00 -4.8424122288e+00 2.7957680038e+00 4.8424122288e+00 
33700 6.0403293039e+00 -3.5630388200e-02 2.7964099249e+00 -4.8435240687e+00 2.7964099249e+00 4.8435240687e+00 
33800 6.0402895757e+00 -3.5370968067e-02 2.7970470229e+00 -4.8446275547e+00 2.7970470229e+00 4.8446275547e+00 
33900 6.0402505198e+00 -3.5113595081e-02 2.7976793379e+00 -4.8457227566e+00 2.7976793379e+00 4.8457227566e+00 
34000 6.0402121257e+00 -3.4858248788e-02 2.7983069100e+00 -4.8468097433e+00 2.7983069100e+00 4.8468097433e+00 
34100 6.0401743831e+00 -3.4604908820e-02 2.7989297784e+00 -4.8478885831e+00 2.7989297784e+00 4.8478885831e+00 
34200 6.0401372815e+00 -3.4353554910e-02 2.7995479823e+00 -4.8489593435e+00 2.7995479823e+00 4.8489593435e+00 
34300 6.0401008109e+00 -3.4104166901e-02 2.8001615601e+00 -4.8500220914e+00 2.8001615601e+00 4.8500220914e+00 
34400 6.0400649612e+00 -3.3856724756e-02 2.8007705500e+00 -4.8510768929e+00 2.8007705500e+00 4.8510768929e+00 
34500 6.0400297223e+00 -3.3611208574e-02 2.8013749898e+00 -4.8521238133e+00 2.8013749898e+00 4.8521238133e+00 
34600 6.0399950846e+00 -3.3367598596e-02 2.8019749167e+00 -4.8531629173e+00 2.8019749167e+00 4.8531629173e+00 
34700 6.0399610383e+00 -3.3125875215e-02 2.8025703678e+00 -4.8541942688e+00 2.8025703678e+00 4.8541942688e+00 
34800 6.0399275738e+00 -3.2886018988e-02 2.8031613795e+00 -4.8552179312e+00 2.8031613795e+00 4.8552179312e+00 
34900 6.0398946817e+00 -3.2648010638e-02 2.8037479880e+00 -4.8562339669e+00 2.8037479880e+00 4.8562339669e+00 
35000 6.0398623526e+00 -3.2411831068e-02 2.8043302290e+00 -4.8572424379e+00 2.8043302290e+00 4.8572424379e+00 
35100 6.0398305773e+00 -3.2177461364e-02 2.8049081379e+00 -4.8582434053e+00 2.8049081379e+00 4.8582434053e+00 
35200 6.0397993466e+00 -3.1944882805e-02 2.8054817495e+00 -4.8592369298e+00 2.8054817495e+00 4.8592369298e+00 
35300 6.0397686517e+00 -3.1714076864e-02 2.8060510984e+00 -4.8602230711e+00 2.8060510984e+00 4.8602230711e+00 
35400 6.0397384837e+00 -3.1485025219e-02 2.8066162190e+00 -4.8612018886e+00 2.8066162190e+00 4.8612018886e+00 
35500 6.0397088337e+00 -3.1257709755e-02 2.8071771449e+00 -4.8621734407e+00 2.8071771449e+00 4.8621734407e+00 
35600 6.0396796931e+00 -3.1032112569e-02 2.8077339095e+00 -4.8631377855e+00 2.8077339095e+00 4.8631377855e+00 
35700 6.0396510535e+00 -3.0808215973e-02 2.8082865461e+00 -4.8640949801e+00 2.8082865461e+00 4.8640949801e+00 
35800 6.0396229064e+00 -3.0586002500e-02 2.8088350874e+00 -4.8650450814e+00 2.8088350874e+00 4.8650450814e+00 
35900 6.0395952436e+00 -3.0365454905e-02 2.8093795656e+00 -4.8659881453e+00 2.8093795656e+00 4.8659881453e+00 
36000 6.0395680568e+00 -3.0146556170e-02 2.8099200128e+00 -4.8669242274e+00 2.8099200128e+00 4.8669242274e+00 
36100 6.0395413380e+00 -2.9929289503e-02 2.8104564607e+00 -4.8678533825e+00 2.8104564607e+00 4.8678533825e+00 
36200 6.0395150793e+00 -2.9713638344e-02 2.8109889407e+00 -4.8687756648e+00 2.8109889407e+00 4.8687756648e+00 
36300 6.0394892728e+00 -2.9499586362e-02 2.8115174837e+00 -4.8696911281e+00 2.8115174837e+00 4.8696911281e+00 
36400 6.0394639109e+00 -2.9287117460e-02 2.8120421203e+00 -4.8705998255e+00 2.8120421203e+00 4.8705998255e+00 
36500 6.0394389858e+00 -2.9076215775e-02 2.8125628811e+00 -4.8715018095e+00 2.8125628811e+00 4.8715018095e+00 
36600 6.0394144901e+00 -2.8866865676e-02 2.8130797958e+00 -4.8723971321e+00 2.8130797958e+00 4.8723971321e+00 
36700 6.0393904164e+00 -2.8659051768e-02 2.8135928944e+00 -4.8732858449e+00 2.8135928944e+00 4.8732858449e+00 
36800 6.0393667574e+00 -2.8452758889e-02 2.8141022061e+00 -4.8741679986e+00 2.8141022061e+00 4.8741679986e+00 
36900 6.0393435060e+00 -2.8247972112e-02 2.8146077601e+00 -4.8750436438e+00 2.8146077601e+00 4.8750436438e+00 
37000 6.0393206550e+00 -2.8044676742e-02 2.8151095851e+00 -4.8759128302e+00 2.8151095851e+00 4.8759128302e+00 
37100 6.0392981976e+00 -2.7842858316e-02 2.8156077096e+00 -4.8767756072e+00 2.8156077096e+00 4.8767756072e+00 
37200 6.0392761269e+00 -2.7642502603e-02 2.8161021619e+00 -4.8776320237e+00 2.8161021619e+00 4.8776320237e+00 
37300 6.0392544361e+00 -2.7443595601e-02 2.8165929698e+00 -4.8784821280e+00 2.8165929698e+00 4.8784821280e+00 
37400 6.0392331186e+00 -2.7246123536e-02 2.8170801610e+00 -4.8793259679e+00 2.8170801610e+00 4.8793259679e+00 
37500 6.0392121679e+00 -2.7050072860e-02 2.8175637629e+00 -4.8801635909e+00 2.8175637629e+00 4.8801635909e+00 
37600 6.0391915774e+00 -2.6855430250e-02 2.8180438024e+00 -4.8809950437e+00 2.8180438024e+00 4.8809950437e+00 
37700 6.0391713410e+00 -2.6662182606e-02 2.8185203065e+00 -4.8818203730e+00 2.8185203065e+00 4.8818203730e+00 
37800 6.0391514523e+00 -2.6470317045e-02 2.8189933016e+00 -4.8826396246e+00 2.8189933016e+00 4.8826396246e+00 
37900 6.0391319052e+00 -2.6279820904e-02 2.8194628141e+00 -4.8834528441e+00 2.8194628141e+00 4.8834528441e+00 
38000 6.0391126936e+00 -2.6090681733e-02 2.8199288700e+00 -4.8842600766e+00 2.8199288700e+00 4.8842600766e+00 
38100 6.0390938117e+00 -2.5902887294e-02 2.8203914951e+00 -4.8850613667e+00 2.8203914951e+00 4.8850613667e+00 
38200 6.0390752536e+00 -2.5716425560e-02 2.8208507148e+00 -4.8858567587e+00 2.8208507148e+00 4.8858567587e+00 
38300 6.0390570136e+00 -2.5531284708e-02 2.8213065546e+00 -4.8866462963e+00 2.8213065546e+00 4.8866462963e+00 
38400 6.0390390859e+00 -2.5347453118e-02 2.8217590394e+00 -4.8874300229e+00 2.8217590394e+00 4.8874300229e+00 
38500 6.0390214651e+00 -2.5164919371e-02 2.8222081941e+00 -4.8882079817e+00 2.8222081941e+00 4.8882079817e+00 
38600 6.0390041456e+00 -2.4983672243e-02 2.8226540432e+00 -4.8889802150e+00 2.8226540432e+00 4.8889802150e+00 
38700 6.0389871221e+00 -2.4803700705e-02 2.8230966112e+00 -4.8897467652e+00 2.8230966112e+00 4.8897467652e+00 
38800 6.0389703894e+00 -2.4624993915e-02 2.8235359221e+00 -4.8905076741e+00 2.8235359221e+00 4.8905076741e+00 
38900 6.0389539421e+00 -2.4447541220e-02 2.8239719999e+00 -4.8912629830e+00 2.8239719999e+00 4.8912629830e+00 
39000 6.0389377752e+00 -2.4271332148e-02 2.8244048683e+00 -4.8920127331e+00 2.8244048683e+00 4.8920127331e+00 
39100 6.0389218837e+00 -2.4096356408e-02 2.8248345508e+00 -4.8927569650e+00 2.8248345508e+00 4.8927569650e+00 
39200 6.0389062627e+00 -2.3922603882e-02 2.8252610707e+00 -4.8934957192e+00 2.8252610707e+00 4.8934957192e+00 
39300 6.0388909072e+00 -2.3750064626e-02 2.8256844511e+00 -4.8942290355e+00 2.8256844511e+00 4.8942290355e+00 
39400 6.0388758126e+00 -2.3578728863e-02 2.8261047148e+00 -4.8949569536e+00 2.8261047148e+00 4.8949569536e+00 
39500 6.0388609741e+00 -2.3408586983e-02 2.8265218846e+00 -4.8956795128e+00 2.8265218846e+00 4.8956795128e+00 
39600 6.0388463871e+00 -2.3239629535e-02 2.8269359829e+00 -4.8963967521e+00 2.8269359829e+00 4.8963967521e+00 
39700 6.0388320471e+00 -2.3071847226e-02 2.8273470320e+00 -4.8971087101e+00 2.8273470320e+00 4.8971087101e+00 
39800 6.0388179497e+00 -2.2905230916e-02 2.8277550542e+00 -4.8978154252e+00 2.8277550542e+00 4.8978154252e+00 
39900 6.0388040906e+00 -2.2739771617e-02 2.8281600712e+00 -4.8985169352e+00 2.8281600712e+00 4.8985169352e+00 
40000 6.0387904653e+00 -2.2575460486e-02 2.8285621048e+00 -4.8992132779e+00 2.8285621048e+00 4.8992132779e+00 
40100 6.0387770697e+00 -2.2412288823e-02 2.8289611767e+00 -4.8999044906e+00 2.8289611767e+00 4.8999044906e+00 
40200 6.0387638996e+00 -2.2250248068e-02 2.8293573082e+00 -4.9005906105e+00 2.8293573082e+00 4.9005906105e+00 
40300 6.0387509511e+00 -2.2089329797e-02 2.8297505205e+00 -4.9012716742e+00 2.8297505205e+00 4.9012716742e+00 
40400 6.0387382201e+00 -2.1929525716e-02 2.8301408347e+00 -4.9019477183e+00 2.8301408347e+00 4.9019477183e+00 
40500 6.0387257026e+00 -2.1770827663e-02 2.8305282717e+00 -4.9026187789e+00 2.8305282717e+00 4.9026187789e+00 
40600 6.0387133949e+00 -2.1613227599e-02 2.8309128522e+00 -4.9032848919e+00 2.8309128522e+00 4.9032848919e+00 
40700 6.0387012931e+00 -2.1456717607e-02 2.8312945968e+00 -4.9039460929e+00 2.8312945968e+00 4.9039460929e+00 
40800 6.0386893936e+00 -2.1301289891e-02 2.8316735259e+00 -4.9046024173e+00 2.8316735259e+00 4.9046024173e+00 
40900 6.0386776926e+00 -2.1146936767e-02 2.8320496597e+00 -4.9052539001e+00 2.8320496597e+00 4.9052539001e+00 
41000 6.0386661866e+00 -2.0993650665e-02 2.8324230183e+00 -4.9059005762e+00 2.8324230183e+00 4.9059005762e+00 
41100 6.0386548722e+00 -2.0841424123e-02 2.8327936216e+00 -4.9065424800e+00 2.8327936216e+00 4.9065424800e+00 
41200 6.0386437458e+00 -2.0690249785e-02 2.8331614895e+00 -4.9071796458e+00 2.8331614895e+00 4.9071796458e+00 
41300 6.0386328041e+00 -2.0540120397e-02 2.8335266415e+00 -4.9078121077e+00 2.8335266415e+00 4.9078121077e+00 
41400 6.0386220436e+00 -2.0391028806e-02 2.8338890972e+00 -4.9084398994e+00 2.8338890972e+00 4.9084398994e+00 
41500 6.0386114613e+00 -2.0242967953e-02 2.8342488759e+00 -4.9090630544e+00 2.8342488759e+00 4.9090630544e+00 
41600 6.0386010538e+00 -2.0095930874e-02 2.8346059969e+00 -4.9096816061e+00 2.8346059969e+00 4.9096816061e+00 
41700 6.0385908181e+00 -1.9949910696e-02 2.8349604791e+00 -4.9102955873e+00 2.8349604791e+00 4.9102955873e+00 
41800 6.0385807509e+00 -1.9804900633e-02 2.8353123416e+00 -4.9109050310e+00 2.8353123416e+00 4.9109050310e+00 
41900 6.0385708494e+00 -1.9660893985e-02 2.8356616031e+00 -4.9115099696e+00 2.8356616031e+00 4.9115099696e+00 
42000 6.0385611105e+00 -1.9517884135e-02 2.8360082822e+00 -4.9121104355e+00 2.8360082822e+00 4.9121104355e+00 
42100 6.0385515313e+00 -1.9375864543e-02 2.8363523975e+00 -4.9127064607e+00 2.8363523975e+00 4.9127064607e+00 
42200 6.0385421090e+00 -1.9234828750e-02 2.8366939675e+00 -4.9132980772e+00 2.8366939675e+00 4.9132980772e+00 
42300 6.0385328407e+00 -1.9094770370e-02 2.8370330102e+00 -4.9138853165e+00 2.8370330102e+00 4.9138853165e+00 
42400 6.0385237237e+00 -1.8955683089e-02 2.8373695440e+00 -4.9144682101e+00 2.8373695440e+00 4.9144682101e+00 
42500 6.0385147552e+00 -1.8817560665e-02 2.8377035868e+00 -4.9150467891e+00 2.8377035868e+00 4.9150467891e+00 
42600 6.0385059327e+00 -1.8680396922e-02 2.8380351564e+00 -4.9156210845e+00 2.8380351564e+00 4.9156210845e+00 
42700 6.0384972534e+00 -1.8544185750e-02 2.8383642707e+00 -4.9161911272e+00 2.8383642707e+00 4.9161911272e+00 
42800 6.0384887149e+00 -1.8408921103e-02 2.8386909472e+00 -4.9167569476e+00 2.8386909472e+00 4.9167569476e+00 
42900 6.0384803147e+00 -1.8274596996e-02 2.8390152036e+00 -4.9173185761e+00 2.8390152036e+00 4.9173185761e+00 
43000 6.0384720502e+00 -1.8141207504e-02 2.8393370571e+00 -4.9178760428e+00 2.8393370571e+00 4.9178760428e+00 
43100 6.0384639190e+00 -1.8008746759e-02 2.8396565252e+00 -4.9184293776e+00 2.8396565252e+00 4.9184293776e+00 
43200 6.0384559189e+00 -1.7877208947e-02 2.8399736248e+00 -4.9189786103e+00 2.8399736248e+00 4.9189786103e+00 
43300 6.0384480473e+00 -1.7746588311e-02 2.8402883731e+00 -4.9195237704e+00 2.8402883731e+00 4.9195237704e+00 
43400 6.0384403022e+00 -1.7616879142e-02 2.8406007871e+00 -4.9200648872e+00 2.8406007871e+00 4.9200648872e+00 
43500 6.0384326812e+00 -1.7488075784e-02 2.8409108834e+00 -4.9206019899e+00 2.8409108834e+00 4.9206019899e+00 
43600 6.0384251821e+00 -1.7360172629e-02 2.8412186789e+00 -4.9211351073e+00 2.8412186789e+00 4.9211351073e+00 
43700 6.0384178027e+00 -1.7233164116e-02 2.8415241902e+00 -4.9216642683e+00 2.8415241902e+00 4.9216642683e+00 
43800 6.0384105410e+00 -1.7107044728e-02 2.8418274336e+00 -4.9221895013e+00 2.8418274336e+00 4.9221895013e+00 
43900 6.0384033949e+00 -1.6981808992e-02 2.8421284256e+00 -4.9227108348e+00 2.8421284256e+00 4.9227108348e+00 
44000 6.0383963624e+00 -1.6857451481e-02 2.8424271824e+00 -4.9232282968e+00 2.8424271824e+00 4.9232282968e+00 
44100 6.0383894413e+00 -1.6733966804e-02 2.8427237203e+00 -4.9237419154e+00 2.8427237203e+00 4.9237419154e+00 
44200 6.0383826299e+00 -1.6611349614e-02 2.8430180552e+00 -4.9242517184e+00 2.8430180552e+00 4.9242517184e+00 
44300 6.0383759261e+00 -1.6489594600e-02 2.8433102031e+00 -4.9247577334e+00 2.8433102031e+00 4.9247577334e+00 
44400 6.0383693280e+00 -1.6368696490e-02 2.8436001798e+00 -4.9252599878e+00 2.8436001798e+00 4.9252599878e+00 
44500 6.0383628338e+00 -1.6248650047e-02 2.8438880010e+00 -4.9257585088e+00 2.8438880010e+00 4.9257585088e+00 
44600 6.0383564418e+00 -1.6129450069e-02 2.8441736825e+00 -4.9262533237e+00 2.8441736825e+00 4.9262533237e+00 
44700 6.0383501500e+00 -1.6011091389e-02 2.8444572397e+00 -4.9267444591e+00 2.8444572397e+00 4.9267444591e+00 
44800 6.0383439568e+00 -1.5893568872e-02 2.8447386880e+00 -4.9272319419e+00 2.8447386880e+00 4.9272319419e+00 
44900 6.0383378604e+00 -1.5776877416e-02 2.8450180429e+00 -4.9277157987e+00 2.8450180429e+00 4.9277157987e+00 
45000 6.0383318592e+00 -1.5661011950e-02 2.8452953194e+00 -4.9281960557e+00 2.8452953194e+00 4.9281960557e+00 
45100 6.0383259514e+00 -1.5545967432e-02 2.8455705327e+00 -4.9286727392e+00 2.8455705327e+00 4.9286727392e+00 
45200 6.0383201355e+00 -1.5431738850e-02 2.8458436979e+00 -4.9291458751e+00 2.8458436979e+00 4.9291458751e+00 
45300 6.0383144099e+00 -1.5318321222e-02 2.8461148299e+00 -4.9296154895e+00 2.8461148299e+00 4.9296154895e+00 
45400 6.0383087730e+00 -1.5205709591e-02 2.8463839434e+00 -4.9300816079e+00 2.8463839434e+00 4.9300816079e+00 
45500 6.0383032233e+00 -1.5093899030e-02 2.8466510533e+00 -4.9305442558e+00 2.8466510533e+00 4.9305442558e+00 
45600 6.0382977593e+00 -1.4982884636e-02 2.8469161742e+00 -4.9310034587e+00 2.8469161742e+00 4.9310034587e+00 
45700 6.0382923795e+00 -1.4872661533e-02 2.8471793206e+00 -4.9314592416e+00 2.8471793206e+00 4.9314592416e+00 
45800 6.0382870824e+00 -1.4763224870e-02 2.8474405070e+00 -4.9319116297e+00 2.8474405070e+00 4.9319116297e+00 
45900 6.0382818666e+00 -1.4654569821e-02 2.8476997477e+00 -4.9323606477e+00 2.8476997477e+00 4.9323606477e+00 
46000 6.0382767308e+00 -1.4546691582e-02 2.8479570570e+00 -4.9328063205e+00 2.8479570570e+00 4.9328063205e+00 
46100 6.0382716735e+00 -1.4439585376e-02 2.8482124490e+00 -4.9332486724e+00 2.8482124490e+00 4.9332486724e+00 
46200 6.0382666935e+00 -1.4333246446e-02 2.8484659378e+00 -4.9336877279e+00 2.8484659378e+00 4.9336877279e+00 
46300 6.0382617894e+00 -1.4227670058e-02 2.8487175374e+00 -4.9341235111e+00 2.8487175374e+00 4.9341235111e+00 
46400 6.0382569598e+00 -1.4122851502e-02 2.8489672616e+00 -4.9345560463e+00 2.8489672616e+00 4.9345560463e+00 
46500 6.0382522036e+00 -1.4018786086e-02 2.8492151244e+00 -4.9349853571e+00 2.8492151244e+00 4.9349853571e+00 
46600 6.0382475196e+00 -1.3915469144e-02 2.8494611393e+00 -4.9354114674e+00 2.8494611393e+00 4.9354114674e+00 
46700 6.0382429063e+00 -1.3812896027e-02 2.8497053200e+00 -4.9358344008e+00 2.8497053200e+00 4.9358344008e+00 
46800 6.0382383628e+00 -1.3711062110e-02 2.8499476800e+00 -4.9362541806e+00 2.8499476800e+00 4.9362541806e+00 
46900 6.0382338877e+00 -1.3609962784e-02 2.8501882327e+00 -4.9366708302e+00 2.8501882327e+00 4.9366708302e+00 
47000 6.0382294800e+00 -1.3509593465e-02 2.8504269916e+00 -4.9370843727e+00 2.8504269916e+00 4.9370843727e+00 
47100 6.0382251385e+00 -1.3409949586e-02 2.8506639698e+00 -4.9374948309e+00 2.8506639698e+00 4.9374948309e+00 
47200 6.0382208620e+00 -1.3311026599e-02 2.8508991805e+00 -4.9379022278e+00 2.8508991805e+00 4.9379022278e+00 
47300 6.0382166496e+00 -1.3212819977e-02 2.8511326368e+00 -4.9383065860e+00 2.8511326368e+00 4.9383065860e+00 
47400 6.0382125001e+00 -1.3115325211e-02 2.8513643517e+00 -4.9387079280e+00 2.8513643517e+00 4.9387079280e+00 
47500 6.0382084124e+00 -1.3018537812e-02 2.8515943381e+00 -4.9391062762e+00 2.8515943381e+00 4.9391062762e+00 
47600 6.0382043856e+00 -1.2922453308e-02 2.8518226089e+00 -4.9395016527e+00 2.8518226089e+00 4.9395016527e+00 
47700 6.0382004186e+00 -1.2827067248e-02 2.8520491767e+00 -4.9398940797e+00 2.8520491767e+00 4.9398940797e+00 
47800 6.0381965104e+00 -1.2732375197e-02 2.8522740542e+00 -4.9402835790e+00 2.8522740542e+00 4.9402835790e+00 
47900 6.0381926601e+00 -1.2638372741e-02 2.8524972540e+00 -4.9406701724e+00 2.8524972540e+00 4.9406701724e+00 
48000 6.0381888667e+00 -1.2545055480e-02 2.8527187886e+00 -4.9410538816e+00 2.8527187886e+00 4.9410538816e+00 
48100 6.0381851292e+00 -1.2452419037e-02 2.8529386704e+00 -4.9414347280e+00 2.8529386704e+00 4.9414347280e+00 
48200 6.0381814467e+00 -1.2360459050e-02 2.8531569116e+00 -4.9418127329e+00 2.8531569116e+00 4.9418127329e+00 
48300 6.0381778183e+00 -1.2269171175e-02 2.8533735246e+00 -4.9421879176e+00 2.8533735246e+00 4.9421879176e+00 
48400 6.0381742432e+00 -1.2178551087e-02 2.8535885214e+00 -4.9425603030e+00 2.8535885214e+00 4.9425603030e+00 
48500 6.0381707204e+00 -1.2088594478e-02 2.8538019142e+00 -4.9429299101e+00 2.8538019142e+00 4.9429299101e+00 
48600 6.0381672491e+00 -1.1999297059e-02 2.8540137149e+00 -4.9432967597e+00 2.8540137149e+00 4.9432967597e+00 
48700 6.0381638284e+00 -1.1910654557e-02 2.8542239354e+00 -4.9436608723e+00 2.8542239354e+00 4.9436608723e+00 
48800 6.0381604576e+00 -1.1822662718e-02 2.8544325875e+00 -4.9440222684e+00 2.8544325875e+00 4.9440222684e+00 
48900 6.0381571357e+00 -1.1735317303e-02 2.8546396831e+00 -4.9443809684e+00 2.8546396831e+00 4.9443809684e+00 
49000 6.0381538621e+00 -1.1648614095e-02 2.8548452337e+00 -4.9447369925e+00 2.8548452337e+00 4.9447369925e+00 
49100 6.0381506358e+00 -1.1562548892e-02 2.8550492509e+00 -4.9450903607e+00 2.8550492509e+00 4.9450903607e+00 
49200 6.0381474562e+00 -1.1477117508e-02 2.8552517463e+00 -4.9454410930e+00 2.8552517463e+00 4.9454410930e+00 
49300 6.0381443225e+00 -1.1392315778e-02 2.8554527312e+00 -4.9457892091e+00 2.8554527312e+00 4.9457892091e+00 
49400 6.0381412340e+00 -1.1308139553e-02 2.8556522171e+00 -4.9461347288e+00 2.8556522171e+00 4.9461347288e+00 
49500 6.0381381899e+00 -1.1224584701e-02 2.8558502151e+00 -4.9464776714e+00 2.8558502151e+00 4.9464776714e+00 
49600 6.0381351894e+00 -1.1141647109e-02 2.8560467365e+00 -4.9468180565e+00 2.8560467365e+00 4.9468180565e+00 
49700 6.0381322320e+00 -1.1059322681e-02 2.8562417924e+00 -4.9471559031e+00 2.8562417924e+00 4.9471559031e+00 
49800 6.0381293169e+00 -1.0977607338e-02 2.8564353938e+00 -4.9474912306e+00 2.8564353938e+00 4.9474912306e+00 
49900 6.0381264434e+00 -1.0896497019e-02 2.8566275517e+00 -4.9478240578e+00 2.8566275517e+00 4.9478240578e+00 
50000 6.0381236109e+00 -1.0815987681e-02 2.8568182769e+00 -4.9481544035e+00 2.8568182769e+00 4.9481544035e+00 
50100 6.0381208187e+00 -1.0736075300e-02 2.8570075803e+00 -4.9484822866e+00 2.8570075803e+00 4.9484822866e+00 
50200 6.0381180662e+00 -1.0656755868e-02 2.8571954725e+00 -4.9488077256e+00 2.8571954725e+00 4.9488077256e+00 
50300 6.0381153527e+00 -1.0578025394e-02 2.8573819643e+00 -4.9491307389e+00 2.8573819643e+00 4.9491307389e+00 
50400 6.0381126776e+00 -1.0499879908e-02 2.8575670663e+00 -4.9494513449e+00 2.8575670663e+00 4.9494513449e+00 
50500 6.0381100403e+00 -1.0422315454e-02 2.8577507889e+00 -4.9497695617e+00 2.8577507889e+00 4.9497695617e+00 
50600 6.0381074402e+00 -1.0345328098e-02 2.8579331425e+00 -4.9500854075e+00 2.8579331425e+00 4.9500854075e+00 
50700 6.0381048768e+00 -1.0268913920e-02 2.8581141376e+00 -4.9503989002e+00 2.8581141376e+00 4.9503989002e+00 
50800 6.0381023494e+00 -1.0193069021e-02 2.8582937844e+00 -4.9507100576e+00 2.8582937844e+00 4.9507100576e+00 
50900 6.0380998575e+00 -1.0117789519e-02 2.8584720932e+00 -4.9510188974e+00 2.8584720932e+00 4.9510188974e+00 
51000 6.0380974005e+00 -1.0043071549e-02 2.8586490740e+00 -4.9513254372e+00 2.8586490740e+00 4.9513254372e+00 
51100 6.0380949778e+00 -9.9689112654e-03 2.8588247369e+00 -4.9516296943e+00 2.8588247369e+00 4.9516296943e+00 
51200 6.0380925890e+00 -9.8953048408e-03 2.8589990920e+00 -4.9519316862e+00 2.8589990920e+00 4.9519316862e+00 
51300 6.0380902336e+00 -9.8222484654e-03 2.8591721492e+00 -4.9522314299e+00 2.8591721492e+00 4.9522314299e+00 
51400 6.0380879108e+00 -9.7497383475e-03 2.8593439182e+00 -4.9525289427e+00 2.8593439182e+00 4.9525289427e+00 
51500 6.0380856204e+00 -9.6777707143e-03 2.8595144090e+00 -4.9528242414e+00 2.8595144090e+00 4.9528242414e+00 
51600 6.0380833618e+00 -9.6063418106e-03 2.8596836312e+00 -4.9531173428e+00 2.8596836312e+00 4.9531173428e+00 
51700 6.0380811344e+00 -9.5354479001e-03 2.8598515945e+00 -4.9534082637e+00 2.8598515945e+00 4.9534082637e+00 
51800 6.0380789378e+00 -9.4650852646e-03 2.8600183084e+00 -4.9536970207e+00 2.8600183084e+00 4.9536970207e+00 
51900 6.0380767716e+00 -9.3952502042e-03 2.8601837824e+00 -4.9539836302e+00 2.8601837824e+00 4.9539836302e+00 
52000 6.0380746352e+00 -9.3259390377e-03 2.8603480261e+00 -4.9542681085e+00 2.8603480261e+00 4.9542681085e+00 
52100 6.0380725282e+00 -9.2571481022e-03 2.8605110487e+00 -4.9545504719e+00 2.8605110487e+00 4.9545504719e+00 
52200 6.0380704502e+00 -9.1888737533e-03 2.8606728595e+00 -4.9548307366e+00 2.8606728595e+00 4.9548307366e+00 
52300 6.0380684006e+00 -9.1211123651e-03 2.8608334679e+00 -4.9551089184e+00 2.8608334679e+00 4.9551089184e+00 
52400 6.0380663791e+00 -9.0538603304e-03 2.8609928829e+00 -4.9553850333e+00 2.8609928829e+00 4.9553850333e+00 
52500 6.0380643853e+00 -8.9871140605e-03 2.8611511137e+00 -4.9556590971e+00 2.8611511137e+00 4.9556590971e+00 
52600 6.0380624187e+00 -8.9208699851e-03 2.8613081693e+00 -4.9559311254e+00 2.8613081693e+00 4.9559311254e+00 
52700 6.0380604788e+00 -8.8551245528e-03 2.8614640587e+00 -4.9562011337e+00 2.8614640587e+00 4.9562011337e+00 
52800 6.0380585654e+00 -8.7898742308e-03 2.8616187908e+00 -4.9564691375e+00 2.8616187908e+00 4.9564691375e+00 
52900 6.0380566780e+00 -8.7251155048e-03 2.8617723743e+00 -4.9567351521e+00 2.8617723743e+00 4.9567351521e+00 
53000 6.0380548161e+00 -8.6608448794e-03 2.8619248182e+00 -4.9569991926e+00 2.8619248182e+00 4.9569991926e+00 
53100 6.0380529795e+00 -8.5970588776e-03 2.8620761311e+00 -4.9572612742e+00 2.8620761311e+00 4.9572612742e+00 
53200 6.0380511677e+00 -8.5337540415e-03 2.8622263216e+00 -4.9575214118e+00 2.8622263216e+00 4.9575214118e+00 
53300 6.0380493804e+00 -8.4709269316e-03 2.8623753984e+00 -4.9577796203e+00 2.8623753984e+00 4.9577796203e+00 
53400 6.0380476172e+00 -8.4085741272e-03 2.8625233699e+00 -4.9580359145e+00 2.8625233699e+00 4.9580359145e+00 
53500 6.0380458777e+00 -8.3466922265e-03 2.8626702446e+00 -4.9582903089e+00 2.8626702446e+00 4.9582903089e+00 
53600 6.0380441616e+00 -8.2852778463e-03 2.8628160309e+00 -4.9585428182e+00 2.8628160309e+00 4.9585428182e+00 
53700 6.0380424685e+00 -8.2243276221e-03 2.8629607371e+00 -4.9587934568e+00 2.8629607371e+00 4.9587934568e+00 
53800 6.0380407981e+00 -8.1638382082e-03 2.8631043716e+00 -4.9590422390e+00 2.8631043716e+00 4.9590422390e+00 
53900 6.0380391501e+00 -8.1038062778e-03 2.8632469425e+00 -4.9592891790e+00 2.8632469425e+00 4.9592891790e+00 
54000 6.0380375240e+00 -8.0442285227e-03 2.8633884579e+00 -4.9595342909e+00 2.8633884579e+00 4.9595342909e+00 
54100 6.0380359197e+00 -7.9851016534e-03 2.8635289260e+00 -4.9597775888e+00 2.8635289260e+00 4.9597775888e+00 
54200 6.0380343367e+00 -7.9264223993e-03 2.8636683548e+00 -4.9600190865e+00 2.8636683548e+00 4.9600190865e+00 
54300 6.0380327748e+00 -7.8681875084e-03 2.8638067522e+00 -4.9602587979e+00 2.8638067522e+00 4.9602587979e+00 
54400 6.0380312337e+00 -7.8103937474e-03 2.8639441262e+00 -4.9604967366e+00 2.8639441262e+00 4.9604967366e+00 
54500 6.0380297129e+00 -7.7530379019e-03 2.8640804846e+00 -4.9607329162e+00 2.8640804846e+00 4.9607329162e+00 
54600 6.0380282124e+00 -7.6961167761e-03 2.8642158351e+00 -4.9609673503e+00 2.8642158351e+00 4.9609673503e+00 
54700 6.0380267316e+00 -7.6396271927e-03 2.8643501856e+00 -4.9612000522e+00 2.8643501856e+00 4.9612000522e+00 
54800 6.0380252704e+00 -7.5835659934e-03 2.8644835438e+00 -4.9614310352e+00 2.8644835438e+00 4.9614310352e+00 
54900 6.0380238285e+00 -7.5279300384e-03 2.8646159171e+00 -4.9616603126e+00 2.8646159171e+00 4.9616603126e+00 
55000 6.0380224056e+00 -7.4727162064e-03 2.8647473132e+00 -4.9618878973e+00 2.8647473132e+00 4.9618878973e+00 
55100 6.0380210014e+00 -7.4179213949e-03 2.8648777396e+00 -4.9621138024e+00 2.8648777396e+00 4.9621138024e+00 
55200 6.0380196156e+00 -7.3635425199e-03 2.8650072037e+00 -4.9623380409e+00 2.8650072037e+00 4.9623380409e+00 
55300 6.0380182480e+00 -7.3095765159e-03 2.8651357129e+00 -4.9625606254e+00 2.8651357129e+00 4.9625606254e+00 
55400 6.0380168983e+00 -7.2560203362e-03 2.8652632746e+00 -4.9627815687e+00 2.8652632746e+00 4.9627815687e+00 
55500 6.0380155663e+00 -7.2028709522e-03 2.8653898960e+00 -4.9630008834e+00 2.8653898960e+00 4.9630008834e+00 
55600 6.0380142517e+00 -7.1501253542e-03 2.8655155844e+00 -4.9632185821e+00 2.8655155844e+00 4.9632185821e+00 
55700 6.0380129542e+00 -7.0977805505e-03 2.8656403469e+00 -4.9634346770e+00 2.8656403469e+00 4.9634346770e+00 
55800 6.0380116736e+00 -7.0458335682e-03 2.8657641906e+00 -4.9636491807e+00 2.8657641906e+00 4.9636491807e+00 
55900 6.0380104097e+00 -6.9942814525e-03 2.8658871226e+00 -4.9638621052e+00 2.8658871226e+00 4.9638621052e+00 
56000 6.0380091622e+00 -6.9431212672e-03 2.8660091500e+00 -4.9640734627e+00 2.8660091500e+00 4.9640734627e+00 
56100 6.0380079309e+00 -6.8923500941e-03 2.8661302796e+00 -4.9642832653e+00 2.8661302796e+00 4.9642832653e+00 
56200 6.0380067155e+00 -6.8419650334e-03 2.8662505183e+00 -4.9644915249e+00 2.8662505183e+00 4.9644915249e+00 
56300 6.0380055159e+00 -6.7919632037e-03 2.8663698731e+00 -4.9646982534e+00 2.8663698731e+00 4.9646982534e+00 
56400 6.0380043318e+00 -6.7423417415e-03 2.8664883506e+00 -4.9649034626e+00 2.8664883506e+00 4.9649034626e+00 
56500 6.0380031630e+00 -6.6930978015e-03 2.8666059577e+00 -4.9651071641e+00 2.8666059577e+00 4.9651071641e+00 
56600 6.0380020092e+00 -6.6442285567e-03 2.8667227011e+00 -4.9653093695e+00 2.8667227011e+00 4.9653093695e+00 
56700 6.0380008703e+00 -6.5957311978e-03 2.8668385873e+00 -4.9655100903e+00 2.8668385873e+00 4.9655100903e+00 
56800 6.0379997461e+00 -6.5476029338e-03 2.8669536230e+00 -4.9657093379e+00 2.8669536230e+00 4.9657093379e+00 
56900 6.0379986363e+00 -6.4998409914e-03 2.8670678147e+00 -4.9659071238e+00 2.8670678147e+00 4.9659071238e+00 
57000 6.0379975407e+00 -6.4524426155e-03 2.8671811689e+00 -4.9661034590e+00 2.8671811689e+00 4.9661034590e+00 
57100 6.0379964592e+00 -6.4054050685e-03 2.8672936920e+00 -4.9662983548e+00 2.8672936920e+00 4.9662983548e+00 
57200 6.0379953915e+00 -6.3587256309e-03 2.8674053905e+00 -4.9664918223e+00 2.8674053905e+00 4.9664918223e+00 
57300 6.0379943375e+00 -6.3124016008e-03 2.8675162707e+00 -4.9666838723e+00 2.8675162707e+00 4.9666838723e+00 
57400 6.0379932969e+00 -6.2664302939e-03 2.8676263388e+00 -4.9668745159e+00 2.8676263388e+00 4.9668745159e+00 
57500 6.0379922696e+00 -6.2208090438e-03 2.8677356011e+00 -4.9670637638e+00 2.8677356011e+00 4.9670637638e+00 
57600 6.0379912554e+00 -6.1755352013e-03 2.8678440638e+00 -4.9672516267e+00 2.8678440638e+00 4.9672516267e+00 
57700 6.0379902541e+00 -6.1306061351e-03 2.8679517331e+00 -4.9674381154e+00 2.8679517331e+00 4.9674381154e+00 
57800 6.0379892656e+00 -6.0860192312e-03 2.8680586150e+00 -4.9676232403e+00 2.8680586150e+00 4.9676232403e+00 
57900 6.0379882895e+00 -6.0417718929e-03 2.8681647156e+00 -4.9678070120e+00 2.8681647156e+00 4.9678070120e+00 
58000 6.0379873259e+00 -5.9978615411e-03 2.8682700410e+00 -4.9679894408e+00 2.8682700410e+00 4.9679894408e+00 
58100 6.0379863745e+00 -5.9542856136e-03 2.8683745970e+00 -4.9681705372e+00 2.8683745970e+00 4.9681705372e+00 
58200 6.0379854351e+00 -5.9110415659e-03 2.8684783896e+00 -4.9683503112e+00 2.8684783896e+00 4.9683503112e+00 
58300 6.0379845076e+00 -5.8681268702e-03 2.8685814247e+00 -4.9685287732e+00 2.8685814247e+00 4.9685287732e+00 
58400 6.0379835918e+00 -5.8255390161e-03 2.8686837080e+00 -4.9687059331e+00 2.8686837080e+00 4.9687059331e+00 
58500 6.0379826876e+00 -5.7832755101e-03 2.8687852454e+00 -4.9688818011e+00 2.8687852454e+00 4.9688818011e+00 
58600 6.0379817947e+00 -5.7413338757e-03 2.8688860426e+00 -4.9690563869e+00 2.8688860426e+00 4.9690563869e+00 
58700 6.0379809131e+00 -5.6997116533e-03 2.8689861053e+00 -4.9692297005e+00 2.8689861053e+00 4.9692297005e+00 
58800 6.0379800426e+00 -5.6584064001e-03 2.8690854390e+00 -4.9694017517e+00 2.8690854390e+00 4.9694017517e+00 
58900 6.0379791830e+00 -5.6174156901e-03 2.8691840495e+00 -4.9695725500e+00 2.8691840495e+00 4.9695725500e+00 
59000 6.0379783342e+00 -5.5767371139e-03 2.8692819423e+00 -4.9697421053e+00 2.8692819423e+00 4.9697421053e+00 
59100 6.0379774961e+00 -5.5363682790e-03 2.8693791229e+00 -4.9699104270e+00 2.8693791229e+00 4.9699104270e+00 
59200 6.0379766684e+00 -5.4963068092e-03 2.8694755967e+00 -4.9700775245e+00 2.8694755967e+00 4.9700775245e+00 
59300 6.0379758511e+00 -5.4565503449e-03 2.8695713692e+00 -4.9702434074e+00 2.8695713692e+00 4.9702434074e+00 
59400 6.0379750440e+00 -5.4170965427e-03 2.8696664458e+00 -4.9704080848e+00 2.8696664458e+00 4.9704080848e+00 
59500 6.0379742470e+00 -5.3779430760e-03 2.8697608318e+00 -4.9705715662e+00 2.8697608318e+00 4.9705715662e+00 
59600 6.0379734600e+00 -5.3390876340e-03 2.8698545325e+00 -4.9707338606e+00 2.8698545325e+00 4.9707338606e+00 
59700 6.0379726827e+00 -5.3005279225e-03 2.8699475531e+00 -4.9708949771e+00 2.8699475531e+00 4.9708949771e+00 
59800 6.0379719152e+00 -5.2622616631e-03 2.8700398990e+00 -4.9710549249e+00 2.8700398990e+00 4.9710549249e+00 
59900 6.0379711572e+00 -5.2242865937e-03 2.8701315753e+00 -4.9712137128e+00 2.8701315753e+00 4.9712137128e+00 
60000 6.0379704086e+00 -5.1866004680e-03 2.8702225870e+00 -4.9713713498e+00 2.8702225870e+00 4.9713713498e+00 
60100 6.0379696693e+00 -5.1492010558e-03 2.8703129394e+00 -4.9715278446e+00 2.8703129394e+00 4.9715278446e+00 
60200 6.0379689392e+00 -5.1120861427e-03 2.8704026374e+00 -4.9716832062e+00 2.8704026374e+00 4.9716832062e+00 
60300 6.0379682181e+00 -5.0752535300e-03 2.8704916861e+00 -4.9718374430e+00 2.8704916861e+00 4.9718374430e+00 
60400 6.0379675060e+00 -5.0387010346e-03 2.8705800905e+00 -4.9719905639e+00 2.8705800905e+00 4.9719905639e+00 
60500 6.0379668027e+00 -5.0024264892e-03 2.8706678554e+00 -4.9721425772e+00 2.8706678554e+00 4.9721425772e+00 
60600 6.0379661081e+00 -4.9664277419e-03 2.8707549859e+00 -4.9722934916e+00 2.8707549859e+00 4.9722934916e+00 
60700 6.0379654220e+00 -4.9307026564e-03 2.8708414867e+00 -4.9724433154e+00 2.8708414867e+00 4.9724433154e+00 
60800 6.0379647444e+00 -4.8952491116e-03 2.8709273627e+00 -4.9725920570e+00 2.8709273627e+00 4.9725920570e+00 
60900 6.0379640752e+00 -4.8600650019e-03 2.8710126186e+00 -4.9727397246e+00 2.8710126186e+00 4.9727397246e+00 
61000 6.0379634143e+00 -4.8251482369e-03 2.8710972593e+00 -4.9728863266e+00 2.8710972593e+00 4.9728863266e+00 
61100 6.0379627615e+00 -4.7904967412e-03 2.8711812894e+00 -4.9730318710e+00 2.8711812894e+00 4.9730318710e+00 
61200 6.0379621167e+00 -4.7561084546e-03 2.8712647136e+00 -4.9731763659e+00 2.8712647136e+00 4.9731763659e+00 
61300 6.0379614798e+00 -4.7219813318e-03 2.8713475365e+00 -4.9733198195e+00 2.8713475365e+00 4.9733198195e+00 
61400 6.0379608508e+00 -4.6881133427e-03 2.8714297628e+00 -4.9734622396e+00 2.8714297628e+00 4.9734622396e+00 
61500 6.0379602295e+00 -4.6545024716e-03 2.8715113970e+00 -4.9736036341e+00 2.8715113970e+00 4.9736036341e+00 
61600 6.0379596158e+00 -4.6211467180e-03 2.8715924436e+00 -4.9737440109e+00 2.8715924436e+00 4.9737440109e+00 
61700 6.0379590096e+00 -4.5880440957e-03 2.8716729071e+00 -4.9738833778e+00 2.8716729071e+00 4.9738833778e+00 
61800 6.0379584109e+00 -4.5551926335e-03 2.8717527920e+00 -4.9740217425e+00 2.8717527920e+00 4.9740217425e+00 
61900 6.0379578195e+00 -4.5225903744e-03 2.8718321027e+00 -4.9741591126e+00 2.8718321027e+00 4.9741591126e+00 
62000 6.0379572353e+00 -4.4902353759e-03 2.8719108435e+00 -4.9742954958e+00 2.8719108435e+00 4.9742954958e+00 
62100 6.0379566582e+00 -4.4581257101e-03 2.8719890189e+00 -4.9744308996e+00 2.8719890189e+00 4.9744308996e+00 
62200 6.0379560883e+00 -4.4262594632e-03 2.8720666332e+00 -4.9745653314e+00 2.8720666332e+00 4.9745653314e+00 
62300 6.0379555252e+00 -4.3946347356e-03 2.8721436906e+00 -4.9746987987e+00 2.8721436906e+00 4.9746987987e+00 
62400 6.0379549691e+00 -4.3632496418e-03 2.8722201953e+00 -4.9748313089e+00 2.8722201953e+00 4.9748313089e+00 
62500 6.0379544197e+00 -4.3321023105e-03 2.8722961517e+00 -4.9749628692e+00 2.8722961517e+00 4.9749628692e+00 
62600 6.0379538770e+00 -4.3011908843e-03 2.8723715639e+00 -4.9750934869e+00 2.8723715639e+00 4.9750934869e+00 
62700 6.0379533409e+00 -4.2705135196e-03 2.8724464360e+00 -4.9752231691e+00 2.8724464360e+00 4.9752231691e+00 
62800 6.0379528114e+00 -4.2400683868e-03 2.8725207721e+00 -4.9753519231e+00 2.8725207721e+00 4.9753519231e+00 
62900 6.0379522882e+00 -4.2098536699e-03 2.8725945764e+00 -4.9754797559e+00 2.8725945764e+00 4.9754797559e+00 
63000 6.0379517715e+00 -4.1798675665e-03 2.8726678529e+00 -4.9756066745e+00 2.8726678529e+00 4.9756066745e+00 
63100 6.0379512610e+00 -4.1501082878e-03 2.8727406055e+00 -4.9757326858e+00 2.8727406055e+00 4.9757326858e+00 
63200 6.0379507567e+00 -4.1205740587e-03 2.8728128384e+00 -4.9758577968e+00 2.8728128384e+00 4.9758577968e+00 
63300 6.0379502585e+00 -4.0912631173e-03 2.8728845554e+00 -4.9759820143e+00 2.8728845554e+00 4.9759820143e+00 
63400 6.0379497664e+00 -4.0621737150e-03 2.8729557605e+00 -4.9761053451e+00 2.8729557605e+00 4.9761053451e+00 
63500 6.0379492802e+00 -4.0333041165e-03 2.8730264576e+00 -4.9762277960e+00 2.8730264576e+00 4.9762277960e+00 
63600 6.0379487999e+00 -4.0046525998e-03 2.8730966505e+00 -4.9763493737e+00 2.8730966505e+00 4.9763493737e+00 
63700 6.0379483255e+00 -3.9762174559e-03 2.8731663430e+00 -4.9764700847e+00 2.8731663430e+00 4.9764700847e+00 
63800 6.0379478567e+00 -3.9479969886e-03 2.8732355390e+00 -4.9765899357e+00 2.8732355390e+00 4.9765899357e+00 
63900 6.0379473937e+00 -3.9199895150e-03 2.8733042423e+00 -4.9767089333e+00 2.8733042423e+00 4.9767089333e+00 
64000 6.0379469362e+00 -3.8921933648e-03 2.8733724565e+00 -4.9768270838e+00 2.8733724565e+00 4.9768270838e+00 
64100 6.0379464842e+00 -3.8646068806e-03 2.8734401855e+00 -4.9769443937e+00 2.8734401855e+00 4.9769443937e+00 
64200 6.0379460377e+00 -3.8372284176e-03 2.8735074328e+00 -4.9770608695e+00 2.8735074328e+00 4.9770608695e+00 
64300 6.0379455966e+00 -3.8100563437e-03 2.8735742021e+00 -4.9771765173e+00 2.8735742021e+00 4.9771765173e+00 
64400 6.0379451608e+00 -3.7830890391e-03 2.8736404971e+00 -4.9772913436e+00 2.8736404971e+00 4.9772913436e+00 
64500 6.0379447303e+00 -3.7563248968e-03 2.8737063213e+00 -4.9774053545e+00 2.8737063213e+00 4.9774053545e+00 
64600 6.0379443049e+00 -3.7297623220e-03 2.8737716783e+00 -4.9775185562e+00 2.8737716783e+00 4.9775185562e+00 
64700 6.0379438847e+00 -3.7033997321e-03 2.8738365717e+00 -4.9776309549e+00 2.8738365717e+00 4.9776309549e+00 
64800 6.0379434695e+00 -3.6772355568e-03 2.8739010050e+00 -4.9777425566e+00 2.8739010050e+00 4.9777425566e+00 
64900 6.0379430594e+00 -3.6512682380e-03 2.8739649816e+00 -4.9778533673e+00 2.8739649816e+00 4.9778533673e+00 
65000 6.0379426541e+00 -3.6254962296e-03 2.8740285050e+00 -4.9779633931e+00 2.8740285050e+00 4.9779633931e+00 
65100 6.0379422537e+00 -3.5999179975e-03 2.8740915787e+00 -4.9780726399e+00 2.8740915787e+00 4.9780726399e+00 
65200 6.0379418582e+00 -3.5745320194e-03 2.8741542060e+00 -4.9781811135e+00 2.8741542060e+00 4.9781811135e+00 
65300 6.0379414673e+00 -3.5493367850e-03 2.8742163903e+00 -4.9782888199e+00 2.8742163903e+00 4.9782888199e+00 
65400 6.0379410812e+00 -3.5243307955e-03 2.8742781349e+00 -4.9783957648e+00 2.8742781349e+00 4.9783957648e+00 
65500 6.0379406997e+00 -3.4995125640e-03 2.8743394432e+00 -4.9785019539e+00 2.8743394432e+00 4.9785019539e+00 
65600 6.0379403228e+00 -3.4748806151e-03 2.8744003185e+00 -4.9786073930e+00 2.8744003185e+00 4.9786073930e+00 
65700 6.0379399504e+00 -3.4504334849e-03 2.8744607641e+00 -4.9787120877e+00 2.8744607641e+00 4.9787120877e+00 
65800 6.0379395825e+00 -3.4261697208e-03 2.8745207831e+00 -4.9788160437e+00 2.8745207831e+00 4.9788160437e+00 
65900 6.0379392189e+00 -3.4020878818e-03 2.8745803788e+00 -4.9789192665e+00 2.8745803788e+00 4.9789192665e+00 
66000 6.0379388598e+00 -3.3781865381e-03 2.8746395543e+00 -4.9790217616e+00 2.8746395543e+00 4.9790217616e+00 
66100 6.0379385049e+00 -3.3544642710e-03 2.8746983130e+00 -4.9791235345e+00 2.8746983130e+00 4.9791235345e+00 
66200 6.0379381543e+00 -3.3309196730e-03 2.8747566578e+00 -4.9792245907e+00 2.8747566578e+00 4.9792245907e+00 
66300 6.0379378078e+00 -3.3075513476e-03 2.8748145920e+00 -4.9793249356e+00 2.8748145920e+00 4.9793249356e+00 
66400 6.0379374655e+00 -3.2843579093e-03 2.8748721185e+00 -4.9794245745e+00 2.8748721185e+00 4.9794245745e+00 
66500 6.0379371273e+00 -3.2613379835e-03 2.8749292405e+00 -4.9795235127e+00 2.8749292405e+00 4.9795235127e+00 
66600 6.0379367932e+00 -3.2384902066e-03 2.8749859610e+00 -4.9796217555e+00 2.8749859610e+00 4.9796217555e+00 
66700 6.0379364630e+00 -3.2158132253e-03 2.8750422830e+00 -4.9797193081e+00 2.8750422830e+00 4.9797193081e+00 
66800 6.0379361368e+00 -3.1933056973e-03 2.8750982096e+00 -4.9798161757e+00 2.8750982096e+00 4.9798161757e+00 
66900 6.0379358144e+00 -3.1709662910e-03 2.8751537436e+00 -4.9799123635e+00 2.8751537436e+00 4.9799123635e+00 
67000 6.0379354959e+00 -3.1487936850e-03 2.8752088881e+00 -4.9800078765e+00 2.8752088881e+00 4.9800078765e+00 
67100 6.0379351813e+00 -3.1267865684e-03 2.8752636459e+00 -4.9801027198e+00 2.8752636459e+00 4.9801027198e+00 
67200 6.0379348703e+00 -3.1049436410e-03 2.8753180200e+00 -4.9801968985e+00 2.8753180200e+00 4.9801968985e+00 
67300 6.0379345631e+00 -3.0832636125e-03 2.8753720132e+00 -4.9802904175e+00 2.8753720132e+00 4.9802904175e+00 
67400 6.0379342595e+00 -3.0617452030e-03 2.8754256284e+00 -4.9803832818e+00 2.8754256284e+00 4.9803832818e+00 
67500 6.0379339596e+00 -3.0403871428e-03 2.8754788684e+00 -4.9804754962e+00 2.8754788684e+00 4.9804754962e+00 
67600 6.0379336632e+00 -3.0191881722e-03 2.8755317361e+00 -4.9805670656e+00 2.8755317361e+00 4.9805670656e+00 
67700 6.0379333704e+00 -2.9981470414e-03 2.8755842341e+00 -4.9806579950e+00 2.8755842341e+00 4.9806579950e+00 
67800 6.0379330810e+00 -2.9772625108e-03 2.8756363654e+00 -4.9807482889e+00 2.8756363654e+00 4.9807482889e+00 
67900 6.0379327951e+00 -2.9565333504e-03 2.8756881326e+00 -4.9808379523e+00 2.8756881326e+00 4.9808379523e+00 
68000 6.0379325126e+00 -2.9359583402e-03 2.8757395384e+00 -4.9809269898e+00 2.8757395384e+00 4.9809269898e+00 
68100 6.0379322335e+00 -2.9155362698e-03 2.8757905855e+00 -4.9810154061e+00 2.8757905855e+00 4.9810154061e+00 
68200 6.0379319577e+00 -2.8952659384e-03 2.8758412767e+00 -4.9811032058e+00 2.8758412767e+00 4.9811032058e+00 
68300 6.0379316851e+00 -2.8751461548e-03 2.8758916146e+00 -4.9811903936e+00 2.8758916146e+00 4.9811903936e+00 
68400 6.0379314158e+00 -2.8551757375e-03 2.8759416018e+00 -4.9812769739e+00 2.8759416018e+00 4.9812769739e+00 
68500 6.0379311497e+00 -2.8353535141e-03 2.8759912409e+00 -4.9813629514e+00 2.8759912409e+00 4.9813629514e+00 
68600 6.0379308868e+00 -2.8156783219e-03 2.8760405345e+00 -4.9814483305e+00 2.8760405345e+00 4.9814483305e+00 
68700 6.0379306270e+00 -2.7961490072e-03 2.8760894853e+00 -4.9815331156e+00 2.8760894853e+00 4.9815331156e+00 
68800 6.0379303703e+00 -2.7767644258e-03 2.8761380957e+00 -4.9816173113e+00 2.8761380957e+00 4.9816173113e+00 
68900 6.0379301166e+00 -2.7575234424e-03 2.8761863683e+00 -4.9817009219e+00 2.8761863683e+00 4.9817009219e+00 
69000 6.0379298659e+00 -2.7384249310e-03 2.8762343055e+00 -4.9817839517e+00 2.8762343055e+00 4.9817839517e+00 
69100 6.0379296182e+00 -2.7194677745e-03 2.8762819100e+00 -4.9818664050e+00 2.8762819100e+00 4.9818664050e+00 
69200 6.0379293735e+00 -2.7006508648e-03 2.8763291842e+00 -4.9819482863e+00 2.8763291842e+00 4.9819482863e+00 
69300 6.0379291317e+00 -2.6819731026e-03 2.8763761304e+00 -4.9820295996e+00 2.8763761304e+00 4.9820295996e+00 
69400 6.0379288927e+00 -2.6634333975e-03 2.8764227512e+00 -4.9821103492e+00 2.8764227512e+00 4.9821103492e+00 
69500 6.0379286566e+00 -2.6450306680e-03 2.8764690490e+00 -4.9821905393e+00 2.8764690490e+00 4.9821905393e+00 
69600 6.0379284233e+00 -2.6267638409e-03 2.8765150262e+00 -4.9822701741e+00 2.8765150262e+00 4.9822701741e+00 
69700 6.0379281927e+00 -2.6086318519e-03 2.8765606851e+00 -4.9823492577e+00 2.8765606851e+00 4.9823492577e+00 
69800 6.0379279649e+00 -2.5906336453e-03 2.8766060281e+00 -4.9824277941e+00 2.8766060281e+00 4.9824277941e+00 
69900 6.0379277398e+00 -2.5727681737e-03 2.8766510576e+00 -4.9825057874e+00 2.8766510576e+00 4.9825057874e+00 
70000 6.0379275173e+00 -2.5550343982e-03 2.8766957758e+00 -4.9825832416e+00 2.8766957758e+00 4.9825832416e+00 
70100 6.0379272975e+00 -2.5374312883e-03 2.8767401851e+00 -4.9826601608e+00 2.8767401851e+00 4.9826601608e+00 
70200 6.0379270803e+00 -2.5199578217e-03 2.8767842878e+00 -4.9827365489e+00 2.8767842878e+00 4.9827365489e+00 
70300 6.0379268657e+00 -2.5026129845e-03 2.8768280861e+00 -4.9828124097e+00 2.8768280861e+00 4.9828124097e+00 
70400 6.0379266536e+00 -2.4853957708e-03 2.8768715822e+00 -4.9828877473e+00 2.8768715822e+00 4.9828877473e+00 
70500 6.0379264440e+00 -2.4683051829e-03 2.8769147785e+00 -4.9829625654e+00 2.8769147785e+00 4.9829625654e+00 
70600 6.0379262370e+00 -2.4513402309e-03 2.8769576771e+00 -4.9830368679e+00 2.8769576771e+00 4.9830368679e+00 
70700 6.0379260323e+00 -2.4344999334e-03 2.8770002802e+00 -4.9831106586e+00 2.8770002802e+00 4.9831106586e+00 
70800 6.0379258301e+00 -2.4177833163e-03 2.8770425900e+00 -4.9831839413e+00 2.8770425900e+00 4.9831839413e+00 
70900 6.0379256303e+00 -2.4011894139e-03 2.8770846086e+00 -4.9832567198e+00 2.8770846086e+00 4.9832567198e+00 
71000 6.0379254329e+00 -2.3847172678e-03 2.8771263383e+00 -4.9833289977e+00 2.8771263383e+00 4.9833289977e+00 
71100 6.0379252378e+00 -2.3683659278e-03 2.8771677811e+00 -4.9834007787e+00 2.8771677811e+00 4.9834007787e+00 
71200 6.0379250450e+00 -2.3521344510e-03 2.8772089391e+00 -4.9834720665e+00 2.8772089391e+00 4.9834720665e+00 
71300 6.0379248545e+00 -2.3360219023e-03 2.8772498145e+00 -4.9835428647e+00 2.8772498145e+00 4.9835428647e+00 
71400 6.0379246663e+00 -2.3200273541e-03 2.8772904093e+00 -4.9836131770e+00 2.8772904093e+00 4.9836131770e+00 
71500 6.0379244803e+00 -2.3041498863e-03 2.8773307256e+00 -4.9836830068e+00 2.8773307256e+00 4.9836830068e+00 
71600 6.0379242964e+00 -2.2883885863e-03 2.8773707654e+00 -4.9837523578e+00 2.8773707654e+00 4.9837523578e+00 
71700 6.0379241148e+00 -2.2727425487e-03 2.8774105307e+00 -4.9838212334e+00 2.8774105307e+00 4.9838212334e+00 
71800 6.0379239353e+00 -2.2572108757e-03 2.8774500237e+00 -4.9838896372e+00 2.8774500237e+00 4.9838896372e+00 
71900 6.0379237580e+00 -2.2417926764e-03 2.8774892462e+00 -4.9839575726e+00 2.8774892462e+00 4.9839575726e+00 
72000 6.0379235827e+00 -2.2264870674e-03 2.8775282002e+00 -4.9840250430e+00 2.8775282002e+00 4.9840250430e+00 
72100 6.0379234095e+00 -2.2112931723e-03 2.8775668878e+00 -4.9840920519e+00 2.8775668878e+00 4.9840920519e+00 
72200 6.0379232384e+00 -2.1962101219e-03 2.8776053109e+00 -4.9841586025e+00 2.8776053109e+00 4.9841586025e+00 
72300 6.0379230693e+00 -2.1812370538e-03 2.8776434713e+00 -4.9842246984e+00 2.8776434713e+00 4.9842246984e+00 
72400 6.0379229022e+00 -2.1663731128e-03 2.8776813711e+00 -4.9842903428e+00 2.8776813711e+00 4.9842903428e+00 
72500 6.0379227371e+00 -2.1516174505e-03 2.8777190121e+00 -4.9843555389e+00 2.8777190121e+00 4.9843555389e+00 
72600 6.0379225739e+00 -2.1369692255e-03 2.8777563963e+00 -4.9844202902e+00 2.8777563963e+00 4.9844202902e+00 
72700 6.0379224127e+00 -2.1224276030e-03 2.8777935255e+00 -4.9844845998e+00 2.8777935255e+00 4.9844845998e+00 
72800 6.0379222534e+00 -2.1079917552e-03 2.8778304015e+00 -4.9845484710e+00 2.8778304015e+00 4.9845484710e+00 
72900 6.0379220959e+00 -2.0936608607e-03 2.8778670262e+00 -4.9846119069e+00 2.8778670262e+00 4.9846119069e+00 
73000 6.0379219404e+00 -2.0794341051e-03 2.8779034015e+00 -4.9846749107e+00 2.8779034015e+00 4.9846749107e+00 
73100 6.0379217866e+00 -2.0653106803e-03 2.8779395292e+00 -4.9847374857e+00 2.8779395292e+00 4.9847374857e+00 
73200 6.0379216347e+00 -2.0512897849e-03 2.8779754110e+00 -4.9847996348e+00 2.8779754110e+00 4.9847996348e+00 
73300 6.0379214846e+00 -2.0373706240e-03 2.8780110488e+00 -4.9848613613e+00 2.8780110488e+00 4.9848613613e+00 
73400 6.0379213363e+00 -2.0235524089e-03 2.8780464444e+00 -4.9849226682e+00 2.8780464444e+00 4.9849226682e+00 
73500 6.0379211897e+00 -2.0098343575e-03 2.8780815994e+00 -4.9849835585e+00 2.8780815994e+00 4.9849835585e+00 
73600 6.0379210449e+00 -1.9962156941e-03 2.8781165157e+00 -4.9850440353e+00 2.8781165157e+00 4.9850440353e+00 
73700 6.0379209018e+00 -1.9826956491e-03 2.8781511950e+00 -4.9851041015e+00 2.8781511950e+00 4.9851041015e+00 
73800 6.0379207603e+00 -1.9692734591e-03 2.8781856389e+00 -4.9851637603e+00 2.8781856389e+00 4.9851637603e+00 
73900 6.0379206206e+00 -1.9559483672e-03 2.8782198493e+00 -4.9852230144e+00 2.8782198493e+00 4.9852230144e+00 
74000 6.0379204825e+00 -1.9427196222e-03 2.8782538278e+00 -4.9852818669e+00 2.8782538278e+00 4.9852818669e+00 
74100 6.0379203460e+00 -1.9295864793e-03 2.8782875761e+00 -4.9853403207e+00 2.8782875761e+00 4.9853403207e+00 
74200 6.0379202112e+00 -1.9165481995e-03 2.8783210959e+00 -4.9853983786e+00 2.8783210959e+00 4.9853983786e+00 
74300 6.0379200779e+00 -1.9036040500e-03 2.8783543888e+00 -4.9854560436e+00 2.8783543888e+00 4.9854560436e+00 
74400 6.0379199463e+00 -1.8907533038e-03 2.8783874564e+00 -4.9855133184e+00 2.8783874564e+00 4.9855133184e+00 
74500 6.0379198162e+00 -1.8779952399e-03 2.8784203005e+00 -4.9855702059e+00 2.8784203005e+00 4.9855702059e+00 
74600 6.0379196876e+00 -1.8653291428e-03 2.8784529225e+00 -4.9856267089e+00 2.8784529225e+00 4.9856267089e+00 
74700 6.0379195606e+00 -1.8527543033e-03 2.8784853241e+00 -4.9856828303e+00 2.8784853241e+00 4.9856828303e+00 
74800 6.0379194350e+00 -1.8402700176e-03 2.8785175070e+00 -4.9857385726e+00 2.8785175070e+00 4.9857385726e+00 
74900 6.0379193110e+00 -1.8278755876e-03 2.8785494726e+00 -4.9857939387e+00 2.8785494726e+00 4.9857939387e+00 
75000 6.0379191884e+00 -1.8155703210e-03 2.8785812226e+00 -4.9858489313e+00 2.8785812226e+00 4.9858489313e+00 
75100 6.0379190673e+00 -1.8033535309e-03 2.8786127586e+00 -4.9859035531e+00 2.8786127586e+00 4.9859035531e+00 
75200 6.0379189476e+00 -1.7912245363e-03 2.8786440819e+00 -4.9859578068e+00 2.8786440819e+00 4.9859578068e+00 
75300 6.0379188293e+00 -1.7791826613e-03 2.8786751943e+00 -4.9860116950e+00 2.8786751943e+00 4.9860116950e+00 
75400 6.0379187124e+00 -1.7672272357e-03 2.8787060971e+00 -4.9860652203e+00 2.8787060971e+00 4.9860652203e+00 
75500 6.0379185970e+00 -1.7553575947e-03 2.8787367920e+00 -4.9861183854e+00 2.8787367920e+00 4.9861183854e+00 
75600 6.0379184828e+00 -1.7435730788e-03 2.8787672804e+00 -4.9861711928e+00 2.8787672804e+00 4.9861711928e+00 
75700 6.0379183701e+00 -1.7318730340e-03 2.8787975638e+00 -4.9862236452e+00 2.8787975638e+00 4.9862236452e+00 
75800 6.0379182587e+00 -1.7202568114e-03 2.8788276436e+00 -4.9862757450e+00 2.8788276436e+00 4.9862757450e+00 
75900 6.0379181486e+00 -1.7087237675e-03 2.8788575214e+00 -4.9863274948e+00 2.8788575214e+00 4.9863274948e+00 
76000 6.0379180398e+00 -1.6972732638e-03 2.8788871986e+00 -4.9863788972e+00 2.8788871986e+00 4.9863788972e+00 
76100 6.0379179323e+00 -1.6859046671e-03 2.8789166766e+00 -4.9864299546e+00 2.8789166766e+00 4.9864299546e+00 
76200 6.0379178260e+00 -1.6746173494e-03 2.8789459568e+00 -4.9864806694e+00 2.8789459568e+00 4.9864806694e+00 
76300 6.0379177211e+00 -1.6634106875e-03 2.8789750407e+00 -4.9865310442e+00 2.8789750407e+00 4.9865310442e+00 
76400 6.0379176173e+00 -1.6522840636e-03 2.8790039297e+00 -4.9865810814e+00 2.8790039297e+00 4.9865810814e+00 
76500 6.0379175149e+00 -1.6412368646e-03 2.8790326252e+00 -4.9866307834e+00 2.8790326252e+00 4.9866307834e+00 
76600 6.0379174136e+00 -1.6302684825e-03 2.8790611285e+00 -4.9866801526e+00 2.8790611285e+00 4.9866801526e+00 
76700 6.0379173135e+00 -1.6193783141e-03 2.8790894410e+00 -4.9867291914e+00 2.8790894410e+00 4.9867291914e+00 
76800 6.0379172146e+00 -1.6085657612e-03 2.8791175642e+00 -4.9867779021e+00 2.8791175642e+00 4.9867779021e+00 
76900 6.0379171169e+00 -1.5978302302e-03 2.8791454993e+00 -4.9868262871e+00 2.8791454993e+00 4.9868262871e+00 
77000 6.0379170204e+00 -1.5871711327e-03 2.8791732477e+00 -4.9868743487e+00 2.8791732477e+00 4.9868743487e+00 
77100 6.0379169250e+00 -1.5765878846e-03 2.8792008107e+00 -4.9869220893e+00 2.8792008107e+00 4.9869220893e+00 
77200 6.0379168307e+00 -1.5660799068e-03 2.8792281896e+00 -4.9869695110e+00 2.8792281896e+00 4.9869695110e+00 
77300 6.0379167375e+00 -1.5556466248e-03 2.8792553858e+00 -4.9870166162e+00 2.8792553858e+00 4.9870166162e+00 
77400 6.0379166455e+00 -1.5452874686e-03 2.8792824006e+00 -4.9870634072e+00 2.8792824006e+00 4.9870634072e+00 
77500 6.0379165545e+00 -1.5350018731e-03 2.8793092353e+00 -4.9871098862e+00 2.8793092353e+00 4.9871098862e+00 
77600 6.0379164647e+00 -1.5247892774e-03 2.8793358910e+00 -4.9871560553e+00 2.8793358910e+00 4.9871560553e+00 
77700 6.0379163759e+00 -1.5146491254e-03 2.8793623692e+00 -4.9872019169e+00 2.8793623692e+00 4.9872019169e+00 
77800 6.0379162881e+00 -1.5045808654e-03 2.8793886711e+00 -4.9872474730e+00 2.8793886711e+00 4.9872474730e+00 
77900 6.0379162014e+00 -1.4945839500e-03 2.8794147978e+00 -4.9872927259e+00 2.8794147978e+00 4.9872927259e+00 
78000 6.0379161157e+00 -1.4846578363e-03 2.8794407508e+00 -4.9873376778e+00 2.8794407508e+00 4.9873376778e+00 
78100 6.0379160311e+00 -1.4748019860e-03 2.8794665312e+00 -4.9873823307e+00 2.8794665312e+00 4.9873823307e+00 
78200 6.0379159474e+00 -1.4650158648e-03 2.8794921401e+00 -4.9874266867e+00 2.8794921401e+00 4.9874266867e+00 
78300 6.0379158648e+00 -1.4552989429e-03 2.8795175790e+00 -4.9874707481e+00 2.8795175790e+00 4.9874707481e+00 
78400 6.0379157831e+00 -1.4456506946e-03 2.8795428488e+00 -4.9875145168e+00 2.8795428488e+00 4.9875145168e+00 
78500 6.0379157024e+00 -1.4360705986e-03 2.8795679510e+00 -4.9875579949e+00 2.8795679510e+00 4.9875579949e+00 
78600 6.0379156227e+00 -1.4265581378e-03 2.8795928865e+00 -4.9876011846e+00 2.8795928865e+00 4.9876011846e+00 
78700 6.0379155439e+00 -1.4171127991e-03 2.8796176567e+00 -4.9876440878e+00 2.8796176567e+00 4.9876440878e+00 
78800 6.0379154660e+00 -1.4077340736e-03 2.8796422626e+00 -4.9876867065e+00 2.8796422626e+00 4.9876867065e+00 
78900 6.0379153891e+00 -1.3984214566e-03 2.8796667055e+00 -4.9877290429e+00 2.8796667055e+00 4.9877290429e+00 
79000 6.0379153131e+00 -1.3891744473e-03 2.8796909865e+00 -4.9877710988e+00 2.8796909865e+00 4.9877710988e+00 
79100 6.0379152380e+00 -1.3799925489e-03 2.8797151068e+00 -4.9878128763e+00 2.8797151068e+00 4.9878128763e+00 
79200 6.0379151638e+00 -1.3708752689e-03 2.8797390674e+00 -4.9878543772e+00 2.8797390674e+00 4.9878543772e+00 
79300 6.0379150904e+00 -1.3618221183e-03 2.8797628695e+00 -4.9878956037e+00 2.8797628695e+00 4.9878956037e+00 
79400 6.0379150180e+00 -1.3528326124e-03 2.8797865142e+00 -4.9879365576e+00 2.8797865142e+00 4.9879365576e+00 
79500 6.0379149464e+00 -1.3439062703e-03 2.8798100027e+00 -4.9879772408e+00 2.8798100027e+00 4.9879772408e+00 
79600 6.0379148757e+00 -1.3350426148e-03 2.8798333359e+00 -4.9880176552e+00 2.8798333359e+00 4.9880176552e+00 
79700 6.0379148058e+00 -1.3262411727e-03 2.8798565151e+00 -4.9880578027e+00 2.8798565151e+00 4.9880578027e+00 
79800 6.0379147367e+00 -1.3175014745e-03 2.8798795413e+00 -4.9880976853e+00 2.8798795413e+00 4.9880976853e+00 
79900 6.0379146685e+00 -1.3088230545e-03 2.8799024156e+00 -4.9881373047e+00 2.8799024156e+00 4.9881373047e+00 
80000 6.0379146010e+00 -1.3002054508e-03 2.8799251390e+00 -4.9881766628e+00 2.8799251390e+00 4.9881766628e+00 
80100 6.0379145344e+00 -1.2916482051e-03 2.8799477127e+00 -4.9882157615e+00 2.8799477127e+00 4.9882157615e+00 
80200 6.0379144686e+00 -1.2831508629e-03 2.8799701375e+00 -4.9882546025e+00 2.8799701375e+00 4.9882546025e+00 
80300 6.0379144036e+00 -1.2747129731e-03 2.8799924147e+00 -4.9882931877e+00 2.8799924147e+00 4.9882931877e+00 
80400 6.0379143393e+00 -1.2663340885e-03 2.8800145452e+00 -4.9883315189e+00 2.8800145452e+00 4.9883315189e+00 
80500 6.0379142758e+00 -1.2580137653e-03 2.8800365301e+00 -4.9883695978e+00 2.8800365301e+00 4.9883695978e+00 
80600 6.0379142130e+00 -1.2497515634e-03 2.8800583704e+00 -4.9884074263e+00 2.8800583704e+00 4.9884074263e+00 
80700 6.0379141511e+00 -1.2415470459e-03 2.8800800671e+00 -4.9884450060e+00 2.8800800671e+00 4.9884450060e+00 
80800 6.0379140898e+00 -1.2333997799e-03 2.8801016211e+00 -4.9884823388e+00 2.8801016211e+00 4.9884823388e+00 
80900 6.0379140293e+00 -1.2253093354e-03 2.8801230336e+00 -4.9885194262e+00 2.8801230336e+00 4.9885194262e+00 
81000 6.0379139695e+00 -1.2172752864e-03 2.8801443054e+00 -4.9885562701e+00 2.8801443054e+00 4.9885562701e+00 
81100 6.0379139104e+00 -1.2092972099e-03 2.8801654377e+00 -4.9885928722e+00 2.8801654377e+00 4.9885928722e+00 
81200 6.0379138520e+00 -1.2013746863e-03 2.8801864312e+00 -4.9886292341e+00 2.8801864312e+00 4.9886292341e+00 
81300 6.0379137943e+00 -1.1935072997e-03 2.8802072871e+00 -4.9886653576e+00 2.8802072871e+00 4.9886653576e+00 
81400 6.0379137373e+00 -1.1856946371e-03 2.8802280062e+00 -4.9887012442e+00 2.8802280062e+00 4.9887012442e+00 
81500 6.0379136810e+00 -1.1779362891e-03 2.8802485896e+00 -4.9887368956e+00 2.8802485896e+00 4.9887368956e+00 
81600 6.0379136254e+00 -1.1702318493e-03 2.8802690382e+00 -4.9887723135e+00 2.8802690382e+00 4.9887723135e+00 
81700 6.0379135704e+00 -1.1625809149e-03 2.8802893528e+00 -4.9888074996e+00 2.8802893528e+00 4.9888074996e+00 
81800 6.0379135161e+00 -1.1549830859e-03 2.8803095345e+00 -4.9888424553e+00 2.8803095345e+00 4.9888424553e+00 
81900 6.0379134624e+00 -1.1474379659e-03 2.8803295842e+00 -4.9888771823e+00 2.8803295842e+00 4.9888771823e+00 
82000 6.0379134094e+00 -1.1399451612e-03 2.8803495027e+00 -4.9889116822e+00 2.8803495027e+00 4.9889116822e+00 
82100 6.0379133570e+00 -1.1325042818e-03 2.8803692910e+00 -4.9889459566e+00 2.8803692910e+00 4.9889459566e+00 
82200 6.0379133053e+00 -1.1251149403e-03 2.8803889501e+00 -4.9889800071e+00 2.8803889501e+00 4.9889800071e+00 
82300 6.0379132541e+00 -1.1177767526e-03 2.8804084807e+00 -4.9890138351e+00 2.8804084807e+00 4.9890138351e+00 
82400 6.0379132036e+00 -1.1104893377e-03 2.8804278838e+00 -4.9890474423e+00 2.8804278838e+00 4.9890474423e+00 
82500 6.0379131536e+00 -1.1032523176e-03 2.8804471603e+00 -4.9890808302e+00 2.8804471603e+00 4.9890808302e+00 
82600 6.0379131043e+00 -1.0960653172e-03 2.8804663110e+00 -4.9891140002e+00 2.8804663110e+00 4.9891140002e+00 
82700 6.0379130556e+00 -1.0889279646e-03 2.8804853369e+00 -4.9891469539e+00 2.8804853369e+00 4.9891469539e+00 
82800 6.0379130074e+00 -1.0818398906e-03 2.8805042387e+00 -4.9891796929e+00 2.8805042387e+00 4.9891796929e+00 
82900 6.0379129598e+00 -1.0748007292e-03 2.8805230174e+00 -4.9892122185e+00 2.8805230174e+00 4.9892122185e+00 
83000 6.0379129128e+00 -1.0678101170e-03 2.8805416738e+00 -4.9892445323e+00 2.8805416738e+00 4.9892445323e+00 
83100 6.0379128664e+00 -1.0608676938e-03 2.8805602087e+00 -4.9892766357e+00 2.8805602087e+00 4.9892766357e+00 
83200 6.0379128205e+00 -1.0539731021e-03 2.8805786229e+00 -4.9893085301e+00 2.8805786229e+00 4.9893085301e+00 
83300 6.0379127752e+00 -1.0471259873e-03 2.8805969174e+00 -4.9893402171e+00 2.8805969174e+00 4.9893402171e+00 
83400 6.0379127304e+00 -1.0403259974e-03 2.8806150930e+00 -4.9893716980e+00 2.8806150930e+00 4.9893716980e+00 
83500 6.0379126861e+00 -1.0335727836e-03 2.8806331503e+00 -4.9894029743e+00 2.8806331503e+00 4.9894029743e+00 
83600 6.0379126424e+00 -1.0268659995e-03 2.8806510904e+00 -4.9894340474e+00 2.8806510904e+00 4.9894340474e+00 
83700 6.0379125992e+00 -1.0202053016e-03 2.8806689139e+00 -4.9894649187e+00 2.8806689139e+00 4.9894649187e+00 
83800 6.0379125565e+00 -1.0135903491e-03 2.8806866217e+00 -4.9894955895e+00 2.8806866217e+00 4.9894955895e+00 
83900 6.0379125143e+00 -1.0070208039e-03 2.8807042146e+00 -4.9895260612e+00 2.8807042146e+00 4.9895260612e+00 
84000 6.0379124726e+00 -1.0004963306e-03 2.8807216933e+00 -4.9895563353e+00 2.8807216933e+00 4.9895563353e+00 
84100 6.0379124315e+00 -9.9401659650e-04 2.8807390587e+00 -4.9895864131e+00 2.8807390587e+00 4.9895864131e+00 
84200 6.0379123908e+00 -9.8758127137e-04 2.8807563115e+00 -4.9896162958e+00 2.8807563115e+00 4.9896162958e+00 
84300 6.0379123506e+00 -9.8119002773e-04 2.8807734526e+00 -4.9896459849e+00 2.8807734526e+00 4.9896459849e+00 
84400 6.0379123109e+00 -9.7484254067e-04 2.8807904826e+00 -4.9896754818e+00 2.8807904826e+00 4.9896754818e+00 
84500 6.0379122717e+00 -9.6853848782e-04 2.8808074023e+00 -4.9897047876e+00 2.8808074023e+00 4.9897047876e+00 
84600 6.0379122329e+00 -9.6227754937e-04 2.8808242125e+00 -4.9897339037e+00 2.8808242125e+00 4.9897339037e+00 
84700 6.0379121946e+00 -9.5605940804e-04 2.8808409139e+00 -4.9897628315e+00 2.8808409139e+00 4.9897628315e+00 
84800 6.0379121568e+00 -9.4988374907e-04 2.8808575074e+00 -4.9897915721e+00 2.8808575074e+00 4.9897915721e+00 
84900 6.0379121194e+00 -9.4375026015e-04 2.8808739935e+00 -4.9898201270e+00 2.8808739935e+00 4.9898201270e+00 
85000 6.0379120825e+00 -9.3765863146e-04 2.8808903731e+00 -4.9898484972e+00 2.8808903731e+00 4.9898484972e+00 
85100 6.0379120460e+00 -9.3160855562e-04 2.8809066469e+00 -4.9898766843e+00 2.8809066469e+00 4.9898766843e+00 
85200 6.0379120100e+00 -9.2559972768e-04 2.8809228156e+00 -4.9899046892e+00 2.8809228156e+00 4.9899046892e+00 
85300 6.0379119744e+00 -9.1963184507e-04 2.8809388799e+00 -4.9899325134e+00 2.8809388799e+00 4.9899325134e+00 
85400 6.0379119392e+00 -9.1370460763e-04 2.8809548405e+00 -4.9899601581e+00 2.8809548405e+00 4.9899601581e+00 
85500 6.0379119044e+00 -9.0781771757e-04 2.8809706982e+00 -4.9899876244e+00 2.8809706982e+00 4.9899876244e+00 
85600 6.0379118701e+00 -9.0197087940e-04 2.8809864536e+00 -4.9900149136e+00 2.8809864536e+00 4.9900149136e+00 
85700 6.0379118362e+00 -8.9616380001e-04 2.8810021075e+00 -4.9900420269e+00 2.8810021075e+00 4.9900420269e+00 
85800 6.0379118027e+00 -8.9039618856e-04 2.8810176605e+00 -4.9900689655e+00 2.8810176605e+00 4.9900689655e+00 
85900 6.0379117695e+00 -8.8466775652e-04 2.8810331133e+00 -4.9900957306e+00 2.8810331133e+00 4.9900957306e+00 
86000 6.0379117368e+00 -8.7897821761e-04 2.8810484666e+00 -4.9901223233e+00 2.8810484666e+00 4.9901223233e+00 
86100 6.0379117045e+00 -8.7332728782e-04 2.8810637211e+00 -4.9901487449e+00 2.8810637211e+00 4.9901487449e+00 
86200 6.0379116726e+00 -8.6771468534e-04 2.8810788775e+00 -4.9901749964e+00 2.8810788775e+00 4.9901749964e+00 
86300 6.0379116410e+00 -8.6214013061e-04 2.8810939363e+00 -4.9902010791e+00 2.8810939363e+00 4.9902010791e+00 
86400 6.0379116099e+00 -8.5660334624e-04 2.8811088984e+00 -4.9902269941e+00 2.8811088984e+00 4.9902269941e+00 
86500 6.0379115791e+00 -8.5110405702e-04 2.8811237643e+00 -4.9902527426e+00 2.8811237643e+00 4.9902527426e+00 
86600 6.0379115487e+00 -8.4564198992e-04 2.8811385346e+00 -4.9902783256e+00 2.8811385346e+00 4.9902783256e+00 
86700 6.0379115186e+00 -8.4021687400e-04 2.8811532101e+00 -4.9903037443e+00 2.8811532101e+00 4.9903037443e+00 
86800 6.0379114889e+00 -8.3482844051e-04 2.8811677914e+00 -4.9903289998e+00 2.8811677914e+00 4.9903289998e+00 
86900 6.0379114596e+00 -8.2947642275e-04 2.8811822791e+00 -4.9903540932e+00 2.8811822791e+00 4.9903540932e+00 
87000 6.0379114306e+00 -8.2416055613e-04 2.8811966738e+00 -4.9903790256e+00 2.8811966738e+00 4.9903790256e+00 
87100 6.0379114020e+00 -8.1888057814e-04 2.8812109762e+00 -4.9904037982e+00 2.8812109762e+00 4.9904037982e+00 
87200 6.0379113737e+00 -8.1363622832e-04 2.8812251869e+00 -4.9904284118e+00 2.8812251869e+00 4.9904284118e+00 
87300 6.0379113457e+00 -8.0842724822e-04 2.8812393066e+00 -4.9904528678e+00 2.8812393066e+00 4.9904528678e+00 
87400 6.0379113181e+00 -8.0325338145e-04 2.8812533357e+00 -4.9904771670e+00 2.8812533357e+00 4.9904771670e+00 
87500 6.0379112909e+00 -7.9811437359e-04 2.8812672751e+00 -4.9905013106e+00 2.8812672751e+00 4.9905013106e+00 
87600 6.0379112639e+00 -7.9300997224e-04 2.8812811251e+00 -4.9905252996e+00 2.8812811251e+00 4.9905252996e+00 
87700 6.0379112373e+00 -7.8793992694e-04 2.8812948866e+00 -4.9905491351e+00 2.8812948866e+00 4.9905491351e+00 
87800 6.0379112110e+00 -7.8290398920e-04 2.8813085599e+00 -4.9905728181e+00 2.8813085599e+00 4.9905728181e+00 
87900 6.0379111850e+00 -7.7790191247e-04 2.8813221458e+00 -4.9905963496e+00 2.8813221458e+00 4.9905963496e+00 
88000 6.0379111594e+00 -7.7293345212e-04 2.8813356449e+00 -4.9906197306e+00 2.8813356449e+00 4.9906197306e+00 
88100 6.0379111340e+00 -7.6799836541e-04 2.8813490577e+00 -4.9906429622e+00 2.8813490577e+00 4.9906429622e+00 
88200 6.0379111090e+00 -7.6309641153e-04 2.8813623848e+00 -4.9906660454e+00 2.8813623848e+00 4.9906660454e+00 
88300 6.0379110842e+00 -7.5822735149e-04 2.8813756267e+00 -4.9906889811e+00 2.8813756267e+00 4.9906889811e+00 
88400 6.0379110598e+00 -7.5339094822e-04 2.8813887841e+00 -4.9907117704e+00 2.8813887841e+00 4.9907117704e+00 
88500 6.0379110356e+00 -7.4858696645e-04 2.8814018575e+00 -4.9907344142e+00 2.8814018575e+00 4.9907344142e+00 
88600 6.0379110118e+00 -7.4381517276e-04 2.8814148475e+00 -4.9907569135e+00 2.8814148475e+00 4.9907569135e+00 
88700 6.0379109882e+00 -7.3907533553e-04 2.8814277546e+00 -4.9907792693e+00 2.8814277546e+00 4.9907792693e+00 
88800 6.0379109649e+00 -7.3436722497e-04 2.8814405794e+00 -4.9908014826e+00 2.8814405794e+00 4.9908014826e+00 
88900 6.0379109419e+00 -7.2969061303e-04 2.8814533225e+00 -4.9908235542e+00 2.8814533225e+00 4.9908235542e+00 
89000 6.0379109192e+00 -7.2504527346e-04 2.8814659844e+00 -4.9908454852e+00 2.8814659844e+00 4.9908454852e+00 
89100 6.0379108967e+00 -7.2043098177e-04 2.8814785656e+00 -4.9908672765e+00 2.8814785656e+00 4.9908672765e+00 
89200 6.0379108746e+00 -7.1584751519e-04 2.8814910666e+00 -4.9908889290e+00 2.8814910666e+00 4.9908889290e+00 
89300 6.0379108527e+00 -7.1129465269e-04 2.8815034881e+00 -4.9909104436e+00 2.8815034881e+00 4.9909104436e+00 
89400 6.0379108310e+00 -7.0677217495e-04 2.8815158306e+00 -4.9909318213e+00 2.8815158306e+00 4.9909318213e+00 
89500 6.0379108096e+00 -7.0227986435e-04 2.8815280945e+00 -4.9909530630e+00 2.8815280945e+00 4.9909530630e+00 
89600 6.0379107885e+00 -6.9781750494e-04 2.8815402804e+00 -4.9909741696e+00 2.8815402804e+00 4.9909741696e+00 
89700 6.0379107676e+00 -6.9338488246e-04 2.8815523888e+00 -4.9909951420e+00 2.8815523888e+00 4.9909951420e+00 
89800 6.0379107470e+00 -6.8898178431e-04 2.8815644202e+00 -4.9910159811e+00 2.8815644202e+00 4.9910159811e+00 
89900 6.0379107267e+00 -6.8460799951e-04 2.8815763752e+00 -4.9910366878e+00 2.8815763752e+00 4.9910366878e+00 
90000 6.0379107066e+00 -6.8026331873e-04 2.8815882543e+00 -4.9910572629e+00 2.8815882543e+00 4.9910572629e+00 
90100 6.0379106867e+00 -6.7594753424e-04 2.8816000579e+00 -4.9910777074e+00 2.8816000579e+00 4.9910777074e+00 
90200 6.0379106671e+00 -6.7166043994e-04 2.8816117866e+00 -4.9910980221e+00 2.8816117866e+00 4.9910980221e+00 
90300 6.0379106477e+00 -6.6740183129e-04 2.8816234409e+00 -4.9911182079e+00 2.8816234409e+00 4.9911182079e+00 
90400 6.0379106285e+00 -6.6317150534e-04 2.8816350212e+00 -4.9911382656e+00 2.8816350212e+00 4.9911382656e+00 
90500 6.0379106096e+00 -6.5896926071e-04 2.8816465281e+00 -4.9911581961e+00 2.8816465281e+00 4.9911581961e+00 
90600 6.0379105909e+00 -6.5479489756e-04 2.8816579620e+00 -4.9911780002e+00 2.8816579620e+00 4.9911780002e+00 
90700 6.0379105724e+00 -6.5064821761e-04 2.8816693234e+00 -4.9911976787e+00 2.8816693234e+00 4.9911976787e+00 
90800 6.0379105542e+00 -6.4652902407e-04 2.8816806128e+00 -4.9912172326e+00 2.8816806128e+00 4.9912172326e+00 
90900 6.0379105361e+00 -6.4243712169e-04 2.8816918308e+00 -4.9912366626e+00 2.8816918308e+00 4.9912366626e+00 
91000 6.0379105183e+00 -6.3837231673e-04 2.8817029776e+00 -4.9912559696e+00 2.8817029776e+00 4.9912559696e+00 
91100 6.0379105008e+00 -6.3433441690e-04 2.8817140540e+00 -4.9912751543e+00 2.8817140540e+00 4.9912751543e+00 
91200 6.0379104834e+00 -6.3032323142e-04 2.8817250602e+00 -4.9912942176e+00 2.8817250602e+00 4.9912942176e+00 
91300 6.0379104662e+00 -6.2633857097e-04 2.8817359967e+00 -4.9913131603e+00 2.8817359967e+00 4.9913131603e+00 
91400 6.0379104493e+00 -6.2238024768e-04 2.8817468641e+00 -4.9913319832e+00 2.8817468641e+00 4.9913319832e+00 
91500 6.0379104325e+00 -6.1844807510e-04 2.8817576628e+00 -4.9913506871e+00 2.8817576628e+00 4.9913506871e+00 
91600 6.0379104160e+00 -6.1454186825e-04 2.8817683932e+00 -4.9913692727e+00 2.8817683932e+00 4.9913692727e+00 
91700 6.0379103996e+00 -6.1066144353e-04 2.8817790558e+00 -4.9913877408e+00 2.8817790558e+00 4.9913877408e+00 
91800 6.0379103835e+00 -6.0680661876e-04 2.8817896510e+00 -4.9914060923e+00 2.8817896510e+00 4.9914060923e+00 
91900 6.0379103675e+00 -6.0297721317e-04 2.8818001793e+00 -4.9914243278e+00 2.8818001793e+00 4.9914243278e+00 
92000 6.0379103518e+00 -5.9917304733e-04 2.8818106411e+00 -4.9914424482e+00 2.8818106411e+00 4.9914424482e+00 
92100 6.0379103362e+00 -5.9539394323e-04 2.8818210369e+00 -4.9914604542e+00 2.8818210369e+00 4.9914604542e+00 
92200 6.0379103208e+00 -5.9163972420e-04 2.8818313671e+00 -4.9914783466e+00 2.8818313671e+00 4.9914783466e+00 
92300 6.0379103057e+00 -5.8791021490e-04 2.8818416321e+00 -4.9914961261e+00 2.8818416321e+00 4.9914961261e+00 
92400 6.0379102907e+00 -5.8420524135e-04 2.8818518323e+00 -4.9915137935e+00 2.8818518323e+00 4.9915137935e+00 
92500 6.0379102758e+00 -5.8052463091e-04 2.8818619683e+00 -4.9915313495e+00 2.8818619683e+00 4.9915313495e+00 
92600 6.0379102612e+00 -5.7686821223e-04 2.8818720403e+00 -4.9915487948e+00 2.8818720403e+00 4.9915487948e+00 
92700 6.0379102467e+00 -5.7323581527e-04 2.8818820489e+00 -4.9915661301e+00 2.8818820489e+00 4.9915661301e+00 
92800 6.0379102325e+00 -5.6962727129e-04 2.8818919944e+00 -4.9915833563e+00 2.8818919944e+00 4.9915833563e+00 
92900 6.0379102184e+00 -5.6604241284e-04 2.8819018773e+00 -4.9916004739e+00 2.8819018773e+00 4.9916004739e+00 
93000 6.0379102044e+00 -5.6248107374e-04 2.8819116979e+00 -4.9916174838e+00 2.8819116979e+00 4.9916174838e+00 
93100 6.0379101906e+00 -5.5894308907e-04 2.8819214568e+00 -4.9916343865e+00 2.8819214568e+00 4.9916343865e+00 
93200 6.0379101770e+00 -5.5542829517e-04 2.8819311542e+00 -4.9916511829e+00 2.8819311542e+00 4.9916511829e+00 
93300 6.0379101636e+00 -5.5193652961e-04 2.8819407906e+00 -4.9916678737e+00 2.8819407906e+00 4.9916678737e+00 
93400 6.0379101503e+00 -5.4846763120e-04 2.8819503664e+00 -4.9916844594e+00 2.8819503664e+00 4.9916844594e+00 
93500 6.0379101372e+00 -5.4502143999e-04 2.8819598819e+00 -4.9917009409e+00 2.8819598819e+00 4.9917009409e+00 
93600 6.0379101243e+00 -5.4159779721e-04 2.8819693377e+00 -4.9917173187e+00 2.8819693377e+00 4.9917173187e+00 
93700 6.0379101115e+00 -5.3819654532e-04 2.8819787340e+00 -4.9917335936e+00 2.8819787340e+00 4.9917335936e+00 
93800 6.0379100989e+00 -5.3481752797e-04 2.8819880713e+00 -4.9917497662e+00 2.8819880713e+00 4.9917497662e+00 
93900 6.0379100864e+00 -5.3146058998e-04 2.8819973499e+00 -4.9917658373e+00 2.8819973499e+00 4.9917658373e+00 
94000 6.0379100741e+00 -5.2812557735e-04 2.8820065703e+00 -4.9917818074e+00 2.8820065703e+00 4.9917818074e+00 
94100 6.0379100619e+00 -5.2481233725e-04 2.8820157327e+00 -4.9917976773e+00 2.8820157327e+00 4.9917976773e+00 
94200 6.0379100498e+00 -5.2152071800e-04 2.8820248377e+00 -4.9918134475e+00 2.8820248377e+00 4.9918134475e+00 
94300 6.0379100380e+00 -5.1825056906e-04 2.8820338855e+00 -4.9918291188e+00 2.8820338855e+00 4.9918291188e+00 
94400 6.0379100262e+00 -5.1500174105e-04 2.8820428766e+00 -4.9918446918e+00 2.8820428766e+00 4.9918446918e+00 
94500 6.0379100146e+00 -5.1177408569e-04 2.8820518112e+00 -4.9918601671e+00 2.8820518112e+00 4.9918601671e+00 
94600 6.0379100032e+00 -5.0856745583e-04 2.8820606899e+00 -4.9918755454e+00 2.8820606899e+00 4.9918755454e+00 
94700 6.0379099919e+00 -5.0538170543e-04 2.8820695129e+00 -4.9918908272e+00 2.8820695129e+00 4.9918908272e+00 
94800 6.0379099807e+00 -5.0221668954e-04 2.8820782806e+00 -4.9919060133e+00 2.8820782806e+00 4.9919060133e+00 
94900 6.0379099697e+00 -4.9907226431e-04 2.8820869933e+00 -4.9919211043e+00 2.8820869933e+00 4.9919211043e+00 
95000 6.0379099588e+00 -4.9594828698e-04 2.8820956515e+00 -4.9919361007e+00 2.8820956515e+00 4.9919361007e+00 
95100 6.0379099480e+00 -4.9284461584e-04 2.8821042555e+00 -4.9919510032e+00 2.8821042555e+00 4.9919510032e+00 
95200 6.0379099374e+00 -4.8976111027e-04 2.8821128055e+00 -4.9919658123e+00 2.8821128055e+00 4.9919658123e+00 
95300 6.0379099268e+00 -4.8669763070e-04 2.8821213021e+00 -4.9919805288e+00 2.8821213021e+00 4.9919805288e+00 
95400 6.0379099165e+00 -4.8365403858e-04 2.8821297455e+00 -4.9919951532e+00 2.8821297455e+00 4.9919951532e+00 
95500 6.0379099062e+00 -4.8063019644e-04 2.8821381361e+00 -4.9920096861e+00 2.8821381361e+00 4.9920096861e+00 
95600 6.0379098961e+00 -4.7762596782e-04 2.8821464742e+00 -4.9920241281e+00 2.8821464742e+00 4.9920241281e+00 
95700 6.0379098861e+00 -4.7464121728e-04 2.8821547601e+00 -4.9920384798e+00 2.8821547601e+00 4.9920384798e+00 
95800 6.0379098762e+00 -4.7167581040e-04 2.8821629942e+00 -4.9920527417e+00 2.8821629942e+00 4.9920527417e+00 
95900 6.0379098664e+00 -4.6872961377e-04 2.8821711769e+00 -4.9920669145e+00 2.8821711769e+00 4.9920669145e+00 
96000 6.0379098568e+00 -4.6580249496e-04 2.8821793085e+00 -4.9920809988e+00 2.8821793085e+00 4.9920809988e+00 
96100 6.0379098473e+00 -4.6289432255e-04 2.8821873892e+00 -4.9920949950e+00 2.8821873892e+00 4.9920949950e+00 
96200 6.0379098379e+00 -4.6000496609e-04 2.8821954195e+00 -4.9921089039e+00 2.8821954195e+00 4.9921089039e+00 
96300 6.0379098286e+00 -4.5713429612e-04 2.8822033996e+00 -4.9921227258e+00 2.8822033996e+00 4.9921227258e+00 
96400 6.0379098194e+00 -4.5428218412e-04 2.8822113299e+00 -4.9921364615e+00 2.8822113299e+00 4.9921364615e+00 
96500 6.0379098104e+00 -4.5144850254e-04 2.8822192107e+00 -4.9921501114e+00 2.8822192107e+00 4.9921501114e+00 
96600 6.0379098014e+00 -4.4863312479e-04 2.8822270423e+00 -4.9921636762e+00 2.8822270423e+00 4.9921636762e+00 
96700 6.0379097926e+00 -4.4583592522e-04 2.8822348250e+00 -4.9921771563e+00 2.8822348250e+00 4.9921771563e+00 
96800 6.0379097838e+00 -4.4305677910e-04 2.8822425593e+00 -4.9921905524e+00 2.8822425593e+00 4.9921905524e+00 
96900 6.0379097752e+00 -4.4029556264e-04 2.8822502452e+00 -4.9922038649e+00 2.8822502452e+00 4.9922038649e+00 
97000 6.0379097667e+00 -4.3755215297e-04 2.8822578833e+00 -4.9922170944e+00 2.8822578833e+00 4.9922170944e+00 
97100 6.0379097583e+00 -4.3482642813e-04 2.8822654737e+00 -4.9922302414e+00 2.8822654737e+00 4.9922302414e+00 
97200 6.0379097499e+00 -4.3211826707e-04 2.8822730169e+00 -4.9922433065e+00 2.8822730169e+00 4.9922433065e+00 
97300 6.0379097417e+00 -4.2942754964e-04 2.8822805130e+00 -4.9922562902e+00 2.8822805130e+00 4.9922562902e+00 
97400 6.0379097336e+00 -4.2675415656e-04 2.8822879625e+00 -4.9922691930e+00 2.8822879625e+00 4.9922691930e+00 
97500 6.0379097256e+00 -4.2409796946e-04 2.8822953655e+00 -4.9922820155e+00 2.8822953655e+00 4.9922820155e+00 
97600 6.0379097177e+00 -4.2145887084e-04 2.8823027225e+00 -4.9922947581e+00 2.8823027225e+00 4.9922947581e+00 
97700 6.0379097099e+00 -4.1883674405e-04 2.8823100336e+00 -4.9923074214e+00 2.8823100336e+00 4.9923074214e+00 
97800 6.0379097022e+00 -4.1623147334e-04 2.8823172993e+00 -4.9923200058e+00 2.8823172993e+00 4.9923200058e+00 
97900 6.0379096945e+00 -4.1364294379e-04 2.8823245197e+00 -4.9923325120e+00 2.8823245197e+00 4.9923325120e+00 
98000 6.0379096870e+00 -4.1107104132e-04 2.8823316952e+00 -4.9923449404e+00 2.8823316952e+00 4.9923449404e+00 
98100 6.0379096796e+00 -4.0851565272e-04 2.8823388261e+00 -4.9923572914e+00 2.8823388261e+00 4.9923572914e+00 
98200 6.0379096722e+00 -4.0597666560e-04 2.8823459126e+00 -4.9923695656e+00 2.8823459126e+00 4.9923695656e+00 
98300 6.0379096650e+00 -4.0345396839e-04 2.8823529551e+00 -4.9923817636e+00 2.8823529551e+00 4.9923817636e+00 
98400 6.0379096578e+00 -4.0094745037e-04 2.8823599538e+00 -4.9923938857e+00 2.8823599538e+00 4.9923938857e+00 
98500 6.0379096507e+00 -3.9845700160e-04 2.8823669090e+00 -4.9924059324e+00 2.8823669090e+00 4.9924059324e+00 
98600 6.0379096437e+00 -3.9598251298e-04 2.8823738210e+00 -4.9924179043e+00 2.8823738210e+00 4.9924179043e+00 
98700 6.0379096368e+00 -3.9352387619e-04 2.8823806900e+00 -4.9924298018e+00 2.8823806900e+00 4.9924298018e+00 
98800 6.0379096300e+00 -3.9108098373e-04 2.8823875164e+00 -4.9924416254e+00 2.8823875164e+00 4.9924416254e+00 
98900 6.0379096232e+00 -3.8865372887e-04 2.8823943003e+00 -4.9924533756e+00 2.8823943003e+00 4.9924533756e+00 
99000 6.0379096166e+00 -3.8624200566e-04 2.8824010422e+00 -4.9924650529e+00 2.8824010422e+00 4.9924650529e+00 
99100 6.0379096100e+00 -3.8384570895e-04 2.8824077422e+00 -4.9924766576e+00 2.8824077422e+00 4.9924766576e+00 
99200 6.0379096035e+00 -3.8146473434e-04 2.8824144006e+00 -4.9924881904e+00 2.8824144006e+00 4.9924881904e+00 
99300 6.0379095971e+00 -3.7909897820e-04 2.8824210177e+00 -4.9924996515e+00 2.8824210177e+00 4.9924996515e+00 
99400 6.0379095908e+00 -3.7674833767e-04 2.8824275938e+00 -4.9925110416e+00 2.8824275938e+00 4.9925110416e+00 
99500 6.0379095845e+00 -3.7441271064e-04 2.8824341291e+00 -4.9925223610e+00 2.8824341291e+00 4.9925223610e+00 
99600 6.0379095783e+00 -3.7209199572e-04 2.8824406238e+00 -4.9925336102e+00 2.8824406238e+00 4.9925336102e+00 
99700 6.0379095722e+00 -3.6978609230e-04 2.8824470783e+00 -4.9925447897e+00 2.8824470783e+00 4.9925447897e+00 
99800 6.0379095662e+00 -3.6749490048e-04 2.8824534927e+00 -4.9925558998e+00 2.8824534927e+00 4.9925558998e+00 
99900 6.0379095603e+00 -3.6521832110e-04 2.8824598674e+00 -4.9925669411e+00 2.8824598674e+00 4.9925669411e+00 
100000 6.0379095544e+00 -3.6295625572e-04 2.8824662026e+00 -4.9925779140e+00 2.8824662026e+00 4.9925779140e+00 
100100 6.0379095486e+00 -3.6070860661e-04 2.8824724985e+00 -4.9925888189e+00 2.8824724985e+00 4.9925888189e+00 
100200 6.0379095428e+00 -3.5847527677e-04 2.8824787555e+00 -4.9925996562e+00 2.8824787555e+00 4.9925996562e+00 
100300 6.0379095372e+00 -3.5625616990e-04 2.8824849736e+00 -4.9926104264e+00 2.8824849736e+00 4.9926104264e+00 
100400 6.0379095316e+00 -3.5405119038e-04 2.8824911533e+00 -4.9926211299e+00 2.8824911533e+00 4.9926211299e+00 
100500 6.0379095260e+00 -3.5186024331e-04 2.8824972947e+00 -4.9926317671e+00 2.8824972947e+00 4.9926317671e+00 
100600 6.0379095206e+00 -3.4968323447e-04 2.8825033981e+00 -4.9926423385e+00 2.8825033981e+00 4.9926423385e+00 
100700 6.0379095152e+00 -3.4752007033e-04 2.8825094637e+00 -4.9926528445e+00 2.8825094637e+00 4.9926528445e+00 
100800 6.0379095099e+00 -3.4537065804e-04 2.8825154918e+00 -4.9926632854e+00 2.8825154918e+00 4.9926632854e+00 
100900 6.0379095046e+00 -3.4323490540e-04 2.8825214826e+00 -4.9926736618e+00 2.8825214826e+00 4.9926736618e+00 
101000 6.0379094994e+00 -3.4111272091e-04 2.8825274363e+00 -4.9926839739e+00 2.8825274363e+00 4.9926839739e+00 
101100 6.0379094943e+00 -3.3900401371e-04 2.8825333532e+00 -4.9926942223e+00 2.8825333532e+00 4.9926942223e+00 
101200 6.0379094892e+00 -3.3690869362e-04 2.8825392336e+00 -4.9927044073e+00 2.8825392336e+00 4.9927044073e+00 
101300 6.0379094842e+00 -3.3482667109e-04 2.8825450775e+00 -4.9927145294e+00 2.8825450775e+00 4.9927145294e+00 
101400 6.0379094793e+00 -3.3275785722e-04 2.8825508853e+00 -4.9927245888e+00 2.8825508853e+00 4.9927245888e+00 
101500 6.0379094744e+00 -3.3070216378e-04 2.8825566573e+00 -4.9927345861e+00 2.8825566573e+00 4.9927345861e+00 
101600 6.0379094695e+00 -3.2865950313e-04 2.8825623935e+00 -4.9927445216e+00 2.8825623935e+00 4.9927445216e+00 
101700 6.0379094648e+00 -3.2662978830e-04 2.8825680944e+00 -4.9927543957e+00 2.8825680944e+00 4.9927543957e+00 
101800 6.0379094601e+00 -3.2461293294e-04 2.8825737600e+00 -4.9927642088e+00 2.8825737600e+00 4.9927642088e+00 
101900 6.0379094554e+00 -3.2260885131e-04 2.8825793906e+00 -4.9927739613e+00 2.8825793906e+00 4.9927739613e+00 
102000 6.0379094508e+00 -3.2061745830e-04 2.8825849864e+00 -4.9927836536e+00 2.8825849864e+00 4.9927836536e+00 
102100 6.0379094463e+00 -3.1863866940e-04 2.8825905477e+00 -4.9927932861e+00 2.8825905477e+00 4.9927932861e+00 
102200 6.0379094418e+00 -3.1667240072e-04 2.8825960747e+00 -4.9928028590e+00 2.8825960747e+00 4.9928028590e+00 
102300 6.0379094374e+00 -3.1471856897e-04 2.8826015675e+00 -4.9928123729e+00 2.8826015675e+00 4.9928123729e+00 
102400 6.0379094330e+00 -3.1277709144e-04 2.8826070264e+00 -4.9928218280e+00 2.8826070264e+00 4.9928218280e+00 
102500 6.0379094287e+00 -3.1084788605e-04 2.8826124517e+00 -4.9928312248e+00 2.8826124517e+00 4.9928312248e+00 
102600 6.0379094245e+00 -3.0893087128e-04 2.8826178435e+00 -4.9928405637e+00 2.8826178435e+00 4.9928405637e+00 
102700 6.0379094203e+00 -3.0702596620e-04 2.8826232020e+00 -4.9928498449e+00 2.8826232020e+00 4.9928498449e+00 
102800 6.0379094161e+00 -3.0513309047e-04 2.8826285274e+00 -4.9928590689e+00 2.8826285274e+00 4.9928590689e+00 
102900 6.0379094120e+00 -3.0325216431e-04 2.8826338201e+00 -4.9928682359e+00 2.8826338201e+00 4.9928682359e+00 
103000 6.0379094080e+00 -3.0138310852e-04 2.8826390800e+00 -4.9928773465e+00 2.8826390800e+00 4.9928773465e+00 
103100 6.0379094040e+00 -2.9952584446e-04 2.8826443076e+00 -4.9928864009e+00 2.8826443076e+00 4.9928864009e+00 
103200 6.0379094000e+00 -2.9768029406e-04 2.8826495029e+00 -4.9928953995e+00 2.8826495029e+00 4.9928953995e+00 
103300 6.0379093961e+00 -2.9584637981e-04 2.8826546662e+00 -4.9929043426e+00 2.8826546662e+00 4.9929043426e+00 
103400 6.0379093922e+00 -2.9402402474e-04 2.8826597977e+00 -4.9929132306e+00 2.8826597977e+00 4.9929132306e+00 
103500 6.0379093884e+00 -2.9221315243e-04 2.8826648976e+00 -4.9929220639e+00 2.8826648976e+00 4.9929220639e+00 
103600 6.0379093847e+00 -2.9041368702e-04 2.8826699661e+00 -4.9929308427e+00 2.8826699661e+00 4.9929308427e+00 
103700 6.0379093810e+00 -2.8862555317e-04 2.8826750033e+00 -4.9929395674e+00 2.8826750033e+00 4.9929395674e+00 
103800 6.0379093773e+00 -2.8684867609e-04 2.8826800095e+00 -4.9929482384e+00 2.8826800095e+00 4.9929482384e+00 
103900 6.0379093737e+00 -2.8508298153e-04 2.8826849849e+00 -4.9929568561e+00 2.8826849849e+00 4.9929568561e+00 
104000 6.0379093701e+00 -2.8332839574e-04 2.8826899296e+00 -4.9929654206e+00 2.8826899296e+00 4.9929654206e+00 
104100 6.0379093666e+00 -2.8158484551e-04 2.8826948440e+00 -4.9929739324e+00 2.8826948440e+00 4.9929739324e+00 
104200 6.0379093631e+00 -2.7985225815e-04 2.8826997280e+00 -4.9929823919e+00 2.8826997280e+00 4.9929823919e+00 
104300 6.0379093596e+00 -2.7813056149e-04 2.8827045820e+00 -4.9929907992e+00 2.8827045820e+00 4.9929907992e+00 
104400 6.0379093562e+00 -2.7641968386e-04 2.8827094061e+00 -4.9929991549e+00 2.8827094061e+00 4.9929991549e+00 
104500 6.0379093529e+00 -2.7471955411e-04 2.8827142006e+00 -4.9930074591e+00 2.8827142006e+00 4.9930074591e+00 
104600 6.0379093495e+00 -2.7303010158e-04 2.8827189655e+00 -4.9930157122e+00 2.8827189655e+00 4.9930157122e+00 
104700 6.0379093463e+00 -2.7135125613e-04 2.8827237012e+00 -4.9930239146e+00 2.8827237012e+00 4.9930239146e+00 
104800 6.0379093430e+00 -2.6968294808e-04 2.8827284077e+00 -4.9930320665e+00 2.8827284077e+00 4.9930320665e+00 
104900 6.0379093398e+00 -2.6802510829e-04 2.8827330852e+00 -4.9930401683e+00 2.8827330852e+00 4.9930401683e+00 
105000 6.0379093367e+00 -2.6637766806e-04 2.8827377340e+00 -4.9930482203e+00 2.8827377340e+00 4.9930482203e+00 
105100 6.0379093335e+00 -2.6474055922e-04 2.8827423543e+00 -4.9930562227e+00 2.8827423543e+00 4.9930562227e+00 
105200 6.0379093305e+00 -2.6311371404e-04 2.8827469461e+00 -4.9930641760e+00 2.8827469461e+00 4.9930641760e+00 
105300 6.0379093274e+00 -2.6149706530e-04 2.8827515097e+00 -4.9930720804e+00 2.8827515097e+00 4.9930720804e+00 
105400 6.0379093244e+00 -2.5989054622e-04 2.8827560452e+00 -4.9930799362e+00 2.8827560452e+00 4.9930799362e+00 
105500 6.0379093214e+00 -2.5829409053e-04 2.8827605529e+00 -4.9930877437e+00 2.8827605529e+00 4.9930877437e+00 
105600 6.0379093185e+00 -2.5670763240e-04 2.8827650329e+00 -4.9930955032e+00 2.8827650329e+00 4.9930955032e+00 
105700 6.0379093156e+00 -2.5513110645e-04 2.8827694853e+00 -4.9931032151e+00 2.8827694853e+00 4.9931032151e+00 
105800 6.0379093127e+00 -2.5356444780e-04 2.8827739104e+00 -4.9931108796e+00 2.8827739104e+00 4.9931108796e+00 
105900 6.0379093099e+00 -2.5200759199e-04 2.8827783084e+00 -4.9931184970e+00 2.8827783084e+00 4.9931184970e+00 
106000 6.0379093071e+00 -2.5046047502e-04 2.8827826793e+00 -4.9931260677e+00 2.8827826793e+00 4.9931260677e+00 
106100 6.0379093044e+00 -2.4892303335e-04 2.8827870234e+00 -4.9931335919e+00 2.8827870234e+00 4.9931335919e+00 
106200 6.0379093017e+00 -2.4739520388e-04 2.8827913408e+00 -4.9931410698e+00 2.8827913408e+00 4.9931410698e+00 
106300 6.0379092990e+00 -2.4587692394e-04 2.8827956317e+00 -4.9931485019e+00 2.8827956317e+00 4.9931485019e+00 
106400 6.0379092963e+00 -2.4436813131e-04 2.8827998962e+00 -4.9931558883e+00 2.8827998962e+00 4.9931558883e+00 
106500 6.0379092937e+00 -2.4286876421e-04 2.8828041346e+00 -4.9931632294e+00 2.8828041346e+00 4.9931632294e+00 
106600 6.0379092911e+00 -2.4137876127e-04 2.8828083470e+00 -4.9931705254e+00 2.8828083470e+00 4.9931705254e+00 
106700 6.0379092886e+00 -2.3989806157e-04 2.8828125335e+00 -4.9931777767e+00 2.8828125335e+00 4.9931777767e+00 
106800 6.0379092860e+00 -2.3842660462e-04 2.8828166943e+00 -4.9931849835e+00 2.8828166943e+00 4.9931849835e+00 
106900 6.0379092835e+00 -2.3696433032e-04 2.8828208296e+00 -4.9931921460e+00 2.8828208296e+00 4.9931921460e+00 
107000 6.0379092811e+00 -2.3551117901e-04 2.8828249396e+00 -4.9931992647e+00 2.8828249396e+00 4.9931992647e+00 
107100 6.0379092787e+00 -2.3406709145e-04 2.8828290243e+00 -4.9932063396e+00 2.8828290243e+00 4.9932063396e+00 
107200 6.0379092763e+00 -2.3263200880e-04 2.8828330840e+00 -4.9932133712e+00 2.8828330840e+00 4.9932133712e+00 
107300 6.0379092739e+00 -2.3120587264e-04 2.8828371188e+00 -4.9932203596e+00 2.8828371188e+00 4.9932203596e+00 
107400 6.0379092715e+00 -2.2978862495e-04 2.8828411288e+00 -4.9932273052e+00 2.8828411288e+00 4.9932273052e+00 
107500 6.0379092692e+00 -2.2838020811e-04 2.8828451143e+00 -4.9932342083e+00 2.8828451143e+00 4.9932342083e+00 
107600 6.0379092669e+00 -2.2698056490e-04 2.8828490753e+00 -4.9932410689e+00 2.8828490753e+00 4.9932410689e+00 
107700 6.0379092647e+00 -2.2558963851e-04 2.8828530120e+00 -4.9932478876e+00 2.8828530120e+00 4.9932478876e+00 
107800 6.0379092625e+00 -2.2420737251e-04 2.8828569246e+00 -4.9932546644e+00 2.8828569246e+00 4.9932546644e+00 
107900 6.0379092603e+00 -2.2283371086e-04 2.8828608133e+00 -4.9932613997e+00 2.8828608133e+00 4.9932613997e+00 
108000 6.0379092581e+00 -2.2146859792e-04 2.8828646781e+00 -4.9932680938e+00 2.8828646781e+00 4.9932680938e+00 
108100 6.0379092559e+00 -2.2011197841e-04 2.8828685192e+00 -4.9932747468e+00 2.8828685192e+00 4.9932747468e+00 
108200 6.0379092538e+00 -2.1876379748e-04 2.8828723368e+00 -4.9932813590e+00 2.8828723368e+00 4.9932813590e+00 
108300 6.0379092517e+00 -2.1742400060e-04 2.8828761310e+00 -4.9932879308e+00 2.8828761310e+00 4.9932879308e+00 
108400 6.0379092497e+00 -2.1609253366e-04 2.8828799019e+00 -4.9932944623e+00 2.8828799019e+00 4.9932944623e+00 
108500 6.0379092476e+00 -2.1476934290e-04 2.8828836498e+00 -4.9933009538e+00 2.8828836498e+00 4.9933009538e+00 
108600 6.0379092456e+00 -2.1345437495e-04 2.8828873747e+00 -4.9933074055e+00 2.8828873747e+00 4.9933074055e+00 
108700 6.0379092436e+00 -2.1214757679e-04 2.8828910768e+00 -4.9933138177e+00 2.8828910768e+00 4.9933138177e+00 
108800 6.0379092417e+00 -2.1084889577e-04 2.8828947562e+00 -4.9933201906e+00 2.8828947562e+00 4.9933201906e+00 
108900 6.0379092397e+00 -2.0955827961e-04 2.8828984131e+00 -4.9933265246e+00 2.8828984131e+00 4.9933265246e+00 
109000 6.0379092378e+00 -2.0827567637e-04 2.8829020476e+00 -4.9933328197e+00 2.8829020476e+00 4.9933328197e+00 
109100 6.0379092359e+00 -2.0700103450e-04 2.8829056599e+00 -4.9933390763e+00 2.8829056599e+00 4.9933390763e+00 
109200 6.0379092340e+00 -2.0573430277e-04 2.8829092500e+00 -4.9933452947e+00 2.8829092500e+00 4.9933452947e+00 
109300 6.0379092322e+00 -2.0447543033e-04 2.8829128182e+00 -4.9933514749e+00 2.8829128182e+00 4.9933514749e+00 
109400 6.0379092304e+00 -2.0322436664e-04 2.8829163645e+00 -4.9933576173e+00 2.8829163645e+00 4.9933576173e+00 
109500 6.0379092286e+00 -2.0198106156e-04 2.8829198892e+00 -4.9933637222e+00 2.8829198892e+00 4.9933637222e+00 
109600 6.0379092268e+00 -2.0074546526e-04 2.8829233922e+00 -4.9933697897e+00 2.8829233922e+00 4.9933697897e+00 
109700 6.0379092250e+00 -1.9951752824e-04 2.8829268739e+00 -4.9933758200e+00 2.8829268739e+00 4.9933758200e+00 
109800 6.0379092233e+00 -1.9829720136e-04 2.8829303342e+00 -4.9933818135e+00 2.8829303342e+00 4.9933818135e+00 
109900 6.0379092216e+00 -1.9708443583e-04 2.8829337734e+00 -4.9933877703e+00 2.8829337734e+00 4.9933877703e+00 
110000 6.0379092199e+00 -1.9587918315e-04 2.8829371915e+00 -4.9933936907e+00 2.8829371915e+00 4.9933936907e+00 
110100 6.0379092182e+00 -1.9468139518e-04 2.8829405887e+00 -4.9933995748e+00 2.8829405887e+00 4.9933995748e+00 
110200 6.0379092166e+00 -1.9349102412e-04 2.8829439651e+00 -4.9934054230e+00 2.8829439651e+00 4.9934054230e+00 
110300 6.0379092149e+00 -1.9230802247e-04 2.8829473209e+00 -4.9934112354e+00 2.8829473209e+00 4.9934112354e+00 
110400 6.0379092133e+00 -1.9113234306e-04 2.8829506562e+00 -4.9934170122e+00 2.8829506562e+00 4.9934170122e+00 
110500 6.0379092117e+00 -1.8996393905e-04 2.8829539711e+00 -4.9934227538e+00 2.8829539711e+00 4.9934227538e+00 
110600 6.0379092102e+00 -1.8880276391e-04 2.8829572657e+00 -4.9934284602e+00 2.8829572657e+00 4.9934284602e+00 
110700 6.0379092086e+00 -1.8764877143e-04 2.8829605401e+00 -4.9934341317e+00 2.8829605401e+00 4.9934341317e+00 
110800 6.0379092071e+00 -1.8650191573e-04 2.8829637946e+00 -4.9934397686e+00 2.8829637946e+00 4.9934397686e+00 
110900 6.0379092056e+00 -1.8536215120e-04 2.8829670291e+00 -4.9934453710e+00 2.8829670291e+00 4.9934453710e+00 
111000 6.0379092041e+00 -1.8422943259e-04 2.8829702439e+00 -4.9934509392e+00 2.8829702439e+00 4.9934509392e+00 
111100 6.0379092026e+00 -1.8310371492e-04 2.8829734390e+00 -4.9934564733e+00 2.8829734390e+00 4.9934564733e+00 
111200 6.0379092012e+00 -1.8198495354e-04 2.8829766147e+00 -4.9934619736e+00 2.8829766147e+00 4.9934619736e+00 
111300 6.0379091997e+00 -1.8087310407e-04 2.8829797709e+00 -4.9934674403e+00 2.8829797709e+00 4.9934674403e+00 
111400 6.0379091983e+00 -1.7976812247e-04 2.8829829078e+00 -4.9934728736e+00 2.8829829078e+00 4.9934728736e+00 
111500 6.0379091969e+00 -1.7866996498e-04 2.8829860255e+00 -4.9934782737e+00 2.8829860255e+00 4.9934782737e+00 
111600 6.0379091955e+00 -1.7757858812e-04 2.8829891242e+00 -4.9934836408e+00 2.8829891242e+00 4.9934836408e+00 
111700 6.0379091942e+00 -1.7649394874e-04 2.8829922040e+00 -4.9934889751e+00 2.8829922040e+00 4.9934889751e+00 
111800 6.0379091928e+00 -1.7541600395e-04 2.8829952649e+00 -4.9934942768e+00 2.8829952649e+00 4.9934942768e+00 
111900 6.0379091915e+00 -1.7434471115e-04 2.8829983072e+00 -4.9934995462e+00 2.8829983072e+00 4.9934995462e+00 
112000 6.0379091902e+00 -1.7328002806e-04 2.8830013309e+00 -4.9935047833e+00 2.8830013309e+00 4.9935047833e+00 
112100 6.0379091889e+00 -1.7222191265e-04 2.8830043361e+00 -4.9935099885e+00 2.8830043361e+00 4.9935099885e+00 
112200 6.0379091876e+00 -1.7117032320e-04 2.8830073229e+00 -4.9935151619e+00 2.8830073229e+00 4.9935151619e+00 
112300 6.0379091863e+00 -1.7012521824e-04 2.8830102915e+00 -4.9935203036e+00 2.8830102915e+00 4.9935203036e+00 
112400 6.0379091851e+00 -1.6908655660e-04 2.8830132420e+00 -4.9935254140e+00 2.8830132420e+00 4.9935254140e+00 
112500 6.0379091838e+00 -1.6805429739e-04 2.8830161745e+00 -4.9935304932e+00 2.8830161745e+00 4.9935304932e+00 
112600 6.0379091826e+00 -1.6702840000e-04 2.8830190890e+00 -4.9935355414e+00 2.8830190890e+00 4.9935355414e+00 
112700 6.0379091814e+00 -1.6600882406e-04 2.8830219858e+00 -4.9935405587e+00 2.8830219858e+00 4.9935405587e+00 
112800 6.0379091802e+00 -1.6499552950e-04 2.8830248648e+00 -4.9935455454e+00 2.8830248648e+00 4.9935455454e+00 
112900 6.0379091790e+00 -1.6398847652e-04 2.8830277264e+00 -4.9935505017e+00 2.8830277264e+00 4.9935505017e+00 
113000 6.0379091779e+00 -1.6298762557e-04 2.8830305704e+00 -4.9935554277e+00 2.8830305704e+00 4.9935554277e+00 
113100 6.0379091767e+00 -1.6199293738e-04 2.8830333971e+00 -4.9935603236e+00 2.8830333971e+00 4.9935603236e+00 
113200 6.0379091756e+00 -1.6100437293e-04 2.8830362065e+00 -4.9935651897e+00 2.8830362065e+00 4.9935651897e+00 
113300 6.0379091745e+00 -1.6002189347e-04 2.8830389987e+00 -4.9935700260e+00 2.8830389987e+00 4.9935700260e+00 
113400 6.0379091734e+00 -1.5904546051e-04 2.8830417740e+00 -4.9935748329e+00 2.8830417740e+00 4.9935748329e+00 
113500 6.0379091723e+00 -1.5807503582e-04 2.8830445323e+00 -4.9935796104e+00 2.8830445323e+00 4.9935796104e+00 
113600 6.0379091712e+00 -1.5711058141e-04 2.8830472737e+00 -4.9935843587e+00 2.8830472737e+00 4.9935843587e+00 
113700 6.0379091702e+00 -1.5615205956e-04 2.8830499985e+00 -4.9935890781e+00 2.8830499985e+00 4.9935890781e+00 
113800 6.0379091691e+00 -1.5519943280e-04 2.8830527066e+00 -4.9935937687e+00 2.8830527066e+00 4.9935937687e+00 
113900 6.0379091681e+00 -1.5425266389e-04 2.8830553981e+00 -4.9935984306e+00 2.8830553981e+00 4.9935984306e+00 
114000 6.0379091670e+00 -1.5331171587e-04 2.8830580733e+00 -4.9936030641e+00 2.8830580733e+00 4.9936030641e+00 
114100 6.0379091660e+00 -1.5237655201e-04 2.8830607321e+00 -4.9936076694e+00 2.8830607321e+00 4.9936076694e+00 
114200 6.0379091650e+00 -1.5144713582e-04 2.8830633748e+00 -4.9936122465e+00 2.8830633748e+00 4.9936122465e+00 
114300 6.0379091641e+00 -1.5052343105e-04 2.8830660013e+00 -4.9936167958e+00 2.8830660013e+00 4.9936167958e+00 
114400 6.0379091631e+00 -1.4960540172e-04 2.8830686117e+00 -4.9936213172e+00 2.8830686117e+00 4.9936213172e+00 
114500 6.0379091621e+00 -1.4869301205e-04 2.8830712063e+00 -4.9936258111e+00 2.8830712063e+00 4.9936258111e+00 
114600 6.0379091612e+00 -1.4778622652e-04 2.8830737850e+00 -4.9936302776e+00 2.8830737850e+00 4.9936302776e+00 
114700 6.0379091602e+00 -1.4688500985e-04 2.8830763480e+00 -4.9936347169e+00 2.8830763480e+00 4.9936347169e+00 
114800 6.0379091593e+00 -1.4598932698e-04 2.8830788954e+00 -4.9936391290e+00 2.8830788954e+00 4.9936391290e+00 
114900 6.0379091584e+00 -1.4509914309e-04 2.8830814272e+00 -4.9936435143e+00 2.8830814272e+00 4.9936435143e+00 
115000 6.0379091575e+00 -1.4421442358e-04 2.8830839436e+00 -4.9936478728e+00 2.8830839436e+00 4.9936478728e+00 
115100 6.0379091566e+00 -1.4333513411e-04 2.8830864446e+00 -4.9936522047e+00 2.8830864446e+00 4.9936522047e+00 
115200 6.0379091557e+00 -1.4246124052e-04 2.8830889304e+00 -4.9936565103e+00 2.8830889304e+00 4.9936565103e+00 
115300 6.0379091549e+00 -1.4159270893e-04 2.8830914011e+00 -4.9936607895e+00 2.8830914011e+00 4.9936607895e+00 
115400 6.0379091540e+00 -1.4072950563e-04 2.8830938566e+00 -4.9936650427e+00 2.8830938566e+00 4.9936650427e+00 
115500 6.0379091531e+00 -1.3987159718e-04 2.8830962972e+00 -4.9936692699e+00 2.8830962972e+00 4.9936692699e+00 
115600 6.0379091523e+00 -1.3901895032e-04 2.8830987230e+00 -4.9936734714e+00 2.8830987230e+00 4.9936734714e+00 
115700 6.0379091515e+00 -1.3817153205e-04 2.8831011339e+00 -4.9936776473e+00 2.8831011339e+00 4.9936776473e+00 
115800 6.0379091507e+00 -1.3732930956e-04 2.8831035301e+00 -4.9936817977e+00 2.8831035301e+00 4.9936817977e+00 
115900 6.0379091499e+00 -1.3649225025e-04 2.8831059117e+00 -4.9936859228e+00 2.8831059117e+00 4.9936859228e+00 
116000 6.0379091491e+00 -1.3566032177e-04 2.8831082789e+00 -4.9936900227e+00 2.8831082789e+00 4.9936900227e+00 
116100 6.0379091483e+00 -1.3483349195e-04 2.8831106315e+00 -4.9936940977e+00 2.8831106315e+00 4.9936940977e+00 
116200 6.0379091475e+00 -1.3401172884e-04 2.8831129699e+00 -4.9936981478e+00 2.8831129699e+00 4.9936981478e+00 
116300 6.0379091467e+00 -1.3319500072e-04 2.8831152939e+00 -4.9937021732e+00 2.8831152939e+00 4.9937021732e+00 
116400 6.0379091460e+00 -1.3238327604e-04 2.8831176039e+00 -4.9937061741e+00 2.8831176039e+00 4.9937061741e+00 
116500 6.0379091452e+00 -1.3157652350e-04 2.8831198997e+00 -4.9937101506e+00 2.8831198997e+00 4.9937101506e+00 
116600 6.0379091445e+00 -1.3077471197e-04 2.8831221815e+00 -4.9937141029e+00 2.8831221815e+00 4.9937141029e+00 
116700 6.0379091438e+00 -1.2997781056e-04 2.8831244495e+00 -4.9937180310e+00 2.8831244495e+00 4.9937180310e+00 
116800 6.0379091431e+00 -1.2918578854e-04 2.8831267036e+00 -4.9937219353e+00 2.8831267036e+00 4.9937219353e+00 
116900 6.0379091423e+00 -1.2839861541e-04 2.8831289440e+00 -4.9937258157e+00 2.8831289440e+00 4.9937258157e+00 
117000 6.0379091416e+00 -1.2761626087e-04 2.8831311707e+00 -4.9937296725e+00 2.8831311707e+00 4.9937296725e+00 
117100 6.0379091409e+00 -1.2683869482e-04 2.8831333838e+00 -4.9937335058e+00 2.8831333838e+00 4.9937335058e+00 
117200 6.0379091403e+00 -1.2606588733e-04 2.8831355835e+00 -4.9937373157e+00 2.8831355835e+00 4.9937373157e+00 
117300 6.0379091396e+00 -1.2529780869e-04 2.8831377698e+00 -4.9937411025e+00 2.8831377698e+00 4.9937411025e+00 
117400 6.0379091389e+00 -1.2453442940e-04 2.8831399427e+00 -4.9937448661e+00 2.8831399427e+00 4.9937448661e+00 
117500 6.0379091383e+00 -1.2377572011e-04 2.8831421024e+00 -4.9937486068e+00 2.8831421024e+00 4.9937486068e+00 
117600 6.0379091376e+00 -1.2302165169e-04 2.8831442490e+00 -4.9937523247e+00 2.8831442490e+00 4.9937523247e+00 
117700 6.0379091370e+00 -1.2227219520e-04 2.8831463824e+00 -4.9937560200e+00 2.8831463824e+00 4.9937560200e+00 
117800 6.0379091363e+00 -1.2152732188e-04 2.8831485029e+00 -4.9937596928e+00 2.8831485029e+00 4.9937596928e+00 
117900 6.0379091357e+00 -1.2078700316e-04 2.8831506104e+00 -4.9937633431e+00 2.8831506104e+00 4.9937633431e+00 
118000 6.0379091351e+00 -1.2005121067e-04 2.8831527051e+00 -4.9937669713e+00 2.8831527051e+00 4.9937669713e+00 
118100 6.0379091345e+00 -1.1931991619e-04 2.8831547871e+00 -4.9937705773e+00 2.8831547871e+00 4.9937705773e+00 
118200 6.0379091339e+00 -1.1859309172e-04 2.8831568563e+00 -4.9937741614e+00 2.8831568563e+00 4.9937741614e+00 
118300 6.0379091333e+00 -1.1787070943e-04 2.8831589130e+00 -4.9937777236e+00 2.8831589130e+00 4.9937777236e+00 
118400 6.0379091327e+00 -1.1715274167e-04 2.8831609571e+00 -4.9937812641e+00 2.8831609571e+00 4.9937812641e+00 
118500 6.0379091321e+00 -1.1643916097e-04 2.8831629888e+00 -4.9937847831e+00 2.8831629888e+00 4.9937847831e+00 
118600 6.0379091315e+00 -1.1572994002e-04 2.8831650081e+00 -4.9937882806e+00 2.8831650081e+00 4.9937882806e+00 
118700 6.0379091310e+00 -1.1502505173e-04 2.8831670151e+00 -4.9937917568e+00 2.8831670151e+00 4.9937917568e+00 
118800 6.0379091304e+00 -1.1432446915e-04 2.8831690099e+00 -4.9937952119e+00 2.8831690099e+00 4.9937952119e+00 
118900 6.0379091299e+00 -1.1362816551e-04 2.8831709925e+00 -4.9937986459e+00 2.8831709925e+00 4.9937986459e+00 
119000 6.0379091293e+00 -1.1293611424e-04 2.8831729630e+00 -4.9938020589e+00 2.8831729630e+00 4.9938020589e+00 
119100 6.0379091288e+00 -1.1224828890e-04 2.8831749216e+00 -4.9938054512e+00 2.8831749216e+00 4.9938054512e+00 
119200 6.0379091283e+00 -1.1156466326e-04 2.8831768682e+00 -4.9938088229e+00 2.8831768682e+00 4.9938088229e+00 
119300 6.0379091277e+00 -1.1088521123e-04 2.8831788029e+00 -4.9938121740e+00 2.8831788029e+00 4.9938121740e+00 
119400 6.0379091272e+00 -1.1020990690e-04 2.8831807259e+00 -4.9938155046e+00 2.8831807259e+00 4.9938155046e+00 
119500 6.0379091267e+00 -1.0953872455e-04 2.8831826371e+00 -4.9938188150e+00 2.8831826371e+00 4.9938188150e+00 
119600 6.0379091262e+00 -1.0887163860e-04 2.8831845368e+00 -4.9938221053e+00 2.8831845368e+00 4.9938221053e+00 
119700 6.0379091257e+00 -1.0820862362e-04 2.8831864248e+00 -4.9938253754e+00 2.8831864248e+00 4.9938253754e+00 
119800 6.0379091252e+00 -1.0754965439e-04 2.8831883013e+00 -4.9938286257e+00 2.8831883013e+00 4.9938286257e+00 
119900 6.0379091247e+00 -1.0689470583e-04 2.8831901665e+00 -4.9938318562e+00 2.8831901665e+00 4.9938318562e+00 
120000 6.0379091242e+00 -1.0624375300e-04 2.8831920202e+00 -4.9938350670e+00 2.8831920202e+00 4.9938350670e+00 
120100 6.0379091238e+00 -1.0559677115e-04 2.8831938627e+00 -4.9938382582e+00 2.8831938627e+00 4.9938382582e+00 
120200 6.0379091233e+00 -1.0495373570e-04 2.8831956939e+00 -4.9938414301e+00 2.8831956939e+00 4.9938414301e+00 
120300 6.0379091228e+00 -1.0431462218e-04 2.8831975140e+00 -4.9938445826e+00 2.8831975140e+00 4.9938445826e+00 
120400 6.0379091224e+00 -1.0367940632e-04 2.8831993230e+00 -4.9938477158e+00 2.8831993230e+00 4.9938477158e+00 
120500 6.0379091219e+00 -1.0304806400e-04 2.8832011210e+00 -4.9938508301e+00 2.8832011210e+00 4.9938508301e+00 
120600 6.0379091215e+00 -1.0242057124e-04 2.8832029081e+00 -4.9938539253e+00 2.8832029081e+00 4.9938539253e+00 
120700 6.0379091210e+00 -1.0179690423e-04 2.8832046842e+00 -4.9938570017e+00 2.8832046842e+00 4.9938570017e+00 
120800 6.0379091206e+00 -1.0117703930e-04 2.8832064496e+00 -4.9938600594e+00 2.8832064496e+00 4.9938600594e+00 
120900 6.0379091202e+00 -1.0056095294e-04 2.8832082042e+00 -4.9938630984e+00 2.8832082042e+00 4.9938630984e+00 
121000 6.0379091198e+00 -9.9948621787e-05 2.8832099481e+00 -4.9938661190e+00 2.8832099481e+00 4.9938661190e+00 
121100 6.0379091193e+00 -9.9340022634e-05 2.8832116814e+00 -4.9938691211e+00 2.8832116814e+00 4.9938691211e+00 
121200 6.0379091189e+00 -9.8735132418e-05 2.8832134041e+00 -4.9938721050e+00 2.8832134041e+00 4.9938721050e+00 
121300 6.0379091185e+00 -9.8133928222e-05 2.8832151163e+00 -4.9938750706e+00 2.8832151163e+00 4.9938750706e+00 
121400 6.0379091181e+00 -9.7536387282e-05 2.8832168182e+00 -4.9938780183e+00 2.8832168182e+00 4.9938780183e+00 
121500 6.0379091177e+00 -9.6942486977e-05 2.8832185096e+00 -4.9938809480e+00 2.8832185096e+00 4.9938809480e+00 
121600 6.0379091173e+00 -9.6352204827e-05 2.8832201908e+00 -4.9938838598e+00 2.8832201908e+00 4.9938838598e+00 
121700 6.0379091169e+00 -9.5765518505e-05 2.8832218617e+00 -4.9938867539e+00 2.8832218617e+00 4.9938867539e+00 
121800 6.0379091166e+00 -9.5182405817e-05 2.8832235224e+00 -4.9938896304e+00 2.8832235224e+00 4.9938896304e+00 
121900 6.0379091162e+00 -9.4602844718e-05 2.8832251730e+00 -4.9938924893e+00 2.8832251730e+00 4.9938924893e+00 
122000 6.0379091158e+00 -9.4026813301e-05 2.8832268136e+00 -4.9938953309e+00 2.8832268136e+00 4.9938953309e+00 
122100 6.0379091154e+00 -9.3454289795e-05 2.8832284442e+00 -4.9938981552e+00 2.8832284442e+00 4.9938981552e+00 
122200 6.0379091151e+00 -9.2885252579e-05 2.8832300648e+00 -4.9939009622e+00 2.8832300648e+00 4.9939009622e+00 
122300 6.0379091147e+00 -9.2319680163e-05 2.8832316756e+00 -4.9939037522e+00 2.8832316756e+00 4.9939037522e+00 
122400 6.0379091144e+00 -9.1757551189e-05 2.8832332766e+00 -4.9939065251e+00 2.8832332766e+00 4.9939065251e+00 
122500 6.0379091140e+00 -9.1198844447e-05 2.8832348678e+00 -4.9939092812e+00 2.8832348678e+00 4.9939092812e+00 
122600 6.0379091137e+00 -9.0643538855e-05 2.8832364494e+00 -4.9939120205e+00 2.8832364494e+00 4.9939120205e+00 
122700 6.0379091133e+00 -9.0091613464e-05 2.8832380213e+00 -4.9939147432e+00 2.8832380213e+00 4.9939147432e+00 
122800 6.0379091130e+00 -8.9543047459e-05 2.8832395836e+00 -4.9939174492e+00 2.8832395836e+00 4.9939174492e+00 
122900 6.0379091127e+00 -8.8997820166e-05 2.8832411364e+00 -4.9939201388e+00 2.8832411364e+00 4.9939201388e+00 
123000 6.0379091123e+00 -8.8455911030e-05 2.8832426798e+00 -4.9939228119e+00 2.8832426798e+00 4.9939228119e+00 
123100 6.0379091120e+00 -8.7917299637e-05 2.8832442138e+00 -4.9939254689e+00 2.8832442138e+00 4.9939254689e+00 
123200 6.0379091117e+00 -8.7381965698e-05 2.8832457384e+00 -4.9939281096e+00 2.8832457384e+00 4.9939281096e+00 
123300 6.0379091114e+00 -8.6849889053e-05 2.8832472537e+00 -4.9939307342e+00 2.8832472537e+00 4.9939307342e+00 
123400 6.0379091111e+00 -8.6321049672e-05 2.8832487598e+00 -4.9939333429e+00 2.8832487598e+00 4.9939333429e+00 
123500 6.0379091108e+00 -8.5795427650e-05 2.8832502568e+00 -4.9939359357e+00 2.8832502568e+00 4.9939359357e+00 
123600 6.0379091104e+00 -8.5273003209e-05 2.8832517446e+00 -4.9939385127e+00 2.8832517446e+00 4.9939385127e+00 
123700 6.0379091101e+00 -8.4753756698e-05 2.8832532234e+00 -4.9939410740e+00 2.8832532234e+00 4.9939410740e+00 
123800 6.0379091099e+00 -8.4237668587e-05 2.8832546931e+00 -4.9939436196e+00 2.8832546931e+00 4.9939436196e+00 
123900 6.0379091096e+00 -8.3724719475e-05 2.8832561539e+00 -4.9939461498e+00 2.8832561539e+00 4.9939461498e+00 
124000 6.0379091093e+00 -8.3214890083e-05 2.8832576058e+00 -4.9939486646e+00 2.8832576058e+00 4.9939486646e+00 
124100 6.0379091090e+00 -8.2708161248e-05 2.8832590489e+00 -4.9939511641e+00 2.8832590489e+00 4.9939511641e+00 
124200 6.0379091087e+00 -8.2204513937e-05 2.8832604832e+00 -4.9939536484e+00 2.8832604832e+00 4.9939536484e+00 
124300 6.0379091084e+00 -8.1703929230e-05 2.8832619087e+00 -4.9939561175e+00 2.8832619087e+00 4.9939561175e+00 
124400 6.0379091081e+00 -8.1206388333e-05 2.8832633256e+00 -4.9939585716e+00 2.8832633256e+00 4.9939585716e+00 
124500 6.0379091079e+00 -8.0711872568e-05 2.8832647338e+00 -4.9939610107e+00 2.8832647338e+00 4.9939610107e+00 
124600 6.0379091076e+00 -8.0220363371e-05 2.8832661335e+00 -4.9939634350e+00 2.8832661335e+00 4.9939634350e+00 
124700 6.0379091073e+00 -7.9731842303e-05 2.8832675246e+00 -4.9939658445e+00 2.8832675246e+00 4.9939658445e+00 
124800 6.0379091071e+00 -7.9246291037e-05 2.8832689073e+00 -4.9939682393e+00 2.8832689073e+00 4.9939682393e+00 
124900 6.0379091068e+00 -7.8763691364e-05 2.8832702816e+00 -4.9939706196e+00 2.8832702816e+00 4.9939706196e+00 
125000 6.0379091066e+00 -7.8284025187e-05 2.8832716474e+00 -4.9939729854e+00 2.8832716474e+00 4.9939729854e+00 
125100 6.0379091063e+00 -7.7807274524e-05 2.8832730050e+00 -4.9939753367e+00 2.8832730050e+00 4.9939753367e+00 
125200 6.0379091061e+00 -7.7333421511e-05 2.8832743543e+00 -4.9939776738e+00 2.8832743543e+00 4.9939776738e+00 
125300 6.0379091058e+00 -7.6862448387e-05 2.8832756953e+00 -4.9939799966e+00 2.8832756953e+00 4.9939799966e+00 
125400 6.0379091056e+00 -7.6394337513e-05 2.8832770282e+00 -4.9939823052e+00 2.8832770282e+00 4.9939823052e+00 
125500 6.0379091053e+00 -7.5929071355e-05 2.8832783530e+00 -4.9939845998e+00 2.8832783530e+00 4.9939845998e+00 
125600 6.0379091051e+00 -7.5466632494e-05 2.8832796697e+00 -4.9939868804e+00 2.8832796697e+00 4.9939868804e+00 
125700 6.0379091049e+00 -7.5007003614e-05 2.8832809784e+00 -4.9939891471e+00 2.8832809784e+00 4.9939891471e+00 
125800 6.0379091046e+00 -7.4550167516e-05 2.8832822792e+00 -4.9939914001e+00 2.8832822792e+00 4.9939914001e+00 
125900 6.0379091044e+00 -7.4096107100e-05 2.8832835720e+00 -4.9939936393e+00 2.8832835720e+00 4.9939936393e+00 
126000 6.0379091042e+00 -7.3644805384e-05 2.8832848569e+00 -4.9939958648e+00 2.8832848569e+00 4.9939958648e+00 
126100 6.0379091040e+00 -7.3196245486e-05 2.8832861340e+00 -4.9939980768e+00 2.8832861340e+00 4.9939980768e+00 
126200 6.0379091038e+00 -7.2750410629e-05 2.8832874033e+00 -4.9940002753e+00 2.8832874033e+00 4.9940002753e+00 
126300 6.0379091035e+00 -7.2307284144e-05 2.8832886649e+00 -4.9940024605e+00 2.8832886649e+00 4.9940024605e+00 
126400 6.0379091033e+00 -7.1866849471e-05 2.8832899188e+00 -4.9940046323e+00 2.8832899188e+00 4.9940046323e+00 
126500 6.0379091031e+00 -7.1429090145e-05 2.8832911651e+00 -4.9940067909e+00 2.8832911651e+00 4.9940067909e+00 
126600 6.0379091029e+00 -7.0993989810e-05 2.8832924037e+00 -4.9940089363e+00 2.8832924037e+00 4.9940089363e+00 
126700 6.0379091027e+00 -7.0561532211e-05 2.8832936349e+00 -4.9940110687e+00 2.8832936349e+00 4.9940110687e+00 
126800 6.0379091026e+00 -7.0877504817e-05 2.8832936349e+00 -4.9940110687e+00 2.8832936349e+00 4.9940110687e+00 
126900 6.0379091024e+00 -7.0448850458e-05 2.8832948640e+00 -4.9940131976e+00 2.8832948640e+00 4.9940131976e+00 
127000 6.0379091022e+00 -7.0766952315e-05 2.8832948640e+00 -4.9940131976e+00 2.8832948640e+00 4.9940131976e+00 
127100 6.0379091020e+00 -7.0341198739e-05 2.8832960912e+00 -4.9940153231e+00 2.8832960912e+00 4.9940153231e+00 
127200 6.0379091019e+00 -7.0660695890e-05 2.8832960912e+00 -4.9940153231e+00 2.8832960912e+00 4.9940153231e+00 
127300 6.0379091018e+00 -7.0984006802e-05 2.8832960912e+00 -4.9940153231e+00 2.8832960912e+00 4.9940153231e+00 
127400 6.0379091016e+00 -7.0560518339e-05 2.8832973221e+00 -4.9940174552e+00 2.8832973221e+00 4.9940174552e+00 
127500 6.0379091014e+00 -7.0883984617e-05 2.8832973221e+00 -4.9940174552e+00 2.8832973221e+00 4.9940174552e+00 
127600 6.0379091013e+00 -7.0461545256e-05 2.8832985513e+00 -4.9940195843e+00 2.8832985513e+00 4.9940195843e+00 
127700 6.0379091011e+00 -7.0784862094e-05 2.8832985513e+00 -4.9940195843e+00 2.8832985513e+00 4.9940195843e+00 
127800 6.0379091009e+00 -7.0363179752e-05 2.8832997788e+00 -4.9940217104e+00 2.8832997788e+00 4.9940217104e+00 
127900 6.0379091008e+00 -7.0686082983e-05 2.8832997788e+00 -4.9940217104e+00 2.8832997788e+00 4.9940217104e+00 
128000 6.0379091007e+00 -7.1012028176e-05 2.8832997788e+00 -4.9940217104e+00 2.8832997788e+00 4.9940217104e+00 
128100 6.0379091005e+00 -7.0590174239e-05 2.8833010103e+00 -4.9940238433e+00 2.8833010103e+00 4.9940238433e+00 
128200 6.0379091004e+00 -7.0914926241e-05 2.8833010103e+00 -4.9940238433e+00 2.8833010103e+00 4.9940238433e+00 
128300 6.0379091002e+00 -7.0492849497e-05 2.8833022400e+00 -4.9940259733e+00 2.8833022400e+00 4.9940259733e+00 
128400 6.0379091001e+00 -7.0816300677e-05 2.8833022400e+00 -4.9940259733e+00 2.8833022400e+00 4.9940259733e+00 
128500 6.0379091000e+00 -7.0393899968e-05 2.8833034681e+00 -4.9940281003e+00 2.8833034681e+00 4.9940281003e+00 
128600 6.0379090999e+00 -7.0715924956e-05 2.8833034681e+00 -4.9940281003e+00 2.8833034681e+00 4.9940281003e+00 
128700 6.0379090997e+00 -7.0293086492e-05 2.8833046944e+00 -4.9940302243e+00 2.8833046944e+00 4.9940302243e+00 
128800 6.0379090996e+00 -7.0613547319e-05 2.8833046944e+00 -4.9940302243e+00 2.8833046944e+00 4.9940302243e+00 
128900 6.0379090995e+00 -7.0936506607e-05 2.8833046944e+00 -4.9940302243e+00 2.8833046944e+00 4.9940302243e+00 
129000 6.0379090993e+00 -7.0511939506e-05 2.8833059245e+00 -4.9940323550e+00 2.8833059245e+00 4.9940323550e+00 
129100 6.0379090992e+00 -7.0832679644e-05 2.8833059245e+00 -4.9940323550e+00 2.8833059245e+00 4.9940323550e+00 
129200 6.0379090991e+00 -7.0406964345e-05 2.8833071528e+00 -4.9940344825e+00 2.8833071528e+00 4.9940344825e+00 
129300 6.0379090990e+00 -7.0725432901e-05 2.8833071528e+00 -4.9940344825e+00 2.8833071528e+00 4.9940344825e+00 
129400 6.0379090988e+00 -7.0298536064e-05 2.8833083793e+00 -4.9940366068e+00 2.8833083793e+00 4.9940366068e+00 
129500 6.0379090987e+00 -7.0614649726e-05 2.8833083793e+00 -4.9940366068e+00 2.8833083793e+00 4.9940366068e+00 
129600 6.0379090986e+00 -7.0932883047e-05 2.8833083793e+00 -4.9940366068e+00 2.8833083793e+00 4.9940366068e+00 
129700 6.0379090985e+00 -7.0503258372e-05 2.8833096093e+00 -4.9940387373e+00 2.8833096093e+00 4.9940387373e+00 
129800 6.0379090984e+00 -7.0818542504e-05 2.8833096093e+00 -4.9940387373e+00 2.8833096093e+00 4.9940387373e+00 
129900 6.0379090982e+00 -7.0387166957e-05 2.8833108374e+00 -4.9940408644e+00 2.8833108374e+00 4.9940408644e+00 
130000 6.0379090981e+00 -7.0699481552e-05 2.8833108374e+00 -4.9940408644e+00 2.8833108374e+00 4.9940408644e+00 
130100 6.0379090981e+00 -7.1013631626e-05 2.8833108374e+00 -4.9940408644e+00 2.8833108374e+00 4.9940408644e+00 
130200 6.0379090979e+00 -7.0578796270e-05 2.8833120689e+00 -4.9940429974e+00 2.8833120689e+00 4.9940429974e+00 
130300 6.0379090978e+00 -7.0889451984e-05 2.8833120689e+00 -4.9940429974e+00 2.8833120689e+00 4.9940429974e+00 
130400 6.0379090977e+00 -7.0452443157e-05 2.8833132982e+00 -4.9940451266e+00 2.8833132982e+00 4.9940451266e+00 
130500 6.0379090976e+00 -7.0759620495e-05 2.8833132982e+00 -4.9940451266e+00 2.8833132982e+00 4.9940451266e+00 
130600 6.0379090975e+00 -7.0320491807e-05 2.8833145252e+00 -4.9940472519e+00 2.8833145252e+00 4.9940472519e+00 
130700 6.0379090974e+00 -7.0624167038e-05 2.8833145252e+00 -4.9940472519e+00 2.8833145252e+00 4.9940472519e+00 
130800 6.0379090973e+00 -7.0929409472e-05 2.8833145252e+00 -4.9940472519e+00 2.8833145252e+00 4.9940472519e+00 
130900 6.0379090972e+00 -7.0486290528e-05 2.8833157552e+00 -4.9940493823e+00 2.8833157552e+00 4.9940493823e+00 
131000 6.0379090971e+00 -7.0787516719e-05 2.8833157552e+00 -4.9940493823e+00 2.8833157552e+00 4.9940493823e+00 
131100 6.0379090970e+00 -7.0341895380e-05 2.8833169828e+00 -4.9940515085e+00 2.8833169828e+00 4.9940515085e+00 
131200 6.0379090969e+00 -7.0639135567e-05 2.8833169828e+00 -4.9940515085e+00 2.8833169828e+00 4.9940515085e+00 
131300 6.0379090968e+00 -7.0937719038e-05 2.8833169828e+00 -4.9940515085e+00 2.8833169828e+00 4.9940515085e+00 
131400 6.0379090967e+00 -7.0487639355e-05 2.8833182129e+00 -4.9940536391e+00 2.8833182129e+00 4.9940536391e+00 
131500 6.0379090966e+00 -7.0781787100e-05 2.8833182129e+00 -4.9940536391e+00 2.8833182129e+00 4.9940536391e+00 
131600 6.0379090965e+00 -7.0328951758e-05 2.8833194403e+00 -4.9940557651e+00 2.8833194403e+00 4.9940557651e+00 
131700 6.0379090965e+00 -7.0618729749e-05 2.8833194403e+00 -4.9940557651e+00 2.8833194403e+00 4.9940557651e+00 
131800 6.0379090964e+00 -7.0909670435e-05 2.8833194403e+00 -4.9940557651e+00 2.8833194403e+00 4.9940557651e+00 
131900 6.0379090963e+00 -7.0452071302e-05 2.8833206700e+00 -4.9940578949e+00 2.8833206700e+00 4.9940578949e+00 
132000 6.0379090962e+00 -7.0738239305e-05 2.8833206700e+00 -4.9940578949e+00 2.8833206700e+00 4.9940578949e+00 
132100 6.0379090961e+00 -7.0277724932e-05 2.8833218967e+00 -4.9940600196e+00 2.8833218967e+00 4.9940600196e+00 
132200 6.0379090960e+00 -7.0559214203e-05 2.8833218967e+00 -4.9940600196e+00 2.8833218967e+00 4.9940600196e+00 
132300 6.0379090960e+00 -7.0841718950e-05 2.8833218967e+00 -4.9940600196e+00 2.8833218967e+00 4.9940600196e+00 
132400 6.0379090958e+00 -7.0376261350e-05 2.8833231251e+00 -4.9940621474e+00 2.8833231251e+00 4.9940621474e+00 
132500 6.0379090958e+00 -7.0653723731e-05 2.8833231251e+00 -4.9940621474e+00 2.8833231251e+00 4.9940621474e+00 
132600 6.0379090957e+00 -7.0932049819e-05 2.8833231251e+00 -4.9940621474e+00 2.8833231251e+00 4.9940621474e+00 
132700 6.0379090956e+00 -7.0461320697e-05 2.8833243552e+00 -4.9940642779e+00 2.8833243552e+00 4.9940642779e+00 
132800 6.0379090956e+00 -7.0734332069e-05 2.8833243552e+00 -4.9940642779e+00 2.8833243552e+00 4.9940642779e+00 
132900 6.0379090954e+00 -7.0260458203e-05 2.8833255818e+00 -4.9940664024e+00 2.8833255818e+00 4.9940664024e+00 
133000 6.0379090954e+00 -7.0528317561e-05 2.8833255818e+00 -4.9940664024e+00 2.8833255818e+00 4.9940664024e+00 
133100 6.0379090953e+00 -7.0796977000e-05 2.8833255818e+00 -4.9940664024e+00 2.8833255818e+00 4.9940664024e+00 
133200 6.0379090952e+00 -7.0317945043e-05 2.8833268095e+00 -4.9940685289e+00 2.8833268095e+00 4.9940685289e+00 
133300 6.0379090952e+00 -7.0581173841e-05 2.8833268095e+00 -4.9940685289e+00 2.8833268095e+00 4.9940685289e+00 
133400 6.0379090951e+00 -7.0845087346e-05 2.8833268095e+00 -4.9940685289e+00 2.8833268095e+00 4.9940685289e+00 
133500 6.0379090950e+00 -7.0360697156e-05 2.8833280380e+00 -4.9940706567e+00 2.8833280380e+00 4.9940706567e+00 
133600 6.0379090950e+00 -7.0618978117e-05 2.8833280380e+00 -4.9940706567e+00 2.8833280380e+00 4.9940706567e+00 
133700 6.0379090949e+00 -7.0877859270e-05 2.8833280380e+00 -4.9940706567e+00 2.8833280380e+00 4.9940706567e+00 
133800 6.0379090948e+00 -7.0388013815e-05 2.8833292671e+00 -4.9940727856e+00 2.8833292671e+00 4.9940727856e+00 
133900 6.0379090948e+00 -7.0641113300e-05 2.8833292671e+00 -4.9940727856e+00 2.8833292671e+00 4.9940727856e+00 
134000 6.0379090947e+00 -7.0894749885e-05 2.8833292671e+00 -4.9940727856e+00 2.8833292671e+00 4.9940727856e+00 
134100 6.0379090946e+00 -7.0399424015e-05 2.8833304965e+00 -4.9940749150e+00 2.8833304965e+00 4.9940749150e+00 
134200 6.0379090946e+00 -7.0647167693e-05 2.8833304965e+00 -4.9940749150e+00 2.8833304965e+00 4.9940749150e+00 
134300 6.0379090945e+00 -7.0895400894e-05 2.8833304965e+00 -4.9940749150e+00 2.8833304965e+00 4.9940749150e+00 
134400 6.0379090944e+00 -7.0394621579e-05 2.8833317259e+00 -4.9940770444e+00 2.8833317259e+00 4.9940770444e+00 
134500 6.0379090944e+00 -7.0636879141e-05 2.8833317259e+00 -4.9940770444e+00 2.8833317259e+00 4.9940770444e+00 
134600 6.0379090943e+00 -7.0879590431e-05 2.8833317259e+00 -4.9940770444e+00 2.8833317259e+00 4.9940770444e+00 
134700 6.0379090942e+00 -7.0373424054e-05 2.8833329550e+00 -4.9940791733e+00 2.8833329550e+00 4.9940791733e+00 
134800 6.0379090942e+00 -7.0610099494e-05 2.8833329550e+00 -4.9940791733e+00 2.8833329550e+00 4.9940791733e+00 
134900 6.0379090942e+00 -7.0847202239e-05 2.8833329550e+00 -4.9940791733e+00 2.8833329550e+00 4.9940791733e+00 
135000 6.0379090941e+00 -7.0335746216e-05 2.8833341836e+00 -4.9940813012e+00 2.8833341836e+00 4.9940813012e+00 
135100 6.0379090940e+00 -7.0566771534e-05 2.8833341836e+00 -4.9940813012e+00 2.8833341836e+00 4.9940813012e+00 
135200 6.0379090940e+00 -7.0798205514e-05 2.8833341836e+00 -4.9940813012e+00 2.8833341836e+00 4.9940813012e+00 
135300 6.0379090939e+00 -7.0281582593e-05 2.8833354113e+00 -4.9940834277e+00 2.8833354113e+00 4.9940834277e+00 
135400 6.0379090939e+00 -7.0506913562e-05 2.8833354113e+00 -4.9940834277e+00 2.8833354113e+00 4.9940834277e+00 
135500 6.0379090938e+00 -7.0732641232e-05 2.8833354113e+00 -4.9940834277e+00 2.8833354113e+00 4.9940834277e+00 
135600 6.0379090937e+00 -7.0210995427e-05 2.8833366379e+00 -4.9940855522e+00 2.8833366379e+00 4.9940855522e+00 
135700 6.0379090937e+00 -7.0430608640e-05 2.8833366379e+00 -4.9940855522e+00 2.8833366379e+00 4.9940855522e+00 
135800 6.0379090937e+00 -7.0650612479e-05 2.8833366379e+00 -4.9940855522e+00 2.8833366379e+00 4.9940855522e+00 
135900 6.0379090936e+00 -7.0870853579e-05 2.8833366379e+00 -4.9940855522e+00 2.8833366379e+00 4.9940855522e+00 
136000 6.0379090935e+00 -7.0342124168e-05 2.8833378669e+00 -4.9940876808e+00 2.8833378669e+00 4.9940876808e+00 
136100 6.0379090935e+00 -7.0555985949e-05 2.8833378669e+00 -4.9940876808e+00 2.8833378669e+00 4.9940876808e+00 
136200 6.0379090935e+00 -7.0770140062e-05 2.8833378669e+00 -4.9940876808e+00 2.8833378669e+00 4.9940876808e+00 
136300 6.0379090934e+00 -7.0236436789e-05 2.8833390941e+00 -4.9940898064e+00 2.8833390941e+00 4.9940898064e+00 
136400 6.0379090933e+00 -7.0444312026e-05 2.8833390941e+00 -4.9940898064e+00 2.8833390941e+00 4.9940898064e+00 
136500 6.0379090933e+00 -7.0652517403e-05 2.8833390941e+00 -4.9940898064e+00 2.8833390941e+00 4.9940898064e+00 
136600 6.0379090933e+00 -7.0860910637e-05 2.8833390941e+00 -4.9940898064e+00 2.8833390941e+00 4.9940898064e+00 
136700 6.0379090932e+00 -7.0320399094e-05 2.8833403229e+00 -4.9940919348e+00 2.8833403229e+00 4.9940919348e+00 
136800 6.0379090932e+00 -7.0522343385e-05 2.8833403229e+00 -4.9940919348e+00 2.8833403229e+00 4.9940919348e+00 
136900 6.0379090931e+00 -7.0724556591e-05 2.8833403229e+00 -4.9940919348e+00 2.8833403229e+00 4.9940919348e+00 
137000 6.0379090931e+00 -7.0179377969e-05 2.8833415493e+00 -4.9940940590e+00 2.8833415493e+00 4.9940940590e+00 
137100 6.0379090930e+00 -7.0375289585e-05 2.8833415493e+00 -4.9940940590e+00 2.8833415493e+00 4.9940940590e+00 
137200 6.0379090930e+00 -7.0571526163e-05 2.8833415493e+00 -4.9940940590e+00 2.8833415493e+00 4.9940940590e+00 
137300 6.0379090930e+00 -7.0767950454e-05 2.8833415493e+00 -4.9940940590e+00 2.8833415493e+00 4.9940940590e+00 
137400 6.0379090929e+00 -7.0216457338e-05 2.8833427765e+00 -4.9940961846e+00 2.8833427765e+00 4.9940961846e+00 
137500 6.0379090929e+00 -7.0406454346e-05 2.8833427765e+00 -4.9940961846e+00 2.8833427765e+00 4.9940961846e+00 
137600 6.0379090928e+00 -7.0596732186e-05 2.8833427765e+00 -4.9940961846e+00 2.8833427765e+00 4.9940961846e+00 
137700 6.0379090928e+00 -7.0787162548e-05 2.8833427765e+00 -4.9940961846e+00 2.8833427765e+00 4.9940961846e+00 
137800 6.0379090927e+00 -7.0229445039e-05 2.8833440040e+00 -4.9940983107e+00 2.8833440040e+00 4.9940983107e+00 
137900 6.0379090927e+00 -7.0413398066e-05 2.8833440040e+00 -4.9940983107e+00 2.8833440040e+00 4.9940983107e+00 
138000 6.0379090927e+00 -7.0597616885e-05 2.8833440040e+00 -4.9940983107e+00 2.8833440040e+00 4.9940983107e+00 
138100 6.0379090927e+00 -7.0781978129e-05 2.8833440040e+00 -4.9940983107e+00 2.8833440040e+00 4.9940983107e+00 
138200 6.0379090926e+00 -7.0218240613e-05 2.8833452315e+00 -4.9941004367e+00 2.8833452315e+00 4.9941004367e+00 
138300 6.0379090926e+00 -7.0396117169e-05 2.8833452315e+00 -4.9941004367e+00 2.8833452315e+00 4.9941004367e+00 
138400 6.0379090925e+00 -7.0574260657e-05 2.8833452315e+00 -4.9941004367e+00 2.8833452315e+00 4.9941004367e+00 
138500 6.0379090925e+00 -7.0752550562e-05 2.8833452315e+00 -4.9941004367e+00 2.8833452315e+00 4.9941004367e+00 
138600 6.0379090924e+00 -7.0183059404e-05 2.8833464584e+00 -4.9941025617e+00 2.8833464584e+00 4.9941025617e+00 
138700 6.0379090924e+00 -7.0354882598e-05 2.8833464584e+00 -4.9941025617e+00 2.8833464584e+00 4.9941025617e+00 
138800 6.0379090924e+00 -7.0526983231e-05 2.8833464584e+00 -4.9941025617e+00 2.8833464584e+00 4.9941025617e+00 
138900 6.0379090924e+00 -7.0699242568e-05 2.8833464584e+00 -4.9941025617e+00 2.8833464584e+00 4.9941025617e+00 
139000 6.0379090923e+00 -7.0871558981e-05 2.8833464584e+00 -4.9941025617e+00 2.8833464584e+00 4.9941025617e+00 
139100 6.0379090923e+00 -7.0294763099e-05 2.8833476874e+00 -4.9941046904e+00 2.8833476874e+00 4.9941046904e+00 
139200 6.0379090923e+00 -7.0460469018e-05 2.8833476874e+00 -4.9941046904e+00 2.8833476874e+00 4.9941046904e+00 
139300 6.0379090922e+00 -7.0626404940e-05 2.8833476874e+00 -4.9941046904e+00 2.8833476874e+00 4.9941046904e+00 
139400 6.0379090922e+00 -7.0792461883e-05 2.8833476874e+00 -4.9941046904e+00 2.8833476874e+00 4.9941046904e+00 
139500 6.0379090921e+00 -7.0210300566e-05 2.8833489150e+00 -4.9941068167e+00 2.8833489150e+00 4.9941068167e+00 
139600 6.0379090921e+00 -7.0369864738e-05 2.8833489150e+00 -4.9941068167e+00 2.8833489150e+00 4.9941068167e+00 
139700 6.0379090921e+00 -7.0529706829e-05 2.8833489150e+00 -4.9941068167e+00 2.8833489150e+00 4.9941068167e+00 
139800 6.0379090921e+00 -7.0689714367e-05 2.8833489150e+00 -4.9941068167e+00 2.8833489150e+00 4.9941068167e+00 
139900 6.0379090921e+00 -7.0849791137e-05 2.8833489150e+00 -4.9941068167e+00 2.8833489150e+00 4.9941068167e+00 
140000 6.0379090920e+00 -7.0261002785e-05 2.8833501436e+00 -4.9941089447e+00 2.8833501436e+00 4.9941089447e+00 
140100 6.0379090920e+00 -7.0414508979e-05 2.8833501436e+00 -4.9941089447e+00 2.8833501436e+00 4.9941089447e+00 
140200 6.0379090920e+00 -7.0568269560e-05 2.8833501436e+00 -4.9941089447e+00 2.8833501436e+00 4.9941089447e+00 
140300 6.0379090919e+00 -7.0722178700e-05 2.8833501436e+00 -4.9941089447e+00 2.8833501436e+00 4.9941089447e+00 
140400 6.0379090919e+00 -7.0128643063e-05 2.8833513700e+00 -4.9941110689e+00 2.8833513700e+00 4.9941110689e+00 
140500 6.0379090918e+00 -7.0276129104e-05 2.8833513700e+00 -4.9941110689e+00 2.8833513700e+00 4.9941110689e+00 
140600 6.0379090918e+00 -7.0423927662e-05 2.8833513700e+00 -4.9941110689e+00 2.8833513700e+00 4.9941110689e+00 
140700 6.0379090918e+00 -7.0521591579e-05 2.8833513700e+00 -4.9941110689e+00 2.8833513700e+00 4.9941110689e+00 
140700 6.0379090918e+00 -7.0521591580e-05 2.8833513700e+00 -4.9941110689e+00 2.8833513700e+00 4.9941110689e+00 
