# step Hamiltonian StressXX CellTensor1 CellTensor2 CellTensor3 CellTensor4 
0 4.9753315299e+00 -8.9693230909e-02 1.6122881582e+00 -2.7925650064e+00 1.6122881582e+00 2.7925650064e+00 
100 4.9621312344e+00 -9.1079359464e-02 1.6122881582e+00 -2.7925650064e+00 1.6122881582e+00 2.7925650064e+00 
200 4.9492810670e+00 -8.9545592370e-02 1.6151135187e+00 -2.7974586744e+00 1.6151135187e+00 2.7974586744e+00 
300 4.9370807493e+00 -8.8003452873e-02 1.6178864248e+00 -2.8022614887e+00 1.6178864248e+00 2.8022614887e+00 
400 4.9255051355e+00 -8.6445829498e-02 1.6206068898e+00 -2.8069734723e+00 1.6206068898e+00 2.8069734723e+00 
500 4.9145297740e+00 -8.4867051855e-02 1.6232747022e+00 -2.8115942588e+00 1.6232747022e+00 2.8115942588e+00 
600 4.9041308229e+00 -8.3262752458e-02 1.6258894720e+00 -2.8161231730e+00 1.6258894720e+00 2.8161231730e+00 
700 4.8942849879e+00 -8.1629736464e-02 1.6284506723e+00 -2.8205593020e+00 1.6284506723e+00 2.8205593020e+00 
800 4.8849694805e+00 -7.9965858955e-02 1.6309576762e+00 -2.8249015602e+00 1.6309576762e+00 2.8249015602e+00 
900 4.8761619921e+00 -7.8269909477e-02 1.6334097895e+00 -2.8291487451e+00 1.6334097895e+00 2.8291487451e+00 
1000 4.8678406802e+00 -7.6541503608e-02 1.6358062799e+00 -2.8332995881e+00 1.6358062799e+00 2.8332995881e+00 
1100 4.8599841653e+00 -7.4780981348e-02 1.6381464018e+00 -2.8373527982e+00 1.6381464018e+00 2.8373527982e+00 
1200 4.8525715348e+00 -7.2989312174e-02 1.6404294189e+00 -2.8413070997e+00 1.6404294189e+00 2.8413070997e+00 
1300 4.8455823527e+00 -7.1168006593e-02 1.6426546224e+00 -2.8451612653e+00 1.6426546224e+00 2.8451612653e+00 
1400 4.8389966733e+00 -6.9319034039e-02 1.6448213478e+00 -2.8489141437e+00 1.6448213478e+00 2.8489141437e+00 
1500 4.8327950563e+00 -6.7444746965e-02 1.6469289875e+00 -2.8525646828e+00 1.6469289875e+00 2.8525646828e+00 
1600 4.8269585839e+00 -6.5547810944e-02 1.6489770025e+00 -2.8561119488e+00 1.6489770025e+00 2.8561119488e+00 
1700 4.8214688774e+00 -6.3631140623e-02 1.6509649308e+00 -2.8595551417e+00 1.6509649308e+00 2.8595551417e+00 
1800 4.8163081132e+00 -6.1697841329e-02 1.6528923947e+00 -2.8628936070e+00 1.6528923947e+00 2.8628936070e+00 
1900 4.8114590371e+00 -5.9751156129e-02 1.6547591054e+00 -2.8661268449e+00 1.6547591054e+00 2.8661268449e+00 
2000 4.8069049768e+00 -5.7794418120e-02 1.6565648670e+00 -2.8692545157e+00 1.6565648670e+00 2.8692545157e+00 
2100 4.8026298527e+00 -5.5831007733e-02 1.6583095784e+00 -2.8722764444e+00 1.6583095784e+00 2.8722764444e+00 
2200 4.7986181851e+00 -5.3864314798e-02 1.6599932340e+00 -2.8751926215e+00 1.6599932340e+00 2.8751926215e+00 
2300 4.7948550995e+00 -5.1897705131e-02 1.6616159237e+00 -2.8780032026e+00 1.6616159237e+00 2.8780032026e+00 
2400 4.7913263296e+00 -4.9934491373e-02 1.6631778318e+00 -2.8807085067e+00 1.6631778318e+00 2.8807085067e+00 
2500 4.7880182163e+00 -4.7977907828e-02 1.6646792346e+00 -2.8833090126e+00 1.6646792346e+00 2.8833090126e+00 
2600 4.7849177058e+00 -4.6031089021e-02 1.6661204980e+00 -2.8858053540e+00 1.6661204980e+00 2.8858053540e+00 
2700 4.7820123436e+00 -4.4097051720e-02 1.6675020740e+00 -2.8881983140e+00 1.6675020740e+00 2.8881983140e+00 
2800 4.7792902676e+00 -4.2178680140e-02 1.6688244974e+00 -2.8904888185e+00 1.6688244974e+00 2.8904888185e+00 
2900 4.7767401983e+00 -4.0278714076e-02 1.6700883811e+00 -2.8926779291e+00 1.6700883811e+00 2.8926779291e+00 
3000 4.7743514272e+00 -3.8399739689e-02 1.6712944118e+00 -2.8947668356e+00 1.6712944118e+00 2.8947668356e+00 
3100 4.7721138036e+00 -3.6544182713e-02 1.6724433457e+00 -2.8967568475e+00 1.6724433457e+00 2.8967568475e+00 
3200 4.7700177201e+00 -3.4714303815e-02 1.6735360033e+00 -2.8986493860e+00 1.6735360033e+00 2.8986493860e+00 
3300 4.7680540963e+00 -3.2912195893e-02 1.6745732647e+00 -2.9004459755e+00 1.6745732647e+00 2.9004459755e+00 
3400 4.7662143620e+00 -3.1139783074e-02 1.6755560647e+00 -2.9021482351e+00 1.6755560647e+00 2.9021482351e+00 
3500 4.7644904393e+00 -2.9398821209e-02 1.6764853879e+00 -2.9037578699e+00 1.6764853879e+00 2.9037578699e+00 
3600 4.7628747242e+00 -2.7690899667e-02 1.6773622635e+00 -2.9052766630e+00 1.6773622635e+00 2.9052766630e+00 
3700 4.7613600673e+00 -2.6017444234e-02 1.6781877610e+00 -2.9067064668e+00 1.6781877610e+00 2.9067064668e+00 
3800 4.7599397549e+00 -2.4379720959e-02 1.6789629856e+00 -2.9080491950e+00 1.6789629856e+00 2.9080491950e+00 
3900 4.7586074892e+00 -2.2778840785e-02 1.6796890730e+00 -2.9093068153e+00 1.6796890730e+00 2.9093068153e+00 
4000 4.7573573690e+00 -2.1215764816e-02 1.6803671857e+00 -2.9104813411e+00 1.6803671857e+00 2.9104813411e+00 
4100 4.7561838706e+00 -1.9691310102e-02 1.6809985089e+00 -2.9115748248e+00 1.6809985089e+00 2.9115748248e+00 
4200 4.7550818283e+00 -1.8206155815e-02 1.6815842456e+00 -2.9125893507e+00 1.6815842456e+00 2.9125893507e+00 
4300 4.7540464160e+00 -1.6760849718e-02 1.6821256141e+00 -2.9135270283e+00 1.6821256141e+00 2.9135270283e+00 
4400 4.7530731283e+00 -1.5355814840e-02 1.6826238431e+00 -2.9143899863e+00 1.6826238431e+00 2.9143899863e+00 
4500 4.7521577632e+00 -1.3991356262e-02 1.6830801694e+00 -2.9151803666e+00 1.6830801694e+00 2.9151803666e+00 
4600 4.7512964044e+00 -1.2667667958e-02 1.6834958338e+00 -2.9159003185e+00 1.6834958338e+00 2.9159003185e+00 
4700 4.7504854043e+00 -1.1384839630e-02 1.6838720789e+00 -2.9165519941e+00 1.6838720789e+00 2.9165519941e+00 
4800 4.7497213683e+00 -1.0142863473e-02 1.6842101455e+00 -2.9171375427e+00 1.6842101455e+00 2.9171375427e+00 
4900 4.7490011387e+00 -8.9416408398e-03 1.6845112708e+00 -2.9176591070e+00 1.6845112708e+00 2.9176591070e+00 
5000 4.7483217802e+00 -7.7809887709e-03 1.6847766854e+00 -2.9181188185e+00 1.6847766854e+00 2.9181188185e+00 
5100 4.7476805653e+00 -6.6606463445e-03 1.6850076111e+00 -2.9185187936e+00 1.6850076111e+00 2.9185187936e+00 
5200 4.7470749610e+00 -5.5802808416e-03 1.6852052594e+00 -2.9188611305e+00 1.6852052594e+00 2.9188611305e+00 
5300 4.7465026159e+00 -4.5394936959e-03 1.6853708289e+00 -2.9191479053e+00 1.6853708289e+00 2.9191479053e+00 
5400 4.7459613476e+00 -3.5378262206e-03 1.6855055041e+00 -2.9193811696e+00 1.6855055041e+00 2.9193811696e+00 
5500 4.7454491313e+00 -2.5747650982e-03 1.6856104538e+00 -2.9195629477e+00 1.6856104538e+00 2.9195629477e+00 
5600 4.7449640892e+00 -1.6497476303e-03 1.6856868292e+00 -2.9196952338e+00 1.6856868292e+00 2.9196952338e+00 
5700 4.7445044795e+00 -7.6216674063e-04 1.6857357634e+00 -2.9197799904e+00 1.6857357634e+00 2.9197799904e+00 
5800 4.7440686871e+00 8.8624267950e-05 1.6857583698e+00 -2.9198191458e+00 1.6857583698e+00 2.9198191458e+00 
5900 4.7436552145e+00 9.0330720270e-04 1.6857557412e+00 -2.9198145929e+00 1.6857557412e+00 2.9198145929e+00 
6000 4.7432626728e+00 1.6825947140e-03 1.6857289489e+00 -2.9197681873e+00 1.6857289489e+00 2.9197681873e+00 
6100 4.7428897742e+00 2.4272262679e-03 1.6856790421e+00 -2.9196817462e+00 1.6856790421e+00 2.9196817462e+00 
6200 4.7425353242e+00 3.1379643544e-03 1.6856070471e+00 -2.9195570472e+00 1.6856070471e+00 2.9195570472e+00 
6300 4.7421982145e+00 3.8155909234e-03 1.6855139669e+00 -2.9193958275e+00 1.6855139669e+00 2.9193958275e+00 
6400 4.7418774167e+00 4.4609040452e-03 1.6854007804e+00 -2.9191997827e+00 1.6854007804e+00 2.9191997827e+00 
6500 4.7415719761e+00 5.0747147847e-03 1.6852684425e+00 -2.9189705669e+00 1.6852684425e+00 2.9189705669e+00 
6600 4.7412810058e+00 5.6578442855e-03 1.6851178838e+00 -2.9187097914e+00 1.6851178838e+00 2.9187097914e+00 
6700 4.7410036819e+00 6.2111210532e-03 1.6849500097e+00 -2.9184190251e+00 1.6849500097e+00 2.9184190251e+00 
6800 4.7407392384e+00 6.7353784322e-03 1.6847657014e+00 -2.9180997936e+00 1.6847657014e+00 2.9180997936e+00 
6900 4.7404869623e+00 7.2314522666e-03 1.6845658147e+00 -2.9177535797e+00 1.6845658147e+00 2.9177535797e+00 
7000 4.7402461902e+00 7.7001787383e-03 1.6843511808e+00 -2.9173818229e+00 1.6843511808e+00 2.9173818229e+00 
7100 4.7400163038e+00 8.1423923737e-03 1.6841226060e+00 -2.9169859197e+00 1.6841226060e+00 2.9169859197e+00 
7200 4.7397967263e+00 8.5589242108e-03 1.6838808719e+00 -2.9165672239e+00 1.6838808719e+00 2.9165672239e+00 
7300 4.7395869198e+00 8.9506001204e-03 1.6836267354e+00 -2.9161270468e+00 1.6836267354e+00 2.9161270468e+00 
7400 4.7393863815e+00 9.3182392719e-03 1.6833609294e+00 -2.9156666571e+00 1.6833609294e+00 2.9156666571e+00 
7500 4.7391946412e+00 9.6626527375e-03 1.6830841621e+00 -2.9151872822e+00 1.6830841621e+00 2.9151872822e+00 
7600 4.7390112588e+00 9.9846422275e-03 1.6827971183e+00 -2.9146901077e+00 1.6827971183e+00 2.9146901077e+00 
7700 4.7388358218e+00 1.0284998949e-02 1.6825004590e+00 -2.9141762787e+00 1.6825004590e+00 2.9141762787e+00 
7800 4.7386679434e+00 1.0564502579e-02 1.6821948220e+00 -2.9136468999e+00 1.6821948220e+00 2.9136468999e+00 
7900 4.7385072602e+00 1.0823920355e-02 1.6818808223e+00 -2.9131030364e+00 1.6818808223e+00 2.9131030364e+00 
8000 4.7383534305e+00 1.1064006260e-02 1.6815590523e+00 -2.9125457145e+00 1.6815590523e+00 2.9125457145e+00 
8100 4.7382061326e+00 1.1285500310e-02 1.6812300824e+00 -2.9119759219e+00 1.6812300824e+00 2.9119759219e+00 
8200 4.7380650634e+00 1.1489127932e-02 1.6808944613e+00 -2.9113946092e+00 1.6808944613e+00 2.9113946092e+00 
8300 4.7379299370e+00 1.1675599429e-02 1.6805527165e+00 -2.9108026899e+00 1.6805527165e+00 2.9108026899e+00 
8400 4.7378004833e+00 1.1845609525e-02 1.6802053547e+00 -2.9102010415e+00 1.6802053547e+00 2.9102010415e+00 
8500 4.7376764468e+00 1.1999836981e-02 1.6798528622e+00 -2.9095905066e+00 1.6798528622e+00 2.9095905066e+00 
8600 4.7375575857e+00 1.2138944282e-02 1.6794957056e+00 -2.9089718932e+00 1.6794957056e+00 2.9089718932e+00 
8700 4.7374436709e+00 1.2263577398e-02 1.6791343320e+00 -2.9083459757e+00 1.6791343320e+00 2.9083459757e+00 
8800 4.7373344851e+00 1.2374365588e-02 1.6787691696e+00 -2.9077134960e+00 1.6787691696e+00 2.9077134960e+00 
8900 4.7372298219e+00 1.2471921275e-02 1.6784006284e+00 -2.9070751639e+00 1.6784006284e+00 2.9070751639e+00 
9000 4.7371294851e+00 1.2556839967e-02 1.6780291003e+00 -2.9064316583e+00 1.6780291003e+00 2.9064316583e+00 
9100 4.7370332882e+00 1.2629700220e-02 1.6776549598e+00 -2.9057836279e+00 1.6776549598e+00 2.9057836279e+00 
9200 4.7369410536e+00 1.2691063654e-02 1.6772785645e+00 -2.9051316922e+00 1.6772785645e+00 2.9051316922e+00 
9300 4.7368526120e+00 1.2741475004e-02 1.6769002557e+00 -2.9044764420e+00 1.6769002557e+00 2.9044764420e+00 
9400 4.7367678020e+00 1.2781462208e-02 1.6765203585e+00 -2.9038184408e+00 1.6765203585e+00 2.9038184408e+00 
9500 4.7366864698e+00 1.2811536526e-02 1.6761391827e+00 -2.9031582251e+00 1.6761391827e+00 2.9031582251e+00 
9600 4.7366084683e+00 1.2832192696e-02 1.6757570233e+00 -2.9024963054e+00 1.6757570233e+00 2.9024963054e+00 
9700 4.7365336571e+00 1.2843909107e-02 1.6753741604e+00 -2.9018331674e+00 1.6753741604e+00 2.9018331674e+00 
9800 4.7364619020e+00 1.2847148009e-02 1.6749908603e+00 -2.9011692723e+00 1.6749908603e+00 2.9011692723e+00 
9900 4.7363930747e+00 1.2842355735e-02 1.6746073759e+00 -2.9005050578e+00 1.6746073759e+00 2.9005050578e+00 
10000 4.7363270524e+00 1.2829962944e-02 1.6742239468e+00 -2.8998409391e+00 1.6742239468e+00 2.8998409391e+00 
10100 4.7362637177e+00 1.2810384887e-02 1.6738407999e+00 -2.8991773092e+00 1.6738407999e+00 2.8991773092e+00 
10200 4.7362029582e+00 1.2784021683e-02 1.6734581501e+00 -2.8985145403e+00 1.6734581501e+00 2.8985145403e+00 
10300 4.7361446662e+00 1.2751258610e-02 1.6730762004e+00 -2.8978529841e+00 1.6730762004e+00 2.8978529841e+00 
10400 4.7360887386e+00 1.2712466406e-02 1.6726951427e+00 -2.8971929727e+00 1.6726951427e+00 2.8971929727e+00 
10500 4.7360350766e+00 1.2668001583e-02 1.6723151575e+00 -2.8965348191e+00 1.6723151575e+00 2.8965348191e+00 
10600 4.7359835857e+00 1.2618206744e-02 1.6719364154e+00 -2.8958788186e+00 1.6719364154e+00 2.8958788186e+00 
10700 4.7359341752e+00 1.2563410913e-02 1.6715590766e+00 -2.8952252485e+00 1.6715590766e+00 2.8952252485e+00 
10800 4.7358867582e+00 1.2503929863e-02 1.6711832915e+00 -2.8945743696e+00 1.6711832915e+00 2.8945743696e+00 
10900 4.7358412515e+00 1.2440066454e-02 1.6708092013e+00 -2.8939264265e+00 1.6708092013e+00 2.8939264265e+00 
11000 4.7357975753e+00 1.2372110972e-02 1.6704369385e+00 -2.8932816483e+00 1.6704369385e+00 2.8932816483e+00 
11100 4.7357556533e+00 1.2300341468e-02 1.6700666266e+00 -2.8926402492e+00 1.6700666266e+00 2.8926402492e+00 
11200 4.7357154121e+00 1.2225024097e-02 1.6696983811e+00 -2.8920024294e+00 1.6696983811e+00 2.8920024294e+00 
11300 4.7356767815e+00 1.2146413463e-02 1.6693323097e+00 -2.8913683751e+00 1.6693323097e+00 2.8913683751e+00 
11400 4.7356396945e+00 1.2064752958e-02 1.6689685124e+00 -2.8907382597e+00 1.6689685124e+00 2.8907382597e+00 
11500 4.7356040864e+00 1.1980275098e-02 1.6686070820e+00 -2.8901122439e+00 1.6686070820e+00 2.8901122439e+00 
11600 4.7355698956e+00 1.1893201858e-02 1.6682481046e+00 -2.8894904768e+00 1.6682481046e+00 2.8894904768e+00 
11700 4.7355370629e+00 1.1803745010e-02 1.6678916595e+00 -2.8888730957e+00 1.6678916595e+00 2.8888730957e+00 
11800 4.7355055317e+00 1.1712106448e-02 1.6675378197e+00 -2.8882602273e+00 1.6675378197e+00 2.8882602273e+00 
11900 4.7354752478e+00 1.1618478513e-02 1.6671866524e+00 -2.8876519877e+00 1.6671866524e+00 2.8876519877e+00 
12000 4.7354461592e+00 1.1523044316e-02 1.6668382189e+00 -2.8870484831e+00 1.6668382189e+00 2.8870484831e+00 
12100 4.7354182162e+00 1.1425978055e-02 1.6664925751e+00 -2.8864498105e+00 1.6664925751e+00 2.8864498105e+00 
12200 4.7353913711e+00 1.1327445319e-02 1.6661497717e+00 -2.8858560576e+00 1.6661497717e+00 2.8858560576e+00 
12300 4.7353655784e+00 1.1227603402e-02 1.6658098545e+00 -2.8852673037e+00 1.6658098545e+00 2.8852673037e+00 
12400 4.7353407943e+00 1.1126601596e-02 1.6654728645e+00 -2.8846836199e+00 1.6654728645e+00 2.8846836199e+00 
12500 4.7353169772e+00 1.1024581486e-02 1.6651388384e+00 -2.8841050697e+00 1.6651388384e+00 2.8841050697e+00 
12600 4.7352940870e+00 1.0921677241e-02 1.6648078084e+00 -2.8835317090e+00 1.6648078084e+00 2.8835317090e+00 
12700 4.7352720855e+00 1.0818015889e-02 1.6644798030e+00 -2.8829635870e+00 1.6644798030e+00 2.8829635870e+00 
12800 4.7352509361e+00 1.0713717593e-02 1.6641548467e+00 -2.8824007462e+00 1.6641548467e+00 2.8824007462e+00 
12900 4.7352306038e+00 1.0608895923e-02 1.6638329605e+00 -2.8818432228e+00 1.6638329605e+00 2.8818432228e+00 
13000 4.7352110550e+00 1.0503658113e-02 1.6635141617e+00 -2.8812910472e+00 1.6635141617e+00 2.8812910472e+00 
13100 4.7351922577e+00 1.0398105315e-02 1.6631984648e+00 -2.8807442441e+00 1.6631984648e+00 2.8807442441e+00 
13200 4.7351741812e+00 1.0292332851e-02 1.6628858810e+00 -2.8802028330e+00 1.6628858810e+00 2.8802028330e+00 
13300 4.7351567962e+00 1.0186430449e-02 1.6625764185e+00 -2.8796668284e+00 1.6625764185e+00 2.8796668284e+00 
13400 4.7351400746e+00 1.0080482481e-02 1.6622700832e+00 -2.8791362400e+00 1.6622700832e+00 2.8791362400e+00 
13500 4.7351239897e+00 9.9745681887e-03 1.6619668781e+00 -2.8786110734e+00 1.6619668781e+00 2.8786110734e+00 
13600 4.7351085156e+00 9.8687619058e-03 1.6616668039e+00 -2.8780913296e+00 1.6616668039e+00 2.8780913296e+00 
13700 4.7350936278e+00 9.7631332703e-03 1.6613698590e+00 -2.8775770060e+00 1.6613698590e+00 2.8775770060e+00 
13800 4.7350793029e+00 9.6577474332e-03 1.6610760399e+00 -2.8770680963e+00 1.6610760399e+00 2.8770680963e+00 
13900 4.7350655184e+00 9.5526652600e-03 1.6607853408e+00 -2.8765645908e+00 1.6607853408e+00 2.8765645908e+00 
14000 4.7350522528e+00 9.4479435245e-03 1.6604977543e+00 -2.8760664763e+00 1.6604977543e+00 2.8760664763e+00 
14100 4.7350394854e+00 9.3436350977e-03 1.6602132711e+00 -2.8755737370e+00 1.6602132711e+00 2.8755737370e+00 
14200 4.7350271967e+00 9.2397891297e-03 1.6599318804e+00 -2.8750863540e+00 1.6599318804e+00 2.8750863540e+00 
14300 4.7350153678e+00 9.1364512254e-03 1.6596535699e+00 -2.8746043060e+00 1.6596535699e+00 2.8746043060e+00 
14400 4.7350039806e+00 9.0336636147e-03 1.6593783257e+00 -2.8741275691e+00 1.6593783257e+00 2.8741275691e+00 
14500 4.7349930180e+00 8.9314653162e-03 1.6591061329e+00 -2.8736561174e+00 1.6591061329e+00 2.8736561174e+00 
14600 4.7349824633e+00 8.8298922952e-03 1.6588369752e+00 -2.8731899226e+00 1.6588369752e+00 2.8731899226e+00 
14700 4.7349723008e+00 8.7289776160e-03 1.6585708353e+00 -2.8727289546e+00 1.6585708353e+00 2.8727289546e+00 
14800 4.7349625154e+00 8.6287515891e-03 1.6583076947e+00 -2.8722731817e+00 1.6583076947e+00 2.8722731817e+00 
14900 4.7349530926e+00 8.5292419119e-03 1.6580475341e+00 -2.8718225704e+00 1.6580475341e+00 2.8718225704e+00 
15000 4.7349440184e+00 8.4304738052e-03 1.6577903333e+00 -2.8713770856e+00 1.6577903333e+00 2.8713770856e+00 
15100 4.7349352796e+00 8.3324701434e-03 1.6575360714e+00 -2.8709366911e+00 1.6575360714e+00 2.8709366911e+00 
15200 4.7349268634e+00 8.2352515807e-03 1.6572847267e+00 -2.8705013492e+00 1.6572847267e+00 2.8705013492e+00 
15300 4.7349187576e+00 8.1388366712e-03 1.6570362768e+00 -2.8700710213e+00 1.6570362768e+00 2.8700710213e+00 
15400 4.7349109505e+00 8.0432419854e-03 1.6567906987e+00 -2.8696456676e+00 1.6567906987e+00 2.8696456676e+00 
15500 4.7349034309e+00 7.9484822209e-03 1.6565479690e+00 -2.8692252475e+00 1.6565479690e+00 2.8692252475e+00 
15600 4.7348961881e+00 7.8545703090e-03 1.6563080638e+00 -2.8688097194e+00 1.6563080638e+00 2.8688097194e+00 
15700 4.7348892116e+00 7.7615175174e-03 1.6560709586e+00 -2.8683990413e+00 1.6560709586e+00 2.8683990413e+00 
15800 4.7348824916e+00 7.6693335473e-03 1.6558366289e+00 -2.8679931702e+00 1.6558366289e+00 2.8679931702e+00 
15900 4.7348760185e+00 7.5780266276e-03 1.6556050494e+00 -2.8675920629e+00 1.6556050494e+00 2.8675920629e+00 
16000 4.7348697833e+00 7.4876036039e-03 1.6553761950e+00 -2.8671956753e+00 1.6553761950e+00 2.8671956753e+00 
16100 4.7348637772e+00 7.3980700251e-03 1.6551500399e+00 -2.8668039633e+00 1.6551500399e+00 2.8668039633e+00 
16200 4.7348579918e+00 7.3094302242e-03 1.6549265586e+00 -2.8664168822e+00 1.6549265586e+00 2.8664168822e+00 
16300 4.7348524189e+00 7.2216873972e-03 1.6547057250e+00 -2.8660343872e+00 1.6547057250e+00 2.8660343872e+00 
16400 4.7348470509e+00 7.1348436772e-03 1.6544875131e+00 -2.8656564332e+00 1.6544875131e+00 2.8656564332e+00 
16500 4.7348418802e+00 7.0489002058e-03 1.6542718968e+00 -2.8652829749e+00 1.6542718968e+00 2.8652829749e+00 
16600 4.7348368998e+00 6.9638572007e-03 1.6540588500e+00 -2.8649139669e+00 1.6540588500e+00 2.8649139669e+00 
16700 4.7348321026e+00 6.8797140204e-03 1.6538483463e+00 -2.8645493638e+00 1.6538483463e+00 2.8645493638e+00 
16800 4.7348274820e+00 6.7964692255e-03 1.6536403596e+00 -2.8641891202e+00 1.6536403596e+00 2.8641891202e+00 
16900 4.7348230317e+00 6.7141206371e-03 1.6534348636e+00 -2.8638331908e+00 1.6534348636e+00 2.8638331908e+00 
17000 4.7348187456e+00 6.6326653924e-03 1.6532318322e+00 -2.8634815301e+00 1.6532318322e+00 2.8634815301e+00 
17100 4.7348146177e+00 6.5520999975e-03 1.6530312393e+00 -2.8631340930e+00 1.6530312393e+00 2.8631340930e+00 
17200 4.7348106423e+00 6.4724203771e-03 1.6528330589e+00 -2.8627908344e+00 1.6528330589e+00 2.8627908344e+00 
17300 4.7348068140e+00 6.3936219225e-03 1.6526372650e+00 -2.8624517095e+00 1.6526372650e+00 2.8624517095e+00 
17400 4.7348031274e+00 6.3156995359e-03 1.6524438318e+00 -2.8621166734e+00 1.6524438318e+00 2.8621166734e+00 
17500 4.7347995776e+00 6.2386476735e-03 1.6522527337e+00 -2.8617856817e+00 1.6522527337e+00 2.8617856817e+00 
17600 4.7347961596e+00 6.1624603854e-03 1.6520639451e+00 -2.8614586903e+00 1.6520639451e+00 2.8614586903e+00 
17700 4.7347928687e+00 6.0871313538e-03 1.6518774407e+00 -2.8611356552e+00 1.6518774407e+00 2.8611356552e+00 
17800 4.7347897004e+00 6.0126539288e-03 1.6516931953e+00 -2.8608165327e+00 1.6516931953e+00 2.8608165327e+00 
17900 4.7347866502e+00 5.9390211623e-03 1.6515111838e+00 -2.8605012795e+00 1.6515111838e+00 2.8605012795e+00 
18000 4.7347837140e+00 5.8662258399e-03 1.6513313814e+00 -2.8601898527e+00 1.6513313814e+00 2.8601898527e+00 
18100 4.7347808878e+00 5.7942605108e-03 1.6511537635e+00 -2.8598822094e+00 1.6511537635e+00 2.8598822094e+00 
18200 4.7347781675e+00 5.7231175164e-03 1.6509783056e+00 -2.8595783075e+00 1.6509783056e+00 2.8595783075e+00 
18300 4.7347755494e+00 5.6527890165e-03 1.6508049836e+00 -2.8592781050e+00 1.6508049836e+00 2.8592781050e+00 
18400 4.7347730298e+00 5.5832670141e-03 1.6506337734e+00 -2.8589815603e+00 1.6506337734e+00 2.8589815603e+00 
18500 4.7347706053e+00 5.5145433790e-03 1.6504646514e+00 -2.8586886323e+00 1.6504646514e+00 2.8586886323e+00 
18600 4.7347682724e+00 5.4466098693e-03 1.6502975939e+00 -2.8583992802e+00 1.6502975939e+00 2.8583992802e+00 
18700 4.7347660278e+00 5.3794581519e-03 1.6501325776e+00 -2.8581134636e+00 1.6501325776e+00 2.8581134636e+00 
18800 4.7347638685e+00 5.3130798216e-03 1.6499695795e+00 -2.8578311426e+00 1.6499695795e+00 2.8578311426e+00 
18900 4.7347617913e+00 5.2474664186e-03 1.6498085767e+00 -2.8575522777e+00 1.6498085767e+00 2.8575522777e+00 
19000 4.7347597933e+00 5.1826094449e-03 1.6496495467e+00 -2.8572768296e+00 1.6496495467e+00 2.8572768296e+00 
19100 4.7347578717e+00 5.1185003797e-03 1.6494924671e+00 -2.8570047597e+00 1.6494924671e+00 2.8570047597e+00 
19200 4.7347560237e+00 5.0551306937e-03 1.6493373157e+00 -2.8567360296e+00 1.6493373157e+00 2.8567360296e+00 
19300 4.7347542467e+00 4.9924918616e-03 1.6491840707e+00 -2.8564706016e+00 1.6491840707e+00 2.8564706016e+00 
19400 4.7347525381e+00 4.9305753747e-03 1.6490327106e+00 -2.8562084381e+00 1.6490327106e+00 2.8562084381e+00 
19500 4.7347508955e+00 4.8693727518e-03 1.6488832138e+00 -2.8559495021e+00 1.6488832138e+00 2.8559495021e+00 
19600 4.7347493165e+00 4.8088755491e-03 1.6487355593e+00 -2.8556937570e+00 1.6487355593e+00 2.8556937570e+00 
19700 4.7347477988e+00 4.7490753700e-03 1.6485897262e+00 -2.8554411667e+00 1.6485897262e+00 2.8554411667e+00 
19800 4.7347463402e+00 4.6899638731e-03 1.6484456938e+00 -2.8551916953e+00 1.6484456938e+00 2.8551916953e+00 
19900 4.7347449385e+00 4.6315327801e-03 1.6483034418e+00 -2.8549453074e+00 1.6483034418e+00 2.8549453074e+00 
20000 4.7347435918e+00 4.5737738826e-03 1.6481629498e+00 -2.8547019683e+00 1.6481629498e+00 2.8547019683e+00 
20100 4.7347422979e+00 4.5166790489e-03 1.6480241981e+00 -2.8544616432e+00 1.6480241981e+00 2.8544616432e+00 
20200 4.7347410549e+00 4.4602402287e-03 1.6478871668e+00 -2.8542242981e+00 1.6478871668e+00 2.8542242981e+00 
20300 4.7347398611e+00 4.4044494589e-03 1.6477518366e+00 -2.8539898992e+00 1.6477518366e+00 2.8539898992e+00 
20400 4.7347387146e+00 4.3492988676e-03 1.6476181881e+00 -2.8537584133e+00 1.6476181881e+00 2.8537584133e+00 
20500 4.7347376137e+00 4.2947806780e-03 1.6474862024e+00 -2.8535298074e+00 1.6474862024e+00 2.8535298074e+00 
20600 4.7347365567e+00 4.2408872120e-03 1.6473558607e+00 -2.8533040489e+00 1.6473558607e+00 2.8533040489e+00 
20700 4.7347355421e+00 4.1876108927e-03 1.6472271444e+00 -2.8530811057e+00 1.6472271444e+00 2.8530811057e+00 
20800 4.7347345682e+00 4.1349442470e-03 1.6471000351e+00 -2.8528609459e+00 1.6471000351e+00 2.8528609459e+00 
20900 4.7347336335e+00 4.0828799079e-03 1.6469745147e+00 -2.8526435383e+00 1.6469745147e+00 2.8526435383e+00 
21000 4.7347327367e+00 4.0314106155e-03 1.6468505654e+00 -2.8524288517e+00 1.6468505654e+00 2.8524288517e+00 
21100 4.7347318763e+00 3.9805292186e-03 1.6467281693e+00 -2.8522168555e+00 1.6467281693e+00 2.8522168555e+00 
21200 4.7347310510e+00 3.9302286759e-03 1.6466073090e+00 -2.8520075194e+00 1.6466073090e+00 2.8520075194e+00 
21300 4.7347302594e+00 3.8805020558e-03 1.6464879672e+00 -2.8518008133e+00 1.6464879672e+00 2.8518008133e+00 
21400 4.7347295004e+00 3.8313425376e-03 1.6463701269e+00 -2.8515967078e+00 1.6463701269e+00 2.8515967078e+00 
21500 4.7347287726e+00 3.7827434108e-03 1.6462537710e+00 -2.8513951735e+00 1.6462537710e+00 2.8513951735e+00 
21600 4.7347280750e+00 3.7346980752e-03 1.6461388829e+00 -2.8511961814e+00 1.6461388829e+00 2.8511961814e+00 
21700 4.7347274064e+00 3.6872000406e-03 1.6460254460e+00 -2.8509997031e+00 1.6460254460e+00 2.8509997031e+00 
21800 4.7347267658e+00 3.6402429259e-03 1.6459134442e+00 -2.8508057102e+00 1.6459134442e+00 2.8508057102e+00 
21900 4.7347261520e+00 3.5938204581e-03 1.6458028611e+00 -2.8506141747e+00 1.6458028611e+00 2.8506141747e+00 
22000 4.7347255641e+00 3.5479264716e-03 1.6456936810e+00 -2.8504250691e+00 1.6456936810e+00 2.8504250691e+00 
22100 4.7347250011e+00 3.5025549071e-03 1.6455858879e+00 -2.8502383660e+00 1.6455858879e+00 2.8502383660e+00 
22200 4.7347244621e+00 3.4576998098e-03 1.6454794663e+00 -2.8500540385e+00 1.6454794663e+00 2.8500540385e+00 
22300 4.7347239461e+00 3.4133553281e-03 1.6453744008e+00 -2.8498720596e+00 1.6453744008e+00 2.8498720596e+00 
22400 4.7347234523e+00 3.3695157125e-03 1.6452706761e+00 -2.8496924032e+00 1.6452706761e+00 2.8496924032e+00 
22500 4.7347229798e+00 3.3261753133e-03 1.6451682771e+00 -2.8495150430e+00 1.6451682771e+00 2.8495150430e+00 
22600 4.7347225279e+00 3.2833285789e-03 1.6450671889e+00 -2.8493399531e+00 1.6450671889e+00 2.8493399531e+00 
22700 4.7347220957e+00 3.2409700546e-03 1.6449673968e+00 -2.8491671080e+00 1.6449673968e+00 2.8491671080e+00 
22800 4.7347216824e+00 3.1990943796e-03 1.6448688861e+00 -2.8489964825e+00 1.6448688861e+00 2.8489964825e+00 
22900 4.7347212875e+00 3.1576962863e-03 1.6447716424e+00 -2.8488280515e+00 1.6447716424e+00 2.8488280515e+00 
23000 4.7347209101e+00 3.1167705970e-03 1.6446756514e+00 -2.8486617902e+00 1.6446756514e+00 2.8486617902e+00 
23100 4.7347205496e+00 3.0763122229e-03 1.6445808989e+00 -2.8484976741e+00 1.6445808989e+00 2.8484976741e+00 
23200 4.7347202053e+00 3.0363161612e-03 1.6444873711e+00 -2.8483356791e+00 1.6444873711e+00 2.8483356791e+00 
23300 4.7347198766e+00 2.9967774936e-03 1.6443950539e+00 -2.8481757811e+00 1.6443950539e+00 2.8481757811e+00 
23400 4.7347195629e+00 2.9576913839e-03 1.6443039338e+00 -2.8480179564e+00 1.6443039338e+00 2.8480179564e+00 
23500 4.7347192637e+00 2.9190530756e-03 1.6442139971e+00 -2.8478621815e+00 1.6442139971e+00 2.8478621815e+00 
23600 4.7347189783e+00 2.8808578904e-03 1.6441252305e+00 -2.8477084332e+00 1.6441252305e+00 2.8477084332e+00 
23700 4.7347187062e+00 2.8431012252e-03 1.6440376206e+00 -2.8475566885e+00 1.6440376206e+00 2.8475566885e+00 
23800 4.7347184469e+00 2.8057785510e-03 1.6439511543e+00 -2.8474069245e+00 1.6439511543e+00 2.8474069245e+00 
23900 4.7347181999e+00 2.7688854098e-03 1.6438658186e+00 -2.8472591187e+00 1.6438658186e+00 2.8472591187e+00 
24000 4.7347179647e+00 2.7324174129e-03 1.6437816006e+00 -2.8471132489e+00 1.6437816006e+00 2.8471132489e+00 
24100 4.7347177408e+00 2.6963702392e-03 1.6436984876e+00 -2.8469692928e+00 1.6436984876e+00 2.8469692928e+00 
24200 4.7347175278e+00 2.6607396324e-03 1.6436164668e+00 -2.8468272287e+00 1.6436164668e+00 2.8468272287e+00 
24300 4.7347173253e+00 2.6255213996e-03 1.6435355259e+00 -2.8466870349e+00 1.6435355259e+00 2.8466870349e+00 
24400 4.7347171329e+00 2.5907114087e-03 1.6434556523e+00 -2.8465486898e+00 1.6434556523e+00 2.8465486898e+00 
24500 4.7347169500e+00 2.5563055872e-03 1.6433768339e+00 -2.8464121724e+00 1.6433768339e+00 2.8464121724e+00 
24600 4.7347167765e+00 2.5222999196e-03 1.6432990585e+00 -2.8462774614e+00 1.6432990585e+00 2.8462774614e+00 
24700 4.7347166118e+00 2.4886904458e-03 1.6432223141e+00 -2.8461445362e+00 1.6432223141e+00 2.8461445362e+00 
24800 4.7347164557e+00 2.4554732593e-03 1.6431465888e+00 -2.8460133761e+00 1.6431465888e+00 2.8460133761e+00 
24900 4.7347163077e+00 2.4226445052e-03 1.6430718707e+00 -2.8458839606e+00 1.6430718707e+00 2.8458839606e+00 
25000 4.7347161676e+00 2.3902003787e-03 1.6429981483e+00 -2.8457562695e+00 1.6429981483e+00 2.8457562695e+00 
25100 4.7347160350e+00 2.3581371232e-03 1.6429254098e+00 -2.8456302828e+00 1.6429254098e+00 2.8456302828e+00 
25200 4.7347159096e+00 2.3264510286e-03 1.6428536439e+00 -2.8455059807e+00 1.6428536439e+00 2.8455059807e+00 
25300 4.7347157912e+00 2.2951384300e-03 1.6427828393e+00 -2.8453833434e+00 1.6427828393e+00 2.8453833434e+00 
25400 4.7347156794e+00 2.2641957056e-03 1.6427129845e+00 -2.8452623515e+00 1.6427129845e+00 2.8452623515e+00 
25500 4.7347155739e+00 2.2336192758e-03 1.6426440687e+00 -2.8451429857e+00 1.6426440687e+00 2.8451429857e+00 
25600 4.7347154746e+00 2.2034056012e-03 1.6425760806e+00 -2.8450252269e+00 1.6425760806e+00 2.8450252269e+00 
25700 4.7347153811e+00 2.1735511815e-03 1.6425090094e+00 -2.8449090562e+00 1.6425090094e+00 2.8449090562e+00 
25800 4.7347152933e+00 2.1440525540e-03 1.6424428443e+00 -2.8447944548e+00 1.6424428443e+00 2.8447944548e+00 
25900 4.7347152108e+00 2.1149062923e-03 1.6423775745e+00 -2.8446814042e+00 1.6423775745e+00 2.8446814042e+00 
26000 4.7347151334e+00 2.0861090052e-03 1.6423131894e+00 -2.8445698860e+00 1.6423131894e+00 2.8445698860e+00 
26100 4.7347150610e+00 2.0576573351e-03 1.6422496785e+00 -2.8444598819e+00 1.6422496785e+00 2.8444598819e+00 
26200 4.7347149933e+00 2.0295479571e-03 1.6421870314e+00 -2.8443513739e+00 1.6421870314e+00 2.8443513739e+00 
26300 4.7347149301e+00 2.0017775779e-03 1.6421252377e+00 -2.8442443441e+00 1.6421252377e+00 2.8442443441e+00 
26400 4.7347148712e+00 1.9743429347e-03 1.6420642873e+00 -2.8441387749e+00 1.6420642873e+00 2.8441387749e+00 
26500 4.7347148164e+00 1.9472407940e-03 1.6420041699e+00 -2.8440346486e+00 1.6420041699e+00 2.8440346486e+00 
26600 4.7347147656e+00 1.9204679508e-03 1.6419448757e+00 -2.8439319479e+00 1.6419448757e+00 2.8439319479e+00 
26700 4.7347147186e+00 1.8940212276e-03 1.6418863945e+00 -2.8438306555e+00 1.6418863945e+00 2.8438306555e+00 
26800 4.7347146752e+00 1.8678974736e-03 1.6418287166e+00 -2.8437307545e+00 1.6418287166e+00 2.8437307545e+00 
26900 4.7347146352e+00 1.8420935637e-03 1.6417718323e+00 -2.8436322280e+00 1.6417718323e+00 2.8436322280e+00 
27000 4.7347145986e+00 1.8166063977e-03 1.6417157318e+00 -2.8435350591e+00 1.6417157318e+00 2.8435350591e+00 
27100 4.7347145651e+00 1.7914328997e-03 1.6416604057e+00 -2.8434392314e+00 1.6416604057e+00 2.8434392314e+00 
27200 4.7347145346e+00 1.7665700174e-03 1.6416058444e+00 -2.8433447285e+00 1.6416058444e+00 2.8433447285e+00 
27300 4.7347145070e+00 1.7420147211e-03 1.6415520385e+00 -2.8432515340e+00 1.6415520385e+00 2.8432515340e+00 
27400 4.7347144821e+00 1.7177640034e-03 1.6414989788e+00 -2.8431596319e+00 1.6414989788e+00 2.8431596319e+00 
27500 4.7347144598e+00 1.6938148785e-03 1.6414466561e+00 -2.8430690062e+00 1.6414466561e+00 2.8430690062e+00 
27600 4.7347144401e+00 1.6701643814e-03 1.6413950611e+00 -2.8429796412e+00 1.6413950611e+00 2.8429796412e+00 
27700 4.7347144227e+00 1.6468095679e-03 1.6413441850e+00 -2.8428915212e+00 1.6413441850e+00 2.8428915212e+00 
27800 4.7347144075e+00 1.6237475136e-03 1.6412940188e+00 -2.8428046307e+00 1.6412940188e+00 2.8428046307e+00 
27900 4.7347143946e+00 1.6009753135e-03 1.6412445536e+00 -2.8427189545e+00 1.6412445536e+00 2.8427189545e+00 
28000 4.7347143837e+00 1.5784900820e-03 1.6411957806e+00 -2.8426344772e+00 1.6411957806e+00 2.8426344772e+00 
28100 4.7347143747e+00 1.5562889519e-03 1.6411476912e+00 -2.8425511839e+00 1.6411476912e+00 2.8425511839e+00 
28200 4.7347143676e+00 1.5343690746e-03 1.6411002768e+00 -2.8424690597e+00 1.6411002768e+00 2.8424690597e+00 
28300 4.7347143623e+00 1.5127276192e-03 1.6410535288e+00 -2.8423880899e+00 1.6410535288e+00 2.8423880899e+00 
28400 4.7347143586e+00 1.4913617727e-03 1.6410074389e+00 -2.8423082598e+00 1.6410074389e+00 2.8423082598e+00 
28500 4.7347143566e+00 1.4702687395e-03 1.6409619987e+00 -2.8422295550e+00 1.6409619987e+00 2.8422295550e+00 
28600 4.7347143561e+00 1.4494457410e-03 1.6409171999e+00 -2.8421519612e+00 1.6409171999e+00 2.8421519612e+00 
28700 4.7347143570e+00 1.4288900156e-03 1.6408730344e+00 -2.8420754643e+00 1.6408730344e+00 2.8420754643e+00 
28800 4.7347143592e+00 1.4085988184e-03 1.6408294940e+00 -2.8420000502e+00 1.6408294940e+00 2.8420000502e+00 
28900 4.7347143628e+00 1.3885694209e-03 1.6407865708e+00 -2.8419257051e+00 1.6407865708e+00 2.8419257051e+00 
29000 4.7347143675e+00 1.3687991112e-03 1.6407442569e+00 -2.8418524152e+00 1.6407442569e+00 2.8418524152e+00 
29100 4.7347143735e+00 1.3492851932e-03 1.6407025443e+00 -2.8417801669e+00 1.6407025443e+00 2.8417801669e+00 
29200 4.7347143805e+00 1.3300249872e-03 1.6406614254e+00 -2.8417089467e+00 1.6406614254e+00 2.8417089467e+00 
29300 4.7347143885e+00 1.3110158294e-03 1.6406208923e+00 -2.8416387415e+00 1.6406208923e+00 2.8416387415e+00 
29400 4.7347143975e+00 1.2922550717e-03 1.6405809376e+00 -2.8415695379e+00 1.6405809376e+00 2.8415695379e+00 
29500 4.7347144075e+00 1.2737400819e-03 1.6405415537e+00 -2.8415013230e+00 1.6405415537e+00 2.8415013230e+00 
29600 4.7347144182e+00 1.2554682435e-03 1.6405027331e+00 -2.8414340838e+00 1.6405027331e+00 2.8414340838e+00 
29700 4.7347144298e+00 1.2374369558e-03 1.6404644686e+00 -2.8413678075e+00 1.6404644686e+00 2.8413678075e+00 
29800 4.7347144422e+00 1.2196436334e-03 1.6404267526e+00 -2.8413024817e+00 1.6404267526e+00 2.8413024817e+00 
29900 4.7347144553e+00 1.2020857070e-03 1.6403895782e+00 -2.8412380936e+00 1.6403895782e+00 2.8412380936e+00 
30000 4.7347144690e+00 1.1847606226e-03 1.6403529381e+00 -2.8411746311e+00 1.6403529381e+00 2.8411746311e+00 
30100 4.7347144834e+00 1.1676658418e-03 1.6403168252e+00 -2.8411120818e+00 1.6403168252e+00 2.8411120818e+00 
30200 4.7347144984e+00 1.1507988419e-03 1.6402812327e+00 -2.8410504337e+00 1.6402812327e+00 2.8410504337e+00 
30300 4.7347145139e+00 1.1341571160e-03 1.6402461535e+00 -2.8409896748e+00 1.6402461535e+00 2.8409896748e+00 
30400 4.7347145299e+00 1.1177381724e-03 1.6402115808e+00 -2.8409297932e+00 1.6402115808e+00 2.8409297932e+00 
30500 4.7347145463e+00 1.1015395357e-03 1.6401775080e+00 -2.8408707772e+00 1.6401775080e+00 2.8408707772e+00 
30600 4.7347145632e+00 1.0855587459e-03 1.6401439282e+00 -2.8408126154e+00 1.6401439282e+00 2.8408126154e+00 
30700 4.7347145806e+00 1.0697933587e-03 1.6401108349e+00 -2.8407552961e+00 1.6401108349e+00 2.8407552961e+00 
30800 4.7347145982e+00 1.0542409460e-03 1.6400782216e+00 -2.8406988081e+00 1.6400782216e+00 2.8406988081e+00 
30900 4.7347146163e+00 1.0388990953e-03 1.6400460817e+00 -2.8406431403e+00 1.6400460817e+00 2.8406431403e+00 
31000 4.7347146346e+00 1.0237654103e-03 1.6400144089e+00 -2.8405882814e+00 1.6400144089e+00 2.8405882814e+00 
31100 4.7347146532e+00 1.0088375105e-03 1.6399831970e+00 -2.8405342207e+00 1.6399831970e+00 2.8405342207e+00 
31200 4.7347146721e+00 9.9411303179e-04 1.6399524395e+00 -2.8404809472e+00 1.6399524395e+00 2.8404809472e+00 
31300 4.7347146912e+00 9.7958962599e-04 1.6399221304e+00 -2.8404284503e+00 1.6399221304e+00 2.8404284503e+00 
31400 4.7347147105e+00 9.6526496135e-04 1.6398922635e+00 -2.8403767194e+00 1.6398922635e+00 2.8403767194e+00 
31500 4.7347147300e+00 9.5113672238e-04 1.6398628329e+00 -2.8403257440e+00 1.6398628329e+00 2.8403257440e+00 
31600 4.7347147496e+00 9.3720261006e-04 1.6398338325e+00 -2.8402755138e+00 1.6398338325e+00 2.8402755138e+00 
31700 4.7347147694e+00 9.2346034183e-04 1.6398052564e+00 -2.8402260186e+00 1.6398052564e+00 2.8402260186e+00 
31800 4.7347147893e+00 9.0990765170e-04 1.6397770989e+00 -2.8401772483e+00 1.6397770989e+00 2.8401772483e+00 
31900 4.7347148094e+00 8.9654229037e-04 1.6397493541e+00 -2.8401291929e+00 1.6397493541e+00 2.8401291929e+00 
32000 4.7347148295e+00 8.8336202526e-04 1.6397220164e+00 -2.8400818426e+00 1.6397220164e+00 2.8400818426e+00 
32100 4.7347148496e+00 8.7036464059e-04 1.6396950801e+00 -2.8400351877e+00 1.6396950801e+00 2.8400351877e+00 
32200 4.7347148698e+00 8.5754793748e-04 1.6396685397e+00 -2.8399892184e+00 1.6396685397e+00 2.8399892184e+00 
32300 4.7347148901e+00 8.4490973404e-04 1.6396423898e+00 -2.8399439253e+00 1.6396423898e+00 2.8399439253e+00 
32400 4.7347149104e+00 8.3244786538e-04 1.6396166248e+00 -2.8398992990e+00 1.6396166248e+00 2.8398992990e+00 
32500 4.7347149306e+00 8.2016018375e-04 1.6395912394e+00 -2.8398553303e+00 1.6395912394e+00 2.8398553303e+00 
32600 4.7347149509e+00 8.0804455859e-04 1.6395662283e+00 -2.8398120099e+00 1.6395662283e+00 2.8398120099e+00 
32700 4.7347149712e+00 7.9609887657e-04 1.6395415864e+00 -2.8397693287e+00 1.6395415864e+00 2.8397693287e+00 
32800 4.7347149914e+00 7.8432104168e-04 1.6395173083e+00 -2.8397272779e+00 1.6395173083e+00 2.8397272779e+00 
32900 4.7347150116e+00 7.7270897531e-04 1.6394933891e+00 -2.8396858487e+00 1.6394933891e+00 2.8396858487e+00 
33000 4.7347150317e+00 7.6126061625e-04 1.6394698237e+00 -2.8396450322e+00 1.6394698237e+00 2.8396450322e+00 
33100 4.7347150518e+00 7.4997392082e-04 1.6394466071e+00 -2.8396048198e+00 1.6394466071e+00 2.8396048198e+00 
33200 4.7347150718e+00 7.3884686284e-04 1.6394237344e+00 -2.8395652031e+00 1.6394237344e+00 2.8395652031e+00 
33300 4.7347150917e+00 7.2787743377e-04 1.6394012007e+00 -2.8395261736e+00 1.6394012007e+00 2.8395261736e+00 
33400 4.7347151115e+00 7.1706364267e-04 1.6393790013e+00 -2.8394877230e+00 1.6393790013e+00 2.8394877230e+00 
33500 4.7347151312e+00 7.0640351630e-04 1.6393571313e+00 -2.8394498432e+00 1.6393571313e+00 2.8394498432e+00 
33600 4.7347151508e+00 6.9589509911e-04 1.6393355862e+00 -2.8394125260e+00 1.6393355862e+00 2.8394125260e+00 
33700 4.7347151703e+00 6.8553645331e-04 1.6393143614e+00 -2.8393757635e+00 1.6393143614e+00 2.8393757635e+00 
33800 4.7347151897e+00 6.7532565891e-04 1.6392934522e+00 -2.8393395477e+00 1.6392934522e+00 2.8393395477e+00 
33900 4.7347152089e+00 6.6526081367e-04 1.6392728541e+00 -2.8393038708e+00 1.6392728541e+00 2.8393038708e+00 
34000 4.7347152281e+00 6.5534003321e-04 1.6392525628e+00 -2.8392687253e+00 1.6392525628e+00 2.8392687253e+00 
34100 4.7347152471e+00 6.4556145097e-04 1.6392325739e+00 -2.8392341034e+00 1.6392325739e+00 2.8392341034e+00 
34200 4.7347152659e+00 6.3592321824e-04 1.6392128830e+00 -2.8391999977e+00 1.6392128830e+00 2.8391999977e+00 
34300 4.7347152846e+00 6.2642350416e-04 1.6391934858e+00 -2.8391664008e+00 1.6391934858e+00 2.8391664008e+00 
34400 4.7347153031e+00 6.1706049574e-04 1.6391743782e+00 -2.8391333054e+00 1.6391743782e+00 2.8391333054e+00 
34500 4.7347153215e+00 6.0783239784e-04 1.6391555559e+00 -2.8391007043e+00 1.6391555559e+00 2.8391007043e+00 
34600 4.7347153398e+00 5.9873743315e-04 1.6391370149e+00 -2.8390685904e+00 1.6391370149e+00 2.8390685904e+00 
34700 4.7347153579e+00 5.8977384224e-04 1.6391187511e+00 -2.8390369566e+00 1.6391187511e+00 2.8390369566e+00 
34800 4.7347153758e+00 5.8093988347e-04 1.6391007606e+00 -2.8390057961e+00 1.6391007606e+00 2.8390057961e+00 
34900 4.7347153935e+00 5.7223383301e-04 1.6390830393e+00 -2.8389751019e+00 1.6390830393e+00 2.8389751019e+00 
35000 4.7347154111e+00 5.6365398484e-04 1.6390655834e+00 -2.8389448675e+00 1.6390655834e+00 2.8389448675e+00 
35100 4.7347154285e+00 5.5519865067e-04 1.6390483891e+00 -2.8389150860e+00 1.6390483891e+00 2.8389150860e+00 
35200 4.7347154457e+00 5.4686615993e-04 1.6390314525e+00 -2.8388857510e+00 1.6390314525e+00 2.8388857510e+00 
35300 4.7347154627e+00 5.3865485975e-04 1.6390147699e+00 -2.8388568559e+00 1.6390147699e+00 2.8388568559e+00 
35400 4.7347154796e+00 5.3056311491e-04 1.6389983377e+00 -2.8388283944e+00 1.6389983377e+00 2.8388283944e+00 
35500 4.7347154963e+00 5.2258930778e-04 1.6389821521e+00 -2.8388003602e+00 1.6389821521e+00 2.8388003602e+00 
35600 4.7347155128e+00 5.1473183829e-04 1.6389662097e+00 -2.8387727470e+00 1.6389662097e+00 2.8387727470e+00 
35700 4.7347155291e+00 5.0698912387e-04 1.6389505067e+00 -2.8387455488e+00 1.6389505067e+00 2.8387455488e+00 
35800 4.7347155453e+00 4.9935959941e-04 1.6389350399e+00 -2.8387187594e+00 1.6389350399e+00 2.8387187594e+00 
35900 4.7347155612e+00 4.9184171716e-04 1.6389198056e+00 -2.8386923729e+00 1.6389198056e+00 2.8386923729e+00 
36000 4.7347155770e+00 4.8443394672e-04 1.6389048006e+00 -2.8386663834e+00 1.6389048006e+00 2.8386663834e+00 
36100 4.7347155926e+00 4.7713477493e-04 1.6388900214e+00 -2.8386407851e+00 1.6388900214e+00 2.8386407851e+00 
36200 4.7347156080e+00 4.6994270581e-04 1.6388754648e+00 -2.8386155723e+00 1.6388754648e+00 2.8386155723e+00 
36300 4.7347156232e+00 4.6285626051e-04 1.6388611275e+00 -2.8385907393e+00 1.6388611275e+00 2.8385907393e+00 
36400 4.7347156382e+00 4.5587397720e-04 1.6388470062e+00 -2.8385662806e+00 1.6388470062e+00 2.8385662806e+00 
36500 4.7347156531e+00 4.4899441100e-04 1.6388330979e+00 -2.8385421906e+00 1.6388330979e+00 2.8385421906e+00 
36600 4.7347156677e+00 4.4221613391e-04 1.6388193993e+00 -2.8385184640e+00 1.6388193993e+00 2.8385184640e+00 
36700 4.7347156822e+00 4.3553773469e-04 1.6388059074e+00 -2.8384950953e+00 1.6388059074e+00 2.8384950953e+00 
36800 4.7347156965e+00 4.2895781882e-04 1.6387926191e+00 -2.8384720794e+00 1.6387926191e+00 2.8384720794e+00 
36900 4.7347157106e+00 4.2247500836e-04 1.6387795315e+00 -2.8384494110e+00 1.6387795315e+00 2.8384494110e+00 
37000 4.7347157245e+00 4.1608794186e-04 1.6387666416e+00 -2.8384270851e+00 1.6387666416e+00 2.8384270851e+00 
37100 4.7347157383e+00 4.0979527430e-04 1.6387539465e+00 -2.8384050964e+00 1.6387539465e+00 2.8384050964e+00 
37200 4.7347157518e+00 4.0359567694e-04 1.6387414433e+00 -2.8383834402e+00 1.6387414433e+00 2.8383834402e+00 
37300 4.7347157652e+00 3.9748783725e-04 1.6387291291e+00 -2.8383621114e+00 1.6387291291e+00 2.8383621114e+00 
37400 4.7347157784e+00 3.9147045878e-04 1.6387170012e+00 -2.8383411052e+00 1.6387170012e+00 2.8383411052e+00 
37500 4.7347157914e+00 3.8554226109e-04 1.6387050568e+00 -2.8383204169e+00 1.6387050568e+00 2.8383204169e+00 
37600 4.7347158043e+00 3.7970197957e-04 1.6386932931e+00 -2.8383000417e+00 1.6386932931e+00 2.8383000417e+00 
37700 4.7347158169e+00 3.7394836541e-04 1.6386817076e+00 -2.8382799751e+00 1.6386817076e+00 2.8382799751e+00 
37800 4.7347158294e+00 3.6828018542e-04 1.6386702976e+00 -2.8382602123e+00 1.6386702976e+00 2.8382602123e+00 
37900 4.7347158417e+00 3.6269622194e-04 1.6386590605e+00 -2.8382407490e+00 1.6386590605e+00 2.8382407490e+00 
38000 4.7347158539e+00 3.5719527273e-04 1.6386479936e+00 -2.8382215807e+00 1.6386479936e+00 2.8382215807e+00 
38100 4.7347158658e+00 3.5177615083e-04 1.6386370945e+00 -2.8382027029e+00 1.6386370945e+00 2.8382027029e+00 
38200 4.7347158776e+00 3.4643768445e-04 1.6386263608e+00 -2.8381841114e+00 1.6386263608e+00 2.8381841114e+00 
38300 4.7347158893e+00 3.4117871684e-04 1.6386157898e+00 -2.8381658020e+00 1.6386157898e+00 2.8381658020e+00 
38400 4.7347159007e+00 3.3599810617e-04 1.6386053792e+00 -2.8381477704e+00 1.6386053792e+00 2.8381477704e+00 
38500 4.7347159120e+00 3.3089472539e-04 1.6385951267e+00 -2.8381300124e+00 1.6385951267e+00 2.8381300124e+00 
38600 4.7347159231e+00 3.2586746213e-04 1.6385850298e+00 -2.8381125241e+00 1.6385850298e+00 2.8381125241e+00 
38700 4.7347159341e+00 3.2091521854e-04 1.6385750862e+00 -2.8380953014e+00 1.6385750862e+00 2.8380953014e+00 
38800 4.7347159449e+00 3.1603691119e-04 1.6385652937e+00 -2.8380783403e+00 1.6385652937e+00 2.8380783403e+00 
38900 4.7347159556e+00 3.1123147090e-04 1.6385556500e+00 -2.8380616369e+00 1.6385556500e+00 2.8380616369e+00 
39000 4.7347159660e+00 3.0649784266e-04 1.6385461529e+00 -2.8380451874e+00 1.6385461529e+00 2.8380451874e+00 
39100 4.7347159764e+00 3.0183498544e-04 1.6385368002e+00 -2.8380289880e+00 1.6385368002e+00 2.8380289880e+00 
39200 4.7347159865e+00 2.9724187209e-04 1.6385275897e+00 -2.8380130349e+00 1.6385275897e+00 2.8380130349e+00 
39300 4.7347159966e+00 2.9271748922e-04 1.6385185193e+00 -2.8379973246e+00 1.6385185193e+00 2.8379973246e+00 
39400 4.7347160064e+00 2.8826083703e-04 1.6385095869e+00 -2.8379818532e+00 1.6385095869e+00 2.8379818532e+00 
39500 4.7347160161e+00 2.8387092918e-04 1.6385007905e+00 -2.8379666174e+00 1.6385007905e+00 2.8379666174e+00 
39600 4.7347160257e+00 2.7954679269e-04 1.6384921280e+00 -2.8379516135e+00 1.6384921280e+00 2.8379516135e+00 
39700 4.7347160351e+00 2.7528746774e-04 1.6384835974e+00 -2.8379368380e+00 1.6384835974e+00 2.8379368380e+00 
39800 4.7347160444e+00 2.7109200760e-04 1.6384751967e+00 -2.8379222876e+00 1.6384751967e+00 2.8379222876e+00 
39900 4.7347160535e+00 2.6695947847e-04 1.6384669240e+00 -2.8379079589e+00 1.6384669240e+00 2.8379079589e+00 
40000 4.7347160625e+00 2.6288895930e-04 1.6384587774e+00 -2.8378938486e+00 1.6384587774e+00 2.8378938486e+00 
40100 4.7347160714e+00 2.5887954172e-04 1.6384507550e+00 -2.8378799533e+00 1.6384507550e+00 2.8378799533e+00 
40200 4.7347160801e+00 2.5493032986e-04 1.6384428548e+00 -2.8378662699e+00 1.6384428548e+00 2.8378662699e+00 
40300 4.7347160886e+00 2.5104044023e-04 1.6384350752e+00 -2.8378527951e+00 1.6384350752e+00 2.8378527951e+00 
40400 4.7347160971e+00 2.4720900158e-04 1.6384274142e+00 -2.8378395259e+00 1.6384274142e+00 2.8378395259e+00 
40500 4.7347161054e+00 2.4343515475e-04 1.6384198701e+00 -2.8378264592e+00 1.6384198701e+00 2.8378264592e+00 
40600 4.7347161136e+00 2.3971805255e-04 1.6384124412e+00 -2.8378135919e+00 1.6384124412e+00 2.8378135919e+00 
40700 4.7347161216e+00 2.3605685962e-04 1.6384051256e+00 -2.8378009210e+00 1.6384051256e+00 2.8378009210e+00 
40800 4.7347161295e+00 2.3245075228e-04 1.6383979218e+00 -2.8377884435e+00 1.6383979218e+00 2.8377884435e+00 
40900 4.7347161373e+00 2.2889891841e-04 1.6383908279e+00 -2.8377761566e+00 1.6383908279e+00 2.8377761566e+00 
41000 4.7347161450e+00 2.2540055733e-04 1.6383838425e+00 -2.8377640574e+00 1.6383838425e+00 2.8377640574e+00 
41100 4.7347161525e+00 2.2195487961e-04 1.6383769637e+00 -2.8377521431e+00 1.6383769637e+00 2.8377521431e+00 
41200 4.7347161599e+00 2.1856110699e-04 1.6383701901e+00 -2.8377404108e+00 1.6383701901e+00 2.8377404108e+00 
41300 4.7347161672e+00 2.1521847223e-04 1.6383635200e+00 -2.8377288579e+00 1.6383635200e+00 2.8377288579e+00 
41400 4.7347161744e+00 2.1192621895e-04 1.6383569519e+00 -2.8377174817e+00 1.6383569519e+00 2.8377174817e+00 
41500 4.7347161815e+00 2.0868360153e-04 1.6383504843e+00 -2.8377062794e+00 1.6383504843e+00 2.8377062794e+00 
41600 4.7347161884e+00 2.0548988499e-04 1.6383441156e+00 -2.8376952485e+00 1.6383441156e+00 2.8376952485e+00 
41700 4.7347161952e+00 2.0234434479e-04 1.6383378443e+00 -2.8376843863e+00 1.6383378443e+00 2.8376843863e+00 
41800 4.7347162020e+00 1.9924626679e-04 1.6383316690e+00 -2.8376736904e+00 1.6383316690e+00 2.8376736904e+00 
41900 4.7347162086e+00 1.9619494704e-04 1.6383255883e+00 -2.8376631582e+00 1.6383255883e+00 2.8376631582e+00 
42000 4.7347162151e+00 1.9318969171e-04 1.6383196006e+00 -2.8376527873e+00 1.6383196006e+00 2.8376527873e+00 
42100 4.7347162215e+00 1.9022981692e-04 1.6383137046e+00 -2.8376425752e+00 1.6383137046e+00 2.8376425752e+00 
42200 4.7347162278e+00 1.8731464863e-04 1.6383078990e+00 -2.8376325195e+00 1.6383078990e+00 2.8376325195e+00 
42300 4.7347162340e+00 1.8444352252e-04 1.6383021823e+00 -2.8376226179e+00 1.6383021823e+00 2.8376226179e+00 
42400 4.7347162400e+00 1.8161578387e-04 1.6382965532e+00 -2.8376128680e+00 1.6382965532e+00 2.8376128680e+00 
42500 4.7347162460e+00 1.7883078739e-04 1.6382910104e+00 -2.8376032675e+00 1.6382910104e+00 2.8376032675e+00 
42600 4.7347162519e+00 1.7608789715e-04 1.6382855525e+00 -2.8375938143e+00 1.6382855525e+00 2.8375938143e+00 
42700 4.7347162577e+00 1.7338648643e-04 1.6382801784e+00 -2.8375845060e+00 1.6382801784e+00 2.8375845060e+00 
42800 4.7347162634e+00 1.7072593760e-04 1.6382748866e+00 -2.8375753404e+00 1.6382748866e+00 2.8375753404e+00 
42900 4.7347162690e+00 1.6810564202e-04 1.6382696761e+00 -2.8375663155e+00 1.6382696761e+00 2.8375663155e+00 
43000 4.7347162745e+00 1.6552499987e-04 1.6382645455e+00 -2.8375574291e+00 1.6382645455e+00 2.8375574291e+00 
43100 4.7347162799e+00 1.6298342009e-04 1.6382594937e+00 -2.8375486790e+00 1.6382594937e+00 2.8375486790e+00 
43200 4.7347162852e+00 1.6048032023e-04 1.6382545194e+00 -2.8375400633e+00 1.6382545194e+00 2.8375400633e+00 
43300 4.7347162905e+00 1.5801512633e-04 1.6382496215e+00 -2.8375315799e+00 1.6382496215e+00 2.8375315799e+00 
43400 4.7347162956e+00 1.5558727283e-04 1.6382447988e+00 -2.8375232268e+00 1.6382447988e+00 2.8375232268e+00 
43500 4.7347163007e+00 1.5319620243e-04 1.6382400502e+00 -2.8375150020e+00 1.6382400502e+00 2.8375150020e+00 
43600 4.7347163056e+00 1.5084136598e-04 1.6382353746e+00 -2.8375069036e+00 1.6382353746e+00 2.8375069036e+00 
43700 4.7347163105e+00 1.4852222239e-04 1.6382307708e+00 -2.8374989296e+00 1.6382307708e+00 2.8374989296e+00 
43800 4.7347163153e+00 1.4623823848e-04 1.6382262378e+00 -2.8374910782e+00 1.6382262378e+00 2.8374910782e+00 
43900 4.7347163201e+00 1.4398888893e-04 1.6382217745e+00 -2.8374833475e+00 1.6382217745e+00 2.8374833475e+00 
44000 4.7347163247e+00 1.4177365608e-04 1.6382173798e+00 -2.8374757357e+00 1.6382173798e+00 2.8374757357e+00 
44100 4.7347163293e+00 1.3959202994e-04 1.6382130528e+00 -2.8374682410e+00 1.6382130528e+00 2.8374682410e+00 
44200 4.7347163338e+00 1.3744350796e-04 1.6382087923e+00 -2.8374608616e+00 1.6382087923e+00 2.8374608616e+00 
44300 4.7347163382e+00 1.3532759502e-04 1.6382045973e+00 -2.8374535958e+00 1.6382045973e+00 2.8374535958e+00 
44400 4.7347163425e+00 1.3324380330e-04 1.6382004670e+00 -2.8374464418e+00 1.6382004670e+00 2.8374464418e+00 
44500 4.7347163468e+00 1.3119165213e-04 1.6381964002e+00 -2.8374393979e+00 1.6381964002e+00 2.8374393979e+00 
44600 4.7347163510e+00 1.2917066796e-04 1.6381923961e+00 -2.8374324626e+00 1.6381923961e+00 2.8374324626e+00 
44700 4.7347163551e+00 1.2718038420e-04 1.6381884536e+00 -2.8374256340e+00 1.6381884536e+00 2.8374256340e+00 
44800 4.7347163591e+00 1.2522034118e-04 1.6381845719e+00 -2.8374189106e+00 1.6381845719e+00 2.8374189106e+00 
44900 4.7347163631e+00 1.2329008598e-04 1.6381807499e+00 -2.8374122909e+00 1.6381807499e+00 2.8374122909e+00 
45000 4.7347163670e+00 1.2138917240e-04 1.6381769869e+00 -2.8374057731e+00 1.6381769869e+00 2.8374057731e+00 
45100 4.7347163709e+00 1.1951716081e-04 1.6381732819e+00 -2.8373993559e+00 1.6381732819e+00 2.8373993559e+00 
45200 4.7347163746e+00 1.1767361811e-04 1.6381696340e+00 -2.8373930376e+00 1.6381696340e+00 2.8373930376e+00 
45300 4.7347163784e+00 1.1585811758e-04 1.6381660424e+00 -2.8373868167e+00 1.6381660424e+00 2.8373868167e+00 
45400 4.7347163820e+00 1.1407023884e-04 1.6381625062e+00 -2.8373806918e+00 1.6381625062e+00 2.8373806918e+00 
45500 4.7347163856e+00 1.1230956770e-04 1.6381590245e+00 -2.8373746614e+00 1.6381590245e+00 2.8373746614e+00 
45600 4.7347163891e+00 1.1057569614e-04 1.6381555966e+00 -2.8373687241e+00 1.6381555966e+00 2.8373687241e+00 
45700 4.7347163926e+00 1.0886822215e-04 1.6381522216e+00 -2.8373628784e+00 1.6381522216e+00 2.8373628784e+00 
45800 4.7347163960e+00 1.0718674971e-04 1.6381488987e+00 -2.8373571230e+00 1.6381488987e+00 2.8373571230e+00 
45900 4.7347163993e+00 1.0553088865e-04 1.6381456271e+00 -2.8373514564e+00 1.6381456271e+00 2.8373514564e+00 
46000 4.7347164026e+00 1.0390025459e-04 1.6381424061e+00 -2.8373458774e+00 1.6381424061e+00 2.8373458774e+00 
46100 4.7347164059e+00 1.0229446885e-04 1.6381392348e+00 -2.8373403846e+00 1.6381392348e+00 2.8373403846e+00 
46200 4.7347164091e+00 1.0071315836e-04 1.6381361125e+00 -2.8373349766e+00 1.6381361125e+00 2.8373349766e+00 
46300 4.7347164122e+00 9.9155955595e-05 1.6381330385e+00 -2.8373296523e+00 1.6381330385e+00 2.8373296523e+00 
46400 4.7347164153e+00 9.7622498486e-05 1.6381300120e+00 -2.8373244102e+00 1.6381300120e+00 2.8373244102e+00 
46500 4.7347164183e+00 9.6112430330e-05 1.6381270323e+00 -2.8373192493e+00 1.6381270323e+00 2.8373192493e+00 
46600 4.7347164212e+00 9.4625399723e-05 1.6381240987e+00 -2.8373141681e+00 1.6381240987e+00 2.8373141681e+00 
46700 4.7347164242e+00 9.3161060478e-05 1.6381212105e+00 -2.8373091656e+00 1.6381212105e+00 2.8373091656e+00 
46800 4.7347164270e+00 9.1719071550e-05 1.6381183670e+00 -2.8373042404e+00 1.6381183670e+00 2.8373042404e+00 
46900 4.7347164298e+00 9.0299096958e-05 1.6381155675e+00 -2.8372993915e+00 1.6381155675e+00 2.8372993915e+00 
47000 4.7347164326e+00 8.8900805714e-05 1.6381128113e+00 -2.8372946176e+00 1.6381128113e+00 2.8372946176e+00 
47100 4.7347164353e+00 8.7523871745e-05 1.6381100978e+00 -2.8372899177e+00 1.6381100978e+00 2.8372899177e+00 
47200 4.7347164380e+00 8.6167973823e-05 1.6381074263e+00 -2.8372852906e+00 1.6381074263e+00 2.8372852906e+00 
47300 4.7347164406e+00 8.4832795494e-05 1.6381047962e+00 -2.8372807351e+00 1.6381047962e+00 2.8372807351e+00 
47400 4.7347164432e+00 8.3518025007e-05 1.6381022068e+00 -2.8372762502e+00 1.6381022068e+00 2.8372762502e+00 
47500 4.7347164457e+00 8.2223355245e-05 1.6380996576e+00 -2.8372718348e+00 1.6380996576e+00 2.8372718348e+00 
47600 4.7347164482e+00 8.0948483655e-05 1.6380971479e+00 -2.8372674878e+00 1.6380971479e+00 2.8372674878e+00 
47700 4.7347164507e+00 7.9693112182e-05 1.6380946770e+00 -2.8372632083e+00 1.6380946770e+00 2.8372632083e+00 
47800 4.7347164531e+00 7.8456947200e-05 1.6380922446e+00 -2.8372589951e+00 1.6380922446e+00 2.8372589951e+00 
47900 4.7347164555e+00 7.7239699453e-05 1.6380898498e+00 -2.8372548472e+00 1.6380898498e+00 2.8372548472e+00 
48000 4.7347164578e+00 7.6041083981e-05 1.6380874922e+00 -2.8372507637e+00 1.6380874922e+00 2.8372507637e+00 
48100 4.7347164601e+00 7.4860820064e-05 1.6380851711e+00 -2.8372467435e+00 1.6380851711e+00 2.8372467435e+00 
48200 4.7347164623e+00 7.3698631156e-05 1.6380828861e+00 -2.8372427858e+00 1.6380828861e+00 2.8372427858e+00 
48300 4.7347164645e+00 7.2554244822e-05 1.6380806366e+00 -2.8372388895e+00 1.6380806366e+00 2.8372388895e+00 
48400 4.7347164667e+00 7.1427392681e-05 1.6380784220e+00 -2.8372350537e+00 1.6380784220e+00 2.8372350537e+00 
48500 4.7347164688e+00 7.0317810341e-05 1.6380762418e+00 -2.8372312774e+00 1.6380762418e+00 2.8372312774e+00 
48600 4.7347164711e+00 7.0374329005e-05 1.6380762418e+00 -2.8372312774e+00 1.6380762418e+00 2.8372312774e+00 
48700 4.7347164733e+00 7.0436494348e-05 1.6380762418e+00 -2.8372312774e+00 1.6380762418e+00 2.8372312774e+00 
48800 4.7347164755e+00 7.0503973297e-05 1.6380762418e+00 -2.8372312774e+00 1.6380762418e+00 2.8372312774e+00 
48900 4.7347164777e+00 7.0576443539e-05 1.6380762418e+00 -2.8372312774e+00 1.6380762418e+00 2.8372312774e+00 
49000 4.7347164798e+00 7.0653593316e-05 1.6380762418e+00 -2.8372312774e+00 1.6380762418e+00 2.8372312774e+00 
49100 4.7347164819e+00 7.0735121233e-05 1.6380762418e+00 -2.8372312774e+00 1.6380762418e+00 2.8372312774e+00 
49200 4.7347164837e+00 6.9664840394e-05 1.6380740827e+00 -2.8372275378e+00 1.6380740827e+00 2.8372275378e+00 
49300 4.7347164857e+00 6.9747473821e-05 1.6380740827e+00 -2.8372275378e+00 1.6380740827e+00 2.8372275378e+00 
49400 4.7347164877e+00 6.9833892091e-05 1.6380740827e+00 -2.8372275378e+00 1.6380740827e+00 2.8372275378e+00 
49500 4.7347164896e+00 6.9923827628e-05 1.6380740827e+00 -2.8372275378e+00 1.6380740827e+00 2.8372275378e+00 
49600 4.7347164915e+00 7.0017022291e-05 1.6380740827e+00 -2.8372275378e+00 1.6380740827e+00 2.8372275378e+00 
49700 4.7347164934e+00 7.0113227184e-05 1.6380740827e+00 -2.8372275378e+00 1.6380740827e+00 2.8372275378e+00 
49800 4.7347164952e+00 7.0212202468e-05 1.6380740827e+00 -2.8372275378e+00 1.6380740827e+00 2.8372275378e+00 
49900 4.7347164970e+00 7.0313717178e-05 1.6380740827e+00 -2.8372275378e+00 1.6380740827e+00 2.8372275378e+00 
50000 4.7347164988e+00 7.0417549035e-05 1.6380740827e+00 -2.8372275378e+00 1.6380740827e+00 2.8372275378e+00 
50100 4.7347165005e+00 7.0523484262e-05 1.6380740827e+00 -2.8372275378e+00 1.6380740827e+00 2.8372275378e+00 
50200 4.7347165022e+00 7.0631317399e-05 1.6380740827e+00 -2.8372275378e+00 1.6380740827e+00 2.8372275378e+00 
50300 4.7347165039e+00 7.0740851124e-05 1.6380740827e+00 -2.8372275378e+00 1.6380740827e+00 2.8372275378e+00 
50400 4.7347165054e+00 6.9695926739e-05 1.6380719234e+00 -2.8372237978e+00 1.6380719234e+00 2.8372237978e+00 
50500 4.7347165070e+00 6.9801513203e-05 1.6380719234e+00 -2.8372237978e+00 1.6380719234e+00 2.8372237978e+00 
50600 4.7347165086e+00 6.9908505990e-05 1.6380719234e+00 -2.8372237978e+00 1.6380719234e+00 2.8372237978e+00 
50700 4.7347165101e+00 7.0016732811e-05 1.6380719234e+00 -2.8372237978e+00 1.6380719234e+00 2.8372237978e+00 
50800 4.7347165116e+00 7.0126028648e-05 1.6380719234e+00 -2.8372237978e+00 1.6380719234e+00 2.8372237978e+00 
50900 4.7347165131e+00 7.0236235566e-05 1.6380719234e+00 -2.8372237978e+00 1.6380719234e+00 2.8372237978e+00 
51000 4.7347165146e+00 7.0347202540e-05 1.6380719234e+00 -2.8372237978e+00 1.6380719234e+00 2.8372237978e+00 
51100 4.7347165161e+00 7.0458785283e-05 1.6380719234e+00 -2.8372237978e+00 1.6380719234e+00 2.8372237978e+00 
51200 4.7347165175e+00 7.0570846065e-05 1.6380719234e+00 -2.8372237978e+00 1.6380719234e+00 2.8372237978e+00 
51300 4.7347165189e+00 7.0683253542e-05 1.6380719234e+00 -2.8372237978e+00 1.6380719234e+00 2.8372237978e+00 
51400 4.7347165203e+00 7.0795882593e-05 1.6380719234e+00 -2.8372237978e+00 1.6380719234e+00 2.8372237978e+00 
51500 4.7347165214e+00 6.9751757203e-05 1.6380697625e+00 -2.8372200549e+00 1.6380697625e+00 2.8372200549e+00 
51600 4.7347165228e+00 6.9857684393e-05 1.6380697625e+00 -2.8372200549e+00 1.6380697625e+00 2.8372200549e+00 
51700 4.7347165241e+00 6.9963744316e-05 1.6380697625e+00 -2.8372200549e+00 1.6380697625e+00 2.8372200549e+00 
51800 4.7347165253e+00 7.0069829346e-05 1.6380697625e+00 -2.8372200549e+00 1.6380697625e+00 2.8372200549e+00 
51900 4.7347165266e+00 7.0175837280e-05 1.6380697625e+00 -2.8372200549e+00 1.6380697625e+00 2.8372200549e+00 
52000 4.7347165278e+00 7.0281671174e-05 1.6380697625e+00 -2.8372200549e+00 1.6380697625e+00 2.8372200549e+00 
52100 4.7347165290e+00 7.0387239189e-05 1.6380697625e+00 -2.8372200549e+00 1.6380697625e+00 2.8372200549e+00 
52200 4.7347165302e+00 7.0492454435e-05 1.6380697625e+00 -2.8372200549e+00 1.6380697625e+00 2.8372200549e+00 
52300 4.7347165314e+00 7.0597234811e-05 1.6380697625e+00 -2.8372200549e+00 1.6380697625e+00 2.8372200549e+00 
52400 4.7347165325e+00 7.0701502864e-05 1.6380697625e+00 -2.8372200549e+00 1.6380697625e+00 2.8372200549e+00 
52500 4.7347165337e+00 7.0805185634e-05 1.6380697625e+00 -2.8372200549e+00 1.6380697625e+00 2.8372200549e+00 
52600 4.7347165346e+00 6.9751212717e-05 1.6380676012e+00 -2.8372163115e+00 1.6380676012e+00 2.8372163115e+00 
52700 4.7347165357e+00 6.9846728588e-05 1.6380676012e+00 -2.8372163115e+00 1.6380676012e+00 2.8372163115e+00 
52800 4.7347165368e+00 6.9941716773e-05 1.6380676012e+00 -2.8372163115e+00 1.6380676012e+00 2.8372163115e+00 
52900 4.7347165378e+00 7.0036115164e-05 1.6380676012e+00 -2.8372163115e+00 1.6380676012e+00 2.8372163115e+00 
53000 4.7347165388e+00 7.0129865477e-05 1.6380676012e+00 -2.8372163115e+00 1.6380676012e+00 2.8372163115e+00 
53100 4.7347165398e+00 7.0222913119e-05 1.6380676012e+00 -2.8372163115e+00 1.6380676012e+00 2.8372163115e+00 
53200 4.7347165408e+00 7.0315207055e-05 1.6380676012e+00 -2.8372163115e+00 1.6380676012e+00 2.8372163115e+00 
53300 4.7347165418e+00 7.0406699685e-05 1.6380676012e+00 -2.8372163115e+00 1.6380676012e+00 2.8372163115e+00 
53400 4.7347165428e+00 7.0497346716e-05 1.6380676012e+00 -2.8372163115e+00 1.6380676012e+00 2.8372163115e+00 
53500 4.7347165437e+00 7.0587107040e-05 1.6380676012e+00 -2.8372163115e+00 1.6380676012e+00 2.8372163115e+00 
53600 4.7347165447e+00 7.0675942615e-05 1.6380676012e+00 -2.8372163115e+00 1.6380676012e+00 2.8372163115e+00 
53700 4.7347165456e+00 7.0763818352e-05 1.6380676012e+00 -2.8372163115e+00 1.6380676012e+00 2.8372163115e+00 
53800 4.7347165463e+00 6.9694380638e-05 1.6380654412e+00 -2.8372125703e+00 1.6380654412e+00 2.8372125703e+00 
53900 4.7347165472e+00 6.9773451840e-05 1.6380654412e+00 -2.8372125703e+00 1.6380654412e+00 2.8372125703e+00 
54000 4.7347165480e+00 6.9851725319e-05 1.6380654412e+00 -2.8372125703e+00 1.6380654412e+00 2.8372125703e+00 
54100 4.7347165489e+00 6.9929170984e-05 1.6380654412e+00 -2.8372125703e+00 1.6380654412e+00 2.8372125703e+00 
54200 4.7347165497e+00 7.0005761189e-05 1.6380654412e+00 -2.8372125703e+00 1.6380654412e+00 2.8372125703e+00 
54300 4.7347165505e+00 7.0081470630e-05 1.6380654412e+00 -2.8372125703e+00 1.6380654412e+00 2.8372125703e+00 
54400 4.7347165513e+00 7.0156276248e-05 1.6380654412e+00 -2.8372125703e+00 1.6380654412e+00 2.8372125703e+00 
54500 4.7347165521e+00 7.0230157137e-05 1.6380654412e+00 -2.8372125703e+00 1.6380654412e+00 2.8372125703e+00 
54600 4.7347165529e+00 7.0303094447e-05 1.6380654412e+00 -2.8372125703e+00 1.6380654412e+00 2.8372125703e+00 
54700 4.7347165537e+00 7.0375071300e-05 1.6380654412e+00 -2.8372125703e+00 1.6380654412e+00 2.8372125703e+00 
54800 4.7347165544e+00 7.0446072703e-05 1.6380654412e+00 -2.8372125703e+00 1.6380654412e+00 2.8372125703e+00 
54900 4.7347165552e+00 7.0516085461e-05 1.6380654412e+00 -2.8372125703e+00 1.6380654412e+00 2.8372125703e+00 
55000 4.7347165559e+00 7.0585098097e-05 1.6380654412e+00 -2.8372125703e+00 1.6380654412e+00 2.8372125703e+00 
55100 4.7347165566e+00 7.0653100779e-05 1.6380654412e+00 -2.8372125703e+00 1.6380654412e+00 2.8372125703e+00 
55200 4.7347165573e+00 7.0720085233e-05 1.6380654412e+00 -2.8372125703e+00 1.6380654412e+00 2.8372125703e+00 
55300 4.7347165578e+00 6.9630440790e-05 1.6380632826e+00 -2.8372088315e+00 1.6380632826e+00 2.8372088315e+00 
55400 4.7347165585e+00 6.9688583211e-05 1.6380632826e+00 -2.8372088315e+00 1.6380632826e+00 2.8372088315e+00 
55500 4.7347165592e+00 6.9745941898e-05 1.6380632826e+00 -2.8372088315e+00 1.6380632826e+00 2.8372088315e+00 
55600 4.7347165598e+00 6.9802508430e-05 1.6380632826e+00 -2.8372088315e+00 1.6380632826e+00 2.8372088315e+00 
55700 4.7347165605e+00 6.9858275640e-05 1.6380632826e+00 -2.8372088315e+00 1.6380632826e+00 2.8372088315e+00 
55800 4.7347165611e+00 6.9913237548e-05 1.6380632826e+00 -2.8372088315e+00 1.6380632826e+00 2.8372088315e+00 
55900 4.7347165617e+00 6.9967389301e-05 1.6380632826e+00 -2.8372088315e+00 1.6380632826e+00 2.8372088315e+00 
56000 4.7347165623e+00 7.0020727116e-05 1.6380632826e+00 -2.8372088315e+00 1.6380632826e+00 2.8372088315e+00 
56100 4.7347165629e+00 7.0073248225e-05 1.6380632826e+00 -2.8372088315e+00 1.6380632826e+00 2.8372088315e+00 
56200 4.7347165635e+00 7.0124950820e-05 1.6380632826e+00 -2.8372088315e+00 1.6380632826e+00 2.8372088315e+00 
56300 4.7347165641e+00 7.0175834000e-05 1.6380632826e+00 -2.8372088315e+00 1.6380632826e+00 2.8372088315e+00 
56400 4.7347165647e+00 7.0225897727e-05 1.6380632826e+00 -2.8372088315e+00 1.6380632826e+00 2.8372088315e+00 
56500 4.7347165652e+00 7.0275142772e-05 1.6380632826e+00 -2.8372088315e+00 1.6380632826e+00 2.8372088315e+00 
56600 4.7347165658e+00 7.0323570672e-05 1.6380632826e+00 -2.8372088315e+00 1.6380632826e+00 2.8372088315e+00 
56700 4.7347165663e+00 7.0371183690e-05 1.6380632826e+00 -2.8372088315e+00 1.6380632826e+00 2.8372088315e+00 
56800 4.7347165668e+00 7.0417984763e-05 1.6380632826e+00 -2.8372088315e+00 1.6380632826e+00 2.8372088315e+00 
56900 4.7347165674e+00 7.0463977472e-05 1.6380632826e+00 -2.8372088315e+00 1.6380632826e+00 2.8372088315e+00 
57000 4.7347165679e+00 7.0509165995e-05 1.6380632826e+00 -2.8372088315e+00 1.6380632826e+00 2.8372088315e+00 
57100 4.7347165684e+00 7.0553555076e-05 1.6380632826e+00 -2.8372088315e+00 1.6380632826e+00 2.8372088315e+00 
57200 4.7347165689e+00 7.0597149982e-05 1.6380632826e+00 -2.8372088315e+00 1.6380632826e+00 2.8372088315e+00 
57300 4.7347165694e+00 7.0639956476e-05 1.6380632826e+00 -2.8372088315e+00 1.6380632826e+00 2.8372088315e+00 
57400 4.7347165698e+00 7.0681980775e-05 1.6380632826e+00 -2.8372088315e+00 1.6380632826e+00 2.8372088315e+00 
57500 4.7347165703e+00 7.0723229530e-05 1.6380632826e+00 -2.8372088315e+00 1.6380632826e+00 2.8372088315e+00 
57600 4.7347165706e+00 6.9608056008e-05 1.6380611238e+00 -2.8372050924e+00 1.6380611238e+00 2.8372050924e+00 
57700 4.7347165711e+00 6.9640988234e-05 1.6380611238e+00 -2.8372050924e+00 1.6380611238e+00 2.8372050924e+00 
57800 4.7347165715e+00 6.9673417779e-05 1.6380611238e+00 -2.8372050924e+00 1.6380611238e+00 2.8372050924e+00 
57900 4.7347165719e+00 6.9705347019e-05 1.6380611238e+00 -2.8372050924e+00 1.6380611238e+00 2.8372050924e+00 
58000 4.7347165724e+00 6.9736778653e-05 1.6380611238e+00 -2.8372050924e+00 1.6380611238e+00 2.8372050924e+00 
58100 4.7347165728e+00 6.9767715678e-05 1.6380611238e+00 -2.8372050924e+00 1.6380611238e+00 2.8372050924e+00 
58200 4.7347165732e+00 6.9798161363e-05 1.6380611238e+00 -2.8372050924e+00 1.6380611238e+00 2.8372050924e+00 
58300 4.7347165736e+00 6.9828119234e-05 1.6380611238e+00 -2.8372050924e+00 1.6380611238e+00 2.8372050924e+00 
58400 4.7347165740e+00 6.9857593046e-05 1.6380611238e+00 -2.8372050924e+00 1.6380611238e+00 2.8372050924e+00 
58500 4.7347165744e+00 6.9886586768e-05 1.6380611238e+00 -2.8372050924e+00 1.6380611238e+00 2.8372050924e+00 
58600 4.7347165748e+00 6.9915104568e-05 1.6380611238e+00 -2.8372050924e+00 1.6380611238e+00 2.8372050924e+00 
58700 4.7347165752e+00 6.9943150788e-05 1.6380611238e+00 -2.8372050924e+00 1.6380611238e+00 2.8372050924e+00 
58800 4.7347165756e+00 6.9970729938e-05 1.6380611238e+00 -2.8372050924e+00 1.6380611238e+00 2.8372050924e+00 
58900 4.7347165760e+00 6.9997846672e-05 1.6380611238e+00 -2.8372050924e+00 1.6380611238e+00 2.8372050924e+00 
59000 4.7347165763e+00 7.0024505783e-05 1.6380611238e+00 -2.8372050924e+00 1.6380611238e+00 2.8372050924e+00 
59100 4.7347165767e+00 7.0050712182e-05 1.6380611238e+00 -2.8372050924e+00 1.6380611238e+00 2.8372050924e+00 
59200 4.7347165770e+00 7.0076470889e-05 1.6380611238e+00 -2.8372050924e+00 1.6380611238e+00 2.8372050924e+00 
59300 4.7347165774e+00 7.0101787025e-05 1.6380611238e+00 -2.8372050924e+00 1.6380611238e+00 2.8372050924e+00 
59400 4.7347165777e+00 7.0126665791e-05 1.6380611238e+00 -2.8372050924e+00 1.6380611238e+00 2.8372050924e+00 
59500 4.7347165781e+00 7.0151112470e-05 1.6380611238e+00 -2.8372050924e+00 1.6380611238e+00 2.8372050924e+00 
59600 4.7347165784e+00 7.0175132409e-05 1.6380611238e+00 -2.8372050924e+00 1.6380611238e+00 2.8372050924e+00 
59700 4.7347165787e+00 7.0198731011e-05 1.6380611238e+00 -2.8372050924e+00 1.6380611238e+00 2.8372050924e+00 
59800 4.7347165790e+00 7.0221913730e-05 1.6380611238e+00 -2.8372050924e+00 1.6380611238e+00 2.8372050924e+00 
59900 4.7347165794e+00 7.0244686059e-05 1.6380611238e+00 -2.8372050924e+00 1.6380611238e+00 2.8372050924e+00 
60000 4.7347165797e+00 7.0267053525e-05 1.6380611238e+00 -2.8372050924e+00 1.6380611238e+00 2.8372050924e+00 
60100 4.7347165800e+00 7.0289021680e-05 1.6380611238e+00 -2.8372050924e+00 1.6380611238e+00 2.8372050924e+00 
60200 4.7347165803e+00 7.0310596096e-05 1.6380611238e+00 -2.8372050924e+00 1.6380611238e+00 2.8372050924e+00 
60300 4.7347165806e+00 7.0331782357e-05 1.6380611238e+00 -2.8372050924e+00 1.6380611238e+00 2.8372050924e+00 
60400 4.7347165809e+00 7.0352586054e-05 1.6380611238e+00 -2.8372050924e+00 1.6380611238e+00 2.8372050924e+00 
60500 4.7347165811e+00 7.0373012780e-05 1.6380611238e+00 -2.8372050924e+00 1.6380611238e+00 2.8372050924e+00 
60600 4.7347165814e+00 7.0393068123e-05 1.6380611238e+00 -2.8372050924e+00 1.6380611238e+00 2.8372050924e+00 
60700 4.7347165817e+00 7.0412757664e-05 1.6380611238e+00 -2.8372050924e+00 1.6380611238e+00 2.8372050924e+00 
60800 4.7347165820e+00 7.0432086969e-05 1.6380611238e+00 -2.8372050924e+00 1.6380611238e+00 2.8372050924e+00 
60900 4.7347165822e+00 7.0451061586e-05 1.6380611238e+00 -2.8372050924e+00 1.6380611238e+00 2.8372050924e+00 
61000 4.7347165825e+00 7.0469687043e-05 1.6380611238e+00 -2.8372050924e+00 1.6380611238e+00 2.8372050924e+00 
61100 4.7347165828e+00 7.0487968842e-05 1.6380611238e+00 -2.8372050924e+00 1.6380611238e+00 2.8372050924e+00 
61200 4.7347165830e+00 7.0505912453e-05 1.6380611238e+00 -2.8372050924e+00 1.6380611238e+00 2.8372050924e+00 
61300 4.7347165833e+00 7.0523523319e-05 1.6380611238e+00 -2.8372050924e+00 1.6380611238e+00 2.8372050924e+00 
61400 4.7347165835e+00 7.0540806844e-05 1.6380611238e+00 -2.8372050924e+00 1.6380611238e+00 2.8372050924e+00 
61500 4.7347165838e+00 7.0557768394e-05 1.6380611238e+00 -2.8372050924e+00 1.6380611238e+00 2.8372050924e+00 
61600 4.7347165840e+00 7.0574413297e-05 1.6380611238e+00 -2.8372050924e+00 1.6380611238e+00 2.8372050924e+00 
61700 4.7347165842e+00 7.0590746834e-05 1.6380611238e+00 -2.8372050924e+00 1.6380611238e+00 2.8372050924e+00 
61800 4.7347165845e+00 7.0606774244e-05 1.6380611238e+00 -2.8372050924e+00 1.6380611238e+00 2.8372050924e+00 
61900 4.7347165847e+00 7.0622500715e-05 1.6380611238e+00 -2.8372050924e+00 1.6380611238e+00 2.8372050924e+00 
62000 4.7347165849e+00 7.0637931389e-05 1.6380611238e+00 -2.8372050924e+00 1.6380611238e+00 2.8372050924e+00 
62100 4.7347165851e+00 7.0653071354e-05 1.6380611238e+00 -2.8372050924e+00 1.6380611238e+00 2.8372050924e+00 
62200 4.7347165853e+00 7.0667925647e-05 1.6380611238e+00 -2.8372050924e+00 1.6380611238e+00 2.8372050924e+00 
62300 4.7347165856e+00 7.0682499251e-05 1.6380611238e+00 -2.8372050924e+00 1.6380611238e+00 2.8372050924e+00 
62400 4.7347165858e+00 7.0696797090e-05 1.6380611238e+00 -2.8372050924e+00 1.6380611238e+00 2.8372050924e+00 
62500 4.7347165860e+00 7.0710824036e-05 1.6380611238e+00 -2.8372050924e+00 1.6380611238e+00 2.8372050924e+00 
62600 4.7347165860e+00 6.9569131994e-05 1.6380589655e+00 -2.8372013540e+00 1.6380589655e+00 2.8372013540e+00 
62700 4.7347165862e+00 6.9575845865e-05 1.6380589655e+00 -2.8372013540e+00 1.6380589655e+00 2.8372013540e+00 
62800 4.7347165864e+00 6.9582553703e-05 1.6380589655e+00 -2.8372013540e+00 1.6380589655e+00 2.8372013540e+00 
62900 4.7347165866e+00 6.9589254456e-05 1.6380589655e+00 -2.8372013540e+00 1.6380589655e+00 2.8372013540e+00 
63000 4.7347165868e+00 6.9595947049e-05 1.6380589655e+00 -2.8372013540e+00 1.6380589655e+00 2.8372013540e+00 
63100 4.7347165869e+00 6.9602630380e-05 1.6380589655e+00 -2.8372013540e+00 1.6380589655e+00 2.8372013540e+00 
63200 4.7347165871e+00 6.9609303322e-05 1.6380589655e+00 -2.8372013540e+00 1.6380589655e+00 2.8372013540e+00 
63300 4.7347165873e+00 6.9615964723e-05 1.6380589655e+00 -2.8372013540e+00 1.6380589655e+00 2.8372013540e+00 
63400 4.7347165875e+00 6.9622613405e-05 1.6380589655e+00 -2.8372013540e+00 1.6380589655e+00 2.8372013540e+00 
63500 4.7347165877e+00 6.9629248171e-05 1.6380589655e+00 -2.8372013540e+00 1.6380589655e+00 2.8372013540e+00 
63600 4.7347165878e+00 6.9635867800e-05 1.6380589655e+00 -2.8372013540e+00 1.6380589655e+00 2.8372013540e+00 
63700 4.7347165880e+00 6.9642471056e-05 1.6380589655e+00 -2.8372013540e+00 1.6380589655e+00 2.8372013540e+00 
63800 4.7347165882e+00 6.9649056683e-05 1.6380589655e+00 -2.8372013540e+00 1.6380589655e+00 2.8372013540e+00 
63900 4.7347165883e+00 6.9655623413e-05 1.6380589655e+00 -2.8372013540e+00 1.6380589655e+00 2.8372013540e+00 
64000 4.7347165885e+00 6.9662169965e-05 1.6380589655e+00 -2.8372013540e+00 1.6380589655e+00 2.8372013540e+00 
64100 4.7347165887e+00 6.9668695048e-05 1.6380589655e+00 -2.8372013540e+00 1.6380589655e+00 2.8372013540e+00 
64200 4.7347165888e+00 6.9675197365e-05 1.6380589655e+00 -2.8372013540e+00 1.6380589655e+00 2.8372013540e+00 
64300 4.7347165890e+00 6.9681675615e-05 1.6380589655e+00 -2.8372013540e+00 1.6380589655e+00 2.8372013540e+00 
64400 4.7347165891e+00 6.9688128495e-05 1.6380589655e+00 -2.8372013540e+00 1.6380589655e+00 2.8372013540e+00 
64500 4.7347165893e+00 6.9694554703e-05 1.6380589655e+00 -2.8372013540e+00 1.6380589655e+00 2.8372013540e+00 
64600 4.7347165894e+00 6.9700952939e-05 1.6380589655e+00 -2.8372013540e+00 1.6380589655e+00 2.8372013540e+00 
64700 4.7347165896e+00 6.9707321912e-05 1.6380589655e+00 -2.8372013540e+00 1.6380589655e+00 2.8372013540e+00 
64800 4.7347165897e+00 6.9713660336e-05 1.6380589655e+00 -2.8372013540e+00 1.6380589655e+00 2.8372013540e+00 
64900 4.7347165898e+00 6.9719966938e-05 1.6380589655e+00 -2.8372013540e+00 1.6380589655e+00 2.8372013540e+00 
65000 4.7347165900e+00 6.9726240458e-05 1.6380589655e+00 -2.8372013540e+00 1.6380589655e+00 2.8372013540e+00 
65100 4.7347165901e+00 6.9732479650e-05 1.6380589655e+00 -2.8372013540e+00 1.6380589655e+00 2.8372013540e+00 
65200 4.7347165902e+00 6.9738683287e-05 1.6380589655e+00 -2.8372013540e+00 1.6380589655e+00 2.8372013540e+00 
65300 4.7347165904e+00 6.9744850160e-05 1.6380589655e+00 -2.8372013540e+00 1.6380589655e+00 2.8372013540e+00 
65400 4.7347165905e+00 6.9750979082e-05 1.6380589655e+00 -2.8372013540e+00 1.6380589655e+00 2.8372013540e+00 
65500 4.7347165906e+00 6.9757068891e-05 1.6380589655e+00 -2.8372013540e+00 1.6380589655e+00 2.8372013540e+00 
65600 4.7347165908e+00 6.9763118447e-05 1.6380589655e+00 -2.8372013540e+00 1.6380589655e+00 2.8372013540e+00 
65700 4.7347165909e+00 6.9769126638e-05 1.6380589655e+00 -2.8372013540e+00 1.6380589655e+00 2.8372013540e+00 
65800 4.7347165910e+00 6.9775092382e-05 1.6380589655e+00 -2.8372013540e+00 1.6380589655e+00 2.8372013540e+00 
65900 4.7347165911e+00 6.9781014623e-05 1.6380589655e+00 -2.8372013540e+00 1.6380589655e+00 2.8372013540e+00 
66000 4.7347165912e+00 6.9786892338e-05 1.6380589655e+00 -2.8372013540e+00 1.6380589655e+00 2.8372013540e+00 
66100 4.7347165914e+00 6.9792724536e-05 1.6380589655e+00 -2.8372013540e+00 1.6380589655e+00 2.8372013540e+00 
66200 4.7347165915e+00 6.9798510258e-05 1.6380589655e+00 -2.8372013540e+00 1.6380589655e+00 2.8372013540e+00 
66300 4.7347165916e+00 6.9804248579e-05 1.6380589655e+00 -2.8372013540e+00 1.6380589655e+00 2.8372013540e+00 
66400 4.7347165917e+00 6.9809938610e-05 1.6380589655e+00 -2.8372013540e+00 1.6380589655e+00 2.8372013540e+00 
66500 4.7347165918e+00 6.9815579497e-05 1.6380589655e+00 -2.8372013540e+00 1.6380589655e+00 2.8372013540e+00 
66600 4.7347165919e+00 6.9821170423e-05 1.6380589655e+00 -2.8372013540e+00 1.6380589655e+00 2.8372013540e+00 
66700 4.7347165920e+00 6.9826710607e-05 1.6380589655e+00 -2.8372013540e+00 1.6380589655e+00 2.8372013540e+00 
66800 4.7347165921e+00 6.9832199304e-05 1.6380589655e+00 -2.8372013540e+00 1.6380589655e+00 2.8372013540e+00 
66900 4.7347165922e+00 6.9837635810e-05 1.6380589655e+00 -2.8372013540e+00 1.6380589655e+00 2.8372013540e+00 
67000 4.7347165923e+00 6.9843019456e-05 1.6380589655e+00 -2.8372013540e+00 1.6380589655e+00 2.8372013540e+00 
67100 4.7347165924e+00 6.9848349613e-05 1.6380589655e+00 -2.8372013540e+00 1.6380589655e+00 2.8372013540e+00 
67200 4.7347165925e+00 6.9853625689e-05 1.6380589655e+00 -2.8372013540e+00 1.6380589655e+00 2.8372013540e+00 
67300 4.7347165926e+00 6.9858847131e-05 1.6380589655e+00 -2.8372013540e+00 1.6380589655e+00 2.8372013540e+00 
67400 4.7347165927e+00 6.9864013425e-05 1.6380589655e+00 -2.8372013540e+00 1.6380589655e+00 2.8372013540e+00 
67500 4.7347165928e+00 6.9869124095e-05 1.6380589655e+00 -2.8372013540e+00 1.6380589655e+00 2.8372013540e+00 
67600 4.7347165929e+00 6.9874178701e-05 1.6380589655e+00 -2.8372013540e+00 1.6380589655e+00 2.8372013540e+00 
67700 4.7347165930e+00 6.9879176843e-05 1.6380589655e+00 -2.8372013540e+00 1.6380589655e+00 2.8372013540e+00 
67800 4.7347165931e+00 6.9884118159e-05 1.6380589655e+00 -2.8372013540e+00 1.6380589655e+00 2.8372013540e+00 
67900 4.7347165932e+00 6.9889002322e-05 1.6380589655e+00 -2.8372013540e+00 1.6380589655e+00 2.8372013540e+00 
68000 4.7347165933e+00 6.9893829043e-05 1.6380589655e+00 -2.8372013540e+00 1.6380589655e+00 2.8372013540e+00 
68100 4.7347165933e+00 6.9898598070e-05 1.6380589655e+00 -2.8372013540e+00 1.6380589655e+00 2.8372013540e+00 
68200 4.7347165934e+00 6.9903309186e-05 1.6380589655e+00 -2.8372013540e+00 1.6380589655e+00 2.8372013540e+00 
68300 4.7347165935e+00 6.9907962210e-05 1.6380589655e+00 -2.8372013540e+00 1.6380589655e+00 2.8372013540e+00 
68400 4.7347165936e+00 6.9912556994e-05 1.6380589655e+00 -2.8372013540e+00 1.6380589655e+00 2.8372013540e+00 
68500 4.7347165937e+00 6.9917093428e-05 1.6380589655e+00 -2.8372013540e+00 1.6380589655e+00 2.8372013540e+00 
68600 4.7347165937e+00 6.9921571430e-05 1.6380589655e+00 -2.8372013540e+00 1.6380589655e+00 2.8372013540e+00 
68700 4.7347165938e+00 6.9925990956e-05 1.6380589655e+00 -2.8372013540e+00 1.6380589655e+00 2.8372013540e+00 
68800 4.7347165939e+00 6.9930351991e-05 1.6380589655e+00 -2.8372013540e+00 1.6380589655e+00 2.8372013540e+00 
68900 4.7347165940e+00 6.9934654552e-05 1.6380589655e+00 -2.8372013540e+00 1.6380589655e+00 2.8372013540e+00 
69000 4.7347165940e+00 6.9938898688e-05 1.6380589655e+00 -2.8372013540e+00 1.6380589655e+00 2.8372013540e+00 
69100 4.7347165941e+00 6.9943084476e-05 1.6380589655e+00 -2.8372013540e+00 1.6380589655e+00 2.8372013540e+00 
69200 4.7347165942e+00 6.9947212023e-05 1.6380589655e+00 -2.8372013540e+00 1.6380589655e+00 2.8372013540e+00 
69300 4.7347165943e+00 6.9951281464e-05 1.6380589655e+00 -2.8372013540e+00 1.6380589655e+00 2.8372013540e+00 
69400 4.7347165943e+00 6.9955292961e-05 1.6380589655e+00 -2.8372013540e+00 1.6380589655e+00 2.8372013540e+00 
69500 4.7347165944e+00 6.9959246705e-05 1.6380589655e+00 -2.8372013540e+00 1.6380589655e+00 2.8372013540e+00 
69600 4.7347165945e+00 6.9963142909e-05 1.6380589655e+00 -2.8372013540e+00 1.6380589655e+00 2.8372013540e+00 
69700 4.7347165945e+00 6.9966981813e-05 1.6380589655e+00 -2.8372013540e+00 1.6380589655e+00 2.8372013540e+00 
69800 4.7347165946e+00 6.9970763681e-05 1.6380589655e+00 -2.8372013540e+00 1.6380589655e+00 2.8372013540e+00 
69900 4.7347165947e+00 6.9974488800e-05 1.6380589655e+00 -2.8372013540e+00 1.6380589655e+00 2.8372013540e+00 
70000 4.7347165947e+00 6.9978157480e-05 1.6380589655e+00 -2.8372013540e+00 1.6380589655e+00 2.8372013540e+00 
70100 4.7347165948e+00 6.9981770051e-05 1.6380589655e+00 -2.8372013540e+00 1.6380589655e+00 2.8372013540e+00 
70200 4.7347165949e+00 6.9985326865e-05 1.6380589655e+00 -2.8372013540e+00 1.6380589655e+00 2.8372013540e+00 
70300 4.7347165949e+00 6.9988828293e-05 1.6380589655e+00 -2.8372013540e+00 1.6380589655e+00 2.8372013540e+00 
70400 4.7347165950e+00 6.9992274725e-05 1.6380589655e+00 -2.8372013540e+00 1.6380589655e+00 2.8372013540e+00 
70500 4.7347165950e+00 6.9995666568e-05 1.6380589655e+00 -2.8372013540e+00 1.6380589655e+00 2.8372013540e+00 
70600 4.7347165951e+00 6.9999004250e-05 1.6380589655e+00 -2.8372013540e+00 1.6380589655e+00 2.8372013540e+00 
70700 4.7347165951e+00 7.0002288210e-05 1.6380589655e+00 -2.8372013540e+00 1.6380589655e+00 2.8372013540e+00 
70800 4.7347165952e+00 7.0005518907e-05 1.6380589655e+00 -2.8372013540e+00 1.6380589655e+00 2.8372013540e+00 
70900 4.7347165953e+00 7.0008696812e-05 1.6380589655e+00 -2.8372013540e+00 1.6380589655e+00 2.8372013540e+00 
71000 4.7347165953e+00 7.0011822411e-05 1.6380589655e+00 -2.8372013540e+00 1.6380589655e+00 2.8372013540e+00 
71100 4.7347165954e+00 7.0014896204e-05 1.6380589655e+00 -2.8372013540e+00 1.6380589655e+00 2.8372013540e+00 
71200 4.7347165954e+00 7.0017918701e-05 1.6380589655e+00 -2.8372013540e+00 1.6380589655e+00 2.8372013540e+00 
71300 4.7347165955e+00 7.0020890426e-05 1.6380589655e+00 -2.8372013540e+00 1.6380589655e+00 2.8372013540e+00 
71400 4.7347165955e+00 7.0023811912e-05 1.6380589655e+00 -2.8372013540e+00 1.6380589655e+00 2.8372013540e+00 
71500 4.7347165956e+00 7.0026683704e-05 1.6380589655e+00 -2.8372013540e+00 1.6380589655e+00 2.8372013540e+00 
71600 4.7347165956e+00 7.0029394385e-05 1.6380589655e+00 -2.8372013540e+00 1.6380589655e+00 2.8372013540e+00 
71600 4.7347165956e+00 7.0029394385e-05 1.6380589655e+00 -2.8372013540e+00 1.6380589655e+00 2.8372013540e+00 
