# step Hamiltonian StressXX CellTensor1 CellTensor2 CellTensor3 CellTensor4 
0 5.2825733992e+00 2.2087407966e-01 2.5594246509e+00 -4.4330535334e+00 2.5594246509e+00 4.4330535334e+00 
100 5.2843865901e+00 2.3339953090e-01 2.5594246509e+00 -4.4330535334e+00 2.5594246509e+00 4.4330535334e+00 
200 5.2879356277e+00 2.4482225287e-01 2.5548663978e+00 -4.4251584075e+00 2.5548663978e+00 4.4251584075e+00 
300 5.2937345563e+00 2.5584078527e-01 2.5500766055e+00 -4.4168622439e+00 2.5500766055e+00 4.4168622439e+00 
400 5.3014534115e+00 2.6636825608e-01 2.5450619180e+00 -4.4081765505e+00 2.5450619180e+00 4.4081765505e+00 
500 5.3106389955e+00 2.7614186639e-01 2.5398306743e+00 -4.3991157705e+00 2.5398306743e+00 4.3991157705e+00 
600 5.3206878181e+00 2.8465664995e-01 2.5343963918e+00 -4.3897033171e+00 2.5343963918e+00 4.3897033171e+00 
700 5.3308257652e+00 2.9111458823e-01 2.5287826036e+00 -4.3799799508e+00 2.5287826036e+00 4.3799799508e+00 
800 5.3401254323e+00 2.9445941396e-01 2.5230287698e+00 -4.3700140183e+00 2.5230287698e+00 4.3700140183e+00 
900 5.3476103384e+00 2.9360885543e-01 2.5171955893e+00 -4.3599106533e+00 2.5171955893e+00 4.3599106533e+00 
1000 5.3524772166e+00 2.8793934783e-01 2.5113657838e+00 -4.3498131339e+00 2.5113657838e+00 4.3498131339e+00 
1100 5.3543689820e+00 2.7781598736e-01 2.5056352456e+00 -4.3398875507e+00 2.5056352456e+00 4.3398875507e+00 
1200 5.3535079675e+00 2.6468359095e-01 2.5000934711e+00 -4.3302889155e+00 2.5000934711e+00 4.3302889155e+00 
1300 5.3505477000e+00 2.5047567710e-01 2.4948018691e+00 -4.3211235921e+00 2.4948018691e+00 4.3211235921e+00 
1400 5.3462509671e+00 2.3678959210e-01 2.4897836047e+00 -4.3124317032e+00 2.4897836047e+00 4.3124317032e+00 
1500 5.3412368223e+00 2.2446503433e-01 2.4850298969e+00 -4.3041980398e+00 2.4850298969e+00 4.3041980398e+00 
1600 5.3359043203e+00 2.1367647855e-01 2.4805149227e+00 -4.2963778750e+00 2.4805149227e+00 4.2963778750e+00 
1700 5.3304731364e+00 2.0423442036e-01 2.4762090721e+00 -4.2889199230e+00 2.4762090721e+00 4.2889199230e+00 
1800 5.3250516581e+00 1.9583609328e-01 2.4720862854e+00 -4.2817790470e+00 2.4720862854e+00 4.2817790470e+00 
1900 5.3196892765e+00 1.8819724385e-01 2.4681263970e+00 -4.2749203192e+00 2.4681263970e+00 4.2749203192e+00 
2000 5.3144069701e+00 1.8109677615e-01 2.4643148273e+00 -4.2683184868e+00 2.4643148273e+00 4.2683184868e+00 
2100 5.3092128258e+00 1.7437857312e-01 2.4606413579e+00 -4.2619558510e+00 2.4606413579e+00 4.2619558510e+00 
2200 5.3041093070e+00 1.6793859056e-01 2.4570988534e+00 -4.2558200532e+00 2.4570988534e+00 4.2558200532e+00 
2300 5.2990965062e+00 1.6171011956e-01 2.4536822304e+00 -4.2499022887e+00 2.4536822304e+00 4.2499022887e+00 
2400 5.2941735641e+00 1.5565162851e-01 2.4503877151e+00 -4.2441960207e+00 2.4503877151e+00 4.2441960207e+00 
2500 5.2893392787e+00 1.4973792383e-01 2.4472123408e+00 -4.2386961112e+00 2.4472123408e+00 4.2386961112e+00 
2600 5.2845923602e+00 1.4395412567e-01 2.4441536221e+00 -4.2333982549e+00 2.4441536221e+00 4.2333982549e+00 
2700 5.2799315320e+00 1.3829171348e-01 2.4412093476e+00 -4.2282986219e+00 2.4412093476e+00 4.2282986219e+00 
2800 5.2753555634e+00 1.3274599244e-01 2.4383774532e+00 -4.2233936370e+00 2.4383774532e+00 4.2233936370e+00 
2900 5.2708632736e+00 1.2731449854e-01 2.4356559454e+00 -4.2186798471e+00 2.4356559454e+00 4.2186798471e+00 
3000 5.2664535228e+00 1.2199600936e-01 2.4330428566e+00 -4.2141538446e+00 2.4330428566e+00 4.2141538446e+00 
3100 5.2621251997e+00 1.1678993984e-01 2.4305362210e+00 -4.2098122244e+00 2.4305362210e+00 4.2098122244e+00 
3200 5.2578772080e+00 1.1169598007e-01 2.4281340622e+00 -4.2056515633e+00 2.4281340622e+00 4.2056515633e+00 
3300 5.2537084546e+00 1.0671388372e-01 2.4258343883e+00 -4.2016684113e+00 2.4258343883e+00 4.2016684113e+00 
3400 5.2496178398e+00 1.0184334962e-01 2.4236351915e+00 -4.1978592907e+00 2.4236351915e+00 4.1978592907e+00 
3500 5.2456042496e+00 9.7083960027e-02 2.4215344500e+00 -4.1942206997e+00 2.4215344500e+00 4.1942206997e+00 
3600 5.2416665503e+00 9.2435153270e-02 2.4195301309e+00 -4.1907491172e+00 2.4195301309e+00 4.1907491172e+00 
3700 5.2378035852e+00 8.7896216566e-02 2.4176201944e+00 -4.1874410100e+00 2.4176201944e+00 4.1874410100e+00 
3800 5.2340141730e+00 8.3466290443e-02 2.4158025972e+00 -4.1842928393e+00 2.4158025972e+00 4.1842928393e+00 
3900 5.2302971077e+00 7.9144379451e-02 2.4140752968e+00 -4.1813010673e+00 2.4140752968e+00 4.1813010673e+00 
4000 5.2266511603e+00 7.4929365937e-02 2.4124362548e+00 -4.1784621633e+00 2.4124362548e+00 4.1784621633e+00 
4100 5.2230750799e+00 7.0820024958e-02 2.4108834402e+00 -4.1757726096e+00 2.4108834402e+00 4.1757726096e+00 
4200 5.2195675978e+00 6.6815039207e-02 2.4094148327e+00 -4.1732289068e+00 2.4094148327e+00 4.1732289068e+00 
4300 5.2161274301e+00 6.2913013296e-02 2.4080284250e+00 -4.1708275782e+00 2.4080284250e+00 4.1708275782e+00 
4400 5.2127532820e+00 5.9112487070e-02 2.4067222253e+00 -4.1685651739e+00 2.4067222253e+00 4.1685651739e+00 
4500 5.2094438513e+00 5.5411947791e-02 2.4054942593e+00 -4.1664382745e+00 2.4054942593e+00 4.1664382745e+00 
4600 5.2061978330e+00 5.1809841132e-02 2.4043425725e+00 -4.1644434943e+00 2.4043425725e+00 4.1644434943e+00 
4700 5.2030139230e+00 4.8304581011e-02 2.4032652308e+00 -4.1625774837e+00 2.4032652308e+00 4.1625774837e+00 
4800 5.1998908222e+00 4.4894558306e-02 2.4022603227e+00 -4.1608369319e+00 2.4022603227e+00 4.1608369319e+00 
4900 5.1968272402e+00 4.1578148526e-02 2.4013259600e+00 -4.1592185683e+00 2.4013259600e+00 4.1592185683e+00 
5000 5.1938218989e+00 3.8353718506e-02 2.4004602789e+00 -4.1577191647e+00 2.4004602789e+00 4.1577191647e+00 
5100 5.1908735356e+00 3.5219632229e-02 2.3996614407e+00 -4.1563355362e+00 2.3996614407e+00 4.1563355362e+00 
5200 5.1879809062e+00 3.2174255825e-02 2.3989276322e+00 -4.1550645427e+00 2.3989276322e+00 4.1550645427e+00 
5300 5.1851427880e+00 2.9215961860e-02 2.3982570669e+00 -4.1539030894e+00 2.3982570669e+00 4.1539030894e+00 
5400 5.1823579816e+00 2.6343132954e-02 2.3976479844e+00 -4.1528481277e+00 2.3976479844e+00 4.1528481277e+00 
5500 5.1796253138e+00 2.3554164813e-02 2.3970986518e+00 -4.1518966556e+00 2.3970986518e+00 4.1518966556e+00 
5600 5.1769436384e+00 2.0847468748e-02 2.3966073628e+00 -4.1510457182e+00 2.3966073628e+00 4.1510457182e+00 
5700 5.1743118386e+00 1.8221473708e-02 2.3961724389e+00 -4.1502924079e+00 2.3961724389e+00 4.1502924079e+00 
5800 5.1717288275e+00 1.5674627915e-02 2.3957922286e+00 -4.1496338642e+00 2.3957922286e+00 4.1496338642e+00 
5900 5.1691935497e+00 1.3205400124e-02 2.3954651077e+00 -4.1490672743e+00 2.3954651077e+00 4.1490672743e+00 
6000 5.1667049812e+00 1.0812280568e-02 2.3951894797e+00 -4.1485898726e+00 2.3951894797e+00 4.1485898726e+00 
6100 5.1642621303e+00 8.4937816187e-03 2.3949637750e+00 -4.1481989405e+00 2.3949637750e+00 4.1481989405e+00 
6200 5.1618640379e+00 6.2484382042e-03 2.3947864513e+00 -4.1478918069e+00 2.3947864513e+00 4.1478918069e+00 
6300 5.1595097771e+00 4.0748080173e-03 2.3946559933e+00 -4.1476658470e+00 2.3946559933e+00 4.1476658470e+00 
6400 5.1571984532e+00 1.9714715417e-03 2.3945709125e+00 -4.1475184828e+00 2.3945709125e+00 4.1475184828e+00 
6500 5.1549292031e+00 -6.2968073880e-05 2.3945297472e+00 -4.1474471823e+00 2.3945297472e+00 4.1474471823e+00 
6600 5.1527011995e+00 -2.0303090411e-03 2.3945297472e+00 -4.1474471823e+00 2.3945297472e+00 4.1474471823e+00 
6700 5.1505136363e+00 -3.9310786453e-03 2.3945721420e+00 -4.1475206124e+00 2.3945721420e+00 4.1475206124e+00 
6800 5.1483657420e+00 -5.7669992649e-03 2.3946542256e+00 -4.1476627853e+00 2.3946542256e+00 4.1476627853e+00 
6900 5.1462567737e+00 -7.5393842920e-03 2.3947746406e+00 -4.1478713503e+00 2.3947746406e+00 4.1478713503e+00 
7000 5.1441860161e+00 -9.2495252191e-03 2.3949320556e+00 -4.1481440010e+00 2.3949320556e+00 4.1481440010e+00 
7100 5.1421527803e+00 -1.0898692774e-02 2.3951251644e+00 -4.1484784752e+00 2.3951251644e+00 4.1484784752e+00 
7200 5.1401564029e+00 -1.2488137881e-02 2.3953526862e+00 -4.1488725546e+00 2.3953526862e+00 4.1488725546e+00 
7300 5.1381962443e+00 -1.4019092510e-02 2.3956133653e+00 -4.1493240639e+00 2.3956133653e+00 4.1493240639e+00 
7400 5.1362716878e+00 -1.5492770459e-02 2.3959059705e+00 -4.1498308710e+00 2.3959059705e+00 4.1498308710e+00 
7500 5.1343821379e+00 -1.6910368076e-02 2.3962292953e+00 -4.1503908861e+00 2.3962292953e+00 4.1503908861e+00 
7600 5.1325270193e+00 -1.8273064946e-02 2.3965821577e+00 -4.1510020616e+00 2.3965821577e+00 4.1510020616e+00 
7700 5.1307057750e+00 -1.9582024538e-02 2.3969633995e+00 -4.1516623919e+00 2.3969633995e+00 4.1516623919e+00 
7800 5.1289178656e+00 -2.0838394815e-02 2.3973718868e+00 -4.1523699126e+00 2.3973718868e+00 4.1523699126e+00 
7900 5.1271627672e+00 -2.2043308809e-02 2.3978065091e+00 -4.1531227005e+00 2.3978065091e+00 4.1531227005e+00 
8000 5.1254399706e+00 -2.3197885156e-02 2.3982661795e+00 -4.1539188729e+00 2.3982661795e+00 4.1539188729e+00 
8100 5.1237489796e+00 -2.4303228595e-02 2.3987498344e+00 -4.1547565878e+00 2.3987498344e+00 4.1547565878e+00 
8200 5.1220893101e+00 -2.5360430418e-02 2.3992564334e+00 -4.1556340430e+00 2.3992564334e+00 4.1556340430e+00 
8300 5.1204604882e+00 -2.6370568887e-02 2.3997849588e+00 -4.1565494759e+00 2.3997849588e+00 4.1565494759e+00 
8400 5.1188620496e+00 -2.7334709597e-02 2.4003344158e+00 -4.1575011634e+00 2.4003344158e+00 4.1575011634e+00 
8500 5.1172935382e+00 -2.8253905803e-02 2.4009038321e+00 -4.1584874213e+00 2.4009038321e+00 4.1584874213e+00 
8600 5.1157545048e+00 -2.9129198700e-02 2.4014922576e+00 -4.1595066042e+00 2.4014922576e+00 4.1595066042e+00 
8700 5.1142445064e+00 -2.9961617652e-02 2.4020987643e+00 -4.1605571046e+00 2.4020987643e+00 4.1605571046e+00 
8800 5.1127631046e+00 -3.0752180388e-02 2.4027224463e+00 -4.1616373535e+00 2.4027224463e+00 4.1616373535e+00 
8900 5.1113098656e+00 -3.1501893149e-02 2.4033624192e+00 -4.1627458191e+00 2.4033624192e+00 4.1627458191e+00 
9000 5.1098843585e+00 -3.2211750790e-02 2.4040178202e+00 -4.1638810070e+00 2.4040178202e+00 4.1638810070e+00 
9100 5.1084861548e+00 -3.2882736854e-02 2.4046878079e+00 -4.1650414597e+00 2.4046878079e+00 4.1650414597e+00 
9200 5.1071148277e+00 -3.3515823593e-02 2.4053715619e+00 -4.1662257562e+00 2.4053715619e+00 4.1662257562e+00 
9300 5.1057699516e+00 -3.4111971967e-02 2.4060682825e+00 -4.1674325118e+00 2.4060682825e+00 4.1674325118e+00 
9400 5.1044511012e+00 -3.4672131598e-02 2.4067771910e+00 -4.1686603774e+00 2.4067771910e+00 4.1686603774e+00 
9500 5.1031578512e+00 -3.5197240703e-02 2.4074975290e+00 -4.1699080394e+00 2.4074975290e+00 4.1699080394e+00 
9600 5.1018897759e+00 -3.5688225991e-02 2.4082285583e+00 -4.1711742191e+00 2.4082285583e+00 4.1711742191e+00 
9700 5.1006464487e+00 -3.6146002541e-02 2.4089695605e+00 -4.1724576727e+00 2.4089695605e+00 4.1724576727e+00 
9800 5.0994274417e+00 -3.6571473652e-02 2.4097198373e+00 -4.1737571902e+00 2.4097198373e+00 4.1737571902e+00 
9900 5.0982323261e+00 -3.6965530678e-02 2.4104787096e+00 -4.1750715955e+00 2.4104787096e+00 4.1750715955e+00 
10000 5.0970606710e+00 -3.7329052844e-02 2.4112455176e+00 -4.1763997460e+00 2.4112455176e+00 4.1763997460e+00 
10100 5.0959120443e+00 -3.7662907048e-02 2.4120196207e+00 -4.1777405318e+00 2.4120196207e+00 4.1777405318e+00 
10200 5.0947860121e+00 -3.7967947659e-02 2.4128003966e+00 -4.1790928754e+00 2.4128003966e+00 4.1790928754e+00 
10300 5.0936821389e+00 -3.8245016296e-02 2.4135872419e+00 -4.1804557314e+00 2.4135872419e+00 4.1804557314e+00 
10400 5.0925999874e+00 -3.8494941613e-02 2.4143795710e+00 -4.1818280856e+00 2.4143795710e+00 4.1818280856e+00 
10500 5.0915391191e+00 -3.8718539080e-02 2.4151768163e+00 -4.1832089552e+00 2.4151768163e+00 4.1832089552e+00 
10600 5.0904990941e+00 -3.8916610756e-02 2.4159784280e+00 -4.1845973874e+00 2.4159784280e+00 4.1845973874e+00 
10700 5.0894794714e+00 -3.9089945083e-02 2.4167838734e+00 -4.1859924596e+00 2.4167838734e+00 4.1859924596e+00 
10800 5.0884798090e+00 -3.9239316665e-02 2.4175926367e+00 -4.1873932789e+00 2.4175926367e+00 4.1873932789e+00 
10900 5.0874996645e+00 -3.9365486075e-02 2.4184042191e+00 -4.1887989808e+00 2.4184042191e+00 4.1887989808e+00 
11000 5.0865385951e+00 -3.9469199658e-02 2.4192181379e+00 -4.1902087295e+00 2.4192181379e+00 4.1902087295e+00 
11100 5.0855961581e+00 -3.9551189355e-02 2.4200339266e+00 -4.1916217170e+00 2.4200339266e+00 4.1916217170e+00 
11200 5.0846719112e+00 -3.9612172536e-02 2.4208511345e+00 -4.1930371625e+00 2.4208511345e+00 4.1930371625e+00 
11300 5.0837654126e+00 -3.9652851853e-02 2.4216693261e+00 -4.1944543120e+00 2.4216693261e+00 4.1944543120e+00 
11400 5.0828762221e+00 -3.9673915104e-02 2.4224880813e+00 -4.1958724375e+00 2.4224880813e+00 4.1958724375e+00 
11500 5.0820039007e+00 -3.9676035126e-02 2.4233069945e+00 -4.1972908368e+00 2.4233069945e+00 4.1972908368e+00 
11600 5.0811480114e+00 -3.9659869697e-02 2.4241256747e+00 -4.1987088325e+00 2.4241256747e+00 4.1987088325e+00 
11700 5.0803081195e+00 -3.9626061465e-02 2.4249437449e+00 -4.2001257716e+00 2.4249437449e+00 4.2001257716e+00 
11800 5.0794837933e+00 -3.9575237893e-02 2.4257608419e+00 -4.2015410252e+00 2.4257608419e+00 4.2015410252e+00 
11900 5.0786746039e+00 -3.9508011234e-02 2.4265766159e+00 -4.2029539873e+00 2.4265766159e+00 4.2029539873e+00 
12000 5.0778801262e+00 -3.9424978517e-02 2.4273907303e+00 -4.2043640748e+00 2.4273907303e+00 4.2043640748e+00 
12100 5.0770999390e+00 -3.9326721569e-02 2.4282028612e+00 -4.2057707266e+00 2.4282028612e+00 4.2057707266e+00 
12200 5.0763336253e+00 -3.9213807043e-02 2.4290126968e+00 -4.2071734032e+00 2.4290126968e+00 4.2071734032e+00 
12300 5.0755807729e+00 -3.9086786484e-02 2.4298199380e+00 -4.2085715858e+00 2.4298199380e+00 4.2085715858e+00 
12400 5.0748409748e+00 -3.8946196409e-02 2.4306242968e+00 -4.2099647761e+00 2.4306242968e+00 4.2099647761e+00 
12500 5.0741138290e+00 -3.8792558405e-02 2.4314254970e+00 -4.2113524957e+00 2.4314254970e+00 4.2113524957e+00 
12600 5.0733989397e+00 -3.8626379261e-02 2.4322232734e+00 -4.2127342850e+00 2.4322232734e+00 4.2127342850e+00 
12700 5.0726959167e+00 -3.8448151106e-02 2.4330173716e+00 -4.2141097033e+00 2.4330173716e+00 4.2141097033e+00 
12800 5.0720043764e+00 -3.8258351580e-02 2.4338075475e+00 -4.2154783280e+00 2.4338075475e+00 4.2154783280e+00 
12900 5.0713239418e+00 -3.8057444011e-02 2.4345935671e+00 -4.2168397540e+00 2.4345935671e+00 4.2168397540e+00 
13000 5.0706542424e+00 -3.7845877624e-02 2.4353752064e+00 -4.2181935929e+00 2.4353752064e+00 4.2181935929e+00 
13100 5.0699949151e+00 -3.7624087757e-02 2.4361522507e+00 -4.2195394732e+00 2.4361522507e+00 4.2195394732e+00 
13200 5.0693456039e+00 -3.7392496099e-02 2.4369244946e+00 -4.2208770389e+00 2.4369244946e+00 4.2208770389e+00 
13300 5.0687059602e+00 -3.7151510942e-02 2.4376917415e+00 -4.2222059496e+00 2.4376917415e+00 4.2222059496e+00 
13400 5.0680756432e+00 -3.6901527444e-02 2.4384538036e+00 -4.2235258797e+00 2.4384538036e+00 4.2235258797e+00 
13500 5.0674543196e+00 -3.6642927911e-02 2.4392105010e+00 -4.2248365181e+00 2.4392105010e+00 4.2248365181e+00 
13600 5.0668416640e+00 -3.6376082089e-02 2.4399616623e+00 -4.2261375676e+00 2.4399616623e+00 4.2261375676e+00 
13700 5.0662373591e+00 -3.6101347463e-02 2.4407071234e+00 -4.2274287442e+00 2.4407071234e+00 4.2274287442e+00 
13800 5.0656410954e+00 -3.5819069573e-02 2.4414467282e+00 -4.2287097771e+00 2.4414467282e+00 4.2287097771e+00 
13900 5.0650525715e+00 -3.5529582332e-02 2.4421803273e+00 -4.2299804081e+00 2.4421803273e+00 4.2299804081e+00 
14000 5.0644714943e+00 -3.5233208355e-02 2.4429077786e+00 -4.2312403907e+00 2.4429077786e+00 4.2312403907e+00 
14100 5.0638975787e+00 -3.4930259293e-02 2.4436289466e+00 -4.2324894904e+00 2.4436289466e+00 4.2324894904e+00 
14200 5.0633305475e+00 -3.4621036176e-02 2.4443437025e+00 -4.2337274838e+00 2.4443437025e+00 4.2337274838e+00 
14300 5.0627701320e+00 -3.4305829753e-02 2.4450519234e+00 -4.2349541585e+00 2.4450519234e+00 4.2349541585e+00 
14400 5.0622160712e+00 -3.3984920841e-02 2.4457534928e+00 -4.2361693122e+00 2.4457534928e+00 4.2361693122e+00 
14500 5.0616681124e+00 -3.3658580674e-02 2.4464482997e+00 -4.2373727531e+00 2.4464482997e+00 4.2373727531e+00 
14600 5.0611260106e+00 -3.3327071254e-02 2.4471362390e+00 -4.2385642989e+00 2.4471362390e+00 4.2385642989e+00 
14700 5.0605895287e+00 -3.2990645701e-02 2.4478172108e+00 -4.2397437767e+00 2.4478172108e+00 4.2397437767e+00 
14800 5.0600584376e+00 -3.2649548603e-02 2.4484911206e+00 -4.2409110227e+00 2.4484911206e+00 4.2409110227e+00 
14900 5.0595325157e+00 -3.2304016363e-02 2.4491578787e+00 -4.2420658818e+00 2.4491578787e+00 4.2420658818e+00 
15000 5.0590115488e+00 -3.1954277545e-02 2.4498174007e+00 -4.2432082072e+00 2.4498174007e+00 4.2432082072e+00 
15100 5.0584953304e+00 -3.1600553215e-02 2.4504696063e+00 -4.2443378605e+00 2.4504696063e+00 4.2443378605e+00 
15200 5.0579836612e+00 -3.1243057283e-02 2.4511144202e+00 -4.2454547110e+00 2.4511144202e+00 4.2454547110e+00 
15300 5.0574763491e+00 -3.0881996831e-02 2.4517517714e+00 -4.2465586356e+00 2.4517517714e+00 4.2465586356e+00 
15400 5.0569732091e+00 -3.0517572443e-02 2.4523815928e+00 -4.2476495184e+00 2.4523815928e+00 4.2476495184e+00 
15500 5.0564740628e+00 -3.0149978531e-02 2.4530038219e+00 -4.2487272507e+00 2.4530038219e+00 4.2487272507e+00 
15600 5.0559787389e+00 -2.9779403641e-02 2.4536183998e+00 -4.2497917308e+00 2.4536183998e+00 4.2497917308e+00 
15700 5.0554870725e+00 -2.9406030772e-02 2.4542252715e+00 -4.2508428634e+00 2.4542252715e+00 4.2508428634e+00 
15800 5.0549989050e+00 -2.9030037668e-02 2.4548243857e+00 -4.2518805597e+00 2.4548243857e+00 4.2518805597e+00 
15900 5.0545140842e+00 -2.8651597117e-02 2.4554156949e+00 -4.2529047373e+00 2.4554156949e+00 4.2529047373e+00 
16000 5.0540324641e+00 -2.8270877229e-02 2.4559991548e+00 -4.2539153194e+00 2.4559991548e+00 4.2539153194e+00 
16100 5.0535539043e+00 -2.7888041718e-02 2.4565747246e+00 -4.2549122356e+00 2.4565747246e+00 4.2549122356e+00 
16200 5.0530782705e+00 -2.7503250167e-02 2.4571423669e+00 -4.2558954210e+00 2.4571423669e+00 4.2558954210e+00 
16300 5.0526054339e+00 -2.7116658281e-02 2.4577020475e+00 -4.2568648161e+00 2.4577020475e+00 4.2568648161e+00 
16400 5.0521352710e+00 -2.6728418141e-02 2.4582537350e+00 -4.2578203669e+00 2.4582537350e+00 4.2578203669e+00 
16500 5.0516676638e+00 -2.6338678439e-02 2.4587974015e+00 -4.2587620249e+00 2.4587974015e+00 4.2587620249e+00 
16600 5.0512024994e+00 -2.5947584708e-02 2.4593330218e+00 -4.2596897464e+00 2.4593330218e+00 4.2596897464e+00 
16700 5.0507396697e+00 -2.5555279540e-02 2.4598605736e+00 -4.2606034930e+00 2.4598605736e+00 4.2606034930e+00 
16800 5.0502790716e+00 -2.5161902793e-02 2.4603800375e+00 -4.2615032310e+00 2.4603800375e+00 4.2615032310e+00 
16900 5.0498206066e+00 -2.4767591794e-02 2.4608913970e+00 -4.2623889316e+00 2.4608913970e+00 4.2623889316e+00 
17000 5.0493641809e+00 -2.4372481523e-02 2.4613946382e+00 -4.2632605708e+00 2.4613946382e+00 4.2632605708e+00 
17100 5.0489097049e+00 -2.3976704794e-02 2.4618897497e+00 -4.2641181292e+00 2.4618897497e+00 4.2641181292e+00 
17200 5.0484570933e+00 -2.3580392424e-02 2.4623767231e+00 -4.2649615918e+00 2.4623767231e+00 4.2649615918e+00 
17300 5.0480062652e+00 -2.3183673387e-02 2.4628555523e+00 -4.2657909483e+00 2.4628555523e+00 4.2657909483e+00 
17400 5.0475571433e+00 -2.2786674969e-02 2.4633262338e+00 -4.2666061926e+00 2.4633262338e+00 4.2666061926e+00 
17500 5.0471096544e+00 -2.2389522900e-02 2.4637887667e+00 -4.2674073230e+00 2.4637887667e+00 4.2674073230e+00 
17600 5.0466637292e+00 -2.1992341488e-02 2.4642431525e+00 -4.2681943423e+00 2.4642431525e+00 4.2681943423e+00 
17700 5.0462193019e+00 -2.1595253736e-02 2.4646893951e+00 -4.2689672571e+00 2.4646893951e+00 4.2689672571e+00 
17800 5.0457763102e+00 -2.1198381450e-02 2.4651275008e+00 -4.2697260786e+00 2.4651275008e+00 4.2697260786e+00 
17900 5.0453346955e+00 -2.0801845344e-02 2.4655574785e+00 -4.2704708218e+00 2.4655574785e+00 4.2704708218e+00 
18000 5.0448944022e+00 -2.0405765124e-02 2.4659793393e+00 -4.2712015061e+00 2.4659793393e+00 4.2712015061e+00 
18100 5.0444553784e+00 -2.0010259578e-02 2.4663930965e+00 -4.2719181546e+00 2.4663930965e+00 4.2719181546e+00 
18200 5.0440175751e+00 -1.9615446644e-02 2.4667987660e+00 -4.2726207948e+00 2.4667987660e+00 4.2726207948e+00 
18300 5.0435809465e+00 -1.9221443476e-02 2.4671963658e+00 -4.2733094578e+00 2.4671963658e+00 4.2733094578e+00 
18400 5.0431454497e+00 -1.8828366500e-02 2.4675859162e+00 -4.2739841790e+00 2.4675859162e+00 4.2739841790e+00 
18500 5.0427110450e+00 -1.8436331464e-02 2.4679674400e+00 -4.2746449975e+00 2.4679674400e+00 4.2746449975e+00 
18600 5.0422776953e+00 -1.8045453473e-02 2.4683409618e+00 -4.2752919563e+00 2.4683409618e+00 4.2752919563e+00 
18700 5.0418453666e+00 -1.7655847028e-02 2.4687065090e+00 -4.2759251025e+00 2.4687065090e+00 4.2759251025e+00 
18800 5.0414140274e+00 -1.7267626044e-02 2.4690641107e+00 -4.2765444868e+00 2.4690641107e+00 4.2765444868e+00 
18900 5.0409836490e+00 -1.6880903873e-02 2.4694137985e+00 -4.2771501639e+00 2.4694137985e+00 4.2771501639e+00 
19000 5.0405542055e+00 -1.6495793310e-02 2.4697556062e+00 -4.2777421922e+00 2.4697556062e+00 4.2777421922e+00 
19100 5.0401256735e+00 -1.6112406598e-02 2.4700895697e+00 -4.2783206340e+00 2.4700895697e+00 4.2783206340e+00 
19200 5.0396980320e+00 -1.5730855426e-02 2.4704157271e+00 -4.2788855552e+00 2.4704157271e+00 4.2788855552e+00 
19300 5.0392712627e+00 -1.5351250916e-02 2.4707341188e+00 -4.2794370257e+00 2.4707341188e+00 4.2794370257e+00 
19400 5.0388453498e+00 -1.4973703611e-02 2.4710447870e+00 -4.2799751189e+00 2.4710447870e+00 4.2799751189e+00 
19500 5.0384202799e+00 -1.4598323453e-02 2.4713477765e+00 -4.2804999120e+00 2.4713477765e+00 4.2804999120e+00 
19600 5.0379960418e+00 -1.4225219753e-02 2.4716431338e+00 -4.2810114859e+00 2.4716431338e+00 4.2810114859e+00 
19700 5.0375726270e+00 -1.3854501162e-02 2.4719309079e+00 -4.2815099252e+00 2.4719309079e+00 4.2815099252e+00 
19800 5.0371500291e+00 -1.3486275632e-02 2.4722111496e+00 -4.2819953181e+00 2.4722111496e+00 4.2819953181e+00 
19900 5.0367282441e+00 -1.3120650372e-02 2.4724839119e+00 -4.2824677564e+00 2.4724839119e+00 4.2824677564e+00 
20000 5.0363072704e+00 -1.2757731805e-02 2.4727492501e+00 -4.2829273355e+00 2.4727492501e+00 4.2829273355e+00 
20100 5.0358871084e+00 -1.2397625514e-02 2.4730072211e+00 -4.2833741544e+00 2.4730072211e+00 4.2833741544e+00 
20200 5.0354677609e+00 -1.2040436186e-02 2.4732578842e+00 -4.2838083157e+00 2.4732578842e+00 4.2838083157e+00 
20300 5.0350492329e+00 -1.1686267557e-02 2.4735013007e+00 -4.2842299254e+00 2.4735013007e+00 4.2842299254e+00 
20400 5.0346315316e+00 -1.1335222343e-02 2.4737375337e+00 -4.2846390930e+00 2.4737375337e+00 4.2846390930e+00 
20500 5.0342146663e+00 -1.0987402182e-02 2.4739666485e+00 -4.2850359315e+00 2.4739666485e+00 4.2850359315e+00 
20600 5.0337986484e+00 -1.0642907559e-02 2.4741887123e+00 -4.2854205572e+00 2.4741887123e+00 4.2854205572e+00 
20700 5.0333834915e+00 -1.0301837735e-02 2.4744037941e+00 -4.2857930899e+00 2.4744037941e+00 4.2857930899e+00 
20800 5.0329692113e+00 -9.9642906752e-03 2.4746119651e+00 -4.2861536526e+00 2.4746119651e+00 4.2861536526e+00 
20900 5.0325558254e+00 -9.6303629730e-03 2.4748132982e+00 -4.2865023718e+00 2.4748132982e+00 4.2865023718e+00 
21000 5.0321433537e+00 -9.3001497686e-03 2.4750078682e+00 -4.2868393769e+00 2.4750078682e+00 4.2868393769e+00 
21100 5.0317318180e+00 -8.9737446709e-03 2.4751957518e+00 -4.2871648008e+00 2.4751957518e+00 4.2871648008e+00 
21200 5.0313212419e+00 -8.6512396757e-03 2.4753770275e+00 -4.2874787795e+00 2.4753770275e+00 4.2874787795e+00 
21300 5.0309116513e+00 -8.3327250827e-03 2.4755517754e+00 -4.2877814518e+00 2.4755517754e+00 4.2877814518e+00 
21400 5.0305030737e+00 -8.0182894119e-03 2.4757200777e+00 -4.2880729599e+00 2.4757200777e+00 4.2880729599e+00 
21500 5.0300955388e+00 -7.7080193192e-03 2.4758820180e+00 -4.2883534487e+00 2.4758820180e+00 4.2883534487e+00 
21600 5.0296890778e+00 -7.4019995112e-03 2.4760376817e+00 -4.2886230662e+00 2.4760376817e+00 4.2886230662e+00 
21700 5.0292837241e+00 -7.1003126606e-03 2.4761871559e+00 -4.2888819630e+00 2.4761871559e+00 4.2888819630e+00 
21800 5.0288795127e+00 -6.8030393210e-03 2.4763305292e+00 -4.2891302928e+00 2.4763305292e+00 4.2891302928e+00 
21900 5.0284764803e+00 -6.5102578418e-03 2.4764678917e+00 -4.2893682118e+00 2.4764678917e+00 4.2893682118e+00 
22000 5.0280746655e+00 -6.2220442848e-03 2.4765993353e+00 -4.2895958787e+00 2.4765993353e+00 4.2895958787e+00 
22100 5.0276741084e+00 -5.9384723400e-03 2.4767249530e+00 -4.2898134550e+00 2.4767249530e+00 4.2898134550e+00 
22200 5.0272748508e+00 -5.6596132439e-03 2.4768448396e+00 -4.2900211046e+00 2.4768448396e+00 4.2900211046e+00 
22300 5.0268769360e+00 -5.3855356981e-03 2.4769590909e+00 -4.2902189938e+00 2.4769590909e+00 4.2902189938e+00 
22400 5.0264804089e+00 -5.1163057899e-03 2.4770678044e+00 -4.2904072910e+00 2.4770678044e+00 4.2904072910e+00 
22500 5.0260853159e+00 -4.8519869143e-03 2.4771710785e+00 -4.2905861670e+00 2.4771710785e+00 4.2905861670e+00 
22600 5.0256917047e+00 -4.5926396985e-03 2.4772690132e+00 -4.2907557949e+00 2.4772690132e+00 4.2907557949e+00 
22700 5.0252996244e+00 -4.3383219277e-03 2.4773617094e+00 -4.2909163494e+00 2.4773617094e+00 4.2909163494e+00 
22800 5.0249091255e+00 -4.0890884747e-03 2.4774492692e+00 -4.2910680075e+00 2.4774492692e+00 4.2910680075e+00 
22900 5.0245202595e+00 -3.8449912306e-03 2.4775317959e+00 -4.2912109478e+00 2.4775317959e+00 4.2912109478e+00 
23000 5.0241330794e+00 -3.6060790390e-03 2.4776093935e+00 -4.2913453508e+00 2.4776093935e+00 4.2913453508e+00 
23100 5.0237476389e+00 -3.3723976339e-03 2.4776821672e+00 -4.2914713986e+00 2.4776821672e+00 4.2914713986e+00 
23200 5.0233639930e+00 -3.1439895798e-03 2.4777502230e+00 -4.2915892747e+00 2.4777502230e+00 4.2915892747e+00 
23300 5.0229821976e+00 -2.9208942152e-03 2.4778136677e+00 -4.2916991642e+00 2.4778136677e+00 4.2916991642e+00 
23400 5.0226023094e+00 -2.7031476010e-03 2.4778726089e+00 -4.2918012533e+00 2.4778726089e+00 4.2918012533e+00 
23500 5.0222243859e+00 -2.4907824711e-03 2.4779271548e+00 -4.2918957296e+00 2.4779271548e+00 4.2918957296e+00 
23600 5.0218484855e+00 -2.2838281878e-03 2.4779774144e+00 -4.2919827818e+00 2.4779774144e+00 4.2919827818e+00 
23700 5.0214746669e+00 -2.0823107009e-03 2.4780234971e+00 -4.2920625992e+00 2.4780234971e+00 4.2920625992e+00 
23800 5.0211029897e+00 -1.8862525118e-03 2.4780655127e+00 -4.2921353725e+00 2.4780655127e+00 4.2921353725e+00 
23900 5.0207335136e+00 -1.6956726404e-03 2.4781035718e+00 -4.2922012928e+00 2.4781035718e+00 4.2922012928e+00 
24000 5.0203662990e+00 -1.5105865985e-03 2.4781377850e+00 -4.2922605518e+00 2.4781377850e+00 4.2922605518e+00 
24100 5.0200014063e+00 -1.3310063659e-03 2.4781682633e+00 -4.2923133418e+00 2.4781682633e+00 4.2923133418e+00 
24200 5.0196388964e+00 -1.1569403724e-03 2.4781951180e+00 -4.2923598554e+00 2.4781951180e+00 4.2923598554e+00 
24300 5.0192788300e+00 -9.8839348411e-04 2.4782184604e+00 -4.2924002857e+00 2.4782184604e+00 4.2924002857e+00 
24400 5.0189212680e+00 -8.2536699488e-04 2.4782384021e+00 -4.2924348257e+00 2.4782384021e+00 4.2924348257e+00 
24500 5.0185662710e+00 -6.6785862222e-04 2.4782550544e+00 -4.2924636683e+00 2.4782550544e+00 4.2924636683e+00 
24600 5.0182138996e+00 -5.1586250862e-04 2.4782685288e+00 -4.2924870066e+00 2.4782685288e+00 4.2924870066e+00 
24700 5.0178642141e+00 -3.6936922765e-04 2.4782789365e+00 -4.2925050333e+00 2.4782789365e+00 4.2925050333e+00 
24800 5.0175172743e+00 -2.2836579516e-04 2.4782863886e+00 -4.2925179408e+00 2.4782863886e+00 4.2925179408e+00 
24900 5.0171731396e+00 -9.2835685501e-05 2.4782909960e+00 -4.2925259210e+00 2.4782909960e+00 4.2925259210e+00 
25000 5.0168318688e+00 3.7241147229e-05 2.4782928689e+00 -4.2925291650e+00 2.4782928689e+00 4.2925291650e+00 
25100 5.0164935203e+00 1.6235082490e-04 2.4782928689e+00 -4.2925291650e+00 2.4782928689e+00 4.2925291650e+00 
25200 5.0161581511e+00 2.8159414318e-04 2.4782895935e+00 -4.2925234918e+00 2.4782895935e+00 4.2925234918e+00 
25300 5.0158258179e+00 3.9546475887e-04 2.4782839123e+00 -4.2925136516e+00 2.4782839123e+00 4.2925136516e+00 
25400 5.0154965761e+00 5.0399657812e-04 2.4782759337e+00 -4.2924998323e+00 2.4782759337e+00 4.2924998323e+00 
25500 5.0151704802e+00 6.0722681737e-04 2.4782657654e+00 -4.2924822203e+00 2.4782657654e+00 4.2924822203e+00 
25600 5.0148475837e+00 7.0519596271e-04 2.4782535144e+00 -4.2924610009e+00 2.4782535144e+00 4.2924610009e+00 
25700 5.0145279386e+00 7.9794772111e-04 2.4782392867e+00 -4.2924363579e+00 2.4782392867e+00 4.2924363579e+00 
25800 5.0142115957e+00 8.8552896481e-04 2.4782231876e+00 -4.2924084735e+00 2.4782231876e+00 4.2924084735e+00 
25900 5.0138986045e+00 9.6798966986e-04 2.4782053214e+00 -4.2923775283e+00 2.4782053214e+00 4.2923775283e+00 
26000 5.0135890129e+00 1.0453828494e-03 2.4781857914e+00 -4.2923437013e+00 2.4781857914e+00 4.2923437013e+00 
26100 5.0132828672e+00 1.1177644822e-03 2.4781646997e+00 -4.2923071695e+00 2.4781646997e+00 4.2923071695e+00 
26200 5.0129802120e+00 1.1851934369e-03 2.4781421475e+00 -4.2922681079e+00 2.4781421475e+00 4.2922681079e+00 
26300 5.0126810905e+00 1.2477313921e-03 2.4781182346e+00 -4.2922266895e+00 2.4781182346e+00 4.2922266895e+00 
26400 5.0123855438e+00 1.3054427527e-03 2.4780930597e+00 -4.2921830852e+00 2.4780930597e+00 4.2921830852e+00 
26500 5.0120936112e+00 1.3583945623e-03 2.4780667201e+00 -4.2921374637e+00 2.4780667201e+00 4.2921374637e+00 
26600 5.0118053302e+00 1.4066564135e-03 2.4780393118e+00 -4.2920899911e+00 2.4780393118e+00 4.2920899911e+00 
26700 5.0115207361e+00 1.4503003534e-03 2.4780109294e+00 -4.2920408314e+00 2.4780109294e+00 4.2920408314e+00 
26800 5.0112398624e+00 1.4894007873e-03 2.4779816660e+00 -4.2919901458e+00 2.4779816660e+00 4.2919901458e+00 
26900 5.0109627403e+00 1.5240343801e-03 2.4779516134e+00 -4.2919380931e+00 2.4779516134e+00 4.2919380931e+00 
27000 5.0106893991e+00 1.5542799536e-03 2.4779208615e+00 -4.2918848293e+00 2.4779208615e+00 4.2918848293e+00 
27100 5.0104198656e+00 1.5802183839e-03 2.4778894990e+00 -4.2918305079e+00 2.4778894990e+00 4.2918305079e+00 
27200 5.0101541646e+00 1.6019324950e-03 2.4778576127e+00 -4.2917752792e+00 2.4778576127e+00 4.2917752792e+00 
27300 5.0098923185e+00 1.6195069512e-03 2.4778252878e+00 -4.2917192908e+00 2.4778252878e+00 4.2917192908e+00 
27400 5.0096343477e+00 1.6330281488e-03 2.4777926079e+00 -4.2916626875e+00 2.4777926079e+00 4.2916626875e+00 
27500 5.0093802698e+00 1.6425841052e-03 2.4777596547e+00 -4.2916056109e+00 2.4777596547e+00 4.2916056109e+00 
27600 5.0091301005e+00 1.6482643482e-03 2.4777265082e+00 -4.2915481995e+00 2.4777265082e+00 4.2915481995e+00 
27700 5.0088838529e+00 1.6501598035e-03 2.4776932467e+00 -4.2914905888e+00 2.4776932467e+00 4.2914905888e+00 
27800 5.0086415377e+00 1.6483626826e-03 2.4776599464e+00 -4.2914329111e+00 2.4776599464e+00 4.2914329111e+00 
27900 5.0084031635e+00 1.6429663697e-03 2.4776266820e+00 -4.2913752954e+00 2.4776266820e+00 4.2913752954e+00 
28000 5.0081687361e+00 1.6340653085e-03 2.4775935260e+00 -4.2913178675e+00 2.4775935260e+00 4.2913178675e+00 
28100 5.0079382593e+00 1.6217548897e-03 2.4775605492e+00 -4.2912607501e+00 2.4775605492e+00 4.2912607501e+00 
28200 5.0077117343e+00 1.6061313382e-03 2.4775278204e+00 -4.2912040621e+00 2.4775278204e+00 4.2912040621e+00 
28300 5.0074891599e+00 1.5872916016e-03 2.4774954065e+00 -4.2911479196e+00 2.4774954065e+00 4.2911479196e+00 
28400 5.0072705329e+00 1.5653332385e-03 2.4774633724e+00 -4.2910924348e+00 2.4774633724e+00 4.2910924348e+00 
28500 5.0070558473e+00 1.5403543086e-03 2.4774317810e+00 -4.2910377169e+00 2.4774317810e+00 4.2910377169e+00 
28600 5.0068450951e+00 1.5124532638e-03 2.4774006933e+00 -4.2909838715e+00 2.4774006933e+00 4.2909838715e+00 
28700 5.0066382660e+00 1.4817288403e-03 2.4773701684e+00 -4.2909310008e+00 2.4773701684e+00 4.2909310008e+00 
28800 5.0064353473e+00 1.4482799529e-03 2.4773402632e+00 -4.2908792034e+00 2.4773402632e+00 4.2908792034e+00 
28900 5.0062363242e+00 1.4122055904e-03 2.4773110327e+00 -4.2908285747e+00 2.4773110327e+00 4.2908285747e+00 
29000 5.0060411797e+00 1.3736047129e-03 2.4772825299e+00 -4.2907792066e+00 2.4772825299e+00 4.2907792066e+00 
29100 5.0058498947e+00 1.3325761519e-03 2.4772548060e+00 -4.2907311872e+00 2.4772548060e+00 4.2907311872e+00 
29200 5.0056624480e+00 1.2892185120e-03 2.4772279098e+00 -4.2906846017e+00 2.4772279098e+00 4.2906846017e+00 
29300 5.0054788164e+00 1.2436300746e-03 2.4772018884e+00 -4.2906395314e+00 2.4772018884e+00 4.2906395314e+00 
29400 5.0052989746e+00 1.1959087049e-03 2.4771767870e+00 -4.2905960544e+00 2.4771767870e+00 4.2905960544e+00 
29500 5.0051228956e+00 1.1461517608e-03 2.4771526485e+00 -4.2905542453e+00 2.4771526485e+00 4.2905542453e+00 
29600 5.0049505504e+00 1.0944560050e-03 2.4771295141e+00 -4.2905141753e+00 2.4771295141e+00 4.2905141753e+00 
29700 5.0047819082e+00 1.0409175194e-03 2.4771074229e+00 -4.2904759122e+00 2.4771074229e+00 4.2904759122e+00 
29800 5.0046169365e+00 9.8563162260e-04 2.4770864122e+00 -4.2904395206e+00 2.4770864122e+00 4.2904395206e+00 
29900 5.0044556010e+00 9.2869279074e-04 2.4770665172e+00 -4.2904050615e+00 2.4770665172e+00 4.2904050615e+00 
30000 5.0042978661e+00 8.7019458054e-04 2.4770477714e+00 -4.2903725928e+00 2.4770477714e+00 4.2903725928e+00 
30100 5.0041436943e+00 8.1022955611e-04 2.4770302063e+00 -4.2903421691e+00 2.4770302063e+00 4.2903421691e+00 
30200 5.0039930470e+00 7.4888921862e-04 2.4770138514e+00 -4.2903138417e+00 2.4770138514e+00 4.2903138417e+00 
30300 5.0038458838e+00 6.8626393921e-04 2.4769987347e+00 -4.2902876587e+00 2.4769987347e+00 4.2902876587e+00 
30400 5.0037021634e+00 6.2244289505e-04 2.4769848820e+00 -4.2902636651e+00 2.4769848820e+00 4.2902636651e+00 
30500 5.0035618430e+00 5.5751400870e-04 2.4769723174e+00 -4.2902419027e+00 2.4769723174e+00 4.2902419027e+00 
30600 5.0034248787e+00 4.9156389067e-04 2.4769610635e+00 -4.2902224104e+00 2.4769610635e+00 4.2902224104e+00 
30700 5.0032912255e+00 4.2467778527e-04 2.4769511408e+00 -4.2902052237e+00 2.4769511408e+00 4.2902052237e+00 
30800 5.0031608374e+00 3.5693951963e-04 2.4769425682e+00 -4.2901903756e+00 2.4769425682e+00 4.2901903756e+00 
30900 5.0030336675e+00 2.8843145608e-04 2.4769353630e+00 -4.2901778957e+00 2.4769353630e+00 4.2901778957e+00 
31000 5.0029096680e+00 2.1923444764e-04 2.4769295406e+00 -4.2901678111e+00 2.4769295406e+00 4.2901678111e+00 
31100 5.0027887903e+00 1.4942779677e-04 2.4769251151e+00 -4.2901601459e+00 2.4769251151e+00 4.2901601459e+00 
31200 5.0026709850e+00 7.9089217252e-05 2.4769220987e+00 -4.2901549213e+00 2.4769220987e+00 4.2901549213e+00 
31300 5.0025562022e+00 8.2947992508e-06 2.4769205022e+00 -4.2901521561e+00 2.4769205022e+00 4.2901521561e+00 
31400 5.0024443914e+00 -6.2769676045e-05 2.4769205022e+00 -4.2901521561e+00 2.4769205022e+00 4.2901521561e+00 
31500 5.0023355017e+00 -1.3509792934e-04 2.4769205022e+00 -4.2901521561e+00 2.4769205022e+00 4.2901521561e+00 
31600 5.0022294816e+00 -2.0681622049e-04 2.4769232293e+00 -4.2901568796e+00 2.4769232293e+00 4.2901568796e+00 
31700 5.0021262791e+00 -2.7870258474e-04 2.4769274042e+00 -4.2901641107e+00 2.4769274042e+00 4.2901641107e+00 
31800 5.0020258423e+00 -3.5068949793e-04 2.4769330301e+00 -4.2901738552e+00 2.4769330301e+00 4.2901738552e+00 
31900 5.0019281188e+00 -4.2271119822e-04 2.4769401093e+00 -4.2901861165e+00 2.4769401093e+00 4.2901861165e+00 
32000 5.0018330563e+00 -4.9470370349e-04 2.4769486422e+00 -4.2902008960e+00 2.4769486422e+00 4.2902008960e+00 
32100 5.0017406020e+00 -5.6660482497e-04 2.4769586284e+00 -4.2902181926e+00 2.4769586284e+00 4.2902181926e+00 
32200 5.0016507035e+00 -6.3835417770e-04 2.4769700659e+00 -4.2902380029e+00 2.4769700659e+00 4.2902380029e+00 
32300 5.0015633082e+00 -7.0989318810e-04 2.4769829517e+00 -4.2902603218e+00 2.4769829517e+00 4.2902603218e+00 
32400 5.0014783636e+00 -7.8116509878e-04 2.4769972815e+00 -4.2902851417e+00 2.4769972815e+00 4.2902851417e+00 
32500 5.0013958175e+00 -8.5211497093e-04 2.4770130499e+00 -4.2903124534e+00 2.4770130499e+00 4.2903124534e+00 
32600 5.0013156177e+00 -9.2268968425e-04 2.4770302504e+00 -4.2903422455e+00 2.4770302504e+00 4.2903422455e+00 
32700 5.0012377122e+00 -9.9283793465e-04 2.4770488753e+00 -4.2903745048e+00 2.4770488753e+00 4.2903745048e+00 
32800 5.0011620496e+00 -1.0625102298e-03 2.4770689161e+00 -4.2904092165e+00 2.4770689161e+00 4.2904092165e+00 
32900 5.0010885786e+00 -1.1316588828e-03 2.4770903630e+00 -4.2904463637e+00 2.4770903630e+00 4.2904463637e+00 
33000 5.0010172484e+00 -1.2002380036e-03 2.4771132056e+00 -4.2904859281e+00 2.4771132056e+00 4.2904859281e+00 
33100 5.0009480084e+00 -1.2682034885e-03 2.4771374321e+00 -4.2905278898e+00 2.4771374321e+00 4.2905278898e+00 
33200 5.0008808089e+00 -1.3355130089e-03 2.4771630304e+00 -4.2905722272e+00 2.4771630304e+00 4.2905722272e+00 
33300 5.0008156002e+00 -1.4021259967e-03 2.4771899869e+00 -4.2906189173e+00 2.4771899869e+00 4.2906189173e+00 
33400 5.0007523336e+00 -1.4680036296e-03 2.4772182877e+00 -4.2906679357e+00 2.4772182877e+00 4.2906679357e+00 
33500 5.0006909606e+00 -1.5331088139e-03 2.4772479178e+00 -4.2907192566e+00 2.4772479178e+00 4.2907192566e+00 
33600 5.0006314336e+00 -1.5974061667e-03 2.4772788617e+00 -4.2907728530e+00 2.4772788617e+00 4.2907728530e+00 
33700 5.0005737055e+00 -1.6608619961e-03 2.4773111029e+00 -4.2908286964e+00 2.4773111029e+00 4.2908286964e+00 
33800 5.0005177298e+00 -1.7234442804e-03 2.4773446245e+00 -4.2908867574e+00 2.4773446245e+00 4.2908867574e+00 
33900 5.0004634608e+00 -1.7851226460e-03 2.4773794086e+00 -4.2909470054e+00 2.4773794086e+00 4.2909470054e+00 
34000 5.0004108534e+00 -1.8458683447e-03 2.4774154372e+00 -4.2910094086e+00 2.4774154372e+00 4.2910094086e+00 
34100 5.0003598633e+00 -1.9056542292e-03 2.4774526912e+00 -4.2910739345e+00 2.4774526912e+00 4.2910739345e+00 
34200 5.0003104469e+00 -1.9644547283e-03 2.4774911512e+00 -4.2911405492e+00 2.4774911512e+00 4.2911405492e+00 
34300 5.0002625615e+00 -2.0222458208e-03 2.4775307974e+00 -4.2912092184e+00 2.4775307974e+00 4.2912092184e+00 
34400 5.0002161649e+00 -2.0790050086e-03 2.4775716092e+00 -4.2912799066e+00 2.4775716092e+00 4.2912799066e+00 
34500 5.0001712159e+00 -2.1347112897e-03 2.4776135658e+00 -4.2913525776e+00 2.4776135658e+00 4.2913525776e+00 
34600 5.0001276740e+00 -2.1893451295e-03 2.4776566460e+00 -4.2914271945e+00 2.4776566460e+00 4.2914271945e+00 
34700 5.0000854996e+00 -2.2428884326e-03 2.4777008279e+00 -4.2915037198e+00 2.4777008279e+00 4.2915037198e+00 
34800 5.0000446538e+00 -2.2953245129e-03 2.4777460895e+00 -4.2915821152e+00 2.4777460895e+00 4.2915821152e+00 
34900 5.0000050985e+00 -2.3466380640e-03 2.4777924084e+00 -4.2916623420e+00 2.4777924084e+00 4.2916623420e+00 
35000 4.9999667966e+00 -2.3968151292e-03 2.4778397620e+00 -4.2917443608e+00 2.4778397620e+00 4.2917443608e+00 
35100 4.9999297115e+00 -2.4458430706e-03 2.4778881272e+00 -4.2918281317e+00 2.4778881272e+00 4.2918281317e+00 
35200 4.9998938077e+00 -2.4937105384e-03 2.4779374807e+00 -4.2919136145e+00 2.4779374807e+00 4.2919136145e+00 
35300 4.9998590505e+00 -2.5404074395e-03 2.4779877991e+00 -4.2920007686e+00 2.4779877991e+00 4.2920007686e+00 
35400 4.9998254058e+00 -2.5859249064e-03 2.4780390588e+00 -4.2920895530e+00 2.4780390588e+00 4.2920895530e+00 
35500 4.9997928406e+00 -2.6302552652e-03 2.4780912358e+00 -4.2921799262e+00 2.4780912358e+00 4.2921799262e+00 
35600 4.9997613224e+00 -2.6733920043e-03 2.4781443062e+00 -4.2922718468e+00 2.4781443062e+00 4.2922718468e+00 
35700 4.9997308198e+00 -2.7153297424e-03 2.4781982458e+00 -4.2923652729e+00 2.4781982458e+00 4.2923652729e+00 
35800 4.9997013019e+00 -2.7560641970e-03 2.4782530303e+00 -4.2924601626e+00 2.4782530303e+00 4.2924601626e+00 
35900 4.9996727389e+00 -2.7955921521e-03 2.4783086355e+00 -4.2925564736e+00 2.4783086355e+00 4.2925564736e+00 
36000 4.9996451015e+00 -2.8339114270e-03 2.4783650369e+00 -4.2926541637e+00 2.4783650369e+00 4.2926541637e+00 
36100 4.9996183614e+00 -2.8710208442e-03 2.4784222102e+00 -4.2927531906e+00 2.4784222102e+00 4.2927531906e+00 
36200 4.9995924910e+00 -2.9069201982e-03 2.4784801307e+00 -4.2928535120e+00 2.4784801307e+00 4.2928535120e+00 
36300 4.9995674632e+00 -2.9416102238e-03 2.4785387742e+00 -4.2929550854e+00 2.4785387742e+00 4.2929550854e+00 
36400 4.9995432520e+00 -2.9750925651e-03 2.4785981160e+00 -4.2930578685e+00 2.4785981160e+00 4.2930578685e+00 
36500 4.9995198320e+00 -3.0073697442e-03 2.4786581319e+00 -4.2931618190e+00 2.4786581319e+00 4.2931618190e+00 
36600 4.9994971784e+00 -3.0384451308e-03 2.4787187974e+00 -4.2932668948e+00 2.4787187974e+00 4.2932668948e+00 
36700 4.9994752673e+00 -3.0683229114e-03 2.4787800883e+00 -4.2933730537e+00 2.4787800883e+00 4.2933730537e+00 
36800 4.9994540752e+00 -3.0970080592e-03 2.4788419804e+00 -4.2934802539e+00 2.4788419804e+00 4.2934802539e+00 
36900 4.9994335797e+00 -3.1245063040e-03 2.4789044495e+00 -4.2935884536e+00 2.4789044495e+00 4.2935884536e+00 
37000 4.9994137586e+00 -3.1508241030e-03 2.4789674717e+00 -4.2936976112e+00 2.4789674717e+00 4.2936976112e+00 
37100 4.9993945907e+00 -3.1759686111e-03 2.4790310231e+00 -4.2938076855e+00 2.4790310231e+00 4.2938076855e+00 
37200 4.9993760553e+00 -3.1999476524e-03 2.4790950800e+00 -4.2939186353e+00 2.4790950800e+00 4.2939186353e+00 
37300 4.9993581324e+00 -3.2227696916e-03 2.4791596189e+00 -4.2940304200e+00 2.4791596189e+00 4.2940304200e+00 
37400 4.9993408024e+00 -3.2444438057e-03 2.4792246164e+00 -4.2941429990e+00 2.4792246164e+00 4.2941429990e+00 
37500 4.9993240464e+00 -3.2649796570e-03 2.4792900493e+00 -4.2942563321e+00 2.4792900493e+00 4.2942563321e+00 
37600 4.9993078463e+00 -3.2843874651e-03 2.4793558947e+00 -4.2943703796e+00 2.4793558947e+00 4.2943703796e+00 
37700 4.9992921842e+00 -3.3026779806e-03 2.4794221297e+00 -4.2944851020e+00 2.4794221297e+00 4.2944851020e+00 
37800 4.9992770430e+00 -3.3198624589e-03 2.4794887317e+00 -4.2946004601e+00 2.4794887317e+00 4.2946004601e+00 
37900 4.9992624061e+00 -3.3359526341e-03 2.4795556785e+00 -4.2947164154e+00 2.4795556785e+00 4.2947164154e+00 
38000 4.9992482572e+00 -3.3509606935e-03 2.4796229480e+00 -4.2948329296e+00 2.4796229480e+00 4.2948329296e+00 
38100 4.9992345809e+00 -3.3648992533e-03 2.4796905183e+00 -4.2949499647e+00 2.4796905183e+00 4.2949499647e+00 
38200 4.9992213620e+00 -3.3777813335e-03 2.4797583678e+00 -4.2950674835e+00 2.4797583678e+00 4.2950674835e+00 
38300 4.9992085858e+00 -3.3896203348e-03 2.4798264751e+00 -4.2951854489e+00 2.4798264751e+00 4.2951854489e+00 
38400 4.9991962382e+00 -3.4004300146e-03 2.4798948194e+00 -4.2953038245e+00 2.4798948194e+00 4.2953038245e+00 
38500 4.9991843054e+00 -3.4102244644e-03 2.4799633796e+00 -4.2954225744e+00 2.4799633796e+00 4.2954225744e+00 
38600 4.9991727741e+00 -3.4190180875e-03 2.4800321355e+00 -4.2955416631e+00 2.4800321355e+00 4.2955416631e+00 
38700 4.9991616316e+00 -3.4268255772e-03 2.4801010667e+00 -4.2956610555e+00 2.4801010667e+00 4.2956610555e+00 
38800 4.9991508653e+00 -3.4336618952e-03 2.4801701535e+00 -4.2957807172e+00 2.4801701535e+00 4.2957807172e+00 
38900 4.9991404631e+00 -3.4395422514e-03 2.4802393761e+00 -4.2959006143e+00 2.4802393761e+00 4.2959006143e+00 
39000 4.9991304135e+00 -3.4444820829e-03 2.4803087153e+00 -4.2960207134e+00 2.4803087153e+00 4.2960207134e+00 
39100 4.9991207052e+00 -3.4484970349e-03 2.4803781522e+00 -4.2961409816e+00 2.4803781522e+00 4.2961409816e+00 
39200 4.9991113271e+00 -3.4516029412e-03 2.4804476681e+00 -4.2962613866e+00 2.4804476681e+00 4.2962613866e+00 
39300 4.9991022688e+00 -3.4538158057e-03 2.4805172446e+00 -4.2963818967e+00 2.4805172446e+00 4.2963818967e+00 
39400 4.9990935201e+00 -3.4551517840e-03 2.4805868638e+00 -4.2965024807e+00 2.4805868638e+00 4.2965024807e+00 
39500 4.9990850709e+00 -3.4556271658e-03 2.4806565080e+00 -4.2966231079e+00 2.4806565080e+00 4.2966231079e+00 
39600 4.9990769118e+00 -3.4552583581e-03 2.4807261598e+00 -4.2967437484e+00 2.4807261598e+00 4.2967437484e+00 
39700 4.9990690334e+00 -3.4540618681e-03 2.4807958022e+00 -4.2968643726e+00 2.4807958022e+00 4.2968643726e+00 
39800 4.9990614269e+00 -3.4520542875e-03 2.4808654185e+00 -4.2969849516e+00 2.4808654185e+00 4.2969849516e+00 
39900 4.9990540834e+00 -3.4492522767e-03 2.4809349924e+00 -4.2971054571e+00 2.4809349924e+00 4.2971054571e+00 
40000 4.9990469947e+00 -3.4456725498e-03 2.4810045079e+00 -4.2972258615e+00 2.4810045079e+00 4.2972258615e+00 
40100 4.9990401525e+00 -3.4413318600e-03 2.4810739493e+00 -4.2973461375e+00 2.4810739493e+00 4.2973461375e+00 
40200 4.9990335490e+00 -3.4362469854e-03 2.4811433013e+00 -4.2974662587e+00 2.4811433013e+00 4.2974662587e+00 
40300 4.9990271766e+00 -3.4304347157e-03 2.4812125489e+00 -4.2975861990e+00 2.4812125489e+00 4.2975861990e+00 
40400 4.9990210279e+00 -3.4239118386e-03 2.4812816774e+00 -4.2977059331e+00 2.4812816774e+00 4.2977059331e+00 
40500 4.9990150957e+00 -3.4166951276e-03 2.4813506725e+00 -4.2978254362e+00 2.4813506725e+00 4.2978254362e+00 
40600 4.9990093732e+00 -3.4088013294e-03 2.4814195203e+00 -4.2979446841e+00 2.4814195203e+00 4.2979446841e+00 
40700 4.9990038536e+00 -3.4002471528e-03 2.4814882072e+00 -4.2980636532e+00 2.4814882072e+00 4.2980636532e+00 
40800 4.9989985304e+00 -3.3910492567e-03 2.4815567197e+00 -4.2981823204e+00 2.4815567197e+00 4.2981823204e+00 
40900 4.9989933975e+00 -3.3812242398e-03 2.4816250451e+00 -4.2983006634e+00 2.4816250451e+00 4.2983006634e+00 
41000 4.9989884485e+00 -3.3707886303e-03 2.4816931706e+00 -4.2984186603e+00 2.4816931706e+00 4.2984186603e+00 
41100 4.9989836778e+00 -3.3597588753e-03 2.4817610840e+00 -4.2985362897e+00 2.4817610840e+00 4.2985362897e+00 
41200 4.9989790796e+00 -3.3481513323e-03 2.4818287733e+00 -4.2986535311e+00 2.4818287733e+00 4.2986535311e+00 
41300 4.9989746483e+00 -3.3359822592e-03 2.4818962269e+00 -4.2987703641e+00 2.4818962269e+00 4.2987703641e+00 
41400 4.9989703787e+00 -3.3232678063e-03 2.4819634335e+00 -4.2988867694e+00 2.4819634335e+00 4.2988867694e+00 
41500 4.9989662654e+00 -3.3100240076e-03 2.4820303822e+00 -4.2990027279e+00 2.4820303822e+00 4.2990027279e+00 
41600 4.9989623036e+00 -3.2962667732e-03 2.4820970623e+00 -4.2991182212e+00 2.4820970623e+00 4.2991182212e+00 
41700 4.9989584883e+00 -3.2820118818e-03 2.4821634634e+00 -4.2992332313e+00 2.4821634634e+00 4.2992332313e+00 
41800 4.9989548147e+00 -3.2672749735e-03 2.4822295756e+00 -4.2993477410e+00 2.4822295756e+00 4.2993477410e+00 
41900 4.9989512784e+00 -3.2520715431e-03 2.4822953892e+00 -4.2994617335e+00 2.4822953892e+00 4.2994617335e+00 
42000 4.9989478749e+00 -3.2364169339e-03 2.4823608948e+00 -4.2995751926e+00 2.4823608948e+00 4.2995751926e+00 
42100 4.9989445999e+00 -3.2203263316e-03 2.4824260834e+00 -4.2996881025e+00 2.4824260834e+00 4.2996881025e+00 
42200 4.9989414492e+00 -3.2038147584e-03 2.4824909462e+00 -4.2998004481e+00 2.4824909462e+00 4.2998004481e+00 
42300 4.9989384188e+00 -3.1868970683e-03 2.4825554747e+00 -4.2999122148e+00 2.4825554747e+00 4.2999122148e+00 
42400 4.9989355047e+00 -3.1695879416e-03 2.4826196608e+00 -4.3000233883e+00 2.4826196608e+00 4.3000233883e+00 
42500 4.9989327032e+00 -3.1519018803e-03 2.4826834966e+00 -4.3001339552e+00 2.4826834966e+00 4.3001339552e+00 
42600 4.9989300107e+00 -3.1338532041e-03 2.4827469746e+00 -4.3002439023e+00 2.4827469746e+00 4.3002439023e+00 
42700 4.9989274234e+00 -3.1154560460e-03 2.4828100875e+00 -4.3003532171e+00 2.4828100875e+00 4.3003532171e+00 
42800 4.9989249380e+00 -3.0967243488e-03 2.4828728283e+00 -4.3004618873e+00 2.4828728283e+00 4.3004618873e+00 
42900 4.9989225511e+00 -3.0776718614e-03 2.4829351903e+00 -4.3005699014e+00 2.4829351903e+00 4.3005699014e+00 
43000 4.9989202595e+00 -3.0583121360e-03 2.4829971670e+00 -4.3006772483e+00 2.4829971670e+00 4.3006772483e+00 
43100 4.9989180600e+00 -3.0386585250e-03 2.4830587523e+00 -4.3007839172e+00 2.4830587523e+00 4.3007839172e+00 
43200 4.9989159495e+00 -3.0187241782e-03 2.4831199404e+00 -4.3008898981e+00 2.4831199404e+00 4.3008898981e+00 
43300 4.9989139251e+00 -2.9985220408e-03 2.4831807256e+00 -4.3009951810e+00 2.4831807256e+00 4.3009951810e+00 
43400 4.9989119838e+00 -2.9780648510e-03 2.4832411024e+00 -4.3010997569e+00 2.4832411024e+00 4.3010997569e+00 
43500 4.9989101230e+00 -2.9573651384e-03 2.4833010659e+00 -4.3012036167e+00 2.4833010659e+00 4.3012036167e+00 
43600 4.9989083398e+00 -2.9364352220e-03 2.4833606112e+00 -4.3013067521e+00 2.4833606112e+00 4.3013067521e+00 
43700 4.9989066317e+00 -2.9152872091e-03 2.4834197337e+00 -4.3014091552e+00 2.4834197337e+00 4.3014091552e+00 
43800 4.9989049961e+00 -2.8939329937e-03 2.4834784289e+00 -4.3015108184e+00 2.4834784289e+00 4.3015108184e+00 
43900 4.9989034305e+00 -2.8723842562e-03 2.4835366928e+00 -4.3016117345e+00 2.4835366928e+00 4.3016117345e+00 
44000 4.9989019326e+00 -2.8506524619e-03 2.4835945216e+00 -4.3017118967e+00 2.4835945216e+00 4.3017118967e+00 
44100 4.9989005000e+00 -2.8287488609e-03 2.4836519114e+00 -4.3018112989e+00 2.4836519114e+00 4.3018112989e+00 
44200 4.9988991305e+00 -2.8066844872e-03 2.4837088590e+00 -4.3019099350e+00 2.4837088590e+00 4.3019099350e+00 
44300 4.9988978219e+00 -2.7844701591e-03 2.4837653611e+00 -4.3020077995e+00 2.4837653611e+00 4.3020077995e+00 
44400 4.9988965720e+00 -2.7621164786e-03 2.4838214147e+00 -4.3021048873e+00 2.4838214147e+00 4.3021048873e+00 
44500 4.9988953788e+00 -2.7396338321e-03 2.4838770171e+00 -4.3022011934e+00 2.4838770171e+00 4.3022011934e+00 
44600 4.9988942403e+00 -2.7170323899e-03 2.4839321656e+00 -4.3022967134e+00 2.4839321656e+00 4.3022967134e+00 
44700 4.9988931546e+00 -2.6943221075e-03 2.4839868580e+00 -4.3023914434e+00 2.4839868580e+00 4.3023914434e+00 
44800 4.9988921198e+00 -2.6715127254e-03 2.4840410920e+00 -4.3024853795e+00 2.4840410920e+00 4.3024853795e+00 
44900 4.9988911341e+00 -2.6486137706e-03 2.4840948657e+00 -4.3025785183e+00 2.4840948657e+00 4.3025785183e+00 
45000 4.9988901957e+00 -2.6256345566e-03 2.4841481774e+00 -4.3026708567e+00 2.4841481774e+00 4.3026708567e+00 
45100 4.9988893029e+00 -2.6025841853e-03 2.4842010253e+00 -4.3027623921e+00 2.4842010253e+00 4.3027623921e+00 
45200 4.9988884541e+00 -2.5794715473e-03 2.4842534083e+00 -4.3028531220e+00 2.4842534083e+00 4.3028531220e+00 
45300 4.9988876477e+00 -2.5563053238e-03 2.4843053249e+00 -4.3029430442e+00 2.4843053249e+00 4.3029430442e+00 
45400 4.9988868820e+00 -2.5330939874e-03 2.4843567741e+00 -4.3030321569e+00 2.4843567741e+00 4.3030321569e+00 
45500 4.9988861557e+00 -2.5098458039e-03 2.4844077552e+00 -4.3031204587e+00 2.4844077552e+00 4.3031204587e+00 
45600 4.9988854672e+00 -2.4865688338e-03 2.4844582673e+00 -4.3032079483e+00 2.4844582673e+00 4.3032079483e+00 
45700 4.9988848151e+00 -2.4632709337e-03 2.4845083100e+00 -4.3032946247e+00 2.4845083100e+00 4.3032946247e+00 
45800 4.9988841981e+00 -2.4399597583e-03 2.4845578827e+00 -4.3033804872e+00 2.4845578827e+00 4.3033804872e+00 
45900 4.9988836148e+00 -2.4166427624e-03 2.4846069854e+00 -4.3034655355e+00 2.4846069854e+00 4.3034655355e+00 
46000 4.9988830639e+00 -2.3933272021e-03 2.4846556178e+00 -4.3035497694e+00 2.4846556178e+00 4.3035497694e+00 
46100 4.9988825443e+00 -2.3700201376e-03 2.4847037802e+00 -4.3036331890e+00 2.4847037802e+00 4.3036331890e+00 
46200 4.9988820546e+00 -2.3467284346e-03 2.4847514725e+00 -4.3037157946e+00 2.4847514725e+00 4.3037157946e+00 
46300 4.9988815938e+00 -2.3234587667e-03 2.4847986953e+00 -4.3037975868e+00 2.4847986953e+00 4.3037975868e+00 
46400 4.9988811606e+00 -2.3002176178e-03 2.4848454489e+00 -4.3038785664e+00 2.4848454489e+00 4.3038785664e+00 
46500 4.9988807541e+00 -2.2770112838e-03 2.4848917339e+00 -4.3039587345e+00 2.4848917339e+00 4.3039587345e+00 
46600 4.9988803731e+00 -2.2538458753e-03 2.4849375512e+00 -4.3040380923e+00 2.4849375512e+00 4.3040380923e+00 
46700 4.9988800167e+00 -2.2307273198e-03 2.4849829015e+00 -4.3041166413e+00 2.4849829015e+00 4.3041166413e+00 
46800 4.9988796838e+00 -2.2076613640e-03 2.4850277858e+00 -4.3041943832e+00 2.4850277858e+00 4.3041943832e+00 
46900 4.9988793734e+00 -2.1846535764e-03 2.4850722052e+00 -4.3042713198e+00 2.4850722052e+00 4.3042713198e+00 
47000 4.9988790848e+00 -2.1617093496e-03 2.4851161608e+00 -4.3043474532e+00 2.4851161608e+00 4.3043474532e+00 
47100 4.9988788168e+00 -2.1388339029e-03 2.4851596541e+00 -4.3044227858e+00 2.4851596541e+00 4.3044227858e+00 
47200 4.9988785688e+00 -2.1160322848e-03 2.4852026863e+00 -4.3044973198e+00 2.4852026863e+00 4.3044973198e+00 
47300 4.9988783398e+00 -2.0933093755e-03 2.4852452591e+00 -4.3045710580e+00 2.4852452591e+00 4.3045710580e+00 
47400 4.9988781291e+00 -2.0706698895e-03 2.4852873739e+00 -4.3046440031e+00 2.4852873739e+00 4.3046440031e+00 
47500 4.9988779358e+00 -2.0481183782e-03 2.4853290326e+00 -4.3047161580e+00 2.4853290326e+00 4.3047161580e+00 
47600 4.9988777593e+00 -2.0256592326e-03 2.4853702369e+00 -4.3047875259e+00 2.4853702369e+00 4.3047875259e+00 
47700 4.9988775987e+00 -2.0032966859e-03 2.4854109887e+00 -4.3048581101e+00 2.4854109887e+00 4.3048581101e+00 
47800 4.9988774535e+00 -1.9810348159e-03 2.4854512899e+00 -4.3049279138e+00 2.4854512899e+00 4.3049279138e+00 
47900 4.9988773228e+00 -1.9588775481e-03 2.4854911426e+00 -4.3049969408e+00 2.4854911426e+00 4.3049969408e+00 
48000 4.9988772060e+00 -1.9368286582e-03 2.4855305490e+00 -4.3050651946e+00 2.4855305490e+00 4.3050651946e+00 
48100 4.9988771026e+00 -1.9148917743e-03 2.4855695111e+00 -4.3051326790e+00 2.4855695111e+00 4.3051326790e+00 
48200 4.9988770119e+00 -1.8930703805e-03 2.4856080314e+00 -4.3051993981e+00 2.4856080314e+00 4.3051993981e+00 
48300 4.9988769332e+00 -1.8713678187e-03 2.4856461121e+00 -4.3052653559e+00 2.4856461121e+00 4.3052653559e+00 
48400 4.9988768661e+00 -1.8497872918e-03 2.4856837557e+00 -4.3053305565e+00 2.4856837557e+00 4.3053305565e+00 
48500 4.9988768100e+00 -1.8283318661e-03 2.4857209646e+00 -4.3053950042e+00 2.4857209646e+00 4.3053950042e+00 
48600 4.9988767644e+00 -1.8070044743e-03 2.4857577414e+00 -4.3054587035e+00 2.4857577414e+00 4.3054587035e+00 
48700 4.9988767287e+00 -1.7858079176e-03 2.4857940887e+00 -4.3055216587e+00 2.4857940887e+00 4.3055216587e+00 
48800 4.9988767025e+00 -1.7647448689e-03 2.4858300090e+00 -4.3055838746e+00 2.4858300090e+00 4.3055838746e+00 
48900 4.9988766853e+00 -1.7438178753e-03 2.4858655052e+00 -4.3056453558e+00 2.4858655052e+00 4.3056453558e+00 
49000 4.9988766766e+00 -1.7230293603e-03 2.4859005799e+00 -4.3057061070e+00 2.4859005799e+00 4.3057061070e+00 
49100 4.9988766760e+00 -1.7023816272e-03 2.4859352361e+00 -4.3057661332e+00 2.4859352361e+00 4.3057661332e+00 
49200 4.9988766831e+00 -1.6818768611e-03 2.4859694764e+00 -4.3058254392e+00 2.4859694764e+00 4.3058254392e+00 
49300 4.9988766975e+00 -1.6615171314e-03 2.4860033039e+00 -4.3058840301e+00 2.4860033039e+00 4.3058840301e+00 
49400 4.9988767187e+00 -1.6413043950e-03 2.4860367214e+00 -4.3059419109e+00 2.4860367214e+00 4.3059419109e+00 
49500 4.9988767464e+00 -1.6212404983e-03 2.4860697319e+00 -4.3059990868e+00 2.4860697319e+00 4.3059990868e+00 
49600 4.9988767803e+00 -1.6013271798e-03 2.4861023385e+00 -4.3060555631e+00 2.4861023385e+00 4.3060555631e+00 
49700 4.9988768200e+00 -1.5815660728e-03 2.4861345441e+00 -4.3061113449e+00 2.4861345441e+00 4.3061113449e+00 
49800 4.9988768651e+00 -1.5619587078e-03 2.4861663519e+00 -4.3061664376e+00 2.4861663519e+00 4.3061664376e+00 
49900 4.9988769153e+00 -1.5425065148e-03 2.4861977650e+00 -4.3062208466e+00 2.4861977650e+00 4.3062208466e+00 
50000 4.9988769704e+00 -1.5232108261e-03 2.4862287865e+00 -4.3062745774e+00 2.4862287865e+00 4.3062745774e+00 
50100 4.9988770300e+00 -1.5040728782e-03 2.4862594195e+00 -4.3063276353e+00 2.4862594195e+00 4.3063276353e+00 
50200 4.9988770939e+00 -1.4850938146e-03 2.4862896672e+00 -4.3063800260e+00 2.4862896672e+00 4.3063800260e+00 
50300 4.9988771618e+00 -1.4662746881e-03 2.4863195330e+00 -4.3064317550e+00 2.4863195330e+00 4.3064317550e+00 
50400 4.9988772333e+00 -1.4476164629e-03 2.4863490199e+00 -4.3064828278e+00 2.4863490199e+00 4.3064828278e+00 
50500 4.9988773083e+00 -1.4291200173e-03 2.4863781312e+00 -4.3065332501e+00 2.4863781312e+00 4.3065332501e+00 
50600 4.9988773866e+00 -1.4107861453e-03 2.4864068703e+00 -4.3065830276e+00 2.4864068703e+00 4.3065830276e+00 
50700 4.9988774678e+00 -1.3926155598e-03 2.4864352403e+00 -4.3066321659e+00 2.4864352403e+00 4.3066321659e+00 
50800 4.9988775519e+00 -1.3746088939e-03 2.4864632446e+00 -4.3066806708e+00 2.4864632446e+00 4.3066806708e+00 
50900 4.9988776384e+00 -1.3567667037e-03 2.4864908865e+00 -4.3067285480e+00 2.4864908865e+00 4.3067285480e+00 
51000 4.9988777274e+00 -1.3390894701e-03 2.4865181693e+00 -4.3067758032e+00 2.4865181693e+00 4.3067758032e+00 
51100 4.9988778185e+00 -1.3215776011e-03 2.4865450964e+00 -4.3068224422e+00 2.4865450964e+00 4.3068224422e+00 
51200 4.9988779116e+00 -1.3042314338e-03 2.4865716710e+00 -4.3068684708e+00 2.4865716710e+00 4.3068684708e+00 
51300 4.9988780065e+00 -1.2870512368e-03 2.4865978965e+00 -4.3069138948e+00 2.4865978965e+00 4.3069138948e+00 
51400 4.9988781030e+00 -1.2700372115e-03 2.4866237763e+00 -4.3069587199e+00 2.4866237763e+00 4.3069587199e+00 
51500 4.9988782010e+00 -1.2531894949e-03 2.4866493138e+00 -4.3070029521e+00 2.4866493138e+00 4.3070029521e+00 
51600 4.9988783003e+00 -1.2365081610e-03 2.4866745122e+00 -4.3070465970e+00 2.4866745122e+00 4.3070465970e+00 
51700 4.9988784009e+00 -1.2199932232e-03 2.4866993749e+00 -4.3070896605e+00 2.4866993749e+00 4.3070896605e+00 
51800 4.9988785024e+00 -1.2036446357e-03 2.4867239053e+00 -4.3071321484e+00 2.4867239053e+00 4.3071321484e+00 
51900 4.9988786048e+00 -1.1874622957e-03 2.4867481068e+00 -4.3071740665e+00 2.4867481068e+00 4.3071740665e+00 
52000 4.9988787081e+00 -1.1714460453e-03 2.4867719826e+00 -4.3072154207e+00 2.4867719826e+00 4.3072154207e+00 
52100 4.9988788119e+00 -1.1555956730e-03 2.4867955362e+00 -4.3072562167e+00 2.4867955362e+00 4.3072562167e+00 
52200 4.9988789163e+00 -1.1399109157e-03 2.4868187709e+00 -4.3072964603e+00 2.4868187709e+00 4.3072964603e+00 
52300 4.9988790212e+00 -1.1243914605e-03 2.4868416900e+00 -4.3073361574e+00 2.4868416900e+00 4.3073361574e+00 
52400 4.9988791263e+00 -1.1090369461e-03 2.4868642968e+00 -4.3073753136e+00 2.4868642968e+00 4.3073753136e+00 
52500 4.9988792317e+00 -1.0938469649e-03 2.4868865947e+00 -4.3074139347e+00 2.4868865947e+00 4.3074139347e+00 
52600 4.9988793373e+00 -1.0788210642e-03 2.4869085871e+00 -4.3074520266e+00 2.4869085871e+00 4.3074520266e+00 
52700 4.9988794428e+00 -1.0639587481e-03 2.4869302771e+00 -4.3074895948e+00 2.4869302771e+00 4.3074895948e+00 
52800 4.9988795484e+00 -1.0492594793e-03 2.4869516681e+00 -4.3075266452e+00 2.4869516681e+00 4.3075266452e+00 
52900 4.9988796538e+00 -1.0347226800e-03 2.4869727635e+00 -4.3075631833e+00 2.4869727635e+00 4.3075631833e+00 
53000 4.9988797590e+00 -1.0203477339e-03 2.4869935663e+00 -4.3075992150e+00 2.4869935663e+00 4.3075992150e+00 
53100 4.9988798640e+00 -1.0061339877e-03 2.4870140800e+00 -4.3076347458e+00 2.4870140800e+00 4.3076347458e+00 
53200 4.9988799686e+00 -9.9208075234e-04 2.4870343078e+00 -4.3076697813e+00 2.4870343078e+00 4.3076697813e+00 
53300 4.9988800728e+00 -9.7818730452e-04 2.4870542529e+00 -4.3077043272e+00 2.4870542529e+00 4.3077043272e+00 
53400 4.9988801766e+00 -9.6445288811e-04 2.4870739185e+00 -4.3077383890e+00 2.4870739185e+00 4.3077383890e+00 
53500 4.9988802798e+00 -9.5087671552e-04 2.4870933078e+00 -4.3077719724e+00 2.4870933078e+00 4.3077719724e+00 
53600 4.9988803825e+00 -9.3745796903e-04 2.4871124241e+00 -4.3078050827e+00 2.4871124241e+00 4.3078050827e+00 
53700 4.9988804846e+00 -9.2419580205e-04 2.4871312704e+00 -4.3078377255e+00 2.4871312704e+00 4.3078377255e+00 
53800 4.9988805861e+00 -9.1108934045e-04 2.4871498500e+00 -4.3078699063e+00 2.4871498500e+00 4.3078699063e+00 
53900 4.9988806868e+00 -8.9813768381e-04 2.4871681660e+00 -4.3079016304e+00 2.4871681660e+00 4.3079016304e+00 
54000 4.9988807868e+00 -8.8533990658e-04 2.4871862214e+00 -4.3079329034e+00 2.4871862214e+00 4.3079329034e+00 
54100 4.9988808860e+00 -8.7269505933e-04 2.4872040195e+00 -4.3079637305e+00 2.4872040195e+00 4.3079637305e+00 
54200 4.9988809844e+00 -8.6020216989e-04 2.4872215632e+00 -4.3079941171e+00 2.4872215632e+00 4.3079941171e+00 
54300 4.9988810819e+00 -8.4786024446e-04 2.4872388556e+00 -4.3080240685e+00 2.4872388556e+00 4.3080240685e+00 
54400 4.9988811786e+00 -8.3566826875e-04 2.4872558999e+00 -4.3080535900e+00 2.4872558999e+00 4.3080535900e+00 
54500 4.9988812744e+00 -8.2362520906e-04 2.4872726989e+00 -4.3080826867e+00 2.4872726989e+00 4.3080826867e+00 
54600 4.9988813692e+00 -8.1173001329e-04 2.4872892557e+00 -4.3081113640e+00 2.4872892557e+00 4.3081113640e+00 
54700 4.9988814631e+00 -7.9998161200e-04 2.4873055733e+00 -4.3081396268e+00 2.4873055733e+00 4.3081396268e+00 
54800 4.9988815560e+00 -7.8837891940e-04 2.4873216546e+00 -4.3081674805e+00 2.4873216546e+00 4.3081674805e+00 
54900 4.9988816479e+00 -7.7692083434e-04 2.4873375025e+00 -4.3081949300e+00 2.4873375025e+00 4.3081949300e+00 
55000 4.9988817388e+00 -7.6560624120e-04 2.4873531201e+00 -4.3082219803e+00 2.4873531201e+00 4.3082219803e+00 
55100 4.9988818286e+00 -7.5443401090e-04 2.4873685101e+00 -4.3082486366e+00 2.4873685101e+00 4.3082486366e+00 
55200 4.9988819175e+00 -7.4340300172e-04 2.4873836754e+00 -4.3082749037e+00 2.4873836754e+00 4.3082749037e+00 
55300 4.9988820052e+00 -7.3251206021e-04 2.4873986189e+00 -4.3083007866e+00 2.4873986189e+00 4.3083007866e+00 
55400 4.9988820919e+00 -7.2176002202e-04 2.4874133434e+00 -4.3083262901e+00 2.4874133434e+00 4.3083262901e+00 
55500 4.9988821776e+00 -7.1114571275e-04 2.4874278516e+00 -4.3083514191e+00 2.4874278516e+00 4.3083514191e+00 
55600 4.9988822621e+00 -7.0066794874e-04 2.4874421464e+00 -4.3083761785e+00 2.4874421464e+00 4.3083761785e+00 
55700 4.9988823456e+00 -6.9032553786e-04 2.4874562305e+00 -4.3084005729e+00 2.4874562305e+00 4.3084005729e+00 
55800 4.9988824279e+00 -6.8011728021e-04 2.4874701067e+00 -4.3084246071e+00 2.4874701067e+00 4.3084246071e+00 
55900 4.9988825092e+00 -6.7004196896e-04 2.4874837776e+00 -4.3084482857e+00 2.4874837776e+00 4.3084482857e+00 
56000 4.9988825894e+00 -6.6009839096e-04 2.4874972458e+00 -4.3084716135e+00 2.4874972458e+00 4.3084716135e+00 
56100 4.9988826684e+00 -6.5028532749e-04 2.4875105142e+00 -4.3084945949e+00 2.4875105142e+00 4.3084945949e+00 
56200 4.9988827464e+00 -6.4060155491e-04 2.4875235852e+00 -4.3085172346e+00 2.4875235852e+00 4.3085172346e+00 
56300 4.9988828232e+00 -6.3104584533e-04 2.4875364615e+00 -4.3085395370e+00 2.4875364615e+00 4.3085395370e+00 
56400 4.9988828989e+00 -6.2161696720e-04 2.4875491457e+00 -4.3085615066e+00 2.4875491457e+00 4.3085615066e+00 
56500 4.9988829735e+00 -6.1231368598e-04 2.4875616402e+00 -4.3085831479e+00 2.4875616402e+00 4.3085831479e+00 
56600 4.9988830470e+00 -6.0313476465e-04 2.4875739478e+00 -4.3086044651e+00 2.4875739478e+00 4.3086044651e+00 
56700 4.9988831195e+00 -5.9407896438e-04 2.4875860707e+00 -4.3086254627e+00 2.4875860707e+00 4.3086254627e+00 
56800 4.9988831908e+00 -5.8514504498e-04 2.4875980116e+00 -4.3086461449e+00 2.4875980116e+00 4.3086461449e+00 
56900 4.9988832610e+00 -5.7633176553e-04 2.4876097729e+00 -4.3086665160e+00 2.4876097729e+00 4.3086665160e+00 
57000 4.9988833301e+00 -5.6763788481e-04 2.4876213569e+00 -4.3086865802e+00 2.4876213569e+00 4.3086865802e+00 
57100 4.9988833982e+00 -5.5906216187e-04 2.4876327662e+00 -4.3087063416e+00 2.4876327662e+00 4.3087063416e+00 
57200 4.9988834652e+00 -5.5060335646e-04 2.4876440030e+00 -4.3087258044e+00 2.4876440030e+00 4.3087258044e+00 
57300 4.9988835311e+00 -5.4226022953e-04 2.4876550698e+00 -4.3087449726e+00 2.4876550698e+00 4.3087449726e+00 
57400 4.9988835959e+00 -5.3403154366e-04 2.4876659688e+00 -4.3087638502e+00 2.4876659688e+00 4.3087638502e+00 
57500 4.9988836597e+00 -5.2591606349e-04 2.4876767024e+00 -4.3087824414e+00 2.4876767024e+00 4.3087824414e+00 
57600 4.9988837224e+00 -5.1791255615e-04 2.4876872728e+00 -4.3088007499e+00 2.4876872728e+00 4.3088007499e+00 
57700 4.9988837841e+00 -5.1001979165e-04 2.4876976824e+00 -4.3088187797e+00 2.4876976824e+00 4.3088187797e+00 
57800 4.9988838448e+00 -5.0223654325e-04 2.4877079332e+00 -4.3088365347e+00 2.4877079332e+00 4.3088365347e+00 
57900 4.9988839045e+00 -4.9456158788e-04 2.4877180276e+00 -4.3088540187e+00 2.4877180276e+00 4.3088540187e+00 
58000 4.9988839631e+00 -4.8699370643e-04 2.4877279677e+00 -4.3088712354e+00 2.4877279677e+00 4.3088712354e+00 
58100 4.9988840207e+00 -4.7953168415e-04 2.4877377556e+00 -4.3088881886e+00 2.4877377556e+00 4.3088881886e+00 
58200 4.9988840774e+00 -4.7217431095e-04 2.4877473935e+00 -4.3089048819e+00 2.4877473935e+00 4.3089048819e+00 
58300 4.9988841330e+00 -4.6492038170e-04 2.4877568835e+00 -4.3089213191e+00 2.4877568835e+00 4.3089213191e+00 
58400 4.9988841877e+00 -4.5776869656e-04 2.4877662277e+00 -4.3089375037e+00 2.4877662277e+00 4.3089375037e+00 
58500 4.9988842415e+00 -4.5071806128e-04 2.4877754281e+00 -4.3089534393e+00 2.4877754281e+00 4.3089534393e+00 
58600 4.9988842943e+00 -4.4376728741e-04 2.4877844867e+00 -4.3089691293e+00 2.4877844867e+00 4.3089691293e+00 
58700 4.9988843461e+00 -4.3691519263e-04 2.4877934057e+00 -4.3089845774e+00 2.4877934057e+00 4.3089845774e+00 
58800 4.9988843970e+00 -4.3016060098e-04 2.4878021869e+00 -4.3089997868e+00 2.4878021869e+00 4.3089997868e+00 
58900 4.9988844470e+00 -4.2350234311e-04 2.4878108323e+00 -4.3090147611e+00 2.4878108323e+00 4.3090147611e+00 
59000 4.9988844961e+00 -4.1693925645e-04 2.4878193438e+00 -4.3090295035e+00 2.4878193438e+00 4.3090295035e+00 
59100 4.9988845443e+00 -4.1047018553e-04 2.4878277234e+00 -4.3090440174e+00 2.4878277234e+00 4.3090440174e+00 
59200 4.9988845917e+00 -4.0409398209e-04 2.4878359730e+00 -4.3090583061e+00 2.4878359730e+00 4.3090583061e+00 
59300 4.9988846381e+00 -3.9780950534e-04 2.4878440944e+00 -4.3090723728e+00 2.4878440944e+00 4.3090723728e+00 
59400 4.9988846837e+00 -3.9161562211e-04 2.4878520895e+00 -4.3090862207e+00 2.4878520895e+00 4.3090862207e+00 
59500 4.9988847285e+00 -3.8551120705e-04 2.4878599600e+00 -4.3090998529e+00 2.4878599600e+00 4.3090998529e+00 
59600 4.9988847724e+00 -3.7949514277e-04 2.4878677079e+00 -4.3091132726e+00 2.4878677079e+00 4.3091132726e+00 
59700 4.9988848155e+00 -3.7356632002e-04 2.4878753348e+00 -4.3091264828e+00 2.4878753348e+00 4.3091264828e+00 
59800 4.9988848578e+00 -3.6772363782e-04 2.4878828425e+00 -4.3091394866e+00 2.4878828425e+00 4.3091394866e+00 
59900 4.9988848992e+00 -3.6196600363e-04 2.4878902328e+00 -4.3091522869e+00 2.4878902328e+00 4.3091522869e+00 
60000 4.9988849399e+00 -3.5629233343e-04 2.4878975074e+00 -4.3091648868e+00 2.4878975074e+00 4.3091648868e+00 
60100 4.9988849799e+00 -3.5070155188e-04 2.4879046679e+00 -4.3091772892e+00 2.4879046679e+00 4.3091772892e+00 
60200 4.9988850190e+00 -3.4519259243e-04 2.4879117160e+00 -4.3091894969e+00 2.4879117160e+00 4.3091894969e+00 
60300 4.9988850574e+00 -3.3976439741e-04 2.4879186534e+00 -4.3092015129e+00 2.4879186534e+00 4.3092015129e+00 
60400 4.9988850951e+00 -3.3441591814e-04 2.4879254817e+00 -4.3092133398e+00 2.4879254817e+00 4.3092133398e+00 
60500 4.9988851320e+00 -3.2914611501e-04 2.4879322025e+00 -4.3092249805e+00 2.4879322025e+00 4.3092249805e+00 
60600 4.9988851682e+00 -3.2395395757e-04 2.4879388174e+00 -4.3092364378e+00 2.4879388174e+00 4.3092364378e+00 
60700 4.9988852037e+00 -3.1883842461e-04 2.4879453279e+00 -4.3092477143e+00 2.4879453279e+00 4.3092477143e+00 
60800 4.9988852386e+00 -3.1379850422e-04 2.4879517355e+00 -4.3092588127e+00 2.4879517355e+00 4.3092588127e+00 
60900 4.9988852727e+00 -3.0883319386e-04 2.4879580419e+00 -4.3092697357e+00 2.4879580419e+00 4.3092697357e+00 
61000 4.9988853062e+00 -3.0394150040e-04 2.4879642485e+00 -4.3092804857e+00 2.4879642485e+00 4.3092804857e+00 
61100 4.9988853390e+00 -2.9912244020e-04 2.4879703567e+00 -4.3092910655e+00 2.4879703567e+00 4.3092910655e+00 
61200 4.9988853711e+00 -2.9437503913e-04 2.4879763681e+00 -4.3093014775e+00 2.4879763681e+00 4.3093014775e+00 
61300 4.9988854026e+00 -2.8969833261e-04 2.4879822840e+00 -4.3093117243e+00 2.4879822840e+00 4.3093117243e+00 
61400 4.9988854335e+00 -2.8509136565e-04 2.4879881060e+00 -4.3093218082e+00 2.4879881060e+00 4.3093218082e+00 
61500 4.9988854638e+00 -2.8055319288e-04 2.4879938353e+00 -4.3093317317e+00 2.4879938353e+00 4.3093317317e+00 
61600 4.9988854935e+00 -2.7608287856e-04 2.4879994735e+00 -4.3093414973e+00 2.4879994735e+00 4.3093414973e+00 
61700 4.9988855225e+00 -2.7167949660e-04 2.4880050218e+00 -4.3093511072e+00 2.4880050218e+00 4.3093511072e+00 
61800 4.9988855510e+00 -2.6734213059e-04 2.4880104816e+00 -4.3093605638e+00 2.4880104816e+00 4.3093605638e+00 
61900 4.9988855789e+00 -2.6306987377e-04 2.4880158542e+00 -4.3093698695e+00 2.4880158542e+00 4.3093698695e+00 
62000 4.9988856063e+00 -2.5886182906e-04 2.4880211409e+00 -4.3093790264e+00 2.4880211409e+00 4.3093790264e+00 
62100 4.9988856330e+00 -2.5471710909e-04 2.4880263431e+00 -4.3093880368e+00 2.4880263431e+00 4.3093880368e+00 
62200 4.9988856593e+00 -2.5063483610e-04 2.4880314619e+00 -4.3093969029e+00 2.4880314619e+00 4.3093969029e+00 
62300 4.9988856850e+00 -2.4661414203e-04 2.4880364988e+00 -4.3094056269e+00 2.4880364988e+00 4.3094056269e+00 
62400 4.9988857102e+00 -2.4265416844e-04 2.4880414548e+00 -4.3094142110e+00 2.4880414548e+00 4.3094142110e+00 
62500 4.9988857349e+00 -2.3875406654e-04 2.4880463312e+00 -4.3094226572e+00 2.4880463312e+00 4.3094226572e+00 
62600 4.9988857590e+00 -2.3491299711e-04 2.4880511292e+00 -4.3094309676e+00 2.4880511292e+00 4.3094309676e+00 
62700 4.9988857827e+00 -2.3113013056e-04 2.4880558500e+00 -4.3094391443e+00 2.4880558500e+00 4.3094391443e+00 
62800 4.9988858059e+00 -2.2740464680e-04 2.4880604948e+00 -4.3094471893e+00 2.4880604948e+00 4.3094471893e+00 
62900 4.9988858286e+00 -2.2373573530e-04 2.4880650647e+00 -4.3094551047e+00 2.4880650647e+00 4.3094551047e+00 
63000 4.9988858508e+00 -2.2012259499e-04 2.4880695609e+00 -4.3094628923e+00 2.4880695609e+00 4.3094628923e+00 
63100 4.9988858726e+00 -2.1656443428e-04 2.4880739845e+00 -4.3094705541e+00 2.4880739845e+00 4.3094705541e+00 
63200 4.9988858939e+00 -2.1306047097e-04 2.4880783365e+00 -4.3094780921e+00 2.4880783365e+00 4.3094780921e+00 
63300 4.9988859148e+00 -2.0960993223e-04 2.4880826182e+00 -4.3094855081e+00 2.4880826182e+00 4.3094855081e+00 
63400 4.9988859353e+00 -2.0621205455e-04 2.4880868304e+00 -4.3094928040e+00 2.4880868304e+00 4.3094928040e+00 
63500 4.9988859553e+00 -2.0286608372e-04 2.4880909744e+00 -4.3094999816e+00 2.4880909744e+00 4.3094999816e+00 
63600 4.9988859749e+00 -1.9957127472e-04 2.4880950512e+00 -4.3095070427e+00 2.4880950512e+00 4.3095070427e+00 
63700 4.9988859941e+00 -1.9632689172e-04 2.4880990617e+00 -4.3095139891e+00 2.4880990617e+00 4.3095139891e+00 
63800 4.9988860129e+00 -1.9313220803e-04 2.4881030070e+00 -4.3095208226e+00 2.4881030070e+00 4.3095208226e+00 
63900 4.9988860313e+00 -1.8998650598e-04 2.4881068881e+00 -4.3095275449e+00 2.4881068881e+00 4.3095275449e+00 
64000 4.9988860493e+00 -1.8688907695e-04 2.4881107060e+00 -4.3095341577e+00 2.4881107060e+00 4.3095341577e+00 
64100 4.9988860669e+00 -1.8383922123e-04 2.4881144617e+00 -4.3095406626e+00 2.4881144617e+00 4.3095406626e+00 
64200 4.9988860842e+00 -1.8083624802e-04 2.4881181560e+00 -4.3095470614e+00 2.4881181560e+00 4.3095470614e+00 
64300 4.9988861011e+00 -1.7787947533e-04 2.4881217900e+00 -4.3095533557e+00 2.4881217900e+00 4.3095533557e+00 
64400 4.9988861177e+00 -1.7496822992e-04 2.4881253646e+00 -4.3095595471e+00 2.4881253646e+00 4.3095595471e+00 
64500 4.9988861339e+00 -1.7210184726e-04 2.4881288807e+00 -4.3095656371e+00 2.4881288807e+00 4.3095656371e+00 
64600 4.9988861497e+00 -1.6927967142e-04 2.4881323391e+00 -4.3095716273e+00 2.4881323391e+00 4.3095716273e+00 
64700 4.9988861653e+00 -1.6650105505e-04 2.4881357409e+00 -4.3095775193e+00 2.4881357409e+00 4.3095775193e+00 
64800 4.9988861805e+00 -1.6376535927e-04 2.4881390868e+00 -4.3095833146e+00 2.4881390868e+00 4.3095833146e+00 
64900 4.9988861953e+00 -1.6107195362e-04 2.4881423777e+00 -4.3095890146e+00 2.4881423777e+00 4.3095890146e+00 
65000 4.9988862099e+00 -1.5842021597e-04 2.4881456145e+00 -4.3095946209e+00 2.4881456145e+00 4.3095946209e+00 
65100 4.9988862242e+00 -1.5580953247e-04 2.4881487980e+00 -4.3096001349e+00 2.4881487980e+00 4.3096001349e+00 
65200 4.9988862381e+00 -1.5323929748e-04 2.4881519290e+00 -4.3096055580e+00 2.4881519290e+00 4.3096055580e+00 
65300 4.9988862518e+00 -1.5070891346e-04 2.4881550084e+00 -4.3096108916e+00 2.4881550084e+00 4.3096108916e+00 
65400 4.9988862651e+00 -1.4821779092e-04 2.4881580369e+00 -4.3096161372e+00 2.4881580369e+00 4.3096161372e+00 
65500 4.9988862782e+00 -1.4576534835e-04 2.4881610154e+00 -4.3096212960e+00 2.4881610154e+00 4.3096212960e+00 
65600 4.9988862910e+00 -1.4335101214e-04 2.4881639446e+00 -4.3096263695e+00 2.4881639446e+00 4.3096263695e+00 
65700 4.9988863035e+00 -1.4097421648e-04 2.4881668252e+00 -4.3096313590e+00 2.4881668252e+00 4.3096313590e+00 
65800 4.9988863158e+00 -1.3863440331e-04 2.4881696581e+00 -4.3096362657e+00 2.4881696581e+00 4.3096362657e+00 
65900 4.9988863278e+00 -1.3633102223e-04 2.4881724440e+00 -4.3096410910e+00 2.4881724440e+00 4.3096410910e+00 
66000 4.9988863396e+00 -1.3406353043e-04 2.4881751836e+00 -4.3096458361e+00 2.4881751836e+00 4.3096458361e+00 
66100 4.9988863511e+00 -1.3183139260e-04 2.4881778776e+00 -4.3096505022e+00 2.4881778776e+00 4.3096505022e+00 
66200 4.9988863623e+00 -1.2963408087e-04 2.4881805267e+00 -4.3096550907e+00 2.4881805267e+00 4.3096550907e+00 
66300 4.9988863733e+00 -1.2747107469e-04 2.4881831317e+00 -4.3096596027e+00 2.4881831317e+00 4.3096596027e+00 
66400 4.9988863841e+00 -1.2534186081e-04 2.4881856933e+00 -4.3096640394e+00 2.4881856933e+00 4.3096640394e+00 
66500 4.9988863947e+00 -1.2324593314e-04 2.4881882120e+00 -4.3096684020e+00 2.4881882120e+00 4.3096684020e+00 
66600 4.9988864050e+00 -1.2118279274e-04 2.4881906886e+00 -4.3096726916e+00 2.4881906886e+00 4.3096726916e+00 
66700 4.9988864151e+00 -1.1915194766e-04 2.4881931238e+00 -4.3096769094e+00 2.4881931238e+00 4.3096769094e+00 
66800 4.9988864250e+00 -1.1715291293e-04 2.4881955181e+00 -4.3096810566e+00 2.4881955181e+00 4.3096810566e+00 
66900 4.9988864347e+00 -1.1518521044e-04 2.4881978723e+00 -4.3096851341e+00 2.4881978723e+00 4.3096851341e+00 
67000 4.9988864441e+00 -1.1324836887e-04 2.4882001869e+00 -4.3096891432e+00 2.4882001869e+00 4.3096891432e+00 
67100 4.9988864534e+00 -1.1134192363e-04 2.4882024626e+00 -4.3096930848e+00 2.4882024626e+00 4.3096930848e+00 
67200 4.9988864625e+00 -1.0946541674e-04 2.4882047000e+00 -4.3096969601e+00 2.4882047000e+00 4.3096969601e+00 
67300 4.9988864714e+00 -1.0761839681e-04 2.4882068997e+00 -4.3097007701e+00 2.4882068997e+00 4.3097007701e+00 
67400 4.9988864801e+00 -1.0580041889e-04 2.4882090623e+00 -4.3097045157e+00 2.4882090623e+00 4.3097045157e+00 
67500 4.9988864886e+00 -1.0401104447e-04 2.4882111883e+00 -4.3097081981e+00 2.4882111883e+00 4.3097081981e+00 
67600 4.9988864969e+00 -1.0224984132e-04 2.4882132784e+00 -4.3097118183e+00 2.4882132784e+00 4.3097118183e+00 
67700 4.9988865050e+00 -1.0051638349e-04 2.4882153331e+00 -4.3097153771e+00 2.4882153331e+00 4.3097153771e+00 
67800 4.9988865130e+00 -9.8810251175e-05 2.4882173529e+00 -4.3097188756e+00 2.4882173529e+00 4.3097188756e+00 
67900 4.9988865208e+00 -9.7131030667e-05 2.4882193385e+00 -4.3097223147e+00 2.4882193385e+00 4.3097223147e+00 
68000 4.9988865285e+00 -9.5478314269e-05 2.4882212903e+00 -4.3097256953e+00 2.4882212903e+00 4.3097256953e+00 
68100 4.9988865359e+00 -9.3851700226e-05 2.4882232089e+00 -4.3097290184e+00 2.4882232089e+00 4.3097290184e+00 
68200 4.9988865433e+00 -9.2250792634e-05 2.4882250948e+00 -4.3097322849e+00 2.4882250948e+00 4.3097322849e+00 
68300 4.9988865504e+00 -9.0675201383e-05 2.4882269486e+00 -4.3097354957e+00 2.4882269486e+00 4.3097354957e+00 
68400 4.9988865574e+00 -8.9124542074e-05 2.4882287707e+00 -4.3097386517e+00 2.4882287707e+00 4.3097386517e+00 
68500 4.9988865643e+00 -8.7598435939e-05 2.4882305616e+00 -4.3097417536e+00 2.4882305616e+00 4.3097417536e+00 
68600 4.9988865710e+00 -8.6096509777e-05 2.4882323219e+00 -4.3097448025e+00 2.4882323219e+00 4.3097448025e+00 
68700 4.9988865776e+00 -8.4618395874e-05 2.4882340519e+00 -4.3097477991e+00 2.4882340519e+00 4.3097477991e+00 
68800 4.9988865840e+00 -8.3163731935e-05 2.4882357523e+00 -4.3097507442e+00 2.4882357523e+00 4.3097507442e+00 
68900 4.9988865903e+00 -8.1732161008e-05 2.4882374234e+00 -4.3097536387e+00 2.4882374234e+00 4.3097536387e+00 
69000 4.9988865965e+00 -8.0323331413e-05 2.4882390658e+00 -4.3097564834e+00 2.4882390658e+00 4.3097564834e+00 
69100 4.9988866025e+00 -7.8936896673e-05 2.4882406799e+00 -4.3097592790e+00 2.4882406799e+00 4.3097592790e+00 
69200 4.9988866084e+00 -7.7572515440e-05 2.4882422661e+00 -4.3097620264e+00 2.4882422661e+00 4.3097620264e+00 
69300 4.9988866142e+00 -7.6229851427e-05 2.4882438249e+00 -4.3097647263e+00 2.4882438249e+00 4.3097647263e+00 
69400 4.9988866198e+00 -7.4908573345e-05 2.4882453567e+00 -4.3097673794e+00 2.4882453567e+00 4.3097673794e+00 
69500 4.9988866254e+00 -7.3608354820e-05 2.4882468619e+00 -4.3097699866e+00 2.4882468619e+00 4.3097699866e+00 
69600 4.9988866308e+00 -7.2328874335e-05 2.4882483410e+00 -4.3097725485e+00 2.4882483410e+00 4.3097725485e+00 
69700 4.9988866361e+00 -7.1069815168e-05 2.4882497944e+00 -4.3097750659e+00 2.4882497944e+00 4.3097750659e+00 
69800 4.9988866413e+00 -6.9830865306e-05 2.4882512225e+00 -4.3097775394e+00 2.4882512225e+00 4.3097775394e+00 
69900 4.9988866464e+00 -6.9569694204e-05 2.4882512225e+00 -4.3097775394e+00 2.4882512225e+00 4.3097775394e+00 
70000 4.9988866515e+00 -6.9319028152e-05 2.4882512225e+00 -4.3097775394e+00 2.4882512225e+00 4.3097775394e+00 
70100 4.9988866564e+00 -6.9078530322e-05 2.4882512225e+00 -4.3097775394e+00 2.4882512225e+00 4.3097775394e+00 
70200 4.9988866613e+00 -6.8847869209e-05 2.4882512225e+00 -4.3097775394e+00 2.4882512225e+00 4.3097775394e+00 
70300 4.9988866660e+00 -6.8626718787e-05 2.4882512225e+00 -4.3097775394e+00 2.4882512225e+00 4.3097775394e+00 
70400 4.9988866706e+00 -6.8414758637e-05 2.4882512225e+00 -4.3097775394e+00 2.4882512225e+00 4.3097775394e+00 
70500 4.9988866752e+00 -6.8211674064e-05 2.4882512225e+00 -4.3097775394e+00 2.4882512225e+00 4.3097775394e+00 
70600 4.9988866796e+00 -6.8017156204e-05 2.4882512225e+00 -4.3097775394e+00 2.4882512225e+00 4.3097775394e+00 
70700 4.9988866840e+00 -6.7830902106e-05 2.4882512225e+00 -4.3097775394e+00 2.4882512225e+00 4.3097775394e+00 
70800 4.9988866882e+00 -6.7652614815e-05 2.4882512225e+00 -4.3097775394e+00 2.4882512225e+00 4.3097775394e+00 
70900 4.9988866924e+00 -6.7482003432e-05 2.4882512225e+00 -4.3097775394e+00 2.4882512225e+00 4.3097775394e+00 
71000 4.9988866965e+00 -6.7318783164e-05 2.4882512225e+00 -4.3097775394e+00 2.4882512225e+00 4.3097775394e+00 
71100 4.9988867004e+00 -6.7162675366e-05 2.4882512225e+00 -4.3097775394e+00 2.4882512225e+00 4.3097775394e+00 
71200 4.9988867044e+00 -6.7013407569e-05 2.4882512225e+00 -4.3097775394e+00 2.4882512225e+00 4.3097775394e+00 
71300 4.9988867082e+00 -6.6870713505e-05 2.4882512225e+00 -4.3097775394e+00 2.4882512225e+00 4.3097775394e+00 
71400 4.9988867119e+00 -6.6734333109e-05 2.4882512225e+00 -4.3097775394e+00 2.4882512225e+00 4.3097775394e+00 
71500 4.9988867156e+00 -6.6604012522e-05 2.4882512225e+00 -4.3097775394e+00 2.4882512225e+00 4.3097775394e+00 
71600 4.9988867192e+00 -6.6479504092e-05 2.4882512225e+00 -4.3097775394e+00 2.4882512225e+00 4.3097775394e+00 
71700 4.9988867227e+00 -6.6360566345e-05 2.4882512225e+00 -4.3097775394e+00 2.4882512225e+00 4.3097775394e+00 
71800 4.9988867261e+00 -6.6246963974e-05 2.4882512225e+00 -4.3097775394e+00 2.4882512225e+00 4.3097775394e+00 
71900 4.9988867295e+00 -6.6138467805e-05 2.4882512225e+00 -4.3097775394e+00 2.4882512225e+00 4.3097775394e+00 
72000 4.9988867328e+00 -6.6034854757e-05 2.4882512225e+00 -4.3097775394e+00 2.4882512225e+00 4.3097775394e+00 
72100 4.9988867360e+00 -6.5935907807e-05 2.4882512225e+00 -4.3097775394e+00 2.4882512225e+00 4.3097775394e+00 
72200 4.9988867392e+00 -6.5841415937e-05 2.4882512225e+00 -4.3097775394e+00 2.4882512225e+00 4.3097775394e+00 
72300 4.9988867423e+00 -6.5751174084e-05 2.4882512225e+00 -4.3097775394e+00 2.4882512225e+00 4.3097775394e+00 
72400 4.9988867453e+00 -6.5664983076e-05 2.4882512225e+00 -4.3097775394e+00 2.4882512225e+00 4.3097775394e+00 
72500 4.9988867483e+00 -6.5582649577e-05 2.4882512225e+00 -4.3097775394e+00 2.4882512225e+00 4.3097775394e+00 
72600 4.9988867512e+00 -6.5503986014e-05 2.4882512225e+00 -4.3097775394e+00 2.4882512225e+00 4.3097775394e+00 
72700 4.9988867540e+00 -6.5428810511e-05 2.4882512225e+00 -4.3097775394e+00 2.4882512225e+00 4.3097775394e+00 
72800 4.9988867568e+00 -6.5356946809e-05 2.4882512225e+00 -4.3097775394e+00 2.4882512225e+00 4.3097775394e+00 
72900 4.9988867596e+00 -6.5288224195e-05 2.4882512225e+00 -4.3097775394e+00 2.4882512225e+00 4.3097775394e+00 
73000 4.9988867622e+00 -6.5222477414e-05 2.4882512225e+00 -4.3097775394e+00 2.4882512225e+00 4.3097775394e+00 
73100 4.9988867649e+00 -6.5159546592e-05 2.4882512225e+00 -4.3097775394e+00 2.4882512225e+00 4.3097775394e+00 
73200 4.9988867674e+00 -6.5099277148e-05 2.4882512225e+00 -4.3097775394e+00 2.4882512225e+00 4.3097775394e+00 
73300 4.9988867700e+00 -6.5041519704e-05 2.4882512225e+00 -4.3097775394e+00 2.4882512225e+00 4.3097775394e+00 
73400 4.9988867724e+00 -6.4986129999e-05 2.4882512225e+00 -4.3097775394e+00 2.4882512225e+00 4.3097775394e+00 
73500 4.9988867748e+00 -6.4932968796e-05 2.4882512225e+00 -4.3097775394e+00 2.4882512225e+00 4.3097775394e+00 
73600 4.9988867772e+00 -6.4881901785e-05 2.4882512225e+00 -4.3097775394e+00 2.4882512225e+00 4.3097775394e+00 
73700 4.9988867795e+00 -6.4832799497e-05 2.4882512225e+00 -4.3097775394e+00 2.4882512225e+00 4.3097775394e+00 
73800 4.9988867818e+00 -6.4785537201e-05 2.4882512225e+00 -4.3097775394e+00 2.4882512225e+00 4.3097775394e+00 
73900 4.9988867840e+00 -6.4739994810e-05 2.4882512225e+00 -4.3097775394e+00 2.4882512225e+00 4.3097775394e+00 
74000 4.9988867862e+00 -6.4696056788e-05 2.4882512225e+00 -4.3097775394e+00 2.4882512225e+00 4.3097775394e+00 
74100 4.9988867883e+00 -6.4653612045e-05 2.4882512225e+00 -4.3097775394e+00 2.4882512225e+00 4.3097775394e+00 
74200 4.9988867904e+00 -6.4612553846e-05 2.4882512225e+00 -4.3097775394e+00 2.4882512225e+00 4.3097775394e+00 
74300 4.9988867925e+00 -6.4572779710e-05 2.4882512225e+00 -4.3097775394e+00 2.4882512225e+00 4.3097775394e+00 
74400 4.9988867945e+00 -6.4534191310e-05 2.4882512225e+00 -4.3097775394e+00 2.4882512225e+00 4.3097775394e+00 
74500 4.9988867964e+00 -6.4496694376e-05 2.4882512225e+00 -4.3097775394e+00 2.4882512225e+00 4.3097775394e+00 
74600 4.9988867984e+00 -6.4460198601e-05 2.4882512225e+00 -4.3097775394e+00 2.4882512225e+00 4.3097775394e+00 
74700 4.9988868002e+00 -6.4424617537e-05 2.4882512225e+00 -4.3097775394e+00 2.4882512225e+00 4.3097775394e+00 
74800 4.9988868021e+00 -6.4389868501e-05 2.4882512225e+00 -4.3097775394e+00 2.4882512225e+00 4.3097775394e+00 
74900 4.9988868039e+00 -6.4355872475e-05 2.4882512225e+00 -4.3097775394e+00 2.4882512225e+00 4.3097775394e+00 
75000 4.9988868057e+00 -6.4322554017e-05 2.4882512225e+00 -4.3097775394e+00 2.4882512225e+00 4.3097775394e+00 
75100 4.9988868074e+00 -6.4289841157e-05 2.4882512225e+00 -4.3097775394e+00 2.4882512225e+00 4.3097775394e+00 
75200 4.9988868091e+00 -6.4257665305e-05 2.4882512225e+00 -4.3097775394e+00 2.4882512225e+00 4.3097775394e+00 
75300 4.9988868108e+00 -6.4225961159e-05 2.4882512225e+00 -4.3097775394e+00 2.4882512225e+00 4.3097775394e+00 
75400 4.9988868125e+00 -6.4194666611e-05 2.4882512225e+00 -4.3097775394e+00 2.4882512225e+00 4.3097775394e+00 
75500 4.9988868141e+00 -6.4163722653e-05 2.4882512225e+00 -4.3097775394e+00 2.4882512225e+00 4.3097775394e+00 
75600 4.9988868156e+00 -6.4133073288e-05 2.4882512225e+00 -4.3097775394e+00 2.4882512225e+00 4.3097775394e+00 
75700 4.9988868172e+00 -6.4102665440e-05 2.4882512225e+00 -4.3097775394e+00 2.4882512225e+00 4.3097775394e+00 
75800 4.9988868187e+00 -6.4072448864e-05 2.4882512225e+00 -4.3097775394e+00 2.4882512225e+00 4.3097775394e+00 
75900 4.9988868202e+00 -6.4042376060e-05 2.4882512225e+00 -4.3097775394e+00 2.4882512225e+00 4.3097775394e+00 
76000 4.9988868216e+00 -6.4012402184e-05 2.4882512225e+00 -4.3097775394e+00 2.4882512225e+00 4.3097775394e+00 
76100 4.9988868231e+00 -6.3982484967e-05 2.4882512225e+00 -4.3097775394e+00 2.4882512225e+00 4.3097775394e+00 
76200 4.9988868245e+00 -6.3952584628e-05 2.4882512225e+00 -4.3097775394e+00 2.4882512225e+00 4.3097775394e+00 
76300 4.9988868258e+00 -6.3922663794e-05 2.4882512225e+00 -4.3097775394e+00 2.4882512225e+00 4.3097775394e+00 
76400 4.9988868272e+00 -6.3892687419e-05 2.4882512225e+00 -4.3097775394e+00 2.4882512225e+00 4.3097775394e+00 
76500 4.9988868285e+00 -6.3862622701e-05 2.4882512225e+00 -4.3097775394e+00 2.4882512225e+00 4.3097775394e+00 
76600 4.9988868298e+00 -6.3832439009e-05 2.4882512225e+00 -4.3097775394e+00 2.4882512225e+00 4.3097775394e+00 
76700 4.9988868311e+00 -6.3802107804e-05 2.4882512225e+00 -4.3097775394e+00 2.4882512225e+00 4.3097775394e+00 
76800 4.9988868323e+00 -6.3771602562e-05 2.4882512225e+00 -4.3097775394e+00 2.4882512225e+00 4.3097775394e+00 
76900 4.9988868335e+00 -6.3740898706e-05 2.4882512225e+00 -4.3097775394e+00 2.4882512225e+00 4.3097775394e+00 
77000 4.9988868347e+00 -6.3709973530e-05 2.4882512225e+00 -4.3097775394e+00 2.4882512225e+00 4.3097775394e+00 
77100 4.9988868359e+00 -6.3678806126e-05 2.4882512225e+00 -4.3097775394e+00 2.4882512225e+00 4.3097775394e+00 
77200 4.9988868371e+00 -6.3647377322e-05 2.4882512225e+00 -4.3097775394e+00 2.4882512225e+00 4.3097775394e+00 
77300 4.9988868382e+00 -6.3615669608e-05 2.4882512225e+00 -4.3097775394e+00 2.4882512225e+00 4.3097775394e+00 
77400 4.9988868393e+00 -6.3583667074e-05 2.4882512225e+00 -4.3097775394e+00 2.4882512225e+00 4.3097775394e+00 
77500 4.9988868404e+00 -6.3551355344e-05 2.4882512225e+00 -4.3097775394e+00 2.4882512225e+00 4.3097775394e+00 
77600 4.9988868414e+00 -6.3518721514e-05 2.4882512225e+00 -4.3097775394e+00 2.4882512225e+00 4.3097775394e+00 
77700 4.9988868425e+00 -6.3485754089e-05 2.4882512225e+00 -4.3097775394e+00 2.4882512225e+00 4.3097775394e+00 
77800 4.9988868435e+00 -6.3452442925e-05 2.4882512225e+00 -4.3097775394e+00 2.4882512225e+00 4.3097775394e+00 
77900 4.9988868445e+00 -6.3418779169e-05 2.4882512225e+00 -4.3097775394e+00 2.4882512225e+00 4.3097775394e+00 
78000 4.9988868455e+00 -6.3384755203e-05 2.4882512225e+00 -4.3097775394e+00 2.4882512225e+00 4.3097775394e+00 
78100 4.9988868465e+00 -6.3350364590e-05 2.4882512225e+00 -4.3097775394e+00 2.4882512225e+00 4.3097775394e+00 
78200 4.9988868474e+00 -6.3315602018e-05 2.4882512225e+00 -4.3097775394e+00 2.4882512225e+00 4.3097775394e+00 
78300 4.9988868484e+00 -6.3280463248e-05 2.4882512225e+00 -4.3097775394e+00 2.4882512225e+00 4.3097775394e+00 
78400 4.9988868493e+00 -6.3244945062e-05 2.4882512225e+00 -4.3097775394e+00 2.4882512225e+00 4.3097775394e+00 
78500 4.9988868502e+00 -6.3209045218e-05 2.4882512225e+00 -4.3097775394e+00 2.4882512225e+00 4.3097775394e+00 
78600 4.9988868510e+00 -6.3172762397e-05 2.4882512225e+00 -4.3097775394e+00 2.4882512225e+00 4.3097775394e+00 
78700 4.9988868519e+00 -6.3136096156e-05 2.4882512225e+00 -4.3097775394e+00 2.4882512225e+00 4.3097775394e+00 
78800 4.9988868528e+00 -6.3099046888e-05 2.4882512225e+00 -4.3097775394e+00 2.4882512225e+00 4.3097775394e+00 
78900 4.9988868536e+00 -6.3061615772e-05 2.4882512225e+00 -4.3097775394e+00 2.4882512225e+00 4.3097775394e+00 
79000 4.9988868544e+00 -6.3023804735e-05 2.4882512225e+00 -4.3097775394e+00 2.4882512225e+00 4.3097775394e+00 
79100 4.9988868552e+00 -6.2985616407e-05 2.4882512225e+00 -4.3097775394e+00 2.4882512225e+00 4.3097775394e+00 
79200 4.9988868560e+00 -6.2947054082e-05 2.4882512225e+00 -4.3097775394e+00 2.4882512225e+00 4.3097775394e+00 
79300 4.9988868568e+00 -6.2908121685e-05 2.4882512225e+00 -4.3097775394e+00 2.4882512225e+00 4.3097775394e+00 
79400 4.9988868575e+00 -6.2868823721e-05 2.4882512225e+00 -4.3097775394e+00 2.4882512225e+00 4.3097775394e+00 
79500 4.9988868583e+00 -6.2829165256e-05 2.4882512225e+00 -4.3097775394e+00 2.4882512225e+00 4.3097775394e+00 
79600 4.9988868590e+00 -6.2789151868e-05 2.4882512225e+00 -4.3097775394e+00 2.4882512225e+00 4.3097775394e+00 
79700 4.9988868597e+00 -6.2748789619e-05 2.4882512225e+00 -4.3097775394e+00 2.4882512225e+00 4.3097775394e+00 
79800 4.9988868604e+00 -6.2708085023e-05 2.4882512225e+00 -4.3097775394e+00 2.4882512225e+00 4.3097775394e+00 
79900 4.9988868611e+00 -6.2667045014e-05 2.4882512225e+00 -4.3097775394e+00 2.4882512225e+00 4.3097775394e+00 
80000 4.9988868618e+00 -6.2625676913e-05 2.4882512225e+00 -4.3097775394e+00 2.4882512225e+00 4.3097775394e+00 
80100 4.9988868624e+00 -6.2583988402e-05 2.4882512225e+00 -4.3097775394e+00 2.4882512225e+00 4.3097775394e+00 
80200 4.9988868631e+00 -6.2541987496e-05 2.4882512225e+00 -4.3097775394e+00 2.4882512225e+00 4.3097775394e+00 
80300 4.9988868637e+00 -6.2499682512e-05 2.4882512225e+00 -4.3097775394e+00 2.4882512225e+00 4.3097775394e+00 
80400 4.9988868644e+00 -6.2457082046e-05 2.4882512225e+00 -4.3097775394e+00 2.4882512225e+00 4.3097775394e+00 
80500 4.9988868650e+00 -6.2414194950e-05 2.4882512225e+00 -4.3097775394e+00 2.4882512225e+00 4.3097775394e+00 
80600 4.9988868656e+00 -6.2371030302e-05 2.4882512225e+00 -4.3097775394e+00 2.4882512225e+00 4.3097775394e+00 
80700 4.9988868662e+00 -6.2327597390e-05 2.4882512225e+00 -4.3097775394e+00 2.4882512225e+00 4.3097775394e+00 
80800 4.9988868668e+00 -6.2283905681e-05 2.4882512225e+00 -4.3097775394e+00 2.4882512225e+00 4.3097775394e+00 
80900 4.9988868673e+00 -6.2239964810e-05 2.4882512225e+00 -4.3097775394e+00 2.4882512225e+00 4.3097775394e+00 
81000 4.9988868679e+00 -6.2195784551e-05 2.4882512225e+00 -4.3097775394e+00 2.4882512225e+00 4.3097775394e+00 
81100 4.9988868685e+00 -6.2151374804e-05 2.4882512225e+00 -4.3097775394e+00 2.4882512225e+00 4.3097775394e+00 
81200 4.9988868690e+00 -6.2106745572e-05 2.4882512225e+00 -4.3097775394e+00 2.4882512225e+00 4.3097775394e+00 
81300 4.9988868695e+00 -6.2061906943e-05 2.4882512225e+00 -4.3097775394e+00 2.4882512225e+00 4.3097775394e+00 
81400 4.9988868701e+00 -6.2016869079e-05 2.4882512225e+00 -4.3097775394e+00 2.4882512225e+00 4.3097775394e+00 
81500 4.9988868706e+00 -6.1971642192e-05 2.4882512225e+00 -4.3097775394e+00 2.4882512225e+00 4.3097775394e+00 
81600 4.9988868711e+00 -6.1926236532e-05 2.4882512225e+00 -4.3097775394e+00 2.4882512225e+00 4.3097775394e+00 
81700 4.9988868716e+00 -6.1880662375e-05 2.4882512225e+00 -4.3097775394e+00 2.4882512225e+00 4.3097775394e+00 
81800 4.9988868721e+00 -6.1834930004e-05 2.4882512225e+00 -4.3097775394e+00 2.4882512225e+00 4.3097775394e+00 
81900 4.9988868726e+00 -6.1789049700e-05 2.4882512225e+00 -4.3097775394e+00 2.4882512225e+00 4.3097775394e+00 
82000 4.9988868730e+00 -6.1743031727e-05 2.4882512225e+00 -4.3097775394e+00 2.4882512225e+00 4.3097775394e+00 
82100 4.9988868735e+00 -6.1696886319e-05 2.4882512225e+00 -4.3097775394e+00 2.4882512225e+00 4.3097775394e+00 
82200 4.9988868739e+00 -6.1650623672e-05 2.4882512225e+00 -4.3097775394e+00 2.4882512225e+00 4.3097775394e+00 
82300 4.9988868744e+00 -6.1604253932e-05 2.4882512225e+00 -4.3097775394e+00 2.4882512225e+00 4.3097775394e+00 
82400 4.9988868748e+00 -6.1557787183e-05 2.4882512225e+00 -4.3097775394e+00 2.4882512225e+00 4.3097775394e+00 
82500 4.9988868753e+00 -6.1511233439e-05 2.4882512225e+00 -4.3097775394e+00 2.4882512225e+00 4.3097775394e+00 
82600 4.9988868757e+00 -6.1464602637e-05 2.4882512225e+00 -4.3097775394e+00 2.4882512225e+00 4.3097775394e+00 
82700 4.9988868761e+00 -6.1417904625e-05 2.4882512225e+00 -4.3097775394e+00 2.4882512225e+00 4.3097775394e+00 
82800 4.9988868765e+00 -6.1371149156e-05 2.4882512225e+00 -4.3097775394e+00 2.4882512225e+00 4.3097775394e+00 
82900 4.9988868769e+00 -6.1324345881e-05 2.4882512225e+00 -4.3097775394e+00 2.4882512225e+00 4.3097775394e+00 
83000 4.9988868773e+00 -6.1277504340e-05 2.4882512225e+00 -4.3097775394e+00 2.4882512225e+00 4.3097775394e+00 
83100 4.9988868777e+00 -6.1230633959e-05 2.4882512225e+00 -4.3097775394e+00 2.4882512225e+00 4.3097775394e+00 
83200 4.9988868781e+00 -6.1183744040e-05 2.4882512225e+00 -4.3097775394e+00 2.4882512225e+00 4.3097775394e+00 
83300 4.9988868784e+00 -6.1136843759e-05 2.4882512225e+00 -4.3097775394e+00 2.4882512225e+00 4.3097775394e+00 
83400 4.9988868788e+00 -6.1089942159e-05 2.4882512225e+00 -4.3097775394e+00 2.4882512225e+00 4.3097775394e+00 
83500 4.9988868792e+00 -6.1043048146e-05 2.4882512225e+00 -4.3097775394e+00 2.4882512225e+00 4.3097775394e+00 
83600 4.9988868795e+00 -6.0996170483e-05 2.4882512225e+00 -4.3097775394e+00 2.4882512225e+00 4.3097775394e+00 
83700 4.9988868799e+00 -6.0949317789e-05 2.4882512225e+00 -4.3097775394e+00 2.4882512225e+00 4.3097775394e+00 
83800 4.9988868802e+00 -6.0902498533e-05 2.4882512225e+00 -4.3097775394e+00 2.4882512225e+00 4.3097775394e+00 
83900 4.9988868806e+00 -6.0855721032e-05 2.4882512225e+00 -4.3097775394e+00 2.4882512225e+00 4.3097775394e+00 
84000 4.9988868809e+00 -6.0808993447e-05 2.4882512225e+00 -4.3097775394e+00 2.4882512225e+00 4.3097775394e+00 
84100 4.9988868812e+00 -6.0762323781e-05 2.4882512225e+00 -4.3097775394e+00 2.4882512225e+00 4.3097775394e+00 
84200 4.9988868815e+00 -6.0715719877e-05 2.4882512225e+00 -4.3097775394e+00 2.4882512225e+00 4.3097775394e+00 
84300 4.9988868818e+00 -6.0669189418e-05 2.4882512225e+00 -4.3097775394e+00 2.4882512225e+00 4.3097775394e+00 
84400 4.9988868822e+00 -6.0622739918e-05 2.4882512225e+00 -4.3097775394e+00 2.4882512225e+00 4.3097775394e+00 
84500 4.9988868825e+00 -6.0576378731e-05 2.4882512225e+00 -4.3097775394e+00 2.4882512225e+00 4.3097775394e+00 
84600 4.9988868828e+00 -6.0530113040e-05 2.4882512225e+00 -4.3097775394e+00 2.4882512225e+00 4.3097775394e+00 
84700 4.9988868830e+00 -6.0483949865e-05 2.4882512225e+00 -4.3097775394e+00 2.4882512225e+00 4.3097775394e+00 
84800 4.9988868833e+00 -6.0437896052e-05 2.4882512225e+00 -4.3097775394e+00 2.4882512225e+00 4.3097775394e+00 
84900 4.9988868836e+00 -6.0391958283e-05 2.4882512225e+00 -4.3097775394e+00 2.4882512225e+00 4.3097775394e+00 
85000 4.9988868839e+00 -6.0346143069e-05 2.4882512225e+00 -4.3097775394e+00 2.4882512225e+00 4.3097775394e+00 
85100 4.9988868842e+00 -6.0300456751e-05 2.4882512225e+00 -4.3097775394e+00 2.4882512225e+00 4.3097775394e+00 
85200 4.9988868844e+00 -6.0254905503e-05 2.4882512225e+00 -4.3097775394e+00 2.4882512225e+00 4.3097775394e+00 
85300 4.9988868847e+00 -6.0209495330e-05 2.4882512225e+00 -4.3097775394e+00 2.4882512225e+00 4.3097775394e+00 
85400 4.9988868850e+00 -6.0164232066e-05 2.4882512225e+00 -4.3097775394e+00 2.4882512225e+00 4.3097775394e+00 
85500 4.9988868852e+00 -6.0119121378e-05 2.4882512225e+00 -4.3097775394e+00 2.4882512225e+00 4.3097775394e+00 
85600 4.9988868855e+00 -6.0074168770e-05 2.4882512225e+00 -4.3097775394e+00 2.4882512225e+00 4.3097775394e+00 
85700 4.9988868857e+00 -6.0029379574e-05 2.4882512225e+00 -4.3097775394e+00 2.4882512225e+00 4.3097775394e+00 
85800 4.9988868860e+00 -5.9984758962e-05 2.4882512225e+00 -4.3097775394e+00 2.4882512225e+00 4.3097775394e+00 
85900 4.9988868862e+00 -5.9940311938e-05 2.4882512225e+00 -4.3097775394e+00 2.4882512225e+00 4.3097775394e+00 
86000 4.9988868864e+00 -5.9896043346e-05 2.4882512225e+00 -4.3097775394e+00 2.4882512225e+00 4.3097775394e+00 
86100 4.9988868867e+00 -5.9851957869e-05 2.4882512225e+00 -4.3097775394e+00 2.4882512225e+00 4.3097775394e+00 
86200 4.9988868869e+00 -5.9808060028e-05 2.4882512225e+00 -4.3097775394e+00 2.4882512225e+00 4.3097775394e+00 
86300 4.9988868871e+00 -5.9764354188e-05 2.4882512225e+00 -4.3097775394e+00 2.4882512225e+00 4.3097775394e+00 
86400 4.9988868873e+00 -5.9720844556e-05 2.4882512225e+00 -4.3097775394e+00 2.4882512225e+00 4.3097775394e+00 
86500 4.9988868876e+00 -5.9677535186e-05 2.4882512225e+00 -4.3097775394e+00 2.4882512225e+00 4.3097775394e+00 
86600 4.9988868878e+00 -5.9634429979e-05 2.4882512225e+00 -4.3097775394e+00 2.4882512225e+00 4.3097775394e+00 
86700 4.9988868880e+00 -5.9591532683e-05 2.4882512225e+00 -4.3097775394e+00 2.4882512225e+00 4.3097775394e+00 
86800 4.9988868882e+00 -5.9548846901e-05 2.4882512225e+00 -4.3097775394e+00 2.4882512225e+00 4.3097775394e+00 
86900 4.9988868884e+00 -5.9506376085e-05 2.4882512225e+00 -4.3097775394e+00 2.4882512225e+00 4.3097775394e+00 
87000 4.9988868886e+00 -5.9464123545e-05 2.4882512225e+00 -4.3097775394e+00 2.4882512225e+00 4.3097775394e+00 
87100 4.9988868888e+00 -5.9422092448e-05 2.4882512225e+00 -4.3097775394e+00 2.4882512225e+00 4.3097775394e+00 
87200 4.9988868890e+00 -5.9380285822e-05 2.4882512225e+00 -4.3097775394e+00 2.4882512225e+00 4.3097775394e+00 
87300 4.9988868892e+00 -5.9338706554e-05 2.4882512225e+00 -4.3097775394e+00 2.4882512225e+00 4.3097775394e+00 
87400 4.9988868894e+00 -5.9297357397e-05 2.4882512225e+00 -4.3097775394e+00 2.4882512225e+00 4.3097775394e+00 
87500 4.9988868895e+00 -5.9256240971e-05 2.4882512225e+00 -4.3097775394e+00 2.4882512225e+00 4.3097775394e+00 
87600 4.9988868897e+00 -5.9215359764e-05 2.4882512225e+00 -4.3097775394e+00 2.4882512225e+00 4.3097775394e+00 
87700 4.9988868899e+00 -5.9174716137e-05 2.4882512225e+00 -4.3097775394e+00 2.4882512225e+00 4.3097775394e+00 
87800 4.9988868901e+00 -5.9134312322e-05 2.4882512225e+00 -4.3097775394e+00 2.4882512225e+00 4.3097775394e+00 
87900 4.9988868902e+00 -5.9094150429e-05 2.4882512225e+00 -4.3097775394e+00 2.4882512225e+00 4.3097775394e+00 
88000 4.9988868904e+00 -5.9054232448e-05 2.4882512225e+00 -4.3097775394e+00 2.4882512225e+00 4.3097775394e+00 
88100 4.9988868906e+00 -5.9014560247e-05 2.4882512225e+00 -4.3097775394e+00 2.4882512225e+00 4.3097775394e+00 
88200 4.9988868907e+00 -5.8975135579e-05 2.4882512225e+00 -4.3097775394e+00 2.4882512225e+00 4.3097775394e+00 
88300 4.9988868909e+00 -5.8935960082e-05 2.4882512225e+00 -4.3097775394e+00 2.4882512225e+00 4.3097775394e+00 
88400 4.9988868911e+00 -5.8897035283e-05 2.4882512225e+00 -4.3097775394e+00 2.4882512225e+00 4.3097775394e+00 
88500 4.9988868912e+00 -5.8858362602e-05 2.4882512225e+00 -4.3097775394e+00 2.4882512225e+00 4.3097775394e+00 
88600 4.9988868914e+00 -5.8819943349e-05 2.4882512225e+00 -4.3097775394e+00 2.4882512225e+00 4.3097775394e+00 
88700 4.9988868915e+00 -5.8781778730e-05 2.4882512225e+00 -4.3097775394e+00 2.4882512225e+00 4.3097775394e+00 
88800 4.9988868917e+00 -5.8743869852e-05 2.4882512225e+00 -4.3097775394e+00 2.4882512225e+00 4.3097775394e+00 
88900 4.9988868918e+00 -5.8706217720e-05 2.4882512225e+00 -4.3097775394e+00 2.4882512225e+00 4.3097775394e+00 
89000 4.9988868919e+00 -5.8668823242e-05 2.4882512225e+00 -4.3097775394e+00 2.4882512225e+00 4.3097775394e+00 
89100 4.9988868921e+00 -5.8631687233e-05 2.4882512225e+00 -4.3097775394e+00 2.4882512225e+00 4.3097775394e+00 
89200 4.9988868922e+00 -5.8594810415e-05 2.4882512225e+00 -4.3097775394e+00 2.4882512225e+00 4.3097775394e+00 
89300 4.9988868924e+00 -5.8558193419e-05 2.4882512225e+00 -4.3097775394e+00 2.4882512225e+00 4.3097775394e+00 
89400 4.9988868925e+00 -5.8521836790e-05 2.4882512225e+00 -4.3097775394e+00 2.4882512225e+00 4.3097775394e+00 
89500 4.9988868926e+00 -5.8485740988e-05 2.4882512225e+00 -4.3097775394e+00 2.4882512225e+00 4.3097775394e+00 
89600 4.9988868928e+00 -5.8449906388e-05 2.4882512225e+00 -4.3097775394e+00 2.4882512225e+00 4.3097775394e+00 
89700 4.9988868929e+00 -5.8414333288e-05 2.4882512225e+00 -4.3097775394e+00 2.4882512225e+00 4.3097775394e+00 
89800 4.9988868930e+00 -5.8379021903e-05 2.4882512225e+00 -4.3097775394e+00 2.4882512225e+00 4.3097775394e+00 
89900 4.9988868931e+00 -5.8343972377e-05 2.4882512225e+00 -4.3097775394e+00 2.4882512225e+00 4.3097775394e+00 
90000 4.9988868933e+00 -5.8309184775e-05 2.4882512225e+00 -4.3097775394e+00 2.4882512225e+00 4.3097775394e+00 
90100 4.9988868934e+00 -5.8274659094e-05 2.4882512225e+00 -4.3097775394e+00 2.4882512225e+00 4.3097775394e+00 
90200 4.9988868935e+00 -5.8240395258e-05 2.4882512225e+00 -4.3097775394e+00 2.4882512225e+00 4.3097775394e+00 
90300 4.9988868936e+00 -5.8206393128e-05 2.4882512225e+00 -4.3097775394e+00 2.4882512225e+00 4.3097775394e+00 
90400 4.9988868937e+00 -5.8172652496e-05 2.4882512225e+00 -4.3097775394e+00 2.4882512225e+00 4.3097775394e+00 
90500 4.9988868938e+00 -5.8139173091e-05 2.4882512225e+00 -4.3097775394e+00 2.4882512225e+00 4.3097775394e+00 
90600 4.9988868939e+00 -5.8105954582e-05 2.4882512225e+00 -4.3097775394e+00 2.4882512225e+00 4.3097775394e+00 
90700 4.9988868941e+00 -5.8072996578e-05 2.4882512225e+00 -4.3097775394e+00 2.4882512225e+00 4.3097775394e+00 
90800 4.9988868942e+00 -5.8040298630e-05 2.4882512225e+00 -4.3097775394e+00 2.4882512225e+00 4.3097775394e+00 
90900 4.9988868943e+00 -5.8007860233e-05 2.4882512225e+00 -4.3097775394e+00 2.4882512225e+00 4.3097775394e+00 
91000 4.9988868944e+00 -5.7975680832e-05 2.4882512225e+00 -4.3097775394e+00 2.4882512225e+00 4.3097775394e+00 
91100 4.9988868945e+00 -5.7943759814e-05 2.4882512225e+00 -4.3097775394e+00 2.4882512225e+00 4.3097775394e+00 
91200 4.9988868946e+00 -5.7912096523e-05 2.4882512225e+00 -4.3097775394e+00 2.4882512225e+00 4.3097775394e+00 
91300 4.9988868947e+00 -5.7880690250e-05 2.4882512225e+00 -4.3097775394e+00 2.4882512225e+00 4.3097775394e+00 
91400 4.9988868948e+00 -5.7849540239e-05 2.4882512225e+00 -4.3097775394e+00 2.4882512225e+00 4.3097775394e+00 
91500 4.9988868949e+00 -5.7818645695e-05 2.4882512225e+00 -4.3097775394e+00 2.4882512225e+00 4.3097775394e+00 
91600 4.9988868950e+00 -5.7788005775e-05 2.4882512225e+00 -4.3097775394e+00 2.4882512225e+00 4.3097775394e+00 
91700 4.9988868950e+00 -5.7757619595e-05 2.4882512225e+00 -4.3097775394e+00 2.4882512225e+00 4.3097775394e+00 
91800 4.9988868951e+00 -5.7727486233e-05 2.4882512225e+00 -4.3097775394e+00 2.4882512225e+00 4.3097775394e+00 
91900 4.9988868952e+00 -5.7697604727e-05 2.4882512225e+00 -4.3097775394e+00 2.4882512225e+00 4.3097775394e+00 
92000 4.9988868953e+00 -5.7667974083e-05 2.4882512225e+00 -4.3097775394e+00 2.4882512225e+00 4.3097775394e+00 
92100 4.9988868954e+00 -5.7638593265e-05 2.4882512225e+00 -4.3097775394e+00 2.4882512225e+00 4.3097775394e+00 
92200 4.9988868955e+00 -5.7609461208e-05 2.4882512225e+00 -4.3097775394e+00 2.4882512225e+00 4.3097775394e+00 
92300 4.9988868956e+00 -5.7580576814e-05 2.4882512225e+00 -4.3097775394e+00 2.4882512225e+00 4.3097775394e+00 
92400 4.9988868957e+00 -5.7551938953e-05 2.4882512225e+00 -4.3097775394e+00 2.4882512225e+00 4.3097775394e+00 
92500 4.9988868957e+00 -5.7523546467e-05 2.4882512225e+00 -4.3097775394e+00 2.4882512225e+00 4.3097775394e+00 
92600 4.9988868958e+00 -5.7495398171e-05 2.4882512225e+00 -4.3097775394e+00 2.4882512225e+00 4.3097775394e+00 
92700 4.9988868959e+00 -5.7467492849e-05 2.4882512225e+00 -4.3097775394e+00 2.4882512225e+00 4.3097775394e+00 
92800 4.9988868960e+00 -5.7439829265e-05 2.4882512225e+00 -4.3097775394e+00 2.4882512225e+00 4.3097775394e+00 
92900 4.9988868960e+00 -5.7412406155e-05 2.4882512225e+00 -4.3097775394e+00 2.4882512225e+00 4.3097775394e+00 
93000 4.9988868961e+00 -5.7385222232e-05 2.4882512225e+00 -4.3097775394e+00 2.4882512225e+00 4.3097775394e+00 
93100 4.9988868962e+00 -5.7358276191e-05 2.4882512225e+00 -4.3097775394e+00 2.4882512225e+00 4.3097775394e+00 
93200 4.9988868963e+00 -5.7331566702e-05 2.4882512225e+00 -4.3097775394e+00 2.4882512225e+00 4.3097775394e+00 
93300 4.9988868963e+00 -5.7305092419e-05 2.4882512225e+00 -4.3097775394e+00 2.4882512225e+00 4.3097775394e+00 
93400 4.9988868964e+00 -5.7278851974e-05 2.4882512225e+00 -4.3097775394e+00 2.4882512225e+00 4.3097775394e+00 
93500 4.9988868965e+00 -5.7252843986e-05 2.4882512225e+00 -4.3097775394e+00 2.4882512225e+00 4.3097775394e+00 
93600 4.9988868965e+00 -5.7227067054e-05 2.4882512225e+00 -4.3097775394e+00 2.4882512225e+00 4.3097775394e+00 
93700 4.9988868966e+00 -5.7201519763e-05 2.4882512225e+00 -4.3097775394e+00 2.4882512225e+00 4.3097775394e+00 
93800 4.9988868967e+00 -5.7176200684e-05 2.4882512225e+00 -4.3097775394e+00 2.4882512225e+00 4.3097775394e+00 
93900 4.9988868967e+00 -5.7151108375e-05 2.4882512225e+00 -4.3097775394e+00 2.4882512225e+00 4.3097775394e+00 
94000 4.9988868968e+00 -5.7126241380e-05 2.4882512225e+00 -4.3097775394e+00 2.4882512225e+00 4.3097775394e+00 
94100 4.9988868969e+00 -5.7101598233e-05 2.4882512225e+00 -4.3097775394e+00 2.4882512225e+00 4.3097775394e+00 
94200 4.9988868969e+00 -5.7077177457e-05 2.4882512225e+00 -4.3097775394e+00 2.4882512225e+00 4.3097775394e+00 
94300 4.9988868970e+00 -5.7052977565e-05 2.4882512225e+00 -4.3097775394e+00 2.4882512225e+00 4.3097775394e+00 
94400 4.9988868971e+00 -5.7028997060e-05 2.4882512225e+00 -4.3097775394e+00 2.4882512225e+00 4.3097775394e+00 
94500 4.9988868971e+00 -5.7005234438e-05 2.4882512225e+00 -4.3097775394e+00 2.4882512225e+00 4.3097775394e+00 
94600 4.9988868972e+00 -5.6981688189e-05 2.4882512225e+00 -4.3097775394e+00 2.4882512225e+00 4.3097775394e+00 
94700 4.9988868972e+00 -5.6958356793e-05 2.4882512225e+00 -4.3097775394e+00 2.4882512225e+00 4.3097775394e+00 
94800 4.9988868973e+00 -5.6935238726e-05 2.4882512225e+00 -4.3097775394e+00 2.4882512225e+00 4.3097775394e+00 
94900 4.9988868973e+00 -5.6912332459e-05 2.4882512225e+00 -4.3097775394e+00 2.4882512225e+00 4.3097775394e+00 
95000 4.9988868974e+00 -5.6889636457e-05 2.4882512225e+00 -4.3097775394e+00 2.4882512225e+00 4.3097775394e+00 
95100 4.9988868975e+00 -5.6867149180e-05 2.4882512225e+00 -4.3097775394e+00 2.4882512225e+00 4.3097775394e+00 
95200 4.9988868975e+00 -5.6844869090e-05 2.4882512225e+00 -4.3097775394e+00 2.4882512225e+00 4.3097775394e+00 
95300 4.9988868976e+00 -5.6822794641e-05 2.4882512225e+00 -4.3097775394e+00 2.4882512225e+00 4.3097775394e+00 
95400 4.9988868976e+00 -5.6800924286e-05 2.4882512225e+00 -4.3097775394e+00 2.4882512225e+00 4.3097775394e+00 
95500 4.9988868977e+00 -5.6779256477e-05 2.4882512225e+00 -4.3097775394e+00 2.4882512225e+00 4.3097775394e+00 
95600 4.9988868977e+00 -5.6757789666e-05 2.4882512225e+00 -4.3097775394e+00 2.4882512225e+00 4.3097775394e+00 
95700 4.9988868978e+00 -5.6736522303e-05 2.4882512225e+00 -4.3097775394e+00 2.4882512225e+00 4.3097775394e+00 
95800 4.9988868978e+00 -5.6715452838e-05 2.4882512225e+00 -4.3097775394e+00 2.4882512225e+00 4.3097775394e+00 
95900 4.9988868979e+00 -5.6694579723e-05 2.4882512225e+00 -4.3097775394e+00 2.4882512225e+00 4.3097775394e+00 
96000 4.9988868979e+00 -5.6673901408e-05 2.4882512225e+00 -4.3097775394e+00 2.4882512225e+00 4.3097775394e+00 
96100 4.9988868980e+00 -5.6653416347e-05 2.4882512225e+00 -4.3097775394e+00 2.4882512225e+00 4.3097775394e+00 
96200 4.9988868980e+00 -5.6648121696e-05 2.4882512225e+00 -4.3097775394e+00 2.4882512225e+00 4.3097775394e+00 
96200 4.9988868980e+00 -5.6648121696e-05 2.4882512225e+00 -4.3097775394e+00 2.4882512225e+00 4.3097775394e+00 
