# step Hamiltonian StressXX CellTensor1 CellTensor2 CellTensor3 CellTensor4 
0 5.7114116072e+00 2.3245149564e-01 2.8237630504e+00 -4.8909010719e+00 2.8237630504e+00 4.8909010719e+00 
100 5.7005408287e+00 2.7237685353e-01 2.8237630504e+00 -4.8909010719e+00 2.8237630504e+00 4.8909010719e+00 
200 5.6918864252e+00 3.0952488491e-01 2.8189414847e+00 -4.8825498750e+00 2.8189414847e+00 4.8825498750e+00 
300 5.6858383297e+00 3.4359782676e-01 2.8134531796e+00 -4.8730438517e+00 2.8134531796e+00 4.8730438517e+00 
400 5.6821818920e+00 3.7484119811e-01 2.8073490569e+00 -4.8624712012e+00 2.8073490569e+00 4.8624712012e+00 
500 5.6807374063e+00 4.0354781216e-01 2.8006756389e+00 -4.8509125020e+00 2.8006756389e+00 4.8509125020e+00 
600 5.6813340568e+00 4.3003404267e-01 2.7934742631e+00 -4.8384393534e+00 2.7934742631e+00 4.8384393534e+00 
700 5.6837868076e+00 4.5461123458e-01 2.7857806893e+00 -4.8251136926e+00 2.7857806893e+00 4.8251136926e+00 
800 5.6878742018e+00 4.7754887279e-01 2.7776251898e+00 -4.8109879531e+00 2.7776251898e+00 4.8109879531e+00 
900 5.6933123382e+00 4.9901982657e-01 2.7690332857e+00 -4.7961063387e+00 2.7690332857e+00 4.7961063387e+00 
1000 5.6997169286e+00 5.1900828565e-01 2.7600274659e+00 -4.7805078012e+00 2.7600274659e+00 4.7805078012e+00 
1100 5.7065423496e+00 5.3715020153e-01 2.7506305919e+00 -4.7642319380e+00 2.7506305919e+00 4.7642319380e+00 
1200 5.7129895066e+00 5.5248037286e-01 2.7408722609e+00 -4.7473300129e+00 2.7408722609e+00 4.7473300129e+00 
1300 5.7179008207e+00 5.6313726874e-01 2.7307999102e+00 -4.7298841897e+00 2.7307999102e+00 4.7298841897e+00 
1400 5.7197439453e+00 5.6634005995e-01 2.7204955751e+00 -4.7120365578e+00 2.7204955751e+00 4.7120365578e+00 
1500 5.7169140517e+00 5.5935337394e-01 2.7100934715e+00 -4.6940195860e+00 2.7100934715e+00 4.6940195860e+00 
1600 5.7085028025e+00 5.4176770954e-01 2.6997802291e+00 -4.6761565260e+00 2.6997802291e+00 4.6761565260e+00 
1700 5.6950280963e+00 5.1712150132e-01 2.6897529150e+00 -4.6587887086e+00 2.6897529150e+00 4.6587887086e+00 
1800 5.6781780826e+00 4.9100519296e-01 2.6801458546e+00 -4.6421487918e+00 2.6801458546e+00 4.6421487918e+00 
1900 5.6597443069e+00 4.6741618636e-01 2.6709910441e+00 -4.6262921950e+00 2.6709910441e+00 4.6262921950e+00 
2000 5.6409165756e+00 4.4751341632e-01 2.6622459727e+00 -4.6111452870e+00 2.6622459727e+00 4.6111452870e+00 
2100 5.6222843799e+00 4.3074719914e-01 2.6538455994e+00 -4.5965954136e+00 2.6538455994e+00 4.5965954136e+00 
2200 5.6040908478e+00 4.1614293848e-01 2.6457342197e+00 -4.5825460918e+00 2.6457342197e+00 4.5825460918e+00 
2300 5.5864252332e+00 4.0288729405e-01 2.6378737143e+00 -4.5689312972e+00 2.6378737143e+00 4.5689312972e+00 
2400 5.5693167521e+00 3.9044023627e-01 2.6302408179e+00 -4.5557107327e+00 2.6302408179e+00 4.5557107327e+00 
2500 5.5527721768e+00 3.7848112479e-01 2.6228221799e+00 -4.5428612748e+00 2.6228221799e+00 4.5428612748e+00 
2600 5.5367895809e+00 3.6683265229e-01 2.6156103468e+00 -4.5303700134e+00 2.6156103468e+00 4.5303700134e+00 
2700 5.5213632098e+00 3.5540289780e-01 2.6086011166e+00 -4.5182296706e+00 2.6086011166e+00 4.5182296706e+00 
2800 5.5064852334e+00 3.4414827532e-01 2.6017919535e+00 -4.5064358541e+00 2.6017919535e+00 4.5064358541e+00 
2900 5.4921464260e+00 3.3305157680e-01 2.5951810847e+00 -4.4949854936e+00 2.5951810847e+00 4.4949854936e+00 
3000 5.4783364764e+00 3.2210945131e-01 2.5887670046e+00 -4.4838759809e+00 2.5887670046e+00 4.4838759809e+00 
3100 5.4650441709e+00 3.1132542482e-01 2.5825482115e+00 -4.4731047154e+00 2.5825482115e+00 4.4731047154e+00 
3200 5.4522575320e+00 3.0070607581e-01 2.5765230764e+00 -4.4626688752e+00 2.5765230764e+00 4.4626688752e+00 
3300 5.4399639416e+00 2.9025897988e-01 2.5706897829e+00 -4.4525653144e+00 2.5706897829e+00 4.4525653144e+00 
3400 5.4281502570e+00 2.7999163676e-01 2.5650463072e+00 -4.4427905278e+00 2.5650463072e+00 4.4427905278e+00 
3500 5.4168029221e+00 2.6991093861e-01 2.5595904187e+00 -4.4333406518e+00 2.5595904187e+00 4.4333406518e+00 
3600 5.4059080740e+00 2.6002293369e-01 2.5543196910e+00 -4.4242114836e+00 2.5543196910e+00 4.4242114836e+00 
3700 5.3954516422e+00 2.5033274878e-01 2.5492315181e+00 -4.4153985096e+00 2.5492315181e+00 4.4153985096e+00 
3800 5.3854194411e+00 2.4084459448e-01 2.5443231323e+00 -4.4068969361e+00 2.5443231323e+00 4.4068969361e+00 
3900 5.3757972542e+00 2.3156181165e-01 2.5395916228e+00 -4.3987017211e+00 2.5395916228e+00 4.3987017211e+00 
4000 5.3665709090e+00 2.2248693593e-01 2.5350339529e+00 -4.3908076053e+00 2.5350339529e+00 4.3908076053e+00 
4100 5.3577263438e+00 2.1362176813e-01 2.5306469774e+00 -4.3832091409e+00 2.5306469774e+00 4.3832091409e+00 
4200 5.3492496653e+00 2.0496744393e-01 2.5264274579e+00 -4.3759007186e+00 2.5264274579e+00 4.3759007186e+00 
4300 5.3411271973e+00 1.9652449975e-01 2.5223720771e+00 -4.3688765931e+00 2.5223720771e+00 4.3688765931e+00 
4400 5.3333455223e+00 1.8829293343e-01 2.5184774527e+00 -4.3621309058e+00 2.5184774527e+00 4.3621309058e+00 
4500 5.3258915148e+00 1.8027225924e-01 2.5147401494e+00 -4.3556577066e+00 2.5147401494e+00 4.3556577066e+00 
4600 5.3187523682e+00 1.7246155753e-01 2.5111566902e+00 -4.3494509732e+00 2.5111566902e+00 4.3494509732e+00 
4700 5.3119156155e+00 1.6485951918e-01 2.5077235672e+00 -4.3435046297e+00 2.5077235672e+00 4.3435046297e+00 
4800 5.3053691445e+00 1.5746448554e-01 2.5044372509e+00 -4.3378125629e+00 2.5044372509e+00 4.3378125629e+00 
4900 5.2991012082e+00 1.5027448419e-01 2.5012941995e+00 -4.3323686381e+00 2.5012941995e+00 4.3323686381e+00 
5000 5.2931004312e+00 1.4328726127e-01 2.4982908668e+00 -4.3271667134e+00 2.4982908668e+00 4.3271667134e+00 
5100 5.2873558120e+00 1.3650031050e-01 2.4954237103e+00 -4.3222006527e+00 2.4954237103e+00 4.3222006527e+00 
5200 5.2818567234e+00 1.2991089970e-01 2.4926891978e+00 -4.3174643381e+00 2.4926891978e+00 4.3174643381e+00 
5300 5.2765929091e+00 1.2351609482e-01 2.4900838140e+00 -4.3129516810e+00 2.4900838140e+00 4.3129516810e+00 
5400 5.2715544791e+00 1.1731278208e-01 2.4876040667e+00 -4.3086566327e+00 2.4876040667e+00 4.3086566327e+00 
5500 5.2667319033e+00 1.1129768825e-01 2.4852464924e+00 -4.3045731941e+00 2.4852464924e+00 4.3045731941e+00 
5600 5.2621160037e+00 1.0546739951e-01 2.4830076609e+00 -4.3006954243e+00 2.4830076609e+00 4.3006954243e+00 
5700 5.2576979457e+00 9.9818378947e-02 2.4808841807e+00 -4.2970174487e+00 2.4808841807e+00 4.2970174487e+00 
5800 5.2534692285e+00 9.4346982921e-02 2.4788727028e+00 -4.2935334667e+00 2.4788727028e+00 4.2935334667e+00 
5900 5.2494216757e+00 8.9049476366e-02 2.4769699245e+00 -4.2902377580e+00 2.4769699245e+00 4.2902377580e+00 
6000 5.2455474244e+00 8.3922047206e-02 2.4751725935e+00 -4.2871246894e+00 2.4751725935e+00 4.2871246894e+00 
6100 5.2418389157e+00 7.8960819921e-02 2.4734775104e+00 -4.2841887195e+00 2.4734775104e+00 4.2841887195e+00 
6200 5.2382888838e+00 7.4161868355e-02 2.4718815323e+00 -4.2814244042e+00 2.4718815323e+00 4.2814244042e+00 
6300 5.2348903462e+00 6.9521227811e-02 2.4703815744e+00 -4.2788264010e+00 2.4703815744e+00 4.2788264010e+00 
6400 5.2316365936e+00 6.5034906485e-02 2.4689746131e+00 -4.2763894726e+00 2.4689746131e+00 4.2763894726e+00 
6500 5.2285211802e+00 6.0698896258e-02 2.4676576875e+00 -4.2741084904e+00 2.4676576875e+00 4.2741084904e+00 
6600 5.2255379145e+00 5.6509182886e-02 2.4664279008e+00 -4.2719784373e+00 2.4664279008e+00 4.2719784373e+00 
6700 5.2226808499e+00 5.2461755592e-02 2.4652824222e+00 -4.2699944102e+00 2.4652824222e+00 4.2699944102e+00 
6800 5.2199442763e+00 4.8552616090e-02 2.4642184877e+00 -4.2681516216e+00 2.4642184877e+00 4.2681516216e+00 
6900 5.2173227116e+00 4.4777787041e-02 2.4632334009e+00 -4.2664454013e+00 2.4632334009e+00 4.2664454013e+00 
7000 5.2148108937e+00 4.1133319950e-02 2.4623245339e+00 -4.2648711975e+00 2.4623245339e+00 4.2648711975e+00 
7100 5.2124037731e+00 3.7615302522e-02 2.4614893273e+00 -4.2634245772e+00 2.4614893273e+00 4.2634245772e+00 
7200 5.2100965054e+00 3.4219865478e-02 2.4607252908e+00 -4.2621012271e+00 2.4607252908e+00 4.2621012271e+00 
7300 5.2078844444e+00 3.0943188833e-02 2.4600300028e+00 -4.2608969530e+00 2.4600300028e+00 4.2608969530e+00 
7400 5.2057631354e+00 2.7781507655e-02 2.4594011107e+00 -4.2598076799e+00 2.4594011107e+00 4.2598076799e+00 
7500 5.2037283089e+00 2.4731117310e-02 2.4588363300e+00 -4.2588294511e+00 2.4588363300e+00 4.2588294511e+00 
7600 5.2017758746e+00 2.1788378194e-02 2.4583334443e+00 -4.2579584275e+00 2.4583334443e+00 4.2579584275e+00 
7700 5.1999019152e+00 1.8949719985e-02 2.4578903042e+00 -4.2571908863e+00 2.4578903042e+00 4.2571908863e+00 
7800 5.1981026813e+00 1.6211645400e-02 2.4575048268e+00 -4.2565232198e+00 2.4575048268e+00 4.2565232198e+00 
7900 5.1963745854e+00 1.3570733494e-02 2.4571749946e+00 -4.2559519337e+00 2.4571749946e+00 4.2559519337e+00 
8000 5.1947141970e+00 1.1023642504e-02 2.4568988547e+00 -4.2554736454e+00 2.4568988547e+00 4.2554736454e+00 
8100 5.1931182373e+00 8.5671122593e-03 2.4566745176e+00 -4.2550850821e+00 2.4566745176e+00 4.2550850821e+00 
8200 5.1915835743e+00 6.1979661725e-03 2.4565001556e+00 -4.2547830783e+00 2.4565001556e+00 4.2547830783e+00 
8300 5.1901072181e+00 3.9131128358e-03 2.4563740023e+00 -4.2545645744e+00 2.4563740023e+00 4.2545645744e+00 
8400 5.1886863160e+00 1.7095472349e-03 2.4562943505e+00 -4.2544266134e+00 2.4562943505e+00 4.2544266134e+00 
8500 5.1873181479e+00 -4.1564839430e-04 2.4562595513e+00 -4.2543663394e+00 2.4562595513e+00 4.2543663394e+00 
8600 5.1860001220e+00 -2.4653040466e-03 2.4562680123e+00 -4.2543809943e+00 2.4562680123e+00 4.2543809943e+00 
8700 5.1847297700e+00 -4.4421617446e-03 2.4563181964e+00 -4.2544679157e+00 2.4563181964e+00 4.2544679157e+00 
8800 5.1835047432e+00 -6.3488756315e-03 2.4564086201e+00 -4.2546245342e+00 2.4564086201e+00 4.2546245342e+00 
8900 5.1823228078e+00 -8.1880123363e-03 2.4565378521e+00 -4.2548483705e+00 2.4565378521e+00 4.2548483705e+00 
9000 5.1811818409e+00 -9.9620515922e-03 2.4567045115e+00 -4.2551370332e+00 2.4567045115e+00 4.2551370332e+00 
9100 5.1800798263e+00 -1.1673387085e-02 2.4569072667e+00 -4.2554882154e+00 2.4569072667e+00 4.2554882154e+00 
9200 5.1790148506e+00 -1.3324327510e-02 2.4571448331e+00 -4.2558996925e+00 2.4571448331e+00 4.2558996925e+00 
9300 5.1779850988e+00 -1.4917097825e-02 2.4574159725e+00 -4.2563693196e+00 2.4574159725e+00 4.2563693196e+00 
9400 5.1769888509e+00 -1.6453840663e-02 2.4577194906e+00 -4.2568950284e+00 2.4577194906e+00 4.2568950284e+00 
9500 5.1760244775e+00 -1.7936617904e-02 2.4580542361e+00 -4.2574748248e+00 2.4580542361e+00 4.2574748248e+00 
9600 5.1750904365e+00 -1.9367412376e-02 2.4584190992e+00 -4.2581067860e+00 2.4584190992e+00 4.2581067860e+00 
9700 5.1741852689e+00 -2.0748129669e-02 2.4588130094e+00 -4.2587890586e+00 2.4588130094e+00 4.2587890586e+00 
9800 5.1733075954e+00 -2.2080600054e-02 2.4592349350e+00 -4.2595198552e+00 2.4592349350e+00 4.2595198552e+00 
9900 5.1724561131e+00 -2.3366580476e-02 2.4596838810e+00 -4.2602974524e+00 2.4596838810e+00 4.2602974524e+00 
10000 5.1716295912e+00 -2.4607756616e-02 2.4601588878e+00 -4.2611201883e+00 2.4601588878e+00 4.2611201883e+00 
10100 5.1708268687e+00 -2.5805745015e-02 2.4606590301e+00 -4.2619864602e+00 2.4606590301e+00 4.2619864602e+00 
10200 5.1700468499e+00 -2.6962095223e-02 2.4611834152e+00 -4.2628947219e+00 2.4611834152e+00 4.2628947219e+00 
10300 5.1692885023e+00 -2.8078291995e-02 2.4617311821e+00 -4.2638434820e+00 2.4617311821e+00 4.2638434820e+00 
10400 5.1685508526e+00 -2.9155757485e-02 2.4623014998e+00 -4.2648313012e+00 2.4623014998e+00 4.2648313012e+00 
10500 5.1678329839e+00 -3.0195853461e-02 2.4628935663e+00 -4.2658567905e+00 2.4628935663e+00 4.2658567905e+00 
10600 5.1671340331e+00 -3.1199883510e-02 2.4635066075e+00 -4.2669186090e+00 2.4635066075e+00 4.2669186090e+00 
10700 5.1664531877e+00 -3.2169095236e-02 2.4641398760e+00 -4.2680154621e+00 2.4641398760e+00 4.2680154621e+00 
10800 5.1657896828e+00 -3.3104682438e-02 2.4647926497e+00 -4.2691460994e+00 2.4647926497e+00 4.2691460994e+00 
10900 5.1651427992e+00 -3.4007787260e-02 2.4654642312e+00 -4.2703093127e+00 2.4654642312e+00 4.2703093127e+00 
11000 5.1645118602e+00 -3.4879502311e-02 2.4661539466e+00 -4.2715039348e+00 2.4661539466e+00 4.2715039348e+00 
11100 5.1638962291e+00 -3.5720872751e-02 2.4668611443e+00 -4.2727288372e+00 2.4668611443e+00 4.2727288372e+00 
11200 5.1632953074e+00 -3.6532898328e-02 2.4675851944e+00 -4.2739829287e+00 2.4675851944e+00 4.2739829287e+00 
11300 5.1627085321e+00 -3.7316535377e-02 2.4683254875e+00 -4.2752651539e+00 2.4683254875e+00 4.2752651539e+00 
11400 5.1621353736e+00 -3.8072698765e-02 2.4690814340e+00 -4.2765744916e+00 2.4690814340e+00 4.2765744916e+00 
11500 5.1615753337e+00 -3.8802263782e-02 2.4698524632e+00 -4.2779099535e+00 2.4698524632e+00 4.2779099535e+00 
11600 5.1610279438e+00 -3.9506067982e-02 2.4706380227e+00 -4.2792705824e+00 2.4706380227e+00 4.2792705824e+00 
11700 5.1604927625e+00 -4.0184912965e-02 2.4714375772e+00 -4.2806554515e+00 2.4714375772e+00 4.2806554515e+00 
11800 5.1599693743e+00 -4.0839566103e-02 2.4722506084e+00 -4.2820636628e+00 2.4722506084e+00 4.2820636628e+00 
11900 5.1594573880e+00 -4.1470762199e-02 2.4730766136e+00 -4.2834943458e+00 2.4730766136e+00 4.2834943458e+00 
12000 5.1589564345e+00 -4.2079205100e-02 2.4739151058e+00 -4.2849466568e+00 2.4739151058e+00 4.2849466568e+00 
12100 5.1584661660e+00 -4.2665569237e-02 2.4747656122e+00 -4.2864197772e+00 2.4747656122e+00 4.2864197772e+00 
12200 5.1579862539e+00 -4.3230501109e-02 2.4756276746e+00 -4.2879129130e+00 2.4756276746e+00 4.2879129130e+00 
12300 5.1575163879e+00 -4.3774620715e-02 2.4765008479e+00 -4.2894252935e+00 2.4765008479e+00 4.2894252935e+00 
12400 5.1570562748e+00 -4.4298522908e-02 2.4773847003e+00 -4.2909561708e+00 2.4773847003e+00 4.2909561708e+00 
12500 5.1566056367e+00 -4.4802778714e-02 2.4782788122e+00 -4.2925048181e+00 2.4782788122e+00 4.2925048181e+00 
12600 5.1561642106e+00 -4.5287936571e-02 2.4791827763e+00 -4.2940705299e+00 2.4791827763e+00 4.2940705299e+00 
12700 5.1557317470e+00 -4.5754523524e-02 2.4800961966e+00 -4.2956526202e+00 2.4800961966e+00 4.2956526202e+00 
12800 5.1553080089e+00 -4.6203046363e-02 2.4810186882e+00 -4.2972504225e+00 2.4810186882e+00 4.2972504225e+00 
12900 5.1548927707e+00 -4.6633992700e-02 2.4819498770e+00 -4.2988632888e+00 2.4819498770e+00 4.2988632888e+00 
13000 5.1544858180e+00 -4.7047832001e-02 2.4828893991e+00 -4.3004905888e+00 2.4828893991e+00 4.3004905888e+00 
13100 5.1540869461e+00 -4.7445016560e-02 2.4838369005e+00 -4.3021317093e+00 2.4838369005e+00 4.3021317093e+00 
13200 5.1536959595e+00 -4.7825982429e-02 2.4847920368e+00 -4.3037860539e+00 2.4847920368e+00 4.3037860539e+00 
13300 5.1533126713e+00 -4.8191150291e-02 2.4857544728e+00 -4.3054530420e+00 2.4857544728e+00 4.3054530420e+00 
13400 5.1529369025e+00 -4.8540926298e-02 2.4867238823e+00 -4.3071321086e+00 2.4867238823e+00 4.3071321086e+00 
13500 5.1525684814e+00 -4.8875702851e-02 2.4876999477e+00 -4.3088227034e+00 2.4876999477e+00 4.3088227034e+00 
13600 5.1522072431e+00 -4.9195859347e-02 2.4886823595e+00 -4.3105242906e+00 2.4886823595e+00 4.3105242906e+00 
13700 5.1518530288e+00 -4.9501762878e-02 2.4896708166e+00 -4.3122363485e+00 2.4896708166e+00 4.3122363485e+00 
13800 5.1515056855e+00 -4.9793768893e-02 2.4906650255e+00 -4.3139583688e+00 2.4906650255e+00 4.3139583688e+00 
13900 5.1511650657e+00 -5.0072221820e-02 2.4916647002e+00 -4.3156898562e+00 2.4916647002e+00 4.3156898562e+00 
14000 5.1508310267e+00 -5.0337455653e-02 2.4926695623e+00 -4.3174303283e+00 2.4926695623e+00 4.3174303283e+00 
14100 5.1505034304e+00 -5.0589794501e-02 2.4936793402e+00 -4.3191793150e+00 2.4936793402e+00 4.3191793150e+00 
14200 5.1501821430e+00 -5.0829553106e-02 2.4946937694e+00 -4.3209363579e+00 2.4946937694e+00 4.3209363579e+00 
14300 5.1498670346e+00 -5.1057037331e-02 2.4957125920e+00 -4.3227010105e+00 2.4957125920e+00 4.3227010105e+00 
14400 5.1495579791e+00 -5.1272544611e-02 2.4967355569e+00 -4.3244728376e+00 2.4967355569e+00 4.3244728376e+00 
14500 5.1492548537e+00 -5.1476364382e-02 2.4977624189e+00 -4.3262514147e+00 2.4977624189e+00 4.3262514147e+00 
14600 5.1489575389e+00 -5.1668778482e-02 2.4987929393e+00 -4.3280363284e+00 2.4987929393e+00 4.3280363284e+00 
14700 5.1486659181e+00 -5.1850061520e-02 2.4998268853e+00 -4.3298271754e+00 2.4998268853e+00 4.3298271754e+00 
14800 5.1483798775e+00 -5.2020481226e-02 2.5008640300e+00 -4.3316235628e+00 2.5008640300e+00 4.3316235628e+00 
14900 5.1480993060e+00 -5.2180298779e-02 2.5019041522e+00 -4.3334251073e+00 2.5019041522e+00 4.3334251073e+00 
15000 5.1478240950e+00 -5.2329769109e-02 2.5029470363e+00 -4.3352314356e+00 2.5029470363e+00 4.3352314356e+00 
15100 5.1475541381e+00 -5.2469141181e-02 2.5039924722e+00 -4.3370421836e+00 2.5039924722e+00 4.3370421836e+00 
15200 5.1472893313e+00 -5.2598658254e-02 2.5050402549e+00 -4.3388569964e+00 2.5050402549e+00 4.3388569964e+00 
15300 5.1470295726e+00 -5.2718558137e-02 2.5060901847e+00 -4.3406755283e+00 2.5060901847e+00 4.3406755283e+00 
15400 5.1467747621e+00 -5.2829073404e-02 2.5071420671e+00 -4.3424974420e+00 2.5071420671e+00 4.3424974420e+00 
15500 5.1465248016e+00 -5.2930431619e-02 2.5081957125e+00 -4.3443224093e+00 2.5081957125e+00 4.3443224093e+00 
15600 5.1462795950e+00 -5.3022855523e-02 2.5092509360e+00 -4.3461501101e+00 2.5092509360e+00 4.3461501101e+00 
15700 5.1460390479e+00 -5.3106563223e-02 2.5103075576e+00 -4.3479802324e+00 2.5103075576e+00 4.3479802324e+00 
15800 5.1458030676e+00 -5.3181768360e-02 2.5113654019e+00 -4.3498124724e+00 2.5113654019e+00 4.3498124724e+00 
15900 5.1455715629e+00 -5.3248680267e-02 2.5124242981e+00 -4.3516465344e+00 2.5124242981e+00 4.3516465344e+00 
16000 5.1453444444e+00 -5.3307504114e-02 2.5134840797e+00 -4.3534821300e+00 2.5134840797e+00 4.3534821300e+00 
16100 5.1451216243e+00 -5.3358441045e-02 2.5145445847e+00 -4.3553189786e+00 2.5145445847e+00 4.3553189786e+00 
16200 5.1449030161e+00 -5.3401688302e-02 2.5156056554e+00 -4.3571568070e+00 2.5156056554e+00 4.3571568070e+00 
16300 5.1446885349e+00 -5.3437439341e-02 2.5166671382e+00 -4.3589953491e+00 2.5166671382e+00 4.3589953491e+00 
16400 5.1444780974e+00 -5.3465883943e-02 2.5177288836e+00 -4.3608343461e+00 2.5177288836e+00 4.3608343461e+00 
16500 5.1442716216e+00 -5.3487208309e-02 2.5187907462e+00 -4.3626735460e+00 2.5187907462e+00 4.3626735460e+00 
16600 5.1440690268e+00 -5.3501595156e-02 2.5198525844e+00 -4.3645127037e+00 2.5198525844e+00 4.3645127037e+00 
16700 5.1438702339e+00 -5.3509223803e-02 2.5209142606e+00 -4.3663515808e+00 2.5209142606e+00 4.3663515808e+00 
16800 5.1436751650e+00 -5.3510270246e-02 2.5219756409e+00 -4.3681899455e+00 2.5219756409e+00 4.3681899455e+00 
16900 5.1434837437e+00 -5.3504907238e-02 2.5230365952e+00 -4.3700275723e+00 2.5230365952e+00 4.3700275723e+00 
17000 5.1432958949e+00 -5.3493304354e-02 2.5240969971e+00 -4.3718642422e+00 2.5240969971e+00 4.3718642422e+00 
17100 5.1431115447e+00 -5.3475628055e-02 2.5251567235e+00 -4.3736997422e+00 2.5251567235e+00 4.3736997422e+00 
17200 5.1429306206e+00 -5.3452041750e-02 2.5262156551e+00 -4.3755338655e+00 2.5262156551e+00 4.3755338655e+00 
17300 5.1427530515e+00 -5.3422705847e-02 2.5272736758e+00 -4.3773664112e+00 2.5272736758e+00 4.3773664112e+00 
17400 5.1425787675e+00 -5.3387777811e-02 2.5283306731e+00 -4.3791971841e+00 2.5283306731e+00 4.3791971841e+00 
17500 5.1424076998e+00 -5.3347412208e-02 2.5293865376e+00 -4.3810259951e+00 2.5293865376e+00 4.3810259951e+00 
17600 5.1422397812e+00 -5.3301760751e-02 2.5304411632e+00 -4.3828526603e+00 2.5304411632e+00 4.3828526603e+00 
17700 5.1420749456e+00 -5.3250972347e-02 2.5314944471e+00 -4.3846770014e+00 2.5314944471e+00 4.3846770014e+00 
17800 5.1419131280e+00 -5.3195193133e-02 2.5325462894e+00 -4.3864988457e+00 2.5325462894e+00 4.3864988457e+00 
17900 5.1417542650e+00 -5.3134566517e-02 2.5335965933e+00 -4.3883180256e+00 2.5335965933e+00 4.3883180256e+00 
18000 5.1415982939e+00 -5.3069233215e-02 2.5346452652e+00 -4.3901343785e+00 2.5346452652e+00 4.3901343785e+00 
18100 5.1414451538e+00 -5.2999331284e-02 2.5356922142e+00 -4.3919477473e+00 2.5356922142e+00 4.3919477473e+00 
18200 5.1412947846e+00 -5.2924996156e-02 2.5367373523e+00 -4.3937579796e+00 2.5367373523e+00 4.3937579796e+00 
18300 5.1411471275e+00 -5.2846360674e-02 2.5377805943e+00 -4.3955649279e+00 2.5377805943e+00 4.3955649279e+00 
18400 5.1410021250e+00 -5.2763555118e-02 2.5388218580e+00 -4.3973684494e+00 2.5388218580e+00 4.3973684494e+00 
18500 5.1408597205e+00 -5.2676707235e-02 2.5398610635e+00 -4.3991684061e+00 2.5398610635e+00 4.3991684061e+00 
18600 5.1407198589e+00 -5.2585942274e-02 2.5408981338e+00 -4.4009646646e+00 2.5408981338e+00 4.4009646646e+00 
18700 5.1405824861e+00 -5.2491383009e-02 2.5419329945e+00 -4.4027570958e+00 2.5419329945e+00 4.4027570958e+00 
18800 5.1404475489e+00 -5.2393149768e-02 2.5429655735e+00 -4.4045455752e+00 2.5429655735e+00 4.4045455752e+00 
18900 5.1403149956e+00 -5.2291360463e-02 2.5439958015e+00 -4.4063299824e+00 2.5439958015e+00 4.4063299824e+00 
19000 5.1401847754e+00 -5.2186130613e-02 2.5450236114e+00 -4.4081102013e+00 2.5450236114e+00 4.4081102013e+00 
19100 5.1400568387e+00 -5.2077573374e-02 2.5460489384e+00 -4.4098861199e+00 2.5460489384e+00 4.4098861199e+00 
19200 5.1399311368e+00 -5.1965799566e-02 2.5470717204e+00 -4.4116576303e+00 2.5470717204e+00 4.4116576303e+00 
19300 5.1398076222e+00 -5.1850917696e-02 2.5480918972e+00 -4.4134246282e+00 2.5480918972e+00 4.4134246282e+00 
19400 5.1396862484e+00 -5.1733033987e-02 2.5491094108e+00 -4.4151870136e+00 2.5491094108e+00 4.4151870136e+00 
19500 5.1395669701e+00 -5.1612252402e-02 2.5501242057e+00 -4.4169446899e+00 2.5501242057e+00 4.4169446899e+00 
19600 5.1394497427e+00 -5.1488674672e-02 2.5511362283e+00 -4.4186975644e+00 2.5511362283e+00 4.4186975644e+00 
19700 5.1393345229e+00 -5.1362400322e-02 2.5521454270e+00 -4.4204455479e+00 2.5521454270e+00 4.4204455479e+00 
19800 5.1392212682e+00 -5.1233526698e-02 2.5531517524e+00 -4.4221885546e+00 2.5531517524e+00 4.4221885546e+00 
19900 5.1391099372e+00 -5.1102148990e-02 2.5541551569e+00 -4.4239265022e+00 2.5541551569e+00 4.4239265022e+00 
20000 5.1390004892e+00 -5.0968360263e-02 2.5551555950e+00 -4.4256593118e+00 2.5551555950e+00 4.4256593118e+00 
20100 5.1388928849e+00 -5.0832251478e-02 2.5561530230e+00 -4.4273869078e+00 2.5561530230e+00 4.4273869078e+00 
20200 5.1387870855e+00 -5.0693911524e-02 2.5571473991e+00 -4.4291092176e+00 2.5571473991e+00 4.4291092176e+00 
20300 5.1386830531e+00 -5.0553427245e-02 2.5581386830e+00 -4.4308261718e+00 2.5581386830e+00 4.4308261718e+00 
20400 5.1385807511e+00 -5.0410883462e-02 2.5591268367e+00 -4.4325377041e+00 2.5591268367e+00 4.4325377041e+00 
20500 5.1384801434e+00 -5.0266363002e-02 2.5601118233e+00 -4.4342437511e+00 2.5601118233e+00 4.4342437511e+00 
20600 5.1383811947e+00 -5.0119946731e-02 2.5610936081e+00 -4.4359442521e+00 2.5610936081e+00 4.4359442521e+00 
20700 5.1382838708e+00 -4.9971713573e-02 2.5620721576e+00 -4.4376391496e+00 2.5620721576e+00 4.4376391496e+00 
20800 5.1381881383e+00 -4.9821740544e-02 2.5630474401e+00 -4.4393283884e+00 2.5630474401e+00 4.4393283884e+00 
20900 5.1380939643e+00 -4.9670102776e-02 2.5640194253e+00 -4.4410119163e+00 2.5640194253e+00 4.4410119163e+00 
21000 5.1380013169e+00 -4.9516873547e-02 2.5649880847e+00 -4.4426896835e+00 2.5649880847e+00 4.4426896835e+00 
21100 5.1379101651e+00 -4.9362124308e-02 2.5659533909e+00 -4.4443616429e+00 2.5659533909e+00 4.4443616429e+00 
21200 5.1378204783e+00 -4.9205924713e-02 2.5669153181e+00 -4.4460277497e+00 2.5669153181e+00 4.4460277497e+00 
21300 5.1377322270e+00 -4.9048342645e-02 2.5678738419e+00 -4.4476879615e+00 2.5678738419e+00 4.4476879615e+00 
21400 5.1376453820e+00 -4.8889444247e-02 2.5688289391e+00 -4.4493422384e+00 2.5688289391e+00 4.4493422384e+00 
21500 5.1375599152e+00 -4.8729293945e-02 2.5697805879e+00 -4.4509905425e+00 2.5697805879e+00 4.4509905425e+00 
21600 5.1374757990e+00 -4.8567954485e-02 2.5707287679e+00 -4.4526328384e+00 2.5707287679e+00 4.4526328384e+00 
21700 5.1373930064e+00 -4.8405486955e-02 2.5716734597e+00 -4.4542690926e+00 2.5716734597e+00 4.4542690926e+00 
21800 5.1373115111e+00 -4.8241950814e-02 2.5726146452e+00 -4.4558992738e+00 2.5726146452e+00 4.4558992738e+00 
21900 5.1372312876e+00 -4.8077403925e-02 2.5735523076e+00 -4.4575233527e+00 2.5735523076e+00 4.4575233527e+00 
22000 5.1371523107e+00 -4.7911902579e-02 2.5744864311e+00 -4.4591413020e+00 2.5744864311e+00 4.4591413020e+00 
22100 5.1370745561e+00 -4.7745501526e-02 2.5754170009e+00 -4.4607530962e+00 2.5754170009e+00 4.4607530962e+00 
22200 5.1369979998e+00 -4.7578254001e-02 2.5763440035e+00 -4.4623587118e+00 2.5763440035e+00 4.4623587118e+00 
22300 5.1369226187e+00 -4.7410211758e-02 2.5772674263e+00 -4.4639581270e+00 2.5772674263e+00 4.4639581270e+00 
22400 5.1368483899e+00 -4.7241425091e-02 2.5781872577e+00 -4.4655513217e+00 2.5781872577e+00 4.4655513217e+00 
22500 5.1367752914e+00 -4.7071942868e-02 2.5791034871e+00 -4.4671382777e+00 2.5791034871e+00 4.4671382777e+00 
22600 5.1367033014e+00 -4.6901812556e-02 2.5800161050e+00 -4.4687189782e+00 2.5800161050e+00 4.4687189782e+00 
22700 5.1366323989e+00 -4.6731080251e-02 2.5809251025e+00 -4.4702934081e+00 2.5809251025e+00 4.4702934081e+00 
22800 5.1365625632e+00 -4.6559790703e-02 2.5818304719e+00 -4.4718615538e+00 2.5818304719e+00 4.4718615538e+00 
22900 5.1364937741e+00 -4.6387987350e-02 2.5827322061e+00 -4.4734234034e+00 2.5827322061e+00 4.4734234034e+00 
23000 5.1364260119e+00 -4.6215712336e-02 2.5836302992e+00 -4.4749789461e+00 2.5836302992e+00 4.4749789461e+00 
23100 5.1363592576e+00 -4.6043006547e-02 2.5845247456e+00 -4.4765281728e+00 2.5845247456e+00 4.4765281728e+00 
23200 5.1362934922e+00 -4.5869909634e-02 2.5854155409e+00 -4.4780710755e+00 2.5854155409e+00 4.4780710755e+00 
23300 5.1362286974e+00 -4.5696460041e-02 2.5863026813e+00 -4.4796076478e+00 2.5863026813e+00 4.4796076478e+00 
23400 5.1361648554e+00 -4.5522695030e-02 2.5871861637e+00 -4.4811378843e+00 2.5871861637e+00 4.4811378843e+00 
23500 5.1361019487e+00 -4.5348650710e-02 2.5880659859e+00 -4.4826617809e+00 2.5880659859e+00 4.4826617809e+00 
23600 5.1360399601e+00 -4.5174362062e-02 2.5889421461e+00 -4.4841793349e+00 2.5889421461e+00 4.4841793349e+00 
23700 5.1359788729e+00 -4.4999862965e-02 2.5898146434e+00 -4.4856905445e+00 2.5898146434e+00 4.4856905445e+00 
23800 5.1359186709e+00 -4.4825186221e-02 2.5906834773e+00 -4.4871954091e+00 2.5906834773e+00 4.4871954091e+00 
23900 5.1358593381e+00 -4.4650363581e-02 2.5915486482e+00 -4.4886939290e+00 2.5915486482e+00 4.4886939290e+00 
24000 5.1358008588e+00 -4.4475425771e-02 2.5924101570e+00 -4.4901861060e+00 2.5924101570e+00 4.4901861060e+00 
24100 5.1357432179e+00 -4.4300402513e-02 2.5932680050e+00 -4.4916719423e+00 2.5932680050e+00 4.4916719423e+00 
24200 5.1356864004e+00 -4.4125322555e-02 2.5941221943e+00 -4.4931514415e+00 2.5941221943e+00 4.4931514415e+00 
24300 5.1356303917e+00 -4.3950213691e-02 2.5949727273e+00 -4.4946246079e+00 2.5949727273e+00 4.4946246079e+00 
24400 5.1355751776e+00 -4.3775102786e-02 2.5958196072e+00 -4.4960914469e+00 2.5958196072e+00 4.4960914469e+00 
24500 5.1355207442e+00 -4.3600015798e-02 2.5966628374e+00 -4.4975519645e+00 2.5966628374e+00 4.4975519645e+00 
24600 5.1354670778e+00 -4.3424977804e-02 2.5975024220e+00 -4.4990061678e+00 2.5975024220e+00 4.4990061678e+00 
24700 5.1354141650e+00 -4.3250013021e-02 2.5983383656e+00 -4.5004540644e+00 2.5983383656e+00 4.5004540644e+00 
24800 5.1353619929e+00 -4.3075144828e-02 2.5991706729e+00 -4.5018956630e+00 2.5991706729e+00 4.5018956630e+00 
24900 5.1353105485e+00 -4.2900395788e-02 2.5999993494e+00 -4.5033309728e+00 2.5999993494e+00 4.5033309728e+00 
25000 5.1352598195e+00 -4.2725787669e-02 2.6008244008e+00 -4.5047600038e+00 2.6008244008e+00 4.5047600038e+00 
25100 5.1352097936e+00 -4.2551341470e-02 2.6016458334e+00 -4.5061827667e+00 2.6016458334e+00 4.5061827667e+00 
25200 5.1351604587e+00 -4.2377077434e-02 2.6024636536e+00 -4.5075992728e+00 2.6024636536e+00 4.5075992728e+00 
25300 5.1351118032e+00 -4.2203015076e-02 2.6032778683e+00 -4.5090095341e+00 2.6032778683e+00 4.5090095341e+00 
25400 5.1350638155e+00 -4.2029173196e-02 2.6040884849e+00 -4.5104135632e+00 2.6040884849e+00 4.5104135632e+00 
25500 5.1350164845e+00 -4.1855569905e-02 2.6048955109e+00 -4.5118113733e+00 2.6048955109e+00 4.5118113733e+00 
25600 5.1349697991e+00 -4.1682222643e-02 2.6056989543e+00 -4.5132029781e+00 2.6056989543e+00 4.5132029781e+00 
25700 5.1349237484e+00 -4.1509148193e-02 2.6064988233e+00 -4.5145883917e+00 2.6064988233e+00 4.5145883917e+00 
25800 5.1348783219e+00 -4.1336362708e-02 2.6072951263e+00 -4.5159676291e+00 2.6072951263e+00 4.5159676291e+00 
25900 5.1348335093e+00 -4.1163881721e-02 2.6080878724e+00 -4.5173407055e+00 2.6080878724e+00 4.5173407055e+00 
26000 5.1347893004e+00 -4.0991720169e-02 2.6088770704e+00 -4.5187076366e+00 2.6088770704e+00 4.5187076366e+00 
26100 5.1347456851e+00 -4.0819892406e-02 2.6096627298e+00 -4.5200684387e+00 2.6096627298e+00 4.5200684387e+00 
26200 5.1347026539e+00 -4.0648412224e-02 2.6104448602e+00 -4.5214231282e+00 2.6104448602e+00 4.5214231282e+00 
26300 5.1346601970e+00 -4.0477292866e-02 2.6112234714e+00 -4.5227717224e+00 2.6112234714e+00 4.5227717224e+00 
26400 5.1346183052e+00 -4.0306547047e-02 2.6119985735e+00 -4.5241142386e+00 2.6119985735e+00 4.5241142386e+00 
26500 5.1345769692e+00 -4.0136186964e-02 2.6127701767e+00 -4.5254506946e+00 2.6127701767e+00 4.5254506946e+00 
26600 5.1345361799e+00 -3.9966224317e-02 2.6135382916e+00 -4.5267811086e+00 2.6135382916e+00 4.5267811086e+00 
26700 5.1344959287e+00 -3.9796670321e-02 2.6143029288e+00 -4.5281054991e+00 2.6143029288e+00 4.5281054991e+00 
26800 5.1344562067e+00 -3.9627535723e-02 2.6150640992e+00 -4.5294238849e+00 2.6150640992e+00 4.5294238849e+00 
26900 5.1344170055e+00 -3.9458830813e-02 2.6158218139e+00 -4.5307362852e+00 2.6158218139e+00 4.5307362852e+00 
27000 5.1343783167e+00 -3.9290565445e-02 2.6165760841e+00 -4.5320427194e+00 2.6165760841e+00 4.5320427194e+00 
27100 5.1343401321e+00 -3.9122749043e-02 2.6173269211e+00 -4.5333432073e+00 2.6173269211e+00 4.5333432073e+00 
27200 5.1343024437e+00 -3.8955390619e-02 2.6180743365e+00 -4.5346377688e+00 2.6180743365e+00 4.5346377688e+00 
27300 5.1342652436e+00 -3.8788498786e-02 2.6188183420e+00 -4.5359264242e+00 2.6188183420e+00 4.5359264242e+00 
27400 5.1342285241e+00 -3.8622081769e-02 2.6195589494e+00 -4.5372091939e+00 2.6195589494e+00 4.5372091939e+00 
27500 5.1341922775e+00 -3.8456147418e-02 2.6202961707e+00 -4.5384860986e+00 2.6202961707e+00 4.5384860986e+00 
27600 5.1341564965e+00 -3.8290703223e-02 2.6210300180e+00 -4.5397571593e+00 2.6210300180e+00 4.5397571593e+00 
27700 5.1341211736e+00 -3.8125756321e-02 2.6217605033e+00 -4.5410223971e+00 2.6217605033e+00 4.5410223971e+00 
27800 5.1340863017e+00 -3.7961313512e-02 2.6224876391e+00 -4.5422818332e+00 2.6224876391e+00 4.5422818332e+00 
27900 5.1340518737e+00 -3.7797381265e-02 2.6232114378e+00 -4.5435354892e+00 2.6232114378e+00 4.5435354892e+00 
28000 5.1340178828e+00 -3.7633965737e-02 2.6239319117e+00 -4.5447833867e+00 2.6239319117e+00 4.5447833867e+00 
28100 5.1339843220e+00 -3.7471072774e-02 2.6246490736e+00 -4.5460255475e+00 2.6246490736e+00 4.5460255475e+00 
28200 5.1339511848e+00 -3.7308707928e-02 2.6253629361e+00 -4.5472619937e+00 2.6253629361e+00 4.5472619937e+00 
28300 5.1339184645e+00 -3.7146876466e-02 2.6260735120e+00 -4.5484927471e+00 2.6260735120e+00 4.5484927471e+00 
28400 5.1338861547e+00 -3.6985583378e-02 2.6267808140e+00 -4.5497178302e+00 2.6267808140e+00 4.5497178302e+00 
28500 5.1338542491e+00 -3.6824833385e-02 2.6274848552e+00 -4.5509372652e+00 2.6274848552e+00 4.5509372652e+00 
28600 5.1338227415e+00 -3.6664630953e-02 2.6281856483e+00 -4.5521510747e+00 2.6281856483e+00 4.5521510747e+00 
28700 5.1337916257e+00 -3.6504980299e-02 2.6288832066e+00 -4.5533592810e+00 2.6288832066e+00 4.5533592810e+00 
28800 5.1337608958e+00 -3.6345885398e-02 2.6295775430e+00 -4.5545619070e+00 2.6295775430e+00 4.5545619070e+00 
28900 5.1337305458e+00 -3.6187349995e-02 2.6302686707e+00 -4.5557589752e+00 2.6302686707e+00 4.5557589752e+00 
29000 5.1337005700e+00 -3.6029377612e-02 2.6309566028e+00 -4.5569505086e+00 2.6309566028e+00 4.5569505086e+00 
29100 5.1336709626e+00 -3.5871971552e-02 2.6316413526e+00 -4.5581365301e+00 2.6316413526e+00 4.5581365301e+00 
29200 5.1336417181e+00 -3.5715134913e-02 2.6323229334e+00 -4.5593170625e+00 2.6323229334e+00 4.5593170625e+00 
29300 5.1336128310e+00 -3.5558870591e-02 2.6330013583e+00 -4.5604921289e+00 2.6330013583e+00 4.5604921289e+00 
29400 5.1335842959e+00 -3.5403181289e-02 2.6336766407e+00 -4.5616617523e+00 2.6336766407e+00 4.5616617523e+00 
29500 5.1335561074e+00 -3.5248069522e-02 2.6343487939e+00 -4.5628259559e+00 2.6343487939e+00 4.5628259559e+00 
29600 5.1335282604e+00 -3.5093537626e-02 2.6350178314e+00 -4.5639847628e+00 2.6350178314e+00 4.5639847628e+00 
29700 5.1335007497e+00 -3.4939587765e-02 2.6356837665e+00 -4.5651381962e+00 2.6356837665e+00 4.5651381962e+00 
29800 5.1334735702e+00 -3.4786221933e-02 2.6363466125e+00 -4.5662862792e+00 2.6363466125e+00 4.5662862792e+00 
29900 5.1334467172e+00 -3.4633441964e-02 2.6370063830e+00 -4.5674290352e+00 2.6370063830e+00 4.5674290352e+00 
30000 5.1334201855e+00 -3.4481249539e-02 2.6376630913e+00 -4.5685664873e+00 2.6376630913e+00 4.5685664873e+00 
30100 5.1333939706e+00 -3.4329646187e-02 2.6383167508e+00 -4.5696986589e+00 2.6383167508e+00 4.5696986589e+00 
30200 5.1333680676e+00 -3.4178633295e-02 2.6389673751e+00 -4.5708255731e+00 2.6389673751e+00 4.5708255731e+00 
30300 5.1333424720e+00 -3.4028212108e-02 2.6396149774e+00 -4.5719472533e+00 2.6396149774e+00 4.5719472533e+00 
30400 5.1333171791e+00 -3.3878383742e-02 2.6402595714e+00 -4.5730637228e+00 2.6402595714e+00 4.5730637228e+00 
30500 5.1332921846e+00 -3.3729149181e-02 2.6409011703e+00 -4.5741750048e+00 2.6409011703e+00 4.5741750048e+00 
30600 5.1332674841e+00 -3.3580509288e-02 2.6415397877e+00 -4.5752811225e+00 2.6415397877e+00 4.5752811225e+00 
30700 5.1332430731e+00 -3.3432464805e-02 2.6421754370e+00 -4.5763820993e+00 2.6421754370e+00 4.5763820993e+00 
30800 5.1332189476e+00 -3.3285016361e-02 2.6428081315e+00 -4.5774779584e+00 2.6428081315e+00 4.5774779584e+00 
30900 5.1331951032e+00 -3.3138164474e-02 2.6434378847e+00 -4.5785687230e+00 2.6434378847e+00 4.5785687230e+00 
31000 5.1331715359e+00 -3.2991909555e-02 2.6440647100e+00 -4.5796544162e+00 2.6440647100e+00 4.5796544162e+00 
31100 5.1331482417e+00 -3.2846251914e-02 2.6446886207e+00 -4.5807350613e+00 2.6446886207e+00 4.5807350613e+00 
31200 5.1331252165e+00 -3.2701191764e-02 2.6453096302e+00 -4.5818106813e+00 2.6453096302e+00 4.5818106813e+00 
31300 5.1331024566e+00 -3.2556729223e-02 2.6459277519e+00 -4.5828812995e+00 2.6459277519e+00 4.5828812995e+00 
31400 5.1330799579e+00 -3.2412864316e-02 2.6465429991e+00 -4.5839469388e+00 2.6465429991e+00 4.5839469388e+00 
31500 5.1330577169e+00 -3.2269596983e-02 2.6471553850e+00 -4.5850076224e+00 2.6471553850e+00 4.5850076224e+00 
31600 5.1330357297e+00 -3.2126927081e-02 2.6477649230e+00 -4.5860633731e+00 2.6477649230e+00 4.5860633731e+00 
31700 5.1330139927e+00 -3.1984854384e-02 2.6483716263e+00 -4.5871142141e+00 2.6483716263e+00 4.5871142141e+00 
31800 5.1329925023e+00 -3.1843378589e-02 2.6489755081e+00 -4.5881601681e+00 2.6489755081e+00 4.5881601681e+00 
31900 5.1329712550e+00 -3.1702499321e-02 2.6495765817e+00 -4.5892012580e+00 2.6495765817e+00 4.5892012580e+00 
32000 5.1329502474e+00 -3.1562216130e-02 2.6501748601e+00 -4.5902375067e+00 2.6501748601e+00 4.5902375067e+00 
32100 5.1329294759e+00 -3.1422528499e-02 2.6507703566e+00 -4.5912689369e+00 2.6507703566e+00 4.5912689369e+00 
32200 5.1329089373e+00 -3.1283435846e-02 2.6513630843e+00 -4.5922955714e+00 2.6513630843e+00 4.5922955714e+00 
32300 5.1328886282e+00 -3.1144937522e-02 2.6519530562e+00 -4.5933174327e+00 2.6519530562e+00 4.5933174327e+00 
32400 5.1328685455e+00 -3.1007032820e-02 2.6525402855e+00 -4.5943345436e+00 2.6525402855e+00 4.5943345436e+00 
32500 5.1328486858e+00 -3.0869720974e-02 2.6531247850e+00 -4.5953469265e+00 2.6531247850e+00 4.5953469265e+00 
32600 5.1328290462e+00 -3.0733001161e-02 2.6537065678e+00 -4.5963546039e+00 2.6537065678e+00 4.5963546039e+00 
32700 5.1328096234e+00 -3.0596872505e-02 2.6542856469e+00 -4.5973575982e+00 2.6542856469e+00 4.5973575982e+00 
32800 5.1327904144e+00 -3.0461334076e-02 2.6548620351e+00 -4.5983559319e+00 2.6548620351e+00 4.5983559319e+00 
32900 5.1327714163e+00 -3.0326384897e-02 2.6554357454e+00 -4.5993496272e+00 2.6554357454e+00 4.5993496272e+00 
33000 5.1327526261e+00 -3.0192023941e-02 2.6560067905e+00 -4.6003387063e+00 2.6560067905e+00 4.6003387063e+00 
33100 5.1327340409e+00 -3.0058250136e-02 2.6565751832e+00 -4.6013231915e+00 2.6565751832e+00 4.6013231915e+00 
33200 5.1327156579e+00 -2.9925062365e-02 2.6571409364e+00 -4.6023031047e+00 2.6571409364e+00 4.6023031047e+00 
33300 5.1326974743e+00 -2.9792459472e-02 2.6577040627e+00 -4.6032784681e+00 2.6577040627e+00 4.6032784681e+00 
33400 5.1326794873e+00 -2.9660440255e-02 2.6582645748e+00 -4.6042493036e+00 2.6582645748e+00 4.6042493036e+00 
33500 5.1326616942e+00 -2.9529003478e-02 2.6588224854e+00 -4.6052156330e+00 2.6588224854e+00 4.6052156330e+00 
33600 5.1326440924e+00 -2.9398147864e-02 2.6593778070e+00 -4.6061774782e+00 2.6593778070e+00 4.6061774782e+00 
33700 5.1326266792e+00 -2.9267872103e-02 2.6599305522e+00 -4.6071348610e+00 2.6599305522e+00 4.6071348610e+00 
33800 5.1326094521e+00 -2.9138174849e-02 2.6604807335e+00 -4.6080878029e+00 2.6604807335e+00 4.6080878029e+00 
33900 5.1325924085e+00 -2.9009054724e-02 2.6610283633e+00 -4.6090363257e+00 2.6610283633e+00 4.6090363257e+00 
34000 5.1325755459e+00 -2.8880510316e-02 2.6615734542e+00 -4.6099804508e+00 2.6615734542e+00 4.6099804508e+00 
34100 5.1325588619e+00 -2.8752540186e-02 2.6621160184e+00 -4.6109201996e+00 2.6621160184e+00 4.6109201996e+00 
34200 5.1325423541e+00 -2.8625142863e-02 2.6626560684e+00 -4.6118555935e+00 2.6626560684e+00 4.6118555935e+00 
34300 5.1325260201e+00 -2.8498316851e-02 2.6631936163e+00 -4.6127866539e+00 2.6631936163e+00 4.6127866539e+00 
34400 5.1325098575e+00 -2.8372060625e-02 2.6637286745e+00 -4.6137134018e+00 2.6637286745e+00 4.6137134018e+00 
34500 5.1324938641e+00 -2.8246372635e-02 2.6642612551e+00 -4.6146358585e+00 2.6642612551e+00 4.6146358585e+00 
34600 5.1324780375e+00 -2.8121251306e-02 2.6647913704e+00 -4.6155540450e+00 2.6647913704e+00 4.6155540450e+00 
34700 5.1324623757e+00 -2.7996695041e-02 2.6653190323e+00 -4.6164679823e+00 2.6653190323e+00 4.6164679823e+00 
34800 5.1324468763e+00 -2.7872702219e-02 2.6658442530e+00 -4.6173776912e+00 2.6658442530e+00 4.6173776912e+00 
34900 5.1324315372e+00 -2.7749271199e-02 2.6663670445e+00 -4.6182831926e+00 2.6663670445e+00 4.6182831926e+00 
35000 5.1324163564e+00 -2.7626400317e-02 2.6668874187e+00 -4.6191845072e+00 2.6668874187e+00 4.6191845072e+00 
35100 5.1324013317e+00 -2.7504087891e-02 2.6674053876e+00 -4.6200816557e+00 2.6674053876e+00 4.6200816557e+00 
35200 5.1323864610e+00 -2.7382332220e-02 2.6679209630e+00 -4.6209746585e+00 2.6679209630e+00 4.6209746585e+00 
35300 5.1323717424e+00 -2.7261131585e-02 2.6684341568e+00 -4.6218635362e+00 2.6684341568e+00 4.6218635362e+00 
35400 5.1323571739e+00 -2.7140484248e-02 2.6689449808e+00 -4.6227483093e+00 2.6689449808e+00 4.6227483093e+00 
35500 5.1323427534e+00 -2.7020388456e-02 2.6694534466e+00 -4.6236289979e+00 2.6694534466e+00 4.6236289979e+00 
35600 5.1323284792e+00 -2.6900842440e-02 2.6699595659e+00 -4.6245056224e+00 2.6699595659e+00 4.6245056224e+00 
35700 5.1323143492e+00 -2.6781844417e-02 2.6704633505e+00 -4.6253782028e+00 2.6704633505e+00 4.6253782028e+00 
35800 5.1323003616e+00 -2.6663392587e-02 2.6709648118e+00 -4.6262467593e+00 2.6709648118e+00 4.6262467593e+00 
35900 5.1322865147e+00 -2.6545485138e-02 2.6714639615e+00 -4.6271113119e+00 2.6714639615e+00 4.6271113119e+00 
36000 5.1322728065e+00 -2.6428120244e-02 2.6719608109e+00 -4.6279718804e+00 2.6719608109e+00 4.6279718804e+00 
36100 5.1322592353e+00 -2.6311296067e-02 2.6724553716e+00 -4.6288284846e+00 2.6724553716e+00 4.6288284846e+00 
36200 5.1322457994e+00 -2.6195010758e-02 2.6729476549e+00 -4.6296811443e+00 2.6729476549e+00 4.6296811443e+00 
36300 5.1322324970e+00 -2.6079262454e-02 2.6734376722e+00 -4.6305298791e+00 2.6734376722e+00 4.6305298791e+00 
36400 5.1322193265e+00 -2.5964049283e-02 2.6739254348e+00 -4.6313747087e+00 2.6739254348e+00 4.6313747087e+00 
36500 5.1322062861e+00 -2.5849369363e-02 2.6744109538e+00 -4.6322156523e+00 2.6744109538e+00 4.6322156523e+00 
36600 5.1321933743e+00 -2.5735220801e-02 2.6748942406e+00 -4.6330527295e+00 2.6748942406e+00 4.6330527295e+00 
36700 5.1321805894e+00 -2.5621601695e-02 2.6753753062e+00 -4.6338859596e+00 2.6753753062e+00 4.6338859596e+00 
36800 5.1321679298e+00 -2.5508510134e-02 2.6758541617e+00 -4.6347153617e+00 2.6758541617e+00 4.6347153617e+00 
36900 5.1321553940e+00 -2.5395944200e-02 2.6763308182e+00 -4.6355409551e+00 2.6763308182e+00 4.6355409551e+00 
37000 5.1321429803e+00 -2.5283901966e-02 2.6768052868e+00 -4.6363627586e+00 2.6768052868e+00 4.6363627586e+00 
37100 5.1321306874e+00 -2.5172381496e-02 2.6772775782e+00 -4.6371807914e+00 2.6772775782e+00 4.6371807914e+00 
37200 5.1321185137e+00 -2.5061380849e-02 2.6777477035e+00 -4.6379950723e+00 2.6777477035e+00 4.6379950723e+00 
37300 5.1321064577e+00 -2.4950898076e-02 2.6782156735e+00 -4.6388056201e+00 2.6782156735e+00 4.6388056201e+00 
37400 5.1320945180e+00 -2.4840931223e-02 2.6786814989e+00 -4.6396124535e+00 2.6786814989e+00 4.6396124535e+00 
37500 5.1320826932e+00 -2.4731478329e-02 2.6791451907e+00 -4.6404155911e+00 2.6791451907e+00 4.6404155911e+00 
37600 5.1320709818e+00 -2.4622537428e-02 2.6796067593e+00 -4.6412150514e+00 2.6796067593e+00 4.6412150514e+00 
37700 5.1320593825e+00 -2.4514106547e-02 2.6800662155e+00 -4.6420108530e+00 2.6800662155e+00 4.6420108530e+00 
37800 5.1320478939e+00 -2.4406183711e-02 2.6805235700e+00 -4.6428030141e+00 2.6805235700e+00 4.6428030141e+00 
37900 5.1320365147e+00 -2.4298766938e-02 2.6809788332e+00 -4.6435915531e+00 2.6809788332e+00 4.6435915531e+00 
38000 5.1320252435e+00 -2.4191854242e-02 2.6814320156e+00 -4.6443764881e+00 2.6814320156e+00 4.6443764881e+00 
38100 5.1320140791e+00 -2.4085443635e-02 2.6818831278e+00 -4.6451578373e+00 2.6818831278e+00 4.6451578373e+00 
38200 5.1320030201e+00 -2.3979533122e-02 2.6823321801e+00 -4.6459356187e+00 2.6823321801e+00 4.6459356187e+00 
38300 5.1319920654e+00 -2.3874120709e-02 2.6827791829e+00 -4.6467098502e+00 2.6827791829e+00 4.6467098502e+00 
38400 5.1319812136e+00 -2.3769204394e-02 2.6832241465e+00 -4.6474805498e+00 2.6832241465e+00 4.6474805498e+00 
38500 5.1319704636e+00 -2.3664782176e-02 2.6836670811e+00 -4.6482477351e+00 2.6836670811e+00 4.6482477351e+00 
38600 5.1319598140e+00 -2.3560852050e-02 2.6841079970e+00 -4.6490114238e+00 2.6841079970e+00 4.6490114238e+00 
38700 5.1319492639e+00 -2.3457412009e-02 2.6845469043e+00 -4.6497716336e+00 2.6845469043e+00 4.6497716336e+00 
38800 5.1319388119e+00 -2.3354460042e-02 2.6849838132e+00 -4.6505283820e+00 2.6849838132e+00 4.6505283820e+00 
38900 5.1319284570e+00 -2.3251994140e-02 2.6854187337e+00 -4.6512816864e+00 2.6854187337e+00 4.6512816864e+00 
39000 5.1319181979e+00 -2.3150012289e-02 2.6858516759e+00 -4.6520315642e+00 2.6858516759e+00 4.6520315642e+00 
39100 5.1319080336e+00 -2.3048512476e-02 2.6862826496e+00 -4.6527780326e+00 2.6862826496e+00 4.6527780326e+00 
39200 5.1318979630e+00 -2.2947492685e-02 2.6867116649e+00 -4.6535211089e+00 2.6867116649e+00 4.6535211089e+00 
39300 5.1318879850e+00 -2.2846950901e-02 2.6871387316e+00 -4.6542608101e+00 2.6871387316e+00 4.6542608101e+00 
39400 5.1318780985e+00 -2.2746885106e-02 2.6875638595e+00 -4.6549971532e+00 2.6875638595e+00 4.6549971532e+00 
39500 5.1318683025e+00 -2.2647293284e-02 2.6879870584e+00 -4.6557301552e+00 2.6879870584e+00 4.6557301552e+00 
39600 5.1318585959e+00 -2.2548173417e-02 2.6884083380e+00 -4.6564598330e+00 2.6884083380e+00 4.6564598330e+00 
39700 5.1318489777e+00 -2.2449523488e-02 2.6888277081e+00 -4.6571862032e+00 2.6888277081e+00 4.6571862032e+00 
39800 5.1318394469e+00 -2.2351341479e-02 2.6892451782e+00 -4.6579092827e+00 2.6892451782e+00 4.6579092827e+00 
39900 5.1318300025e+00 -2.2253625374e-02 2.6896607580e+00 -4.6586290879e+00 2.6896607580e+00 4.6586290879e+00 
40000 5.1318206436e+00 -2.2156373155e-02 2.6900744569e+00 -4.6593456355e+00 2.6900744569e+00 4.6593456355e+00 
40100 5.1318113691e+00 -2.2059582808e-02 2.6904862845e+00 -4.6600589419e+00 2.6904862845e+00 4.6600589419e+00 
40200 5.1318021782e+00 -2.1963252317e-02 2.6908962502e+00 -4.6607690233e+00 2.6908962502e+00 4.6607690233e+00 
40300 5.1317930698e+00 -2.1867379668e-02 2.6913043635e+00 -4.6614758962e+00 2.6913043635e+00 4.6614758962e+00 
40400 5.1317840430e+00 -2.1771962848e-02 2.6917106336e+00 -4.6621795766e+00 2.6917106336e+00 4.6621795766e+00 
40500 5.1317750971e+00 -2.1676999847e-02 2.6921150698e+00 -4.6628800808e+00 2.6921150698e+00 4.6628800808e+00 
40600 5.1317662309e+00 -2.1582488653e-02 2.6925176815e+00 -4.6635774247e+00 2.6925176815e+00 4.6635774247e+00 
40700 5.1317574437e+00 -2.1488427260e-02 2.6929184779e+00 -4.6642716243e+00 2.6929184779e+00 4.6642716243e+00 
40800 5.1317487347e+00 -2.1394813660e-02 2.6933174680e+00 -4.6649626955e+00 2.6933174680e+00 4.6649626955e+00 
40900 5.1317401028e+00 -2.1301645849e-02 2.6937146610e+00 -4.6656506540e+00 2.6937146610e+00 4.6656506540e+00 
41000 5.1317315473e+00 -2.1208921825e-02 2.6941100661e+00 -4.6663355156e+00 2.6941100661e+00 4.6663355156e+00 
41100 5.1317230674e+00 -2.1116639588e-02 2.6945036921e+00 -4.6670172959e+00 2.6945036921e+00 4.6670172959e+00 
41200 5.1317146623e+00 -2.1024797140e-02 2.6948955482e+00 -4.6676960105e+00 2.6948955482e+00 4.6676960105e+00 
41300 5.1317063310e+00 -2.0933392486e-02 2.6952856431e+00 -4.6683716748e+00 2.6952856431e+00 4.6683716748e+00 
41400 5.1316980728e+00 -2.0842423634e-02 2.6956739859e+00 -4.6690443043e+00 2.6956739859e+00 4.6690443043e+00 
41500 5.1316898870e+00 -2.0751888594e-02 2.6960605854e+00 -4.6697139142e+00 2.6960605854e+00 4.6697139142e+00 
41600 5.1316817727e+00 -2.0661785380e-02 2.6964454503e+00 -4.6703805198e+00 2.6964454503e+00 4.6703805198e+00 
41700 5.1316737292e+00 -2.0572112007e-02 2.6968285894e+00 -4.6710441362e+00 2.6968285894e+00 4.6710441362e+00 
41800 5.1316657557e+00 -2.0482866496e-02 2.6972100114e+00 -4.6717047785e+00 2.6972100114e+00 4.6717047785e+00 
41900 5.1316578515e+00 -2.0394046869e-02 2.6975897251e+00 -4.6723624618e+00 2.6975897251e+00 4.6723624618e+00 
42000 5.1316500159e+00 -2.0305651153e-02 2.6979677389e+00 -4.6730172009e+00 2.6979677389e+00 4.6730172009e+00 
42100 5.1316422480e+00 -2.0217677377e-02 2.6983440614e+00 -4.6736690107e+00 2.6983440614e+00 4.6736690107e+00 
42200 5.1316345473e+00 -2.0130123576e-02 2.6987187013e+00 -4.6743179060e+00 2.6987187013e+00 4.6743179060e+00 
42300 5.1316269129e+00 -2.0042987785e-02 2.6990916669e+00 -4.6749639014e+00 2.6990916669e+00 4.6749639014e+00 
42400 5.1316193443e+00 -1.9956268046e-02 2.6994629668e+00 -4.6756070117e+00 2.6994629668e+00 4.6756070117e+00 
42500 5.1316118406e+00 -1.9869962405e-02 2.6998326093e+00 -4.6762472512e+00 2.6998326093e+00 4.6762472512e+00 
42600 5.1316044013e+00 -1.9784068910e-02 2.7002006027e+00 -4.6768846345e+00 2.7002006027e+00 4.6768846345e+00 
42700 5.1315970256e+00 -1.9698585615e-02 2.7005669554e+00 -4.6775191760e+00 2.7005669554e+00 4.6775191760e+00 
42800 5.1315897129e+00 -1.9613510577e-02 2.7009316757e+00 -4.6781508900e+00 2.7009316757e+00 4.6781508900e+00 
42900 5.1315824626e+00 -1.9528841858e-02 2.7012947717e+00 -4.6787797908e+00 2.7012947717e+00 4.6787797908e+00 
43000 5.1315752739e+00 -1.9444577525e-02 2.7016562516e+00 -4.6794058924e+00 2.7016562516e+00 4.6794058924e+00 
43100 5.1315681464e+00 -1.9360715649e-02 2.7020161236e+00 -4.6800292090e+00 2.7020161236e+00 4.6800292090e+00 
43200 5.1315610793e+00 -1.9277254304e-02 2.7023743958e+00 -4.6806497546e+00 2.7023743958e+00 4.6806497546e+00 
43300 5.1315540720e+00 -1.9194191572e-02 2.7027310762e+00 -4.6812675431e+00 2.7027310762e+00 4.6812675431e+00 
43400 5.1315471239e+00 -1.9111525538e-02 2.7030861728e+00 -4.6818825885e+00 2.7030861728e+00 4.6818825885e+00 
43500 5.1315402344e+00 -1.9029254291e-02 2.7034396935e+00 -4.6824949044e+00 2.7034396935e+00 4.6824949044e+00 
43600 5.1315334030e+00 -1.8947375927e-02 2.7037916464e+00 -4.6831045046e+00 2.7037916464e+00 4.6831045046e+00 
43700 5.1315266290e+00 -1.8865888545e-02 2.7041420392e+00 -4.6837114029e+00 2.7041420392e+00 4.6837114029e+00 
43800 5.1315199118e+00 -1.8784790252e-02 2.7044908799e+00 -4.6843156126e+00 2.7044908799e+00 4.6843156126e+00 
43900 5.1315132510e+00 -1.8704079157e-02 2.7048381762e+00 -4.6849171474e+00 2.7048381762e+00 4.6849171474e+00 
44000 5.1315066458e+00 -1.8623753377e-02 2.7051839358e+00 -4.6855160207e+00 2.7051839358e+00 4.6855160207e+00 
44100 5.1315000958e+00 -1.8543811032e-02 2.7055281665e+00 -4.6861122458e+00 2.7055281665e+00 4.6861122458e+00 
44200 5.1314936005e+00 -1.8464250249e-02 2.7058708760e+00 -4.6867058360e+00 2.7058708760e+00 4.6867058360e+00 
44300 5.1314871592e+00 -1.8385069160e-02 2.7062120719e+00 -4.6872968045e+00 2.7062120719e+00 4.6872968045e+00 
44400 5.1314807714e+00 -1.8306265902e-02 2.7065517617e+00 -4.6878851646e+00 2.7065517617e+00 4.6878851646e+00 
44500 5.1314744367e+00 -1.8227838620e-02 2.7068899530e+00 -4.6884709291e+00 2.7068899530e+00 4.6884709291e+00 
44600 5.1314681544e+00 -1.8149785462e-02 2.7072266534e+00 -4.6890541113e+00 2.7072266534e+00 4.6890541113e+00 
44700 5.1314619242e+00 -1.8072104583e-02 2.7075618702e+00 -4.6896347239e+00 2.7075618702e+00 4.6896347239e+00 
44800 5.1314557454e+00 -1.7994794143e-02 2.7078956110e+00 -4.6902127799e+00 2.7078956110e+00 4.6902127799e+00 
44900 5.1314496175e+00 -1.7917852309e-02 2.7082278831e+00 -4.6907882920e+00 2.7082278831e+00 4.6907882920e+00 
45000 5.1314435401e+00 -1.7841277254e-02 2.7085586938e+00 -4.6913612730e+00 2.7085586938e+00 4.6913612730e+00 
45100 5.1314375127e+00 -1.7765067156e-02 2.7088880505e+00 -4.6919317355e+00 2.7088880505e+00 4.6919317355e+00 
45200 5.1314315348e+00 -1.7689220200e-02 2.7092159604e+00 -4.6924996922e+00 2.7092159604e+00 4.6924996922e+00 
45300 5.1314256059e+00 -1.7613734575e-02 2.7095424308e+00 -4.6930651554e+00 2.7095424308e+00 4.6930651554e+00 
45400 5.1314197255e+00 -1.7538608480e-02 2.7098674689e+00 -4.6936281378e+00 2.7098674689e+00 4.6936281378e+00 
45500 5.1314138932e+00 -1.7463840117e-02 2.7101910817e+00 -4.6941886517e+00 2.7101910817e+00 4.6941886517e+00 
45600 5.1314081086e+00 -1.7389427695e-02 2.7105132764e+00 -4.6947467093e+00 2.7105132764e+00 4.6947467093e+00 
45700 5.1314023710e+00 -1.7315369430e-02 2.7108340601e+00 -4.6953023230e+00 2.7108340601e+00 4.6953023230e+00 
45800 5.1313966802e+00 -1.7241663545e-02 2.7111534399e+00 -4.6958555050e+00 2.7111534399e+00 4.6958555050e+00 
45900 5.1313910357e+00 -1.7168308267e-02 2.7114714226e+00 -4.6964062673e+00 2.7114714226e+00 4.6964062673e+00 
46000 5.1313854370e+00 -1.7095301831e-02 2.7117880153e+00 -4.6969546219e+00 2.7117880153e+00 4.6969546219e+00 
46100 5.1313798837e+00 -1.7022642478e-02 2.7121032250e+00 -4.6975005810e+00 2.7121032250e+00 4.6975005810e+00 
46200 5.1313743753e+00 -1.6950328458e-02 2.7124170583e+00 -4.6980441564e+00 2.7124170583e+00 4.6980441564e+00 
46300 5.1313689115e+00 -1.6878358023e-02 2.7127295223e+00 -4.6985853599e+00 2.7127295223e+00 4.6985853599e+00 
46400 5.1313634918e+00 -1.6806729435e-02 2.7130406238e+00 -4.6991242034e+00 2.7130406238e+00 4.6991242034e+00 
46500 5.1313581159e+00 -1.6735440961e-02 2.7133503694e+00 -4.6996606985e+00 2.7133503694e+00 4.6996606985e+00 
46600 5.1313527832e+00 -1.6664490877e-02 2.7136587659e+00 -4.7001948570e+00 2.7136587659e+00 4.7001948570e+00 
46700 5.1313474934e+00 -1.6593877463e-02 2.7139658201e+00 -4.7007266905e+00 2.7139658201e+00 4.7007266905e+00 
46800 5.1313422462e+00 -1.6523599006e-02 2.7142715386e+00 -4.7012562104e+00 2.7142715386e+00 4.7012562104e+00 
46900 5.1313370410e+00 -1.6453653802e-02 2.7145759279e+00 -4.7017834282e+00 2.7145759279e+00 4.7017834282e+00 
47000 5.1313318776e+00 -1.6384040151e-02 2.7148789948e+00 -4.7023083554e+00 2.7148789948e+00 4.7023083554e+00 
47100 5.1313267555e+00 -1.6314756363e-02 2.7151807457e+00 -4.7028310033e+00 2.7151807457e+00 4.7028310033e+00 
47200 5.1313216744e+00 -1.6245800752e-02 2.7154811872e+00 -4.7033513832e+00 2.7154811872e+00 4.7033513832e+00 
47300 5.1313166338e+00 -1.6177171639e-02 2.7157803257e+00 -4.7038695062e+00 2.7157803257e+00 4.7038695062e+00 
47400 5.1313116334e+00 -1.6108867354e-02 2.7160781676e+00 -4.7043853837e+00 2.7160781676e+00 4.7043853837e+00 
47500 5.1313066729e+00 -1.6040886233e-02 2.7163747195e+00 -4.7048990265e+00 2.7163747195e+00 4.7048990265e+00 
47600 5.1313017519e+00 -1.5973226618e-02 2.7166699876e+00 -4.7054104459e+00 2.7166699876e+00 4.7054104459e+00 
47700 5.1312968699e+00 -1.5905886859e-02 2.7169639783e+00 -4.7059196528e+00 2.7169639783e+00 4.7059196528e+00 
47800 5.1312920268e+00 -1.5838865312e-02 2.7172566979e+00 -4.7064266580e+00 2.7172566979e+00 4.7064266580e+00 
47900 5.1312872220e+00 -1.5772160342e-02 2.7175481527e+00 -4.7069314725e+00 2.7175481527e+00 4.7069314725e+00 
48000 5.1312824553e+00 -1.5705770319e-02 2.7178383488e+00 -4.7074341070e+00 2.7178383488e+00 4.7074341070e+00 
48100 5.1312777263e+00 -1.5639693621e-02 2.7181272926e+00 -4.7079345722e+00 2.7181272926e+00 4.7079345722e+00 
48200 5.1312730347e+00 -1.5573928633e-02 2.7184149901e+00 -4.7084328789e+00 2.7184149901e+00 4.7084328789e+00 
48300 5.1312683802e+00 -1.5508473746e-02 2.7187014475e+00 -4.7089290377e+00 2.7187014475e+00 4.7089290377e+00 
48400 5.1312637624e+00 -1.5443327359e-02 2.7189866709e+00 -4.7094230591e+00 2.7189866709e+00 4.7094230591e+00 
48500 5.1312591809e+00 -1.5378487880e-02 2.7192706664e+00 -4.7099149537e+00 2.7192706664e+00 4.7099149537e+00 
48600 5.1312546355e+00 -1.5313953720e-02 2.7195534399e+00 -4.7104047317e+00 2.7195534399e+00 4.7104047317e+00 
48700 5.1312501259e+00 -1.5249723300e-02 2.7198349975e+00 -4.7108924038e+00 2.7198349975e+00 4.7108924038e+00 
48800 5.1312456517e+00 -1.5185795048e-02 2.7201153451e+00 -4.7113779801e+00 2.7201153451e+00 4.7113779801e+00 
48900 5.1312412126e+00 -1.5122167398e-02 2.7203944886e+00 -4.7118614710e+00 2.7203944886e+00 4.7118614710e+00 
49000 5.1312368083e+00 -1.5058838793e-02 2.7206724341e+00 -4.7123428866e+00 2.7206724341e+00 4.7123428866e+00 
49100 5.1312324385e+00 -1.4995807680e-02 2.7209491873e+00 -4.7128222371e+00 2.7209491873e+00 4.7128222371e+00 
49200 5.1312281028e+00 -1.4933072516e-02 2.7212247540e+00 -4.7132995327e+00 2.7212247540e+00 4.7132995327e+00 
49300 5.1312238011e+00 -1.4870631764e-02 2.7214991400e+00 -4.7137747833e+00 2.7214991400e+00 4.7137747833e+00 
49400 5.1312195329e+00 -1.4808483895e-02 2.7217723512e+00 -4.7142479990e+00 2.7217723512e+00 4.7142479990e+00 
49500 5.1312152981e+00 -1.4746627386e-02 2.7220443933e+00 -4.7147191896e+00 2.7220443933e+00 4.7147191896e+00 
49600 5.1312110963e+00 -1.4685060723e-02 2.7223152719e+00 -4.7151883651e+00 2.7223152719e+00 4.7151883651e+00 
49700 5.1312069271e+00 -1.4623782395e-02 2.7225849927e+00 -4.7156555353e+00 2.7225849927e+00 4.7156555353e+00 
49800 5.1312027905e+00 -1.4562790904e-02 2.7228535614e+00 -4.7161207100e+00 2.7228535614e+00 4.7161207100e+00 
49900 5.1311986859e+00 -1.4502084755e-02 2.7231209836e+00 -4.7165838988e+00 2.7231209836e+00 4.7165838988e+00 
50000 5.1311946133e+00 -1.4441662462e-02 2.7233872649e+00 -4.7170451115e+00 2.7233872649e+00 4.7170451115e+00 
50100 5.1311905722e+00 -1.4381522545e-02 2.7236524107e+00 -4.7175043575e+00 2.7236524107e+00 4.7175043575e+00 
50200 5.1311865625e+00 -1.4321663532e-02 2.7239164267e+00 -4.7179616466e+00 2.7239164267e+00 4.7179616466e+00 
50300 5.1311825838e+00 -1.4262083958e-02 2.7241793183e+00 -4.7184169882e+00 2.7241793183e+00 4.7184169882e+00 
50400 5.1311786360e+00 -1.4202782364e-02 2.7244410909e+00 -4.7188703917e+00 2.7244410909e+00 4.7188703917e+00 
50500 5.1311747186e+00 -1.4143757302e-02 2.7247017501e+00 -4.7193218666e+00 2.7247017501e+00 4.7193218666e+00 
50600 5.1311708315e+00 -1.4085007326e-02 2.7249613011e+00 -4.7197714221e+00 2.7249613011e+00 4.7197714221e+00 
50700 5.1311669744e+00 -1.4026531000e-02 2.7252197493e+00 -4.7202190676e+00 2.7252197493e+00 4.7202190676e+00 
50800 5.1311631471e+00 -1.3968326895e-02 2.7254771002e+00 -4.7206648123e+00 2.7254771002e+00 4.7206648123e+00 
50900 5.1311593493e+00 -1.3910393589e-02 2.7257333589e+00 -4.7211086655e+00 2.7257333589e+00 4.7211086655e+00 
51000 5.1311555807e+00 -1.3852729666e-02 2.7259885308e+00 -4.7215506362e+00 2.7259885308e+00 4.7215506362e+00 
51100 5.1311518411e+00 -1.3795333719e-02 2.7262426211e+00 -4.7219907335e+00 2.7262426211e+00 4.7219907335e+00 
51200 5.1311481302e+00 -1.3738204347e-02 2.7264956350e+00 -4.7224289664e+00 2.7264956350e+00 4.7224289664e+00 
51300 5.1311444479e+00 -1.3681340157e-02 2.7267475778e+00 -4.7228653441e+00 2.7267475778e+00 4.7228653441e+00 
51400 5.1311407938e+00 -1.3624739760e-02 2.7269984545e+00 -4.7232998753e+00 2.7269984545e+00 4.7232998753e+00 
51500 5.1311371678e+00 -1.3568401778e-02 2.7272482703e+00 -4.7237325690e+00 2.7272482703e+00 4.7237325690e+00 
51600 5.1311335696e+00 -1.3512324839e-02 2.7274970304e+00 -4.7241634341e+00 2.7274970304e+00 4.7241634341e+00 
51700 5.1311299989e+00 -1.3456507576e-02 2.7277447397e+00 -4.7245924792e+00 2.7277447397e+00 4.7245924792e+00 
51800 5.1311264555e+00 -1.3400948631e-02 2.7279914033e+00 -4.7250197132e+00 2.7279914033e+00 4.7250197132e+00 
51900 5.1311229393e+00 -1.3345646653e-02 2.7282370264e+00 -4.7254451448e+00 2.7282370264e+00 4.7254451448e+00 
52000 5.1311194499e+00 -1.3290600298e-02 2.7284816137e+00 -4.7258687825e+00 2.7284816137e+00 4.7258687825e+00 
52100 5.1311159872e+00 -1.3235808227e-02 2.7287251704e+00 -4.7262906350e+00 2.7287251704e+00 4.7262906350e+00 
52200 5.1311125509e+00 -1.3181269110e-02 2.7289677013e+00 -4.7267107109e+00 2.7289677013e+00 4.7267107109e+00 
52300 5.1311091408e+00 -1.3126981624e-02 2.7292092114e+00 -4.7271290186e+00 2.7292092114e+00 4.7271290186e+00 
52400 5.1311057567e+00 -1.3072944451e-02 2.7294497055e+00 -4.7275455666e+00 2.7294497055e+00 4.7275455666e+00 
52500 5.1311023983e+00 -1.3019156283e-02 2.7296891885e+00 -4.7279603633e+00 2.7296891885e+00 4.7279603633e+00 
52600 5.1310990656e+00 -1.2965615817e-02 2.7299276652e+00 -4.7283734171e+00 2.7299276652e+00 4.7283734171e+00 
52700 5.1310957581e+00 -1.2912321756e-02 2.7301651404e+00 -4.7287847363e+00 2.7301651404e+00 4.7287847363e+00 
52800 5.1310924758e+00 -1.2859272811e-02 2.7304016189e+00 -4.7291943291e+00 2.7304016189e+00 4.7291943291e+00 
52900 5.1310892185e+00 -1.2806467701e-02 2.7306371055e+00 -4.7296022037e+00 2.7306371055e+00 4.7296022037e+00 
53000 5.1310859859e+00 -1.2753905149e-02 2.7308716048e+00 -4.7300083685e+00 2.7308716048e+00 4.7300083685e+00 
53100 5.1310827778e+00 -1.2701583888e-02 2.7311051216e+00 -4.7304128314e+00 2.7311051216e+00 4.7304128314e+00 
53200 5.1310795940e+00 -1.2649502656e-02 2.7313376605e+00 -4.7308156006e+00 2.7313376605e+00 4.7308156006e+00 
53300 5.1310764343e+00 -1.2597660197e-02 2.7315692262e+00 -4.7312166841e+00 2.7315692262e+00 4.7312166841e+00 
53400 5.1310732986e+00 -1.2546055263e-02 2.7317998233e+00 -4.7316160900e+00 2.7317998233e+00 4.7316160900e+00 
53500 5.1310701866e+00 -1.2494686614e-02 2.7320294563e+00 -4.7320138261e+00 2.7320294563e+00 4.7320138261e+00 
53600 5.1310670981e+00 -1.2443553013e-02 2.7322581299e+00 -4.7324099004e+00 2.7322581299e+00 4.7324099004e+00 
53700 5.1310640330e+00 -1.2392653233e-02 2.7324858486e+00 -4.7328043208e+00 2.7324858486e+00 4.7328043208e+00 
53800 5.1310609911e+00 -1.2341986052e-02 2.7327126170e+00 -4.7331970951e+00 2.7327126170e+00 4.7331970951e+00 
53900 5.1310579721e+00 -1.2291550256e-02 2.7329384394e+00 -4.7335882310e+00 2.7329384394e+00 4.7335882310e+00 
54000 5.1310549759e+00 -1.2241344637e-02 2.7331633204e+00 -4.7339777363e+00 2.7331633204e+00 4.7339777363e+00 
54100 5.1310520022e+00 -1.2191367992e-02 2.7333872644e+00 -4.7343656187e+00 2.7333872644e+00 4.7343656187e+00 
54200 5.1310490510e+00 -1.2141619127e-02 2.7336102759e+00 -4.7347518859e+00 2.7336102759e+00 4.7347518859e+00 
54300 5.1310461220e+00 -1.2092096854e-02 2.7338323592e+00 -4.7351365455e+00 2.7338323592e+00 4.7351365455e+00 
54400 5.1310432151e+00 -1.2042799989e-02 2.7340535187e+00 -4.7355196050e+00 2.7340535187e+00 4.7355196050e+00 
54500 5.1310403301e+00 -1.1993727359e-02 2.7342737587e+00 -4.7359010719e+00 2.7342737587e+00 4.7359010719e+00 
54600 5.1310374667e+00 -1.1944877793e-02 2.7344930836e+00 -4.7362809538e+00 2.7344930836e+00 4.7362809538e+00 
54700 5.1310346249e+00 -1.1896250130e-02 2.7347114977e+00 -4.7366592581e+00 2.7347114977e+00 4.7366592581e+00 
54800 5.1310318044e+00 -1.1847843214e-02 2.7349290053e+00 -4.7370359923e+00 2.7349290053e+00 4.7370359923e+00 
54900 5.1310290051e+00 -1.1799655894e-02 2.7351456105e+00 -4.7374111636e+00 2.7351456105e+00 4.7374111636e+00 
55000 5.1310262268e+00 -1.1751687027e-02 2.7353613177e+00 -4.7377847794e+00 2.7353613177e+00 4.7377847794e+00 
55100 5.1310234694e+00 -1.1703935477e-02 2.7355761310e+00 -4.7381568469e+00 2.7355761310e+00 4.7381568469e+00 
55200 5.1310207326e+00 -1.1656400112e-02 2.7357900547e+00 -4.7385273735e+00 2.7357900547e+00 4.7385273735e+00 
55300 5.1310180163e+00 -1.1609079810e-02 2.7360030928e+00 -4.7388963664e+00 2.7360030928e+00 4.7388963664e+00 
55400 5.1310153204e+00 -1.1561973450e-02 2.7362152495e+00 -4.7392638326e+00 2.7362152495e+00 4.7392638326e+00 
55500 5.1310126447e+00 -1.1515079923e-02 2.7364265290e+00 -4.7396297794e+00 2.7364265290e+00 4.7396297794e+00 
55600 5.1310099890e+00 -1.1468398121e-02 2.7366369353e+00 -4.7399942138e+00 2.7366369353e+00 4.7399942138e+00 
55700 5.1310073531e+00 -1.1421926947e-02 2.7368464725e+00 -4.7403571429e+00 2.7368464725e+00 4.7403571429e+00 
55800 5.1310047370e+00 -1.1375665306e-02 2.7370551446e+00 -4.7407185736e+00 2.7370551446e+00 4.7407185736e+00 
55900 5.1310021404e+00 -1.1329612111e-02 2.7372629557e+00 -4.7410785130e+00 2.7372629557e+00 4.7410785130e+00 
56000 5.1309995632e+00 -1.1283766282e-02 2.7374699098e+00 -4.7414369680e+00 2.7374699098e+00 4.7414369680e+00 
56100 5.1309970053e+00 -1.1238126745e-02 2.7376760109e+00 -4.7417939455e+00 2.7376760109e+00 4.7417939455e+00 
56200 5.1309944664e+00 -1.1192692429e-02 2.7378812628e+00 -4.7421494523e+00 2.7378812628e+00 4.7421494523e+00 
56300 5.1309919465e+00 -1.1147462272e-02 2.7380856696e+00 -4.7425034953e+00 2.7380856696e+00 4.7425034953e+00 
56400 5.1309894453e+00 -1.1102435219e-02 2.7382892352e+00 -4.7428560812e+00 2.7382892352e+00 4.7428560812e+00 
56500 5.1309869628e+00 -1.1057610217e-02 2.7384919635e+00 -4.7432072169e+00 2.7384919635e+00 4.7432072169e+00 
56600 5.1309844988e+00 -1.1012986222e-02 2.7386938583e+00 -4.7435569089e+00 2.7386938583e+00 4.7435569089e+00 
56700 5.1309820532e+00 -1.0968562196e-02 2.7388949235e+00 -4.7439051641e+00 2.7388949235e+00 4.7439051641e+00 
56800 5.1309796257e+00 -1.0924337105e-02 2.7390951629e+00 -4.7442519890e+00 2.7390951629e+00 4.7442519890e+00 
56900 5.1309772164e+00 -1.0880309922e-02 2.7392945804e+00 -4.7445973902e+00 2.7392945804e+00 4.7445973902e+00 
57000 5.1309748249e+00 -1.0836479627e-02 2.7394931798e+00 -4.7449413743e+00 2.7394931798e+00 4.7449413743e+00 
57100 5.1309724512e+00 -1.0792845203e-02 2.7396909647e+00 -4.7452839479e+00 2.7396909647e+00 4.7452839479e+00 
57200 5.1309700952e+00 -1.0749405641e-02 2.7398879390e+00 -4.7456251174e+00 2.7398879390e+00 4.7456251174e+00 
57300 5.1309677567e+00 -1.0706159937e-02 2.7400841064e+00 -4.7459648893e+00 2.7400841064e+00 4.7459648893e+00 
57400 5.1309654355e+00 -1.0663107094e-02 2.7402794706e+00 -4.7463032700e+00 2.7402794706e+00 4.7463032700e+00 
57500 5.1309631315e+00 -1.0620246117e-02 2.7404740353e+00 -4.7466402660e+00 2.7404740353e+00 4.7466402660e+00 
57600 5.1309608447e+00 -1.0577576022e-02 2.7406678042e+00 -4.7469758835e+00 2.7406678042e+00 4.7469758835e+00 
57700 5.1309585748e+00 -1.0535095827e-02 2.7408607809e+00 -4.7473101290e+00 2.7408607809e+00 4.7473101290e+00 
57800 5.1309563218e+00 -1.0492804555e-02 2.7410529690e+00 -4.7476430086e+00 2.7410529690e+00 4.7476430086e+00 
57900 5.1309540854e+00 -1.0450701238e-02 2.7412443722e+00 -4.7479745287e+00 2.7412443722e+00 4.7479745287e+00 
58000 5.1309518657e+00 -1.0408784911e-02 2.7414349941e+00 -4.7483046954e+00 2.7414349941e+00 4.7483046954e+00 
58100 5.1309496623e+00 -1.0367054616e-02 2.7416248382e+00 -4.7486335151e+00 2.7416248382e+00 4.7486335151e+00 
58200 5.1309474753e+00 -1.0325509398e-02 2.7418139081e+00 -4.7489609937e+00 2.7418139081e+00 4.7489609937e+00 
58300 5.1309453045e+00 -1.0284148310e-02 2.7420022073e+00 -4.7492871375e+00 2.7420022073e+00 4.7492871375e+00 
58400 5.1309431497e+00 -1.0242970410e-02 2.7421897393e+00 -4.7496119525e+00 2.7421897393e+00 4.7496119525e+00 
58500 5.1309410109e+00 -1.0201974761e-02 2.7423765077e+00 -4.7499354448e+00 2.7423765077e+00 4.7499354448e+00 
58600 5.1309388879e+00 -1.0161160431e-02 2.7425625159e+00 -4.7502576205e+00 2.7425625159e+00 4.7502576205e+00 
58700 5.1309367806e+00 -1.0120526494e-02 2.7427477674e+00 -4.7505784854e+00 2.7427477674e+00 4.7505784854e+00 
58800 5.1309346888e+00 -1.0080072029e-02 2.7429322656e+00 -4.7508980457e+00 2.7429322656e+00 4.7508980457e+00 
58900 5.1309326125e+00 -1.0039796121e-02 2.7431160139e+00 -4.7512163071e+00 2.7431160139e+00 4.7512163071e+00 
59000 5.1309305516e+00 -9.9996978595e-03 2.7432990158e+00 -4.7515332757e+00 2.7432990158e+00 4.7515332757e+00 
59100 5.1309285059e+00 -9.9597763391e-03 2.7434812746e+00 -4.7518489572e+00 2.7434812746e+00 4.7518489572e+00 
59200 5.1309264752e+00 -9.9200306602e-03 2.7436627937e+00 -4.7521633575e+00 2.7436627937e+00 4.7521633575e+00 
59300 5.1309244596e+00 -9.8804599282e-03 2.7438435765e+00 -4.7524764825e+00 2.7438435765e+00 4.7524764825e+00 
59400 5.1309224588e+00 -9.8410632537e-03 2.7440236263e+00 -4.7527883378e+00 2.7440236263e+00 4.7527883378e+00 
59500 5.1309204727e+00 -9.8018397524e-03 2.7442029463e+00 -4.7530989293e+00 2.7442029463e+00 4.7530989293e+00 
59600 5.1309185013e+00 -9.7627885450e-03 2.7443815400e+00 -4.7534082627e+00 2.7443815400e+00 4.7534082627e+00 
59700 5.1309165445e+00 -9.7239087575e-03 2.7445594106e+00 -4.7537163435e+00 2.7445594106e+00 4.7537163435e+00 
59800 5.1309146020e+00 -9.6851995208e-03 2.7447365613e+00 -4.7540231776e+00 2.7447365613e+00 4.7540231776e+00 
59900 5.1309126739e+00 -9.6466599708e-03 2.7449129954e+00 -4.7543287704e+00 2.7449129954e+00 4.7543287704e+00 
60000 5.1309107599e+00 -9.6082892486e-03 2.7450887162e+00 -4.7546331277e+00 2.7450887162e+00 4.7546331277e+00 
60100 5.1309088601e+00 -9.5700865000e-03 2.7452637267e+00 -4.7549362549e+00 2.7452637267e+00 4.7549362549e+00 
60200 5.1309069742e+00 -9.5320508759e-03 2.7454380303e+00 -4.7552381576e+00 2.7454380303e+00 4.7552381576e+00 
60300 5.1309051022e+00 -9.4941815321e-03 2.7456116302e+00 -4.7555388413e+00 2.7456116302e+00 4.7555388413e+00 
60400 5.1309032440e+00 -9.4564776292e-03 2.7457845294e+00 -4.7558383115e+00 2.7457845294e+00 4.7558383115e+00 
60500 5.1309013994e+00 -9.4189383328e-03 2.7459567311e+00 -4.7561365736e+00 2.7459567311e+00 4.7561365736e+00 
60600 5.1308995684e+00 -9.3815628132e-03 2.7461282385e+00 -4.7564336331e+00 2.7461282385e+00 4.7564336331e+00 
60700 5.1308977508e+00 -9.3443502455e-03 2.7462990546e+00 -4.7567294953e+00 2.7462990546e+00 4.7567294953e+00 
60800 5.1308959466e+00 -9.3072998098e-03 2.7464691826e+00 -4.7570241657e+00 2.7464691826e+00 4.7570241657e+00 
60900 5.1308941557e+00 -9.2704106906e-03 2.7466386255e+00 -4.7573176494e+00 2.7466386255e+00 4.7573176494e+00 
61000 5.1308923779e+00 -9.2336820774e-03 2.7468073864e+00 -4.7576099519e+00 2.7468073864e+00 4.7576099519e+00 
61100 5.1308906132e+00 -9.1971131642e-03 2.7469754684e+00 -4.7579010784e+00 2.7469754684e+00 4.7579010784e+00 
61200 5.1308888614e+00 -9.1607031498e-03 2.7471428745e+00 -4.7581910342e+00 2.7471428745e+00 4.7581910342e+00 
61300 5.1308871224e+00 -9.1244512375e-03 2.7473096076e+00 -4.7584798245e+00 2.7473096076e+00 4.7584798245e+00 
61400 5.1308853963e+00 -9.0883566354e-03 2.7474756709e+00 -4.7587674545e+00 2.7474756709e+00 4.7587674545e+00 
61500 5.1308836828e+00 -9.0524185561e-03 2.7476410672e+00 -4.7590539294e+00 2.7476410672e+00 4.7590539294e+00 
61600 5.1308819818e+00 -9.0166362167e-03 2.7478057996e+00 -4.7593392542e+00 2.7478057996e+00 4.7593392542e+00 
61700 5.1308802934e+00 -8.9810088388e-03 2.7479698710e+00 -4.7596234342e+00 2.7479698710e+00 4.7596234342e+00 
61800 5.1308786173e+00 -8.9455356487e-03 2.7481332843e+00 -4.7599064744e+00 2.7481332843e+00 4.7599064744e+00 
61900 5.1308769535e+00 -8.9102158769e-03 2.7482960425e+00 -4.7601883798e+00 2.7482960425e+00 4.7601883798e+00 
62000 5.1308753018e+00 -8.8750487586e-03 2.7484581484e+00 -4.7604691556e+00 2.7484581484e+00 4.7604691556e+00 
62100 5.1308736623e+00 -8.8400335333e-03 2.7486196051e+00 -4.7607488067e+00 2.7486196051e+00 4.7607488067e+00 
62200 5.1308720348e+00 -8.8051694449e-03 2.7487804152e+00 -4.7610273380e+00 2.7487804152e+00 4.7610273380e+00 
62300 5.1308704192e+00 -8.7704557418e-03 2.7489405818e+00 -4.7613047547e+00 2.7489405818e+00 4.7613047547e+00 
62400 5.1308688154e+00 -8.7358916764e-03 2.7491001076e+00 -4.7615810615e+00 2.7491001076e+00 4.7615810615e+00 
62500 5.1308672234e+00 -8.7014765059e-03 2.7492589956e+00 -4.7618562635e+00 2.7492589956e+00 4.7618562635e+00 
62600 5.1308656430e+00 -8.6672094914e-03 2.7494172484e+00 -4.7621303654e+00 2.7494172484e+00 4.7621303654e+00 
62700 5.1308640742e+00 -8.6330898985e-03 2.7495748689e+00 -4.7624033722e+00 2.7495748689e+00 4.7624033722e+00 
62800 5.1308625168e+00 -8.5991169968e-03 2.7497318599e+00 -4.7626752886e+00 2.7497318599e+00 4.7626752886e+00 
62900 5.1308609709e+00 -8.5652900605e-03 2.7498882243e+00 -4.7629461196e+00 2.7498882243e+00 4.7629461196e+00 
63000 5.1308594362e+00 -8.5316083676e-03 2.7500439646e+00 -4.7632158697e+00 2.7500439646e+00 4.7632158697e+00 
63100 5.1308579128e+00 -8.4980712005e-03 2.7501990837e+00 -4.7634845440e+00 2.7501990837e+00 4.7634845440e+00 
63200 5.1308564005e+00 -8.4646778456e-03 2.7503535844e+00 -4.7637521469e+00 2.7503535844e+00 4.7637521469e+00 
63300 5.1308548993e+00 -8.4314275935e-03 2.7505074693e+00 -4.7640186834e+00 2.7505074693e+00 4.7640186834e+00 
63400 5.1308534090e+00 -8.3983197389e-03 2.7506607411e+00 -4.7642841580e+00 2.7506607411e+00 4.7642841580e+00 
63500 5.1308519296e+00 -8.3653535805e-03 2.7508134025e+00 -4.7645485753e+00 2.7508134025e+00 4.7645485753e+00 
63600 5.1308504610e+00 -8.3325284211e-03 2.7509654563e+00 -4.7648119402e+00 2.7509654563e+00 4.7648119402e+00 
63700 5.1308490031e+00 -8.2998435675e-03 2.7511169050e+00 -4.7650742571e+00 2.7511169050e+00 4.7650742571e+00 
63800 5.1308475559e+00 -8.2672983304e-03 2.7512677514e+00 -4.7653355307e+00 2.7512677514e+00 4.7653355307e+00 
63900 5.1308461192e+00 -8.2348920247e-03 2.7514179980e+00 -4.7655957654e+00 2.7514179980e+00 4.7655957654e+00 
64000 5.1308446931e+00 -8.2026239689e-03 2.7515676475e+00 -4.7658549660e+00 2.7515676475e+00 4.7658549660e+00 
64100 5.1308432773e+00 -8.1704934857e-03 2.7517167025e+00 -4.7661131368e+00 2.7517167025e+00 4.7661131368e+00 
64200 5.1308418719e+00 -8.1384999015e-03 2.7518651656e+00 -4.7663702824e+00 2.7518651656e+00 4.7663702824e+00 
64300 5.1308404767e+00 -8.1066425468e-03 2.7520130394e+00 -4.7666264073e+00 2.7520130394e+00 4.7666264073e+00 
64400 5.1308390917e+00 -8.0749207557e-03 2.7521603264e+00 -4.7668815158e+00 2.7521603264e+00 4.7668815158e+00 
64500 5.1308377168e+00 -8.0433338663e-03 2.7523070292e+00 -4.7671356125e+00 2.7523070292e+00 4.7671356125e+00 
64600 5.1308363519e+00 -8.0118812203e-03 2.7524531503e+00 -4.7673887018e+00 2.7524531503e+00 4.7673887018e+00 
64700 5.1308349970e+00 -7.9805621634e-03 2.7525986923e+00 -4.7676407880e+00 2.7525986923e+00 4.7676407880e+00 
64800 5.1308336519e+00 -7.9493760449e-03 2.7527436577e+00 -4.7678918754e+00 2.7527436577e+00 4.7678918754e+00 
64900 5.1308323167e+00 -7.9183222179e-03 2.7528880491e+00 -4.7681419685e+00 2.7528880491e+00 4.7681419685e+00 
65000 5.1308309911e+00 -7.8874000391e-03 2.7530318688e+00 -4.7683910716e+00 2.7530318688e+00 4.7683910716e+00 
65100 5.1308296753e+00 -7.8566088690e-03 2.7531751193e+00 -4.7686391888e+00 2.7531751193e+00 4.7686391888e+00 
65200 5.1308283690e+00 -7.8259480718e-03 2.7533178033e+00 -4.7688863247e+00 2.7533178033e+00 4.7688863247e+00 
65300 5.1308270722e+00 -7.7954170151e-03 2.7534599230e+00 -4.7691324832e+00 2.7534599230e+00 4.7691324832e+00 
65400 5.1308257849e+00 -7.7650150703e-03 2.7536014810e+00 -4.7693776688e+00 2.7536014810e+00 4.7693776688e+00 
65500 5.1308245069e+00 -7.7347416123e-03 2.7537424796e+00 -4.7696218856e+00 2.7537424796e+00 4.7696218856e+00 
65600 5.1308232383e+00 -7.7045960197e-03 2.7538829213e+00 -4.7698651379e+00 2.7538829213e+00 4.7698651379e+00 
65700 5.1308219789e+00 -7.6745776745e-03 2.7540228086e+00 -4.7701074297e+00 2.7540228086e+00 4.7701074297e+00 
65800 5.1308207286e+00 -7.6446859622e-03 2.7541621437e+00 -4.7703487652e+00 2.7541621437e+00 4.7703487652e+00 
65900 5.1308194875e+00 -7.6149202721e-03 2.7543009291e+00 -4.7705891485e+00 2.7543009291e+00 4.7705891485e+00 
66000 5.1308182554e+00 -7.5852799965e-03 2.7544391672e+00 -4.7708285839e+00 2.7544391672e+00 4.7708285839e+00 
66100 5.1308170322e+00 -7.5557645315e-03 2.7545768602e+00 -4.7710670753e+00 2.7545768602e+00 4.7710670753e+00 
66200 5.1308158179e+00 -7.5263732765e-03 2.7547140106e+00 -4.7713046267e+00 2.7547140106e+00 4.7713046267e+00 
66300 5.1308146125e+00 -7.4971056344e-03 2.7548506207e+00 -4.7715412424e+00 2.7548506207e+00 4.7715412424e+00 
66400 5.1308134159e+00 -7.4679610114e-03 2.7549866929e+00 -4.7717769262e+00 2.7549866929e+00 4.7717769262e+00 
66500 5.1308122279e+00 -7.4389388171e-03 2.7551222293e+00 -4.7720116822e+00 2.7551222293e+00 4.7720116822e+00 
66600 5.1308110486e+00 -7.4100384644e-03 2.7552572324e+00 -4.7722455144e+00 2.7552572324e+00 4.7722455144e+00 
66700 5.1308098778e+00 -7.3812593698e-03 2.7553917044e+00 -4.7724784267e+00 2.7553917044e+00 4.7724784267e+00 
66800 5.1308087156e+00 -7.3526009526e-03 2.7555256476e+00 -4.7727104232e+00 2.7555256476e+00 4.7727104232e+00 
66900 5.1308075618e+00 -7.3240626358e-03 2.7556590642e+00 -4.7729415076e+00 2.7556590642e+00 4.7729415076e+00 
67000 5.1308064164e+00 -7.2956438455e-03 2.7557919566e+00 -4.7731716839e+00 2.7557919566e+00 4.7731716839e+00 
67100 5.1308052793e+00 -7.2673440112e-03 2.7559243269e+00 -4.7734009561e+00 2.7559243269e+00 4.7734009561e+00 
67200 5.1308041505e+00 -7.2391625652e-03 2.7560561775e+00 -4.7736293279e+00 2.7560561775e+00 4.7736293279e+00 
67300 5.1308030299e+00 -7.2110989436e-03 2.7561875104e+00 -4.7738568033e+00 2.7561875104e+00 4.7738568033e+00 
67400 5.1308019174e+00 -7.1831525852e-03 2.7563183280e+00 -4.7740833860e+00 2.7563183280e+00 4.7740833860e+00 
67500 5.1308008130e+00 -7.1553229322e-03 2.7564486324e+00 -4.7743090798e+00 2.7564486324e+00 4.7743090798e+00 
67600 5.1307997166e+00 -7.1276094298e-03 2.7565784259e+00 -4.7745338887e+00 2.7565784259e+00 4.7745338887e+00 
67700 5.1307986282e+00 -7.1000115264e-03 2.7567077105e+00 -4.7747578162e+00 2.7567077105e+00 4.7747578162e+00 
67800 5.1307975477e+00 -7.0725286736e-03 2.7568364885e+00 -4.7749808663e+00 2.7568364885e+00 4.7749808663e+00 
67900 5.1307964750e+00 -7.0451603259e-03 2.7569647621e+00 -4.7752030426e+00 2.7569647621e+00 4.7752030426e+00 
68000 5.1307954101e+00 -7.0179059409e-03 2.7570925333e+00 -4.7754243488e+00 2.7570925333e+00 4.7754243488e+00 
68100 5.1307943529e+00 -6.9907649793e-03 2.7572198043e+00 -4.7756447887e+00 2.7572198043e+00 4.7756447887e+00 
68200 5.1307933034e+00 -6.9637369049e-03 2.7573465773e+00 -4.7758643659e+00 2.7573465773e+00 4.7758643659e+00 
68300 5.1307922616e+00 -6.9368211843e-03 2.7574728543e+00 -4.7760830841e+00 2.7574728543e+00 4.7760830841e+00 
68400 5.1307912273e+00 -6.9100172871e-03 2.7575986375e+00 -4.7763009470e+00 2.7575986375e+00 4.7763009470e+00 
68500 5.1307902005e+00 -6.8833246861e-03 2.7577239289e+00 -4.7765179581e+00 2.7577239289e+00 4.7765179581e+00 
68600 5.1307891811e+00 -6.8567428569e-03 2.7578487307e+00 -4.7767341211e+00 2.7578487307e+00 4.7767341211e+00 
68700 5.1307881691e+00 -6.8302712779e-03 2.7579730449e+00 -4.7769494396e+00 2.7579730449e+00 4.7769494396e+00 
68800 5.1307871645e+00 -6.8039094306e-03 2.7580968735e+00 -4.7771639171e+00 2.7580968735e+00 4.7771639171e+00 
68900 5.1307861672e+00 -6.7776567994e-03 2.7582202187e+00 -4.7773775573e+00 2.7582202187e+00 4.7773775573e+00 
69000 5.1307851770e+00 -6.7515128713e-03 2.7583430825e+00 -4.7775903636e+00 2.7583430825e+00 4.7775903636e+00 
69100 5.1307841941e+00 -6.7254771364e-03 2.7584654669e+00 -4.7778023396e+00 2.7584654669e+00 4.7778023396e+00 
69200 5.1307832183e+00 -6.6995490877e-03 2.7585873739e+00 -4.7780134888e+00 2.7585873739e+00 4.7780134888e+00 
69300 5.1307822496e+00 -6.6737282208e-03 2.7587088056e+00 -4.7782238146e+00 2.7587088056e+00 4.7782238146e+00 
69400 5.1307812879e+00 -6.6480140342e-03 2.7588297640e+00 -4.7784333206e+00 2.7588297640e+00 4.7784333206e+00 
69500 5.1307803331e+00 -6.6224060291e-03 2.7589502510e+00 -4.7786420102e+00 2.7589502510e+00 4.7786420102e+00 
69600 5.1307793853e+00 -6.5969037096e-03 2.7590702686e+00 -4.7788498869e+00 2.7590702686e+00 4.7788498869e+00 
69700 5.1307784444e+00 -6.5715065825e-03 2.7591898189e+00 -4.7790569540e+00 2.7591898189e+00 4.7790569540e+00 
69800 5.1307775103e+00 -6.5462141573e-03 2.7593089037e+00 -4.7792632150e+00 2.7593089037e+00 4.7792632150e+00 
69900 5.1307765829e+00 -6.5210259461e-03 2.7594275251e+00 -4.7794686733e+00 2.7594275251e+00 4.7794686733e+00 
70000 5.1307756623e+00 -6.4959414640e-03 2.7595456850e+00 -4.7796733322e+00 2.7595456850e+00 4.7796733322e+00 
70100 5.1307747483e+00 -6.4709602284e-03 2.7596633853e+00 -4.7798771951e+00 2.7596633853e+00 4.7798771951e+00 
70200 5.1307738409e+00 -6.4460817596e-03 2.7597806279e+00 -4.7800802654e+00 2.7597806279e+00 4.7800802654e+00 
70300 5.1307729402e+00 -6.4213055805e-03 2.7598974149e+00 -4.7802825463e+00 2.7598974149e+00 4.7802825463e+00 
70400 5.1307720459e+00 -6.3966312167e-03 2.7600137480e+00 -4.7804840412e+00 2.7600137480e+00 4.7804840412e+00 
70500 5.1307711581e+00 -6.3720581961e-03 2.7601296293e+00 -4.7806847534e+00 2.7601296293e+00 4.7806847534e+00 
70600 5.1307702768e+00 -6.3475860495e-03 2.7602450605e+00 -4.7808846861e+00 2.7602450605e+00 4.7808846861e+00 
70700 5.1307694018e+00 -6.3232143102e-03 2.7603600436e+00 -4.7810838427e+00 2.7603600436e+00 4.7810838427e+00 
70800 5.1307685332e+00 -6.2989425140e-03 2.7604745804e+00 -4.7812822263e+00 2.7604745804e+00 4.7812822263e+00 
70900 5.1307676708e+00 -6.2747701993e-03 2.7605886729e+00 -4.7814798402e+00 2.7605886729e+00 4.7814798402e+00 
71000 5.1307668147e+00 -6.2506969070e-03 2.7607023228e+00 -4.7816766876e+00 2.7607023228e+00 4.7816766876e+00 
71100 5.1307659648e+00 -6.2267221805e-03 2.7608155320e+00 -4.7818727718e+00 2.7608155320e+00 4.7818727718e+00 
71200 5.1307651211e+00 -6.2028455657e-03 2.7609283024e+00 -4.7820680958e+00 2.7609283024e+00 4.7820680958e+00 
71300 5.1307642834e+00 -6.1790666109e-03 2.7610406358e+00 -4.7822626629e+00 2.7610406358e+00 4.7822626629e+00 
71400 5.1307634519e+00 -6.1553848671e-03 2.7611525339e+00 -4.7824564762e+00 2.7611525339e+00 4.7824564762e+00 
71500 5.1307626263e+00 -6.1317998874e-03 2.7612639987e+00 -4.7826495389e+00 2.7612639987e+00 4.7826495389e+00 
71600 5.1307618067e+00 -6.1083112277e-03 2.7613750320e+00 -4.7828418541e+00 2.7613750320e+00 4.7828418541e+00 
71700 5.1307609931e+00 -6.0849184459e-03 2.7614856354e+00 -4.7830334249e+00 2.7614856354e+00 4.7830334249e+00 
71800 5.1307601853e+00 -6.0616211028e-03 2.7615958109e+00 -4.7832242544e+00 2.7615958109e+00 4.7832242544e+00 
71900 5.1307593834e+00 -6.0384187611e-03 2.7617055601e+00 -4.7834143457e+00 2.7617055601e+00 4.7834143457e+00 
72000 5.1307585872e+00 -6.0153109861e-03 2.7618148849e+00 -4.7836037018e+00 2.7618148849e+00 4.7836037018e+00 
72100 5.1307577969e+00 -5.9922973456e-03 2.7619237871e+00 -4.7837923258e+00 2.7619237871e+00 4.7837923258e+00 
72200 5.1307570122e+00 -5.9693774093e-03 2.7620322683e+00 -4.7839802208e+00 2.7620322683e+00 4.7839802208e+00 
72300 5.1307562333e+00 -5.9465507498e-03 2.7621403303e+00 -4.7841673897e+00 2.7621403303e+00 4.7841673897e+00 
72400 5.1307554599e+00 -5.9238169414e-03 2.7622479749e+00 -4.7843538356e+00 2.7622479749e+00 4.7843538356e+00 
72500 5.1307546922e+00 -5.9011755612e-03 2.7623552038e+00 -4.7845395615e+00 2.7623552038e+00 4.7845395615e+00 
72600 5.1307539300e+00 -5.8786261883e-03 2.7624620187e+00 -4.7847245703e+00 2.7624620187e+00 4.7847245703e+00 
72700 5.1307531733e+00 -5.8561684041e-03 2.7625684213e+00 -4.7849088650e+00 2.7625684213e+00 4.7849088650e+00 
72800 5.1307524221e+00 -5.8338017924e-03 2.7626744133e+00 -4.7850924487e+00 2.7626744133e+00 4.7850924487e+00 
72900 5.1307516763e+00 -5.8115259391e-03 2.7627799965e+00 -4.7852753241e+00 2.7627799965e+00 4.7852753241e+00 
73000 5.1307509359e+00 -5.7893404322e-03 2.7628851725e+00 -4.7854574943e+00 2.7628851725e+00 4.7854574943e+00 
73100 5.1307502009e+00 -5.7672448622e-03 2.7629899430e+00 -4.7856389621e+00 2.7629899430e+00 4.7856389621e+00 
73200 5.1307494712e+00 -5.7452388217e-03 2.7630943097e+00 -4.7858197305e+00 2.7630943097e+00 4.7858197305e+00 
73300 5.1307487467e+00 -5.7233219052e-03 2.7631982742e+00 -4.7859998023e+00 2.7631982742e+00 4.7859998023e+00 
73400 5.1307480275e+00 -5.7014937098e-03 2.7633018382e+00 -4.7861791804e+00 2.7633018382e+00 4.7861791804e+00 
73500 5.1307473135e+00 -5.6797538345e-03 2.7634050033e+00 -4.7863578677e+00 2.7634050033e+00 4.7863578677e+00 
73600 5.1307466047e+00 -5.6581018805e-03 2.7635077713e+00 -4.7865358670e+00 2.7635077713e+00 4.7865358670e+00 
73700 5.1307459009e+00 -5.6365374510e-03 2.7636101437e+00 -4.7867131811e+00 2.7636101437e+00 4.7867131811e+00 
73800 5.1307452023e+00 -5.6150601515e-03 2.7637121221e+00 -4.7868898129e+00 2.7637121221e+00 4.7868898129e+00 
73900 5.1307445087e+00 -5.5936695895e-03 2.7638137082e+00 -4.7870657652e+00 2.7638137082e+00 4.7870657652e+00 
74000 5.1307438201e+00 -5.5723653747e-03 2.7639149036e+00 -4.7872410408e+00 2.7639149036e+00 4.7872410408e+00 
74100 5.1307431365e+00 -5.5511471186e-03 2.7640157098e+00 -4.7874156424e+00 2.7640157098e+00 4.7874156424e+00 
74200 5.1307424579e+00 -5.5300144351e-03 2.7641161286e+00 -4.7875895728e+00 2.7641161286e+00 4.7875895728e+00 
74300 5.1307417841e+00 -5.5089669399e-03 2.7642161614e+00 -4.7877628347e+00 2.7642161614e+00 4.7877628347e+00 
74400 5.1307411152e+00 -5.4880042508e-03 2.7643158099e+00 -4.7879354310e+00 2.7643158099e+00 4.7879354310e+00 
74500 5.1307404512e+00 -5.4671259876e-03 2.7644150757e+00 -4.7881073643e+00 2.7644150757e+00 4.7881073643e+00 
74600 5.1307397919e+00 -5.4463317723e-03 2.7645139602e+00 -4.7882786373e+00 2.7645139602e+00 4.7882786373e+00 
74700 5.1307391374e+00 -5.4256212286e-03 2.7646124651e+00 -4.7884492529e+00 2.7646124651e+00 4.7884492529e+00 
74800 5.1307384876e+00 -5.4049939824e-03 2.7647105920e+00 -4.7886192135e+00 2.7647105920e+00 4.7886192135e+00 
74900 5.1307378426e+00 -5.3844496614e-03 2.7648083423e+00 -4.7887885220e+00 2.7648083423e+00 4.7887885220e+00 
75000 5.1307372021e+00 -5.3639878953e-03 2.7649057176e+00 -4.7889571810e+00 2.7649057176e+00 4.7889571810e+00 
75100 5.1307365663e+00 -5.3436083160e-03 2.7650027194e+00 -4.7891251931e+00 2.7650027194e+00 4.7891251931e+00 
75200 5.1307359351e+00 -5.3233105569e-03 2.7650993493e+00 -4.7892925610e+00 2.7650993493e+00 4.7892925610e+00 
75300 5.1307353085e+00 -5.3030942537e-03 2.7651956088e+00 -4.7894592874e+00 2.7651956088e+00 4.7894592874e+00 
75400 5.1307346864e+00 -5.2829590438e-03 2.7652914994e+00 -4.7896253748e+00 2.7652914994e+00 4.7896253748e+00 
75500 5.1307340688e+00 -5.2629045665e-03 2.7653870226e+00 -4.7897908258e+00 2.7653870226e+00 4.7897908258e+00 
75600 5.1307334556e+00 -5.2429304631e-03 2.7654821799e+00 -4.7899556430e+00 2.7654821799e+00 4.7899556430e+00 
75700 5.1307328469e+00 -5.2230363767e-03 2.7655769728e+00 -4.7901198291e+00 2.7655769728e+00 4.7901198291e+00 
75800 5.1307322425e+00 -5.2032219522e-03 2.7656714027e+00 -4.7902833866e+00 2.7656714027e+00 4.7902833866e+00 
75900 5.1307316425e+00 -5.1834868365e-03 2.7657654713e+00 -4.7904463180e+00 2.7657654713e+00 4.7904463180e+00 
76000 5.1307310469e+00 -5.1638306782e-03 2.7658591798e+00 -4.7906086260e+00 2.7658591798e+00 4.7906086260e+00 
76100 5.1307304556e+00 -5.1442531277e-03 2.7659525298e+00 -4.7907703129e+00 2.7659525298e+00 4.7907703129e+00 
76200 5.1307298685e+00 -5.1247538375e-03 2.7660455227e+00 -4.7909313814e+00 2.7660455227e+00 4.7909313814e+00 
76300 5.1307292856e+00 -5.1053324616e-03 2.7661381601e+00 -4.7910918340e+00 2.7661381601e+00 4.7910918340e+00 
76400 5.1307287070e+00 -5.0859886559e-03 2.7662304433e+00 -4.7912516732e+00 2.7662304433e+00 4.7912516732e+00 
76500 5.1307281325e+00 -5.0667220780e-03 2.7663223737e+00 -4.7914109014e+00 2.7663223737e+00 4.7914109014e+00 
76600 5.1307275622e+00 -5.0475323874e-03 2.7664139529e+00 -4.7915695212e+00 2.7664139529e+00 4.7915695212e+00 
76700 5.1307269960e+00 -5.0284192454e-03 2.7665051822e+00 -4.7917275350e+00 2.7665051822e+00 4.7917275350e+00 
76800 5.1307264339e+00 -5.0093823148e-03 2.7665960631e+00 -4.7918849452e+00 2.7665960631e+00 4.7918849452e+00 
76900 5.1307258759e+00 -4.9904212604e-03 2.7666865969e+00 -4.7920417544e+00 2.7666865969e+00 4.7920417544e+00 
77000 5.1307253219e+00 -4.9715357486e-03 2.7667767850e+00 -4.7921979649e+00 2.7667767850e+00 4.7921979649e+00 
77100 5.1307247719e+00 -4.9527254475e-03 2.7668666290e+00 -4.7923535792e+00 2.7668666290e+00 4.7923535792e+00 
77200 5.1307242258e+00 -4.9339900269e-03 2.7669561301e+00 -4.7925085996e+00 2.7669561301e+00 4.7925085996e+00 
77300 5.1307236837e+00 -4.9153291585e-03 2.7670452897e+00 -4.7926630287e+00 2.7670452897e+00 4.7926630287e+00 
77400 5.1307231455e+00 -4.8967425153e-03 2.7671341093e+00 -4.7928168687e+00 2.7671341093e+00 4.7928168687e+00 
77500 5.1307226112e+00 -4.8782297724e-03 2.7672225902e+00 -4.7929701220e+00 2.7672225902e+00 4.7929701220e+00 
77600 5.1307220807e+00 -4.8597906062e-03 2.7673107337e+00 -4.7931227911e+00 2.7673107337e+00 4.7931227911e+00 
77700 5.1307215541e+00 -4.8414246950e-03 2.7673985413e+00 -4.7932748783e+00 2.7673985413e+00 4.7932748783e+00 
77800 5.1307210312e+00 -4.8231317187e-03 2.7674860142e+00 -4.7934263859e+00 2.7674860142e+00 4.7934263859e+00 
77900 5.1307205122e+00 -4.8049113587e-03 2.7675731539e+00 -4.7935773162e+00 2.7675731539e+00 4.7935773162e+00 
78000 5.1307199969e+00 -4.7867632981e-03 2.7676599617e+00 -4.7937276717e+00 2.7676599617e+00 4.7937276717e+00 
78100 5.1307194853e+00 -4.7686872217e-03 2.7677464388e+00 -4.7938774545e+00 2.7677464388e+00 4.7938774545e+00 
78200 5.1307189774e+00 -4.7506828158e-03 2.7678325868e+00 -4.7940266671e+00 2.7678325868e+00 4.7940266671e+00 
78300 5.1307184731e+00 -4.7327497683e-03 2.7679184067e+00 -4.7941753117e+00 2.7679184067e+00 4.7941753117e+00 
78400 5.1307179725e+00 -4.7148877687e-03 2.7680039001e+00 -4.7943233906e+00 2.7680039001e+00 4.7943233906e+00 
78500 5.1307174755e+00 -4.6970965082e-03 2.7680890682e+00 -4.7944709060e+00 2.7680890682e+00 4.7944709060e+00 
78600 5.1307169821e+00 -4.6793756793e-03 2.7681739123e+00 -4.7946178603e+00 2.7681739123e+00 4.7946178603e+00 
78700 5.1307164922e+00 -4.6617249763e-03 2.7682584337e+00 -4.7947642557e+00 2.7682584337e+00 4.7947642557e+00 
78800 5.1307160059e+00 -4.6441440949e-03 2.7683426338e+00 -4.7949100944e+00 2.7683426338e+00 4.7949100944e+00 
78900 5.1307155231e+00 -4.6266327324e-03 2.7684265137e+00 -4.7950553787e+00 2.7684265137e+00 4.7950553787e+00 
79000 5.1307150438e+00 -4.6091905876e-03 2.7685100748e+00 -4.7952001108e+00 2.7685100748e+00 4.7952001108e+00 
79100 5.1307145679e+00 -4.5918173609e-03 2.7685933184e+00 -4.7953442929e+00 2.7685933184e+00 4.7953442929e+00 
79200 5.1307140955e+00 -4.5745127540e-03 2.7686762457e+00 -4.7954879272e+00 2.7686762457e+00 4.7954879272e+00 
79300 5.1307136265e+00 -4.5572764704e-03 2.7687588580e+00 -4.7956310160e+00 2.7687588580e+00 4.7956310160e+00 
79400 5.1307131608e+00 -4.5401082148e-03 2.7688411566e+00 -4.7957735613e+00 2.7688411566e+00 4.7957735613e+00 
79500 5.1307126985e+00 -4.5230076935e-03 2.7689231427e+00 -4.7959155654e+00 2.7689231427e+00 4.7959155654e+00 
79600 5.1307122396e+00 -4.5059746144e-03 2.7690048176e+00 -4.7960570305e+00 2.7690048176e+00 4.7960570305e+00 
79700 5.1307117839e+00 -4.4890086867e-03 2.7690861825e+00 -4.7961979587e+00 2.7690861825e+00 4.7961979587e+00 
79800 5.1307113315e+00 -4.4721096210e-03 2.7691672387e+00 -4.7963383521e+00 2.7691672387e+00 4.7963383521e+00 
79900 5.1307108825e+00 -4.4552771296e-03 2.7692479874e+00 -4.7964782129e+00 2.7692479874e+00 4.7964782129e+00 
80000 5.1307104366e+00 -4.4385109259e-03 2.7693284298e+00 -4.7966175432e+00 2.7693284298e+00 4.7966175432e+00 
80100 5.1307099939e+00 -4.4218107251e-03 2.7694085671e+00 -4.7967563451e+00 2.7694085671e+00 4.7967563451e+00 
80200 5.1307095545e+00 -4.4051762435e-03 2.7694884006e+00 -4.7968946208e+00 2.7694884006e+00 4.7968946208e+00 
80300 5.1307091182e+00 -4.3886071990e-03 2.7695679315e+00 -4.7970323723e+00 2.7695679315e+00 4.7970323723e+00 
80400 5.1307086851e+00 -4.3721033109e-03 2.7696471610e+00 -4.7971696018e+00 2.7696471610e+00 4.7971696018e+00 
80500 5.1307082550e+00 -4.3556642997e-03 2.7697260902e+00 -4.7973063113e+00 2.7697260902e+00 4.7973063113e+00 
80600 5.1307078281e+00 -4.3392898874e-03 2.7698047205e+00 -4.7974425029e+00 2.7698047205e+00 4.7974425029e+00 
80700 5.1307074043e+00 -4.3229797976e-03 2.7698830529e+00 -4.7975781786e+00 2.7698830529e+00 4.7975781786e+00 
80800 5.1307069835e+00 -4.3067337550e-03 2.7699610887e+00 -4.7977133406e+00 2.7699610887e+00 4.7977133406e+00 
80900 5.1307065658e+00 -4.2905514856e-03 2.7700388290e+00 -4.7978479908e+00 2.7700388290e+00 4.7978479908e+00 
81000 5.1307061510e+00 -4.2744327170e-03 2.7701162751e+00 -4.7979821313e+00 2.7701162751e+00 4.7979821313e+00 
81100 5.1307057393e+00 -4.2583771780e-03 2.7701934280e+00 -4.7981157641e+00 2.7701934280e+00 4.7981157641e+00 
81200 5.1307053305e+00 -4.2423845988e-03 2.7702702890e+00 -4.7982488913e+00 2.7702702890e+00 4.7982488913e+00 
81300 5.1307049247e+00 -4.2264547109e-03 2.7703468592e+00 -4.7983815148e+00 2.7703468592e+00 4.7983815148e+00 
81400 5.1307045218e+00 -4.2105872471e-03 2.7704231398e+00 -4.7985136366e+00 2.7704231398e+00 4.7985136366e+00 
81500 5.1307041218e+00 -4.1947819415e-03 2.7704991319e+00 -4.7986452589e+00 2.7704991319e+00 4.7986452589e+00 
81600 5.1307037246e+00 -4.1790385295e-03 2.7705748367e+00 -4.7987763834e+00 2.7705748367e+00 4.7987763834e+00 
81700 5.1307033304e+00 -4.1633567480e-03 2.7706502553e+00 -4.7989070122e+00 2.7706502553e+00 4.7989070122e+00 
81800 5.1307029390e+00 -4.1477363348e-03 2.7707253889e+00 -4.7990371474e+00 2.7707253889e+00 4.7990371474e+00 
81900 5.1307025504e+00 -4.1321770294e-03 2.7708002385e+00 -4.7991667907e+00 2.7708002385e+00 4.7991667907e+00 
82000 5.1307021646e+00 -4.1166785723e-03 2.7708748053e+00 -4.7992959442e+00 2.7708748053e+00 4.7992959442e+00 
82100 5.1307017816e+00 -4.1012407054e-03 2.7709490905e+00 -4.7994246099e+00 2.7709490905e+00 4.7994246099e+00 
82200 5.1307014013e+00 -4.0858631717e-03 2.7710230951e+00 -4.7995527896e+00 2.7710230951e+00 4.7995527896e+00 
82300 5.1307010238e+00 -4.0705457157e-03 2.7710968202e+00 -4.7996804853e+00 2.7710968202e+00 4.7996804853e+00 
82400 5.1307006490e+00 -4.0552880829e-03 2.7711702670e+00 -4.7998076989e+00 2.7711702670e+00 4.7998076989e+00 
82500 5.1307002769e+00 -4.0400900202e-03 2.7712434366e+00 -4.7999344323e+00 2.7712434366e+00 4.7999344323e+00 
82600 5.1306999075e+00 -4.0249512757e-03 2.7713163300e+00 -4.8000606874e+00 2.7713163300e+00 4.8000606874e+00 
82700 5.1306995408e+00 -4.0098715986e-03 2.7713889483e+00 -4.8001864660e+00 2.7713889483e+00 4.8001864660e+00 
82800 5.1306991767e+00 -3.9948507395e-03 2.7714612927e+00 -4.8003117702e+00 2.7714612927e+00 4.8003117702e+00 
82900 5.1306988152e+00 -3.9798884501e-03 2.7715333642e+00 -4.8004366017e+00 2.7715333642e+00 4.8004366017e+00 
83000 5.1306984563e+00 -3.9649844834e-03 2.7716051639e+00 -4.8005609625e+00 2.7716051639e+00 4.8005609625e+00 
83100 5.1306981000e+00 -3.9501385934e-03 2.7716766929e+00 -4.8006848543e+00 2.7716766929e+00 4.8006848543e+00 
83200 5.1306977463e+00 -3.9353505354e-03 2.7717479522e+00 -4.8008082790e+00 2.7717479522e+00 4.8008082790e+00 
83300 5.1306973951e+00 -3.9206200660e-03 2.7718189429e+00 -4.8009312386e+00 2.7718189429e+00 4.8009312386e+00 
83400 5.1306970465e+00 -3.9059469429e-03 2.7718896661e+00 -4.8010537347e+00 2.7718896661e+00 4.8010537347e+00 
83500 5.1306967004e+00 -3.8913309247e-03 2.7719601228e+00 -4.8011757693e+00 2.7719601228e+00 4.8011757693e+00 
83600 5.1306963567e+00 -3.8767717717e-03 2.7720303141e+00 -4.8012973441e+00 2.7720303141e+00 4.8012973441e+00 
83700 5.1306960156e+00 -3.8622692448e-03 2.7721002409e+00 -4.8014184610e+00 2.7721002409e+00 4.8014184610e+00 
83800 5.1306956769e+00 -3.8478231064e-03 2.7721699045e+00 -4.8015391217e+00 2.7721699045e+00 4.8015391217e+00 
83900 5.1306953406e+00 -3.8334331200e-03 2.7722393057e+00 -4.8016593282e+00 2.7722393057e+00 4.8016593282e+00 
84000 5.1306950068e+00 -3.8190990500e-03 2.7723084456e+00 -4.8017790820e+00 2.7723084456e+00 4.8017790820e+00 
84100 5.1306946753e+00 -3.8048206623e-03 2.7723773253e+00 -4.8018983852e+00 2.7723773253e+00 4.8018983852e+00 
84200 5.1306943463e+00 -3.7905977235e-03 2.7724459458e+00 -4.8020172393e+00 2.7724459458e+00 4.8020172393e+00 
84300 5.1306940196e+00 -3.7764300017e-03 2.7725143080e+00 -4.8021356462e+00 2.7725143080e+00 4.8021356462e+00 
84400 5.1306936953e+00 -3.7623172659e-03 2.7725824131e+00 -4.8022536076e+00 2.7725824131e+00 4.8022536076e+00 
84500 5.1306933733e+00 -3.7482592863e-03 2.7726502620e+00 -4.8023711254e+00 2.7726502620e+00 4.8023711254e+00 
84600 5.1306930537e+00 -3.7342558340e-03 2.7727178557e+00 -4.8024882011e+00 2.7727178557e+00 4.8024882011e+00 
84700 5.1306927363e+00 -3.7203066814e-03 2.7727851952e+00 -4.8026048366e+00 2.7727851952e+00 4.8026048366e+00 
84800 5.1306924212e+00 -3.7064116019e-03 2.7728522816e+00 -4.8027210336e+00 2.7728522816e+00 4.8027210336e+00 
84900 5.1306921084e+00 -3.6925703700e-03 2.7729191158e+00 -4.8028367938e+00 2.7729191158e+00 4.8028367938e+00 
85000 5.1306917979e+00 -3.6787827612e-03 2.7729856988e+00 -4.8029521189e+00 2.7729856988e+00 4.8029521189e+00 
85100 5.1306914896e+00 -3.6650485523e-03 2.7730520316e+00 -4.8030670107e+00 2.7730520316e+00 4.8030670107e+00 
85200 5.1306911835e+00 -3.6513675208e-03 2.7731181151e+00 -4.8031814708e+00 2.7731181151e+00 4.8031814708e+00 
85300 5.1306908796e+00 -3.6377394455e-03 2.7731839504e+00 -4.8032955009e+00 2.7731839504e+00 4.8032955009e+00 
85400 5.1306905779e+00 -3.6241641062e-03 2.7732495385e+00 -4.8034091027e+00 2.7732495385e+00 4.8034091027e+00 
85500 5.1306902784e+00 -3.6106412837e-03 2.7733148802e+00 -4.8035222779e+00 2.7733148802e+00 4.8035222779e+00 
85600 5.1306899810e+00 -3.5971707598e-03 2.7733799766e+00 -4.8036350281e+00 2.7733799766e+00 4.8036350281e+00 
85700 5.1306896858e+00 -3.5837523175e-03 2.7734448286e+00 -4.8037473551e+00 2.7734448286e+00 4.8037473551e+00 
85800 5.1306893927e+00 -3.5703857406e-03 2.7735094372e+00 -4.8038592604e+00 2.7735094372e+00 4.8038592604e+00 
85900 5.1306891017e+00 -3.5570708140e-03 2.7735738033e+00 -4.8039707458e+00 2.7735738033e+00 4.8039707458e+00 
86000 5.1306888128e+00 -3.5438073238e-03 2.7736379278e+00 -4.8040818128e+00 2.7736379278e+00 4.8040818128e+00 
86100 5.1306885260e+00 -3.5305950568e-03 2.7737018118e+00 -4.8041924631e+00 2.7737018118e+00 4.8041924631e+00 
86200 5.1306882413e+00 -3.5174338011e-03 2.7737654562e+00 -4.8043026983e+00 2.7737654562e+00 4.8043026983e+00 
86300 5.1306879586e+00 -3.5043233454e-03 2.7738288618e+00 -4.8044125201e+00 2.7738288618e+00 4.8044125201e+00 
86400 5.1306876779e+00 -3.4912634798e-03 2.7738920296e+00 -4.8045219301e+00 2.7738920296e+00 4.8045219301e+00 
86500 5.1306873993e+00 -3.4782539951e-03 2.7739549607e+00 -4.8046309298e+00 2.7739549607e+00 4.8046309298e+00 
86600 5.1306871227e+00 -3.4652946833e-03 2.7740176557e+00 -4.8047395209e+00 2.7740176557e+00 4.8047395209e+00 
86700 5.1306868480e+00 -3.4523853371e-03 2.7740801158e+00 -4.8048477049e+00 2.7740801158e+00 4.8048477049e+00 
86800 5.1306865754e+00 -3.4395257505e-03 2.7741423418e+00 -4.8049554835e+00 2.7741423418e+00 4.8049554835e+00 
86900 5.1306863047e+00 -3.4267157183e-03 2.7742043347e+00 -4.8050628582e+00 2.7742043347e+00 4.8050628582e+00 
87000 5.1306860359e+00 -3.4139550360e-03 2.7742660952e+00 -4.8051698307e+00 2.7742660952e+00 4.8051698307e+00 
87100 5.1306857691e+00 -3.4012435005e-03 2.7743276244e+00 -4.8052764024e+00 2.7743276244e+00 4.8052764024e+00 
87200 5.1306855043e+00 -3.3885809094e-03 2.7743889232e+00 -4.8053825749e+00 2.7743889232e+00 4.8053825749e+00 
87300 5.1306852413e+00 -3.3759670612e-03 2.7744499924e+00 -4.8054883498e+00 2.7744499924e+00 4.8054883498e+00 
87400 5.1306849802e+00 -3.3634017556e-03 2.7745108329e+00 -4.8055937287e+00 2.7745108329e+00 4.8055937287e+00 
87500 5.1306847210e+00 -3.3508847928e-03 2.7745714456e+00 -4.8056987130e+00 2.7745714456e+00 4.8056987130e+00 
87600 5.1306844637e+00 -3.3384159743e-03 2.7746318315e+00 -4.8058033044e+00 2.7746318315e+00 4.8058033044e+00 
87700 5.1306842082e+00 -3.3259951024e-03 2.7746919913e+00 -4.8059075043e+00 2.7746919913e+00 4.8059075043e+00 
87800 5.1306839545e+00 -3.3136219803e-03 2.7747519260e+00 -4.8060113142e+00 2.7747519260e+00 4.8060113142e+00 
87900 5.1306837027e+00 -3.3012964121e-03 2.7748116365e+00 -4.8061147358e+00 2.7748116365e+00 4.8061147358e+00 
88000 5.1306834527e+00 -3.2890182027e-03 2.7748711235e+00 -4.8062177704e+00 2.7748711235e+00 4.8062177704e+00 
88100 5.1306832045e+00 -3.2767871582e-03 2.7749303881e+00 -4.8063204196e+00 2.7749303881e+00 4.8063204196e+00 
88200 5.1306829581e+00 -3.2646030853e-03 2.7749894310e+00 -4.8064226849e+00 2.7749894310e+00 4.8064226849e+00 
88300 5.1306827135e+00 -3.2524657918e-03 2.7750482531e+00 -4.8065245678e+00 2.7750482531e+00 4.8065245678e+00 
88400 5.1306824706e+00 -3.2403750861e-03 2.7751068553e+00 -4.8066260698e+00 2.7751068553e+00 4.8066260698e+00 
88500 5.1306822295e+00 -3.2283307778e-03 2.7751652384e+00 -4.8067271922e+00 2.7751652384e+00 4.8067271922e+00 
88600 5.1306819901e+00 -3.2163326773e-03 2.7752234032e+00 -4.8068279367e+00 2.7752234032e+00 4.8068279367e+00 
88700 5.1306817524e+00 -3.2043805956e-03 2.7752813507e+00 -4.8069283047e+00 2.7752813507e+00 4.8069283047e+00 
88800 5.1306815164e+00 -3.1924743450e-03 2.7753390816e+00 -4.8070282976e+00 2.7753390816e+00 4.8070282976e+00 
88900 5.1306812822e+00 -3.1806137383e-03 2.7753965969e+00 -4.8071279169e+00 2.7753965969e+00 4.8071279169e+00 
89000 5.1306810496e+00 -3.1687985893e-03 2.7754538972e+00 -4.8072271641e+00 2.7754538972e+00 4.8072271641e+00 
89100 5.1306808187e+00 -3.1570287126e-03 2.7755109836e+00 -4.8073260405e+00 2.7755109836e+00 4.8073260405e+00 
89200 5.1306805895e+00 -3.1453039238e-03 2.7755678567e+00 -4.8074245476e+00 2.7755678567e+00 4.8074245476e+00 
89300 5.1306803619e+00 -3.1336240392e-03 2.7756245174e+00 -4.8075226869e+00 2.7756245174e+00 4.8075226869e+00 
89400 5.1306801360e+00 -3.1219888760e-03 2.7756809666e+00 -4.8076204598e+00 2.7756809666e+00 4.8076204598e+00 
89500 5.1306799116e+00 -3.1103982520e-03 2.7757372050e+00 -4.8077178676e+00 2.7757372050e+00 4.8077178676e+00 
89600 5.1306796889e+00 -3.0988519863e-03 2.7757932336e+00 -4.8078149118e+00 2.7757932336e+00 4.8078149118e+00 
89700 5.1306794678e+00 -3.0873498984e-03 2.7758490530e+00 -4.8079115939e+00 2.7758490530e+00 4.8079115939e+00 
89800 5.1306792483e+00 -3.0758918088e-03 2.7759046641e+00 -4.8080079151e+00 2.7759046641e+00 4.8080079151e+00 
89900 5.1306790304e+00 -3.0644775388e-03 2.7759600677e+00 -4.8081038770e+00 2.7759600677e+00 4.8081038770e+00 
90000 5.1306788141e+00 -3.0531069105e-03 2.7760152646e+00 -4.8081994808e+00 2.7760152646e+00 4.8081994808e+00 
90100 5.1306785993e+00 -3.0417797468e-03 2.7760702555e+00 -4.8082947280e+00 2.7760702555e+00 4.8082947280e+00 
90200 5.1306783860e+00 -3.0304958714e-03 2.7761250414e+00 -4.8083896199e+00 2.7761250414e+00 4.8083896199e+00 
90300 5.1306781743e+00 -3.0192551088e-03 2.7761796230e+00 -4.8084841580e+00 2.7761796230e+00 4.8084841580e+00 
90400 5.1306779641e+00 -3.0080572843e-03 2.7762340011e+00 -4.8085783436e+00 2.7762340011e+00 4.8085783436e+00 
90500 5.1306777554e+00 -2.9969022241e-03 2.7762881764e+00 -4.8086721780e+00 2.7762881764e+00 4.8086721780e+00 
90600 5.1306775483e+00 -2.9857897549e-03 2.7763421497e+00 -4.8087656626e+00 2.7763421497e+00 4.8087656626e+00 
90700 5.1306773426e+00 -2.9747197044e-03 2.7763959219e+00 -4.8088587987e+00 2.7763959219e+00 4.8088587987e+00 
90800 5.1306771384e+00 -2.9636919011e-03 2.7764494937e+00 -4.8089515877e+00 2.7764494937e+00 4.8089515877e+00 
90900 5.1306769356e+00 -2.9527061741e-03 2.7765028659e+00 -4.8090440310e+00 2.7765028659e+00 4.8090440310e+00 
91000 5.1306767344e+00 -2.9417623535e-03 2.7765560391e+00 -4.8091361299e+00 2.7765560391e+00 4.8091361299e+00 
91100 5.1306765345e+00 -2.9308602699e-03 2.7766090143e+00 -4.8092278856e+00 2.7766090143e+00 4.8092278856e+00 
91200 5.1306763362e+00 -2.9199997549e-03 2.7766617922e+00 -4.8093192995e+00 2.7766617922e+00 4.8093192995e+00 
91300 5.1306761392e+00 -2.9091806407e-03 2.7767143735e+00 -4.8094103730e+00 2.7767143735e+00 4.8094103730e+00 
91400 5.1306759437e+00 -2.8984027604e-03 2.7767667589e+00 -4.8095011073e+00 2.7767667589e+00 4.8095011073e+00 
91500 5.1306757495e+00 -2.8876659476e-03 2.7768189494e+00 -4.8095915037e+00 2.7768189494e+00 4.8095915037e+00 
91600 5.1306755568e+00 -2.8769700368e-03 2.7768709455e+00 -4.8096815636e+00 2.7768709455e+00 4.8096815636e+00 
91700 5.1306753655e+00 -2.8663148634e-03 2.7769227480e+00 -4.8097712882e+00 2.7769227480e+00 4.8097712882e+00 
91800 5.1306751755e+00 -2.8557002633e-03 2.7769743577e+00 -4.8098606788e+00 2.7769743577e+00 4.8098606788e+00 
91900 5.1306749869e+00 -2.8451260731e-03 2.7770257753e+00 -4.8099497368e+00 2.7770257753e+00 4.8099497368e+00 
92000 5.1306747997e+00 -2.8345921304e-03 2.7770770016e+00 -4.8100384633e+00 2.7770770016e+00 4.8100384633e+00 
92100 5.1306746138e+00 -2.8240982732e-03 2.7771280373e+00 -4.8101268598e+00 2.7771280373e+00 4.8101268598e+00 
92200 5.1306744292e+00 -2.8136443405e-03 2.7771788831e+00 -4.8102149273e+00 2.7771788831e+00 4.8102149273e+00 
92300 5.1306742460e+00 -2.8032301718e-03 2.7772295398e+00 -4.8103026672e+00 2.7772295398e+00 4.8103026672e+00 
92400 5.1306740641e+00 -2.7928556075e-03 2.7772800081e+00 -4.8103900808e+00 2.7772800081e+00 4.8103900808e+00 
92500 5.1306738835e+00 -2.7825204886e-03 2.7773302886e+00 -4.8104771693e+00 2.7773302886e+00 4.8104771693e+00 
92600 5.1306737042e+00 -2.7722246568e-03 2.7773803822e+00 -4.8105639339e+00 2.7773803822e+00 4.8105639339e+00 
92700 5.1306735262e+00 -2.7619679545e-03 2.7774302896e+00 -4.8106503760e+00 2.7774302896e+00 4.8106503760e+00 
92800 5.1306733495e+00 -2.7517502250e-03 2.7774800113e+00 -4.8107364967e+00 2.7774800113e+00 4.8107364967e+00 
92900 5.1306731740e+00 -2.7415713119e-03 2.7775295483e+00 -4.8108222972e+00 2.7775295483e+00 4.8108222972e+00 
93000 5.1306729998e+00 -2.7314310598e-03 2.7775789011e+00 -4.8109077788e+00 2.7775789011e+00 4.8109077788e+00 
93100 5.1306728269e+00 -2.7213293139e-03 2.7776280706e+00 -4.8109929428e+00 2.7776280706e+00 4.8109929428e+00 
93200 5.1306726552e+00 -2.7112659201e-03 2.7776770573e+00 -4.8110777902e+00 2.7776770573e+00 4.8110777902e+00 
93300 5.1306724847e+00 -2.7012407250e-03 2.7777258620e+00 -4.8111623224e+00 2.7777258620e+00 4.8111623224e+00 
93400 5.1306723155e+00 -2.6912535758e-03 2.7777744854e+00 -4.8112465406e+00 2.7777744854e+00 4.8112465406e+00 
93500 5.1306721475e+00 -2.6813043204e-03 2.7778229281e+00 -4.8113304459e+00 2.7778229281e+00 4.8113304459e+00 
93600 5.1306719807e+00 -2.6713928075e-03 2.7778711910e+00 -4.8114140396e+00 2.7778711910e+00 4.8114140396e+00 
93700 5.1306718151e+00 -2.6615188862e-03 2.7779192745e+00 -4.8114973228e+00 2.7779192745e+00 4.8114973228e+00 
93800 5.1306716507e+00 -2.6516824065e-03 2.7779671796e+00 -4.8115802968e+00 2.7779671796e+00 4.8115802968e+00 
93900 5.1306714875e+00 -2.6418832189e-03 2.7780149068e+00 -4.8116629627e+00 2.7780149068e+00 4.8116629627e+00 
94000 5.1306713254e+00 -2.6321211748e-03 2.7780624567e+00 -4.8117453217e+00 2.7780624567e+00 4.8117453217e+00 
94100 5.1306711646e+00 -2.6223961259e-03 2.7781098302e+00 -4.8118273749e+00 2.7781098302e+00 4.8118273749e+00 
94200 5.1306710048e+00 -2.6127079249e-03 2.7781570278e+00 -4.8119091236e+00 2.7781570278e+00 4.8119091236e+00 
94300 5.1306708463e+00 -2.6030564249e-03 2.7782040503e+00 -4.8119905689e+00 2.7782040503e+00 4.8119905689e+00 
94400 5.1306706888e+00 -2.5934414797e-03 2.7782508982e+00 -4.8120717119e+00 2.7782508982e+00 4.8120717119e+00 
94500 5.1306705326e+00 -2.5838629439e-03 2.7782975724e+00 -4.8121525539e+00 2.7782975724e+00 4.8121525539e+00 
94600 5.1306703774e+00 -2.5743206724e-03 2.7783440733e+00 -4.8122330959e+00 2.7783440733e+00 4.8122330959e+00 
94700 5.1306702233e+00 -2.5648145211e-03 2.7783904018e+00 -4.8123133391e+00 2.7783904018e+00 4.8123133391e+00 
94800 5.1306700704e+00 -2.5553443463e-03 2.7784365584e+00 -4.8123932847e+00 2.7784365584e+00 4.8123932847e+00 
94900 5.1306699185e+00 -2.5459100050e-03 2.7784825438e+00 -4.8124729338e+00 2.7784825438e+00 4.8124729338e+00 
95000 5.1306697678e+00 -2.5365113548e-03 2.7785283587e+00 -4.8125522875e+00 2.7785283587e+00 4.8125522875e+00 
95100 5.1306696181e+00 -2.5271482540e-03 2.7785740037e+00 -4.8126313470e+00 2.7785740037e+00 4.8126313470e+00 
95200 5.1306694695e+00 -2.5178205614e-03 2.7786194794e+00 -4.8127101133e+00 2.7786194794e+00 4.8127101133e+00 
95300 5.1306693220e+00 -2.5085281365e-03 2.7786647866e+00 -4.8127885876e+00 2.7786647866e+00 4.8127885876e+00 
95400 5.1306691756e+00 -2.4992708393e-03 2.7787099258e+00 -4.8128667710e+00 2.7787099258e+00 4.8128667710e+00 
95500 5.1306690302e+00 -2.4900485306e-03 2.7787548977e+00 -4.8129446646e+00 2.7787548977e+00 4.8129446646e+00 
95600 5.1306688858e+00 -2.4808610717e-03 2.7787997030e+00 -4.8130222696e+00 2.7787997030e+00 4.8130222696e+00 
95700 5.1306687425e+00 -2.4717083244e-03 2.7788443421e+00 -4.8130995869e+00 2.7788443421e+00 4.8130995869e+00 
95800 5.1306686002e+00 -2.4625901513e-03 2.7788888159e+00 -4.8131766178e+00 2.7788888159e+00 4.8131766178e+00 
95900 5.1306684589e+00 -2.4535064154e-03 2.7789331250e+00 -4.8132533633e+00 2.7789331250e+00 4.8132533633e+00 
96000 5.1306683187e+00 -2.4444569804e-03 2.7789772698e+00 -4.8133298244e+00 2.7789772698e+00 4.8133298244e+00 
96100 5.1306681795e+00 -2.4354417106e-03 2.7790212512e+00 -4.8134060024e+00 2.7790212512e+00 4.8134060024e+00 
96200 5.1306680412e+00 -2.4264604708e-03 2.7790650696e+00 -4.8134818981e+00 2.7790650696e+00 4.8134818981e+00 
96300 5.1306679040e+00 -2.4175131266e-03 2.7791087258e+00 -4.8135575128e+00 2.7791087258e+00 4.8135575128e+00 
96400 5.1306677677e+00 -2.4085995438e-03 2.7791522203e+00 -4.8136328475e+00 2.7791522203e+00 4.8136328475e+00 
96500 5.1306676325e+00 -2.3997195892e-03 2.7791955538e+00 -4.8137079033e+00 2.7791955538e+00 4.8137079033e+00 
96600 5.1306674982e+00 -2.3908731299e-03 2.7792387268e+00 -4.8137826812e+00 2.7792387268e+00 4.8137826812e+00 
96700 5.1306673648e+00 -2.3820600336e-03 2.7792817400e+00 -4.8138571822e+00 2.7792817400e+00 4.8138571822e+00 
96800 5.1306672325e+00 -2.3732801687e-03 2.7793245940e+00 -4.8139314075e+00 2.7793245940e+00 4.8139314075e+00 
96900 5.1306671011e+00 -2.3645334041e-03 2.7793672894e+00 -4.8140053581e+00 2.7793672894e+00 4.8140053581e+00 
97000 5.1306669706e+00 -2.3558196092e-03 2.7794098267e+00 -4.8140790350e+00 2.7794098267e+00 4.8140790350e+00 
97100 5.1306668411e+00 -2.3471386540e-03 2.7794522067e+00 -4.8141524392e+00 2.7794522067e+00 4.8141524392e+00 
97200 5.1306667125e+00 -2.3384904091e-03 2.7794944299e+00 -4.8142255719e+00 2.7794944299e+00 4.8142255719e+00 
97300 5.1306665848e+00 -2.3298747456e-03 2.7795364968e+00 -4.8142984339e+00 2.7795364968e+00 4.8142984339e+00 
97400 5.1306664580e+00 -2.3212915352e-03 2.7795784081e+00 -4.8143710265e+00 2.7795784081e+00 4.8143710265e+00 
97500 5.1306663322e+00 -2.3127406501e-03 2.7796201644e+00 -4.8144433505e+00 2.7796201644e+00 4.8144433505e+00 
97600 5.1306662073e+00 -2.3042219632e-03 2.7796617662e+00 -4.8145154070e+00 2.7796617662e+00 4.8145154070e+00 
97700 5.1306660832e+00 -2.2957353477e-03 2.7797032142e+00 -4.8145871970e+00 2.7797032142e+00 4.8145871970e+00 
97800 5.1306659601e+00 -2.2872806774e-03 2.7797445089e+00 -4.8146587215e+00 2.7797445089e+00 4.8146587215e+00 
97900 5.1306658378e+00 -2.2788578269e-03 2.7797856510e+00 -4.8147299816e+00 2.7797856510e+00 4.8147299816e+00 
98000 5.1306657165e+00 -2.2704666709e-03 2.7798266409e+00 -4.8148009782e+00 2.7798266409e+00 4.8148009782e+00 
98100 5.1306655960e+00 -2.2621070851e-03 2.7798674792e+00 -4.8148717124e+00 2.7798674792e+00 4.8148717124e+00 
98200 5.1306654763e+00 -2.2537789454e-03 2.7799081667e+00 -4.8149421850e+00 2.7799081667e+00 4.8149421850e+00 
98300 5.1306653576e+00 -2.2454821283e-03 2.7799487037e+00 -4.8150123972e+00 2.7799487037e+00 4.8150123972e+00 
98400 5.1306652396e+00 -2.2372165109e-03 2.7799890909e+00 -4.8150823499e+00 2.7799890909e+00 4.8150823499e+00 
98500 5.1306651226e+00 -2.2289819708e-03 2.7800293289e+00 -4.8151520441e+00 2.7800293289e+00 4.8151520441e+00 
98600 5.1306650063e+00 -2.2207783860e-03 2.7800694181e+00 -4.8152214808e+00 2.7800694181e+00 4.8152214808e+00 
98700 5.1306648909e+00 -2.2126056353e-03 2.7801093593e+00 -4.8152906609e+00 2.7801093593e+00 4.8152906609e+00 
98800 5.1306647764e+00 -2.2044635977e-03 2.7801491529e+00 -4.8153595854e+00 2.7801491529e+00 4.8153595854e+00 
98900 5.1306646626e+00 -2.1963521529e-03 2.7801887995e+00 -4.8154282554e+00 2.7801887995e+00 4.8154282554e+00 
99000 5.1306645497e+00 -2.1882711810e-03 2.7802282996e+00 -4.8154966716e+00 2.7802282996e+00 4.8154966716e+00 
99100 5.1306644376e+00 -2.1802205628e-03 2.7802676539e+00 -4.8155648352e+00 2.7802676539e+00 4.8155648352e+00 
99200 5.1306643263e+00 -2.1722001793e-03 2.7803068628e+00 -4.8156327470e+00 2.7803068628e+00 4.8156327470e+00 
99300 5.1306642158e+00 -2.1642099124e-03 2.7803459269e+00 -4.8157004081e+00 2.7803459269e+00 4.8157004081e+00 
99400 5.1306641061e+00 -2.1562496441e-03 2.7803848468e+00 -4.8157678193e+00 2.7803848468e+00 4.8157678193e+00 
99500 5.1306639972e+00 -2.1483192571e-03 2.7804236230e+00 -4.8158349816e+00 2.7804236230e+00 4.8158349816e+00 
99600 5.1306638891e+00 -2.1404186346e-03 2.7804622561e+00 -4.8159018960e+00 2.7804622561e+00 4.8159018960e+00 
99700 5.1306637817e+00 -2.1325476603e-03 2.7805007465e+00 -4.8159685634e+00 2.7805007465e+00 4.8159685634e+00 
99800 5.1306636752e+00 -2.1247062184e-03 2.7805390948e+00 -4.8160349847e+00 2.7805390948e+00 4.8160349847e+00 
99900 5.1306635694e+00 -2.1168941934e-03 2.7805773017e+00 -4.8161011608e+00 2.7805773017e+00 4.8161011608e+00 
100000 5.1306634643e+00 -2.1091114706e-03 2.7806153675e+00 -4.8161670928e+00 2.7806153675e+00 4.8161670928e+00 
100100 5.1306633600e+00 -2.1013579355e-03 2.7806532928e+00 -4.8162327814e+00 2.7806532928e+00 4.8162327814e+00 
100200 5.1306632565e+00 -2.0936334742e-03 2.7806910782e+00 -4.8162982277e+00 2.7806910782e+00 4.8162982277e+00 
100300 5.1306631537e+00 -2.0859379734e-03 2.7807287242e+00 -4.8163634325e+00 2.7807287242e+00 4.8163634325e+00 
100400 5.1306630516e+00 -2.0782713201e-03 2.7807662314e+00 -4.8164283967e+00 2.7807662314e+00 4.8164283967e+00 
100500 5.1306629503e+00 -2.0706334018e-03 2.7808036001e+00 -4.8164931213e+00 2.7808036001e+00 4.8164931213e+00 
100600 5.1306628497e+00 -2.0630241065e-03 2.7808408311e+00 -4.8165576072e+00 2.7808408311e+00 4.8165576072e+00 
100700 5.1306627499e+00 -2.0554433227e-03 2.7808779247e+00 -4.8166218552e+00 2.7808779247e+00 4.8166218552e+00 
100800 5.1306626507e+00 -2.0478909394e-03 2.7809148815e+00 -4.8166858663e+00 2.7809148815e+00 4.8166858663e+00 
100900 5.1306625523e+00 -2.0403668459e-03 2.7809517020e+00 -4.8167496413e+00 2.7809517020e+00 4.8167496413e+00 
101000 5.1306624545e+00 -2.0328709322e-03 2.7809883868e+00 -4.8168131812e+00 2.7809883868e+00 4.8168131812e+00 
101100 5.1306623575e+00 -2.0254030886e-03 2.7810249363e+00 -4.8168764868e+00 2.7810249363e+00 4.8168764868e+00 
101200 5.1306622612e+00 -2.0179632058e-03 2.7810613511e+00 -4.8169395590e+00 2.7810613511e+00 4.8169395590e+00 
101300 5.1306621656e+00 -2.0105511752e-03 2.7810976316e+00 -4.8170023987e+00 2.7810976316e+00 4.8170023987e+00 
101400 5.1306620706e+00 -2.0031668884e-03 2.7811337784e+00 -4.8170650068e+00 2.7811337784e+00 4.8170650068e+00 
101500 5.1306619764e+00 -1.9958102376e-03 2.7811697920e+00 -4.8171273842e+00 2.7811697920e+00 4.8171273842e+00 
101600 5.1306618828e+00 -1.9884811154e-03 2.7812056728e+00 -4.8171895316e+00 2.7812056728e+00 4.8171895316e+00 
101700 5.1306617899e+00 -1.9811794149e-03 2.7812414214e+00 -4.8172514500e+00 2.7812414214e+00 4.8172514500e+00 
101800 5.1306616976e+00 -1.9739050295e-03 2.7812770383e+00 -4.8173131403e+00 2.7812770383e+00 4.8173131403e+00 
101900 5.1306616061e+00 -1.9666578533e-03 2.7813125240e+00 -4.8173746033e+00 2.7813125240e+00 4.8173746033e+00 
102000 5.1306615151e+00 -1.9594377807e-03 2.7813478789e+00 -4.8174358398e+00 2.7813478789e+00 4.8174358398e+00 
102100 5.1306614249e+00 -1.9522447063e-03 2.7813831036e+00 -4.8174968508e+00 2.7813831036e+00 4.8174968508e+00 
102200 5.1306613353e+00 -1.9450785256e-03 2.7814181985e+00 -4.8175576370e+00 2.7814181985e+00 4.8175576370e+00 
102300 5.1306612463e+00 -1.9379391343e-03 2.7814531642e+00 -4.8176181993e+00 2.7814531642e+00 4.8176181993e+00 
102400 5.1306611580e+00 -1.9308264284e-03 2.7814880011e+00 -4.8176785385e+00 2.7814880011e+00 4.8176785385e+00 
102500 5.1306610703e+00 -1.9237403046e-03 2.7815227097e+00 -4.8177386556e+00 2.7815227097e+00 4.8177386556e+00 
102600 5.1306609832e+00 -1.9166806599e-03 2.7815572904e+00 -4.8177985512e+00 2.7815572904e+00 4.8177985512e+00 
102700 5.1306608968e+00 -1.9096473916e-03 2.7815917439e+00 -4.8178582263e+00 2.7815917439e+00 4.8178582263e+00 
102800 5.1306608110e+00 -1.9026403977e-03 2.7816260705e+00 -4.8179176817e+00 2.7816260705e+00 4.8179176817e+00 
102900 5.1306607258e+00 -1.8956595764e-03 2.7816602707e+00 -4.8179769182e+00 2.7816602707e+00 4.8179769182e+00 
103000 5.1306606412e+00 -1.8887048265e-03 2.7816943450e+00 -4.8180359367e+00 2.7816943450e+00 4.8180359367e+00 
103100 5.1306605572e+00 -1.8817760470e-03 2.7817282939e+00 -4.8180947379e+00 2.7817282939e+00 4.8180947379e+00 
103200 5.1306604739e+00 -1.8748731375e-03 2.7817621178e+00 -4.8181533227e+00 2.7817621178e+00 4.8181533227e+00 
103300 5.1306603911e+00 -1.8679959979e-03 2.7817958173e+00 -4.8182116918e+00 2.7817958173e+00 4.8182116918e+00 
103400 5.1306603089e+00 -1.8611445287e-03 2.7818293927e+00 -4.8182698462e+00 2.7818293927e+00 4.8182698462e+00 
103500 5.1306602274e+00 -1.8543186306e-03 2.7818628446e+00 -4.8183277865e+00 2.7818628446e+00 4.8183277865e+00 
103600 5.1306601464e+00 -1.8475182048e-03 2.7818961734e+00 -4.8183855137e+00 2.7818961734e+00 4.8183855137e+00 
103700 5.1306600660e+00 -1.8407431529e-03 2.7819293795e+00 -4.8184430284e+00 2.7819293795e+00 4.8184430284e+00 
103800 5.1306599861e+00 -1.8339933769e-03 2.7819624635e+00 -4.8185003316e+00 2.7819624635e+00 4.8185003316e+00 
103900 5.1306599069e+00 -1.8272687792e-03 2.7819954258e+00 -4.8185574240e+00 2.7819954258e+00 4.8185574240e+00 
104000 5.1306598282e+00 -1.8205692627e-03 2.7820282669e+00 -4.8186143063e+00 2.7820282669e+00 4.8186143063e+00 
104100 5.1306597501e+00 -1.8138947305e-03 2.7820609871e+00 -4.8186709794e+00 2.7820609871e+00 4.8186709794e+00 
104200 5.1306596725e+00 -1.8072450863e-03 2.7820935870e+00 -4.8187274441e+00 2.7820935870e+00 4.8187274441e+00 
104300 5.1306595955e+00 -1.8006202341e-03 2.7821260670e+00 -4.8187837011e+00 2.7821260670e+00 4.8187837011e+00 
104400 5.1306595191e+00 -1.7940200783e-03 2.7821584276e+00 -4.8188397513e+00 2.7821584276e+00 4.8188397513e+00 
104500 5.1306594432e+00 -1.7874445236e-03 2.7821906692e+00 -4.8188955953e+00 2.7821906692e+00 4.8188955953e+00 
104600 5.1306593678e+00 -1.7808934753e-03 2.7822227922e+00 -4.8189512341e+00 2.7822227922e+00 4.8189512341e+00 
104700 5.1306592930e+00 -1.7743668390e-03 2.7822547971e+00 -4.8190066682e+00 2.7822547971e+00 4.8190066682e+00 
104800 5.1306592188e+00 -1.7678645206e-03 2.7822866844e+00 -4.8190618986e+00 2.7822866844e+00 4.8190618986e+00 
104900 5.1306591450e+00 -1.7613864265e-03 2.7823184545e+00 -4.8191169259e+00 2.7823184545e+00 4.8191169259e+00 
105000 5.1306590718e+00 -1.7549324634e-03 2.7823501077e+00 -4.8191717510e+00 2.7823501077e+00 4.8191717510e+00 
105100 5.1306589991e+00 -1.7485025385e-03 2.7823816447e+00 -4.8192263746e+00 2.7823816447e+00 4.8192263746e+00 
105200 5.1306589270e+00 -1.7420965592e-03 2.7824130657e+00 -4.8192807974e+00 2.7824130657e+00 4.8192807974e+00 
105300 5.1306588554e+00 -1.7357144334e-03 2.7824443712e+00 -4.8193350202e+00 2.7824443712e+00 4.8193350202e+00 
105400 5.1306587842e+00 -1.7293560694e-03 2.7824755618e+00 -4.8193890438e+00 2.7824755618e+00 4.8193890438e+00 
105500 5.1306587136e+00 -1.7230213759e-03 2.7825066377e+00 -4.8194428689e+00 2.7825066377e+00 4.8194428689e+00 
105600 5.1306586435e+00 -1.7167102617e-03 2.7825375994e+00 -4.8194964961e+00 2.7825375994e+00 4.8194964961e+00 
105700 5.1306585739e+00 -1.7104226364e-03 2.7825684474e+00 -4.8195499264e+00 2.7825684474e+00 4.8195499264e+00 
105800 5.1306585048e+00 -1.7041584097e-03 2.7825991820e+00 -4.8196031604e+00 2.7825991820e+00 4.8196031604e+00 
105900 5.1306584363e+00 -1.6979174916e-03 2.7826298038e+00 -4.8196561988e+00 2.7826298038e+00 4.8196561988e+00 
106000 5.1306583682e+00 -1.6916997928e-03 2.7826603131e+00 -4.8197090425e+00 2.7826603131e+00 4.8197090425e+00 
106100 5.1306583005e+00 -1.6855052239e-03 2.7826907103e+00 -4.8197616920e+00 2.7826907103e+00 4.8197616920e+00 
106200 5.1306582334e+00 -1.6793336963e-03 2.7827209959e+00 -4.8198141482e+00 2.7827209959e+00 4.8198141482e+00 
106300 5.1306581668e+00 -1.6731851215e-03 2.7827511703e+00 -4.8198664117e+00 2.7827511703e+00 4.8198664117e+00 
106400 5.1306581006e+00 -1.6670594115e-03 2.7827812338e+00 -4.8199184833e+00 2.7827812338e+00 4.8199184833e+00 
106500 5.1306580349e+00 -1.6609564785e-03 2.7828111870e+00 -4.8199703637e+00 2.7828111870e+00 4.8199703637e+00 
106600 5.1306579697e+00 -1.6548762353e-03 2.7828410302e+00 -4.8200220537e+00 2.7828410302e+00 4.8200220537e+00 
106700 5.1306579050e+00 -1.6488185948e-03 2.7828707638e+00 -4.8200735538e+00 2.7828707638e+00 4.8200735538e+00 
106800 5.1306578407e+00 -1.6427834703e-03 2.7829003883e+00 -4.8201248649e+00 2.7829003883e+00 4.8201248649e+00 
106900 5.1306577769e+00 -1.6367707757e-03 2.7829299040e+00 -4.8201759876e+00 2.7829299040e+00 4.8201759876e+00 
107000 5.1306577135e+00 -1.6307804250e-03 2.7829593114e+00 -4.8202269227e+00 2.7829593114e+00 4.8202269227e+00 
107100 5.1306576506e+00 -1.6248123325e-03 2.7829886108e+00 -4.8202776708e+00 2.7829886108e+00 4.8202776708e+00 
107200 5.1306575882e+00 -1.6188664131e-03 2.7830178027e+00 -4.8203282327e+00 2.7830178027e+00 4.8203282327e+00 
107300 5.1306575262e+00 -1.6129425819e-03 2.7830468875e+00 -4.8203786090e+00 2.7830468875e+00 4.8203786090e+00 
107400 5.1306574646e+00 -1.6070407543e-03 2.7830758656e+00 -4.8204288005e+00 2.7830758656e+00 4.8204288005e+00 
107500 5.1306574035e+00 -1.6011608461e-03 2.7831047373e+00 -4.8204788078e+00 2.7831047373e+00 4.8204788078e+00 
107600 5.1306573429e+00 -1.5953027735e-03 2.7831335031e+00 -4.8205286316e+00 2.7831335031e+00 4.8205286316e+00 
107700 5.1306572826e+00 -1.5894664529e-03 2.7831621633e+00 -4.8205782726e+00 2.7831621633e+00 4.8205782726e+00 
107800 5.1306572228e+00 -1.5836518012e-03 2.7831907184e+00 -4.8206277314e+00 2.7831907184e+00 4.8206277314e+00 
107900 5.1306571635e+00 -1.5778587355e-03 2.7832191687e+00 -4.8206770089e+00 2.7832191687e+00 4.8206770089e+00 
108000 5.1306571045e+00 -1.5720871733e-03 2.7832475147e+00 -4.8207261055e+00 2.7832475147e+00 4.8207261055e+00 
108100 5.1306570460e+00 -1.5663370325e-03 2.7832757567e+00 -4.8207750221e+00 2.7832757567e+00 4.8207750221e+00 
108200 5.1306569879e+00 -1.5606082311e-03 2.7833038951e+00 -4.8208237593e+00 2.7833038951e+00 4.8208237593e+00 
108300 5.1306569302e+00 -1.5549006877e-03 2.7833319304e+00 -4.8208723177e+00 2.7833319304e+00 4.8208723177e+00 
108400 5.1306568730e+00 -1.5492143211e-03 2.7833598628e+00 -4.8209206981e+00 2.7833598628e+00 4.8209206981e+00 
108500 5.1306568161e+00 -1.5435490504e-03 2.7833876928e+00 -4.8209689010e+00 2.7833876928e+00 4.8209689010e+00 
108600 5.1306567597e+00 -1.5379047951e-03 2.7834154207e+00 -4.8210169272e+00 2.7834154207e+00 4.8210169272e+00 
108700 5.1306567036e+00 -1.5322814750e-03 2.7834430470e+00 -4.8210647773e+00 2.7834430470e+00 4.8210647773e+00 
108800 5.1306566480e+00 -1.5266790102e-03 2.7834705719e+00 -4.8211124519e+00 2.7834705719e+00 4.8211124519e+00 
108900 5.1306565928e+00 -1.5210973212e-03 2.7834979960e+00 -4.8211599518e+00 2.7834979960e+00 4.8211599518e+00 
109000 5.1306565380e+00 -1.5155363287e-03 2.7835253195e+00 -4.8212072776e+00 2.7835253195e+00 4.8212072776e+00 
109100 5.1306564835e+00 -1.5099959538e-03 2.7835525429e+00 -4.8212544298e+00 2.7835525429e+00 4.8212544298e+00 
109200 5.1306564295e+00 -1.5044761178e-03 2.7835796665e+00 -4.8213014092e+00 2.7835796665e+00 4.8213014092e+00 
109300 5.1306563758e+00 -1.4989767426e-03 2.7836066906e+00 -4.8213482165e+00 2.7836066906e+00 4.8213482165e+00 
109400 5.1306563225e+00 -1.4934977501e-03 2.7836336158e+00 -4.8213948522e+00 2.7836336158e+00 4.8213948522e+00 
109500 5.1306562696e+00 -1.4880390628e-03 2.7836604422e+00 -4.8214413169e+00 2.7836604422e+00 4.8214413169e+00 
109600 5.1306562171e+00 -1.4826006031e-03 2.7836871704e+00 -4.8214876114e+00 2.7836871704e+00 4.8214876114e+00 
109700 5.1306561650e+00 -1.4771822941e-03 2.7837138006e+00 -4.8215337363e+00 2.7837138006e+00 4.8215337363e+00 
109800 5.1306561133e+00 -1.4717840592e-03 2.7837403332e+00 -4.8215796922e+00 2.7837403332e+00 4.8215796922e+00 
109900 5.1306560619e+00 -1.4664058218e-03 2.7837667686e+00 -4.8216254796e+00 2.7837667686e+00 4.8216254796e+00 
110000 5.1306560109e+00 -1.4610475058e-03 2.7837931072e+00 -4.8216710994e+00 2.7837931072e+00 4.8216710994e+00 
110100 5.1306559602e+00 -1.4557090355e-03 2.7838193492e+00 -4.8217165519e+00 2.7838193492e+00 4.8217165519e+00 
110200 5.1306559099e+00 -1.4503903353e-03 2.7838454952e+00 -4.8217618380e+00 2.7838454952e+00 4.8217618380e+00 
110300 5.1306558600e+00 -1.4450913301e-03 2.7838715453e+00 -4.8218069582e+00 2.7838715453e+00 4.8218069582e+00 
110400 5.1306558105e+00 -1.4398119449e-03 2.7838975001e+00 -4.8218519132e+00 2.7838975001e+00 4.8218519132e+00 
110500 5.1306557613e+00 -1.4345521051e-03 2.7839233598e+00 -4.8218967035e+00 2.7839233598e+00 4.8218967035e+00 
110600 5.1306557124e+00 -1.4293117366e-03 2.7839491247e+00 -4.8219413297e+00 2.7839491247e+00 4.8219413297e+00 
110700 5.1306556639e+00 -1.4240907651e-03 2.7839747953e+00 -4.8219857925e+00 2.7839747953e+00 4.8219857925e+00 
110800 5.1306556158e+00 -1.4188891172e-03 2.7840003720e+00 -4.8220300925e+00 2.7840003720e+00 4.8220300925e+00 
110900 5.1306555680e+00 -1.4137067192e-03 2.7840258549e+00 -4.8220742303e+00 2.7840258549e+00 4.8220742303e+00 
111000 5.1306555205e+00 -1.4085434982e-03 2.7840512446e+00 -4.8221182065e+00 2.7840512446e+00 4.8221182065e+00 
111100 5.1306554734e+00 -1.4033993813e-03 2.7840765413e+00 -4.8221620216e+00 2.7840765413e+00 4.8221620216e+00 
111200 5.1306554266e+00 -1.3982742959e-03 2.7841017453e+00 -4.8222056764e+00 2.7841017453e+00 4.8222056764e+00 
111300 5.1306553802e+00 -1.3931681698e-03 2.7841268571e+00 -4.8222491713e+00 2.7841268571e+00 4.8222491713e+00 
111400 5.1306553341e+00 -1.3880809311e-03 2.7841518770e+00 -4.8222925070e+00 2.7841518770e+00 4.8222925070e+00 
111500 5.1306552883e+00 -1.3830125081e-03 2.7841768053e+00 -4.8223356841e+00 2.7841768053e+00 4.8223356841e+00 
111600 5.1306552428e+00 -1.3779628294e-03 2.7842016424e+00 -4.8223787031e+00 2.7842016424e+00 4.8223787031e+00 
111700 5.1306551977e+00 -1.3729318239e-03 2.7842263885e+00 -4.8224215646e+00 2.7842263885e+00 4.8224215646e+00 
111800 5.1306551529e+00 -1.3679194208e-03 2.7842510441e+00 -4.8224642694e+00 2.7842510441e+00 4.8224642694e+00 
111900 5.1306551085e+00 -1.3629255496e-03 2.7842756094e+00 -4.8225068178e+00 2.7842756094e+00 4.8225068178e+00 
112000 5.1306550643e+00 -1.3579501400e-03 2.7843000848e+00 -4.8225492105e+00 2.7843000848e+00 4.8225492105e+00 
112100 5.1306550205e+00 -1.3529931220e-03 2.7843244707e+00 -4.8225914481e+00 2.7843244707e+00 4.8225914481e+00 
112200 5.1306549770e+00 -1.3480544259e-03 2.7843487674e+00 -4.8226335311e+00 2.7843487674e+00 4.8226335311e+00 
112300 5.1306549338e+00 -1.3431339824e-03 2.7843729751e+00 -4.8226754601e+00 2.7843729751e+00 4.8226754601e+00 
112400 5.1306548909e+00 -1.3382317222e-03 2.7843970943e+00 -4.8227172358e+00 2.7843970943e+00 4.8227172358e+00 
112500 5.1306548483e+00 -1.3333475765e-03 2.7844211252e+00 -4.8227588586e+00 2.7844211252e+00 4.8227588586e+00 
112600 5.1306548060e+00 -1.3284814768e-03 2.7844450683e+00 -4.8228003291e+00 2.7844450683e+00 4.8228003291e+00 
112700 5.1306547640e+00 -1.3236333547e-03 2.7844689237e+00 -4.8228416480e+00 2.7844689237e+00 4.8228416480e+00 
112800 5.1306547224e+00 -1.3188031421e-03 2.7844926919e+00 -4.8228828157e+00 2.7844926919e+00 4.8228828157e+00 
112900 5.1306546810e+00 -1.3139907712e-03 2.7845163731e+00 -4.8229238328e+00 2.7845163731e+00 4.8229238328e+00 
113000 5.1306546399e+00 -1.3091961747e-03 2.7845399678e+00 -4.8229646999e+00 2.7845399678e+00 4.8229646999e+00 
113100 5.1306545991e+00 -1.3044192851e-03 2.7845634761e+00 -4.8230054175e+00 2.7845634761e+00 4.8230054175e+00 
113200 5.1306545587e+00 -1.2996600356e-03 2.7845868985e+00 -4.8230459862e+00 2.7845868985e+00 4.8230459862e+00 
113300 5.1306545185e+00 -1.2949183594e-03 2.7846102352e+00 -4.8230864066e+00 2.7846102352e+00 4.8230864066e+00 
113400 5.1306544786e+00 -1.2901941901e-03 2.7846334866e+00 -4.8231266792e+00 2.7846334866e+00 4.8231266792e+00 
113500 5.1306544389e+00 -1.2854874615e-03 2.7846566529e+00 -4.8231668045e+00 2.7846566529e+00 4.8231668045e+00 
113600 5.1306543996e+00 -1.2807981077e-03 2.7846797346e+00 -4.8232067831e+00 2.7846797346e+00 4.8232067831e+00 
113700 5.1306543606e+00 -1.2761260630e-03 2.7847027318e+00 -4.8232466155e+00 2.7847027318e+00 4.8232466155e+00 
113800 5.1306543218e+00 -1.2714712620e-03 2.7847256450e+00 -4.8232863023e+00 2.7847256450e+00 4.8232863023e+00 
113900 5.1306542833e+00 -1.2668336395e-03 2.7847484744e+00 -4.8233258440e+00 2.7847484744e+00 4.8233258440e+00 
114000 5.1306542451e+00 -1.2622131308e-03 2.7847712204e+00 -4.8233652411e+00 2.7847712204e+00 4.8233652411e+00 
114100 5.1306542072e+00 -1.2576096711e-03 2.7847938832e+00 -4.8234044943e+00 2.7847938832e+00 4.8234044943e+00 
114200 5.1306541695e+00 -1.2530231961e-03 2.7848164631e+00 -4.8234436039e+00 2.7848164631e+00 4.8234436039e+00 
114300 5.1306541321e+00 -1.2484536416e-03 2.7848389606e+00 -4.8234825706e+00 2.7848389606e+00 4.8234825706e+00 
114400 5.1306540950e+00 -1.2439009439e-03 2.7848613758e+00 -4.8235213949e+00 2.7848613758e+00 4.8235213949e+00 
114500 5.1306540581e+00 -1.2393650392e-03 2.7848837091e+00 -4.8235600773e+00 2.7848837091e+00 4.8235600773e+00 
114600 5.1306540215e+00 -1.2348458643e-03 2.7849059608e+00 -4.8235986184e+00 2.7849059608e+00 4.8235986184e+00 
114700 5.1306539852e+00 -1.2303433560e-03 2.7849281311e+00 -4.8236370185e+00 2.7849281311e+00 4.8236370185e+00 
114800 5.1306539491e+00 -1.2258574514e-03 2.7849502205e+00 -4.8236752784e+00 2.7849502205e+00 4.8236752784e+00 
114900 5.1306539133e+00 -1.2213880879e-03 2.7849722291e+00 -4.8237133985e+00 2.7849722291e+00 4.8237133985e+00 
115000 5.1306538778e+00 -1.2169352032e-03 2.7849941573e+00 -4.8237513793e+00 2.7849941573e+00 4.8237513793e+00 
115100 5.1306538425e+00 -1.2124987351e-03 2.7850160054e+00 -4.8237892213e+00 2.7850160054e+00 4.8237892213e+00 
115200 5.1306538074e+00 -1.2080786218e-03 2.7850377737e+00 -4.8238269251e+00 2.7850377737e+00 4.8238269251e+00 
115300 5.1306537727e+00 -1.2036748016e-03 2.7850594625e+00 -4.8238644911e+00 2.7850594625e+00 4.8238644911e+00 
115400 5.1306537381e+00 -1.1992872131e-03 2.7850810720e+00 -4.8239019199e+00 2.7850810720e+00 4.8239019199e+00 
115500 5.1306537038e+00 -1.1949157952e-03 2.7851026026e+00 -4.8239392120e+00 2.7851026026e+00 4.8239392120e+00 
115600 5.1306536698e+00 -1.1905604870e-03 2.7851240545e+00 -4.8239763678e+00 2.7851240545e+00 4.8239763678e+00 
115700 5.1306536360e+00 -1.1862212277e-03 2.7851454281e+00 -4.8240133880e+00 2.7851454281e+00 4.8240133880e+00 
115800 5.1306536024e+00 -1.1818979570e-03 2.7851667237e+00 -4.8240502729e+00 2.7851667237e+00 4.8240502729e+00 
115900 5.1306535691e+00 -1.1775906146e-03 2.7851879414e+00 -4.8240870231e+00 2.7851879414e+00 4.8240870231e+00 
116000 5.1306535361e+00 -1.1732991406e-03 2.7852090817e+00 -4.8241236392e+00 2.7852090817e+00 4.8241236392e+00 
116100 5.1306535032e+00 -1.1690234753e-03 2.7852301447e+00 -4.8241601214e+00 2.7852301447e+00 4.8241601214e+00 
116200 5.1306534706e+00 -1.1647635592e-03 2.7852511309e+00 -4.8241964705e+00 2.7852511309e+00 4.8241964705e+00 
116300 5.1306534383e+00 -1.1605193330e-03 2.7852720404e+00 -4.8242326869e+00 2.7852720404e+00 4.8242326869e+00 
116400 5.1306534061e+00 -1.1562907377e-03 2.7852928736e+00 -4.8242687710e+00 2.7852928736e+00 4.8242687710e+00 
116500 5.1306533742e+00 -1.1520777145e-03 2.7853136307e+00 -4.8243047233e+00 2.7853136307e+00 4.8243047233e+00 
116600 5.1306533426e+00 -1.1478802049e-03 2.7853343120e+00 -4.8243405444e+00 2.7853343120e+00 4.8243405444e+00 
116700 5.1306533111e+00 -1.1436981504e-03 2.7853549178e+00 -4.8243762347e+00 2.7853549178e+00 4.8243762347e+00 
116800 5.1306532799e+00 -1.1395314930e-03 2.7853754484e+00 -4.8244117948e+00 2.7853754484e+00 4.8244117948e+00 
116900 5.1306532489e+00 -1.1353801749e-03 2.7853959040e+00 -4.8244472250e+00 2.7853959040e+00 4.8244472250e+00 
117000 5.1306532182e+00 -1.1312441383e-03 2.7854162850e+00 -4.8244825258e+00 2.7854162850e+00 4.8244825258e+00 
117100 5.1306531876e+00 -1.1271233259e-03 2.7854365916e+00 -4.8245176979e+00 2.7854365916e+00 4.8245176979e+00 
117200 5.1306531573e+00 -1.1230176804e-03 2.7854568240e+00 -4.8245527415e+00 2.7854568240e+00 4.8245527415e+00 
117300 5.1306531272e+00 -1.1189271449e-03 2.7854769827e+00 -4.8245876573e+00 2.7854769827e+00 4.8245876573e+00 
117400 5.1306530973e+00 -1.1148516626e-03 2.7854970677e+00 -4.8246224456e+00 2.7854970677e+00 4.8246224456e+00 
117500 5.1306530676e+00 -1.1107911770e-03 2.7855170794e+00 -4.8246571069e+00 2.7855170794e+00 4.8246571069e+00 
117600 5.1306530382e+00 -1.1067456318e-03 2.7855370182e+00 -4.8246916418e+00 2.7855370182e+00 4.8246916418e+00 
117700 5.1306530089e+00 -1.1027149708e-03 2.7855568841e+00 -4.8247260506e+00 2.7855568841e+00 4.8247260506e+00 
117800 5.1306529799e+00 -1.0986991382e-03 2.7855766776e+00 -4.8247603339e+00 2.7855766776e+00 4.8247603339e+00 
117900 5.1306529510e+00 -1.0946980784e-03 2.7855963988e+00 -4.8247944921e+00 2.7855963988e+00 4.8247944921e+00 
118000 5.1306529224e+00 -1.0907117359e-03 2.7856160481e+00 -4.8248285257e+00 2.7856160481e+00 4.8248285257e+00 
118100 5.1306528940e+00 -1.0867400555e-03 2.7856356257e+00 -4.8248624350e+00 2.7856356257e+00 4.8248624350e+00 
118200 5.1306528658e+00 -1.0827829821e-03 2.7856551318e+00 -4.8248962207e+00 2.7856551318e+00 4.8248962207e+00 
118300 5.1306528378e+00 -1.0788404611e-03 2.7856745668e+00 -4.8249298831e+00 2.7856745668e+00 4.8249298831e+00 
118400 5.1306528100e+00 -1.0749124378e-03 2.7856939309e+00 -4.8249634227e+00 2.7856939309e+00 4.8249634227e+00 
118500 5.1306527824e+00 -1.0709988578e-03 2.7857132244e+00 -4.8249968400e+00 2.7857132244e+00 4.8249968400e+00 
118600 5.1306527549e+00 -1.0670996670e-03 2.7857324475e+00 -4.8250301354e+00 2.7857324475e+00 4.8250301354e+00 
118700 5.1306527277e+00 -1.0632148115e-03 2.7857516005e+00 -4.8250633093e+00 2.7857516005e+00 4.8250633093e+00 
118800 5.1306527007e+00 -1.0593442375e-03 2.7857706836e+00 -4.8250963622e+00 2.7857706836e+00 4.8250963622e+00 
118900 5.1306526739e+00 -1.0554878914e-03 2.7857896971e+00 -4.8251292945e+00 2.7857896971e+00 4.8251292945e+00 
119000 5.1306526473e+00 -1.0516457201e-03 2.7858086412e+00 -4.8251621068e+00 2.7858086412e+00 4.8251621068e+00 
119100 5.1306526208e+00 -1.0478176704e-03 2.7858275163e+00 -4.8251947994e+00 2.7858275163e+00 4.8251947994e+00 
119200 5.1306525946e+00 -1.0440036893e-03 2.7858463226e+00 -4.8252273727e+00 2.7858463226e+00 4.8252273727e+00 
119300 5.1306525685e+00 -1.0402037242e-03 2.7858650602e+00 -4.8252598273e+00 2.7858650602e+00 4.8252598273e+00 
119400 5.1306525427e+00 -1.0364177225e-03 2.7858837296e+00 -4.8252921636e+00 2.7858837296e+00 4.8252921636e+00 
119500 5.1306525170e+00 -1.0326456321e-03 2.7859023308e+00 -4.8253243819e+00 2.7859023308e+00 4.8253243819e+00 
119600 5.1306524915e+00 -1.0288874008e-03 2.7859208642e+00 -4.8253564827e+00 2.7859208642e+00 4.8253564827e+00 
119700 5.1306524662e+00 -1.0251429767e-03 2.7859393301e+00 -4.8253884665e+00 2.7859393301e+00 4.8253884665e+00 
119800 5.1306524410e+00 -1.0214123082e-03 2.7859577286e+00 -4.8254203337e+00 2.7859577286e+00 4.8254203337e+00 
119900 5.1306524161e+00 -1.0176953438e-03 2.7859760601e+00 -4.8254520848e+00 2.7859760601e+00 4.8254520848e+00 
120000 5.1306523913e+00 -1.0139920321e-03 2.7859943247e+00 -4.8254837200e+00 2.7859943247e+00 4.8254837200e+00 
120100 5.1306523667e+00 -1.0103023222e-03 2.7860125228e+00 -4.8255152400e+00 2.7860125228e+00 4.8255152400e+00 
120200 5.1306523423e+00 -1.0066261631e-03 2.7860306545e+00 -4.8255466450e+00 2.7860306545e+00 4.8255466450e+00 
120300 5.1306523180e+00 -1.0029635042e-03 2.7860487201e+00 -4.8255779356e+00 2.7860487201e+00 4.8255779356e+00 
120400 5.1306522940e+00 -9.9931429488e-04 2.7860667199e+00 -4.8256091121e+00 2.7860667199e+00 4.8256091121e+00 
120500 5.1306522701e+00 -9.9567848496e-04 2.7860846540e+00 -4.8256401750e+00 2.7860846540e+00 4.8256401750e+00 
120600 5.1306522464e+00 -9.9205602430e-04 2.7861025228e+00 -4.8256711246e+00 2.7861025228e+00 4.8256711246e+00 
120700 5.1306522228e+00 -9.8844686300e-04 2.7861203265e+00 -4.8257019615e+00 2.7861203265e+00 4.8257019615e+00 
120800 5.1306521994e+00 -9.8485095136e-04 2.7861380653e+00 -4.8257326860e+00 2.7861380653e+00 4.8257326860e+00 
120900 5.1306521762e+00 -9.8126823984e-04 2.7861557394e+00 -4.8257632985e+00 2.7861557394e+00 4.8257632985e+00 
121000 5.1306521532e+00 -9.7769867914e-04 2.7861733492e+00 -4.8257937994e+00 2.7861733492e+00 4.8257937994e+00 
121100 5.1306521303e+00 -9.7414222010e-04 2.7861908947e+00 -4.8258241893e+00 2.7861908947e+00 4.8258241893e+00 
121200 5.1306521076e+00 -9.7059881378e-04 2.7862083764e+00 -4.8258544683e+00 2.7862083764e+00 4.8258544683e+00 
121300 5.1306520850e+00 -9.6706841143e-04 2.7862257943e+00 -4.8258846371e+00 2.7862257943e+00 4.8258846371e+00 
121400 5.1306520626e+00 -9.6355096448e-04 2.7862431488e+00 -4.8259146959e+00 2.7862431488e+00 4.8259146959e+00 
121500 5.1306520404e+00 -9.6004642454e-04 2.7862604400e+00 -4.8259446452e+00 2.7862604400e+00 4.8259446452e+00 
121600 5.1306520183e+00 -9.5655474343e-04 2.7862776682e+00 -4.8259744854e+00 2.7862776682e+00 4.8259744854e+00 
121700 5.1306519964e+00 -9.5307587313e-04 2.7862948337e+00 -4.8260042169e+00 2.7862948337e+00 4.8260042169e+00 
121800 5.1306519747e+00 -9.4960976583e-04 2.7863119367e+00 -4.8260338400e+00 2.7863119367e+00 4.8260338400e+00 
121900 5.1306519531e+00 -9.4615637388e-04 2.7863289773e+00 -4.8260633553e+00 2.7863289773e+00 4.8260633553e+00 
122000 5.1306519316e+00 -9.4271564984e-04 2.7863459559e+00 -4.8260927630e+00 2.7863459559e+00 4.8260927630e+00 
122100 5.1306519103e+00 -9.3928754642e-04 2.7863628726e+00 -4.8261220636e+00 2.7863628726e+00 4.8261220636e+00 
122200 5.1306518892e+00 -9.3587201655e-04 2.7863797277e+00 -4.8261512575e+00 2.7863797277e+00 4.8261512575e+00 
122300 5.1306518682e+00 -9.3246901331e-04 2.7863965214e+00 -4.8261803451e+00 2.7863965214e+00 4.8261803451e+00 
122400 5.1306518474e+00 -9.2907848998e-04 2.7864132539e+00 -4.8262093267e+00 2.7864132539e+00 4.8262093267e+00 
122500 5.1306518267e+00 -9.2570040002e-04 2.7864299255e+00 -4.8262382028e+00 2.7864299255e+00 4.8262382028e+00 
122600 5.1306518062e+00 -9.2233469706e-04 2.7864465364e+00 -4.8262669737e+00 2.7864465364e+00 4.8262669737e+00 
122700 5.1306517858e+00 -9.1898133491e-04 2.7864630868e+00 -4.8262956398e+00 2.7864630868e+00 4.8262956398e+00 
122800 5.1306517656e+00 -9.1564026756e-04 2.7864795769e+00 -4.8263242015e+00 2.7864795769e+00 4.8263242015e+00 
122900 5.1306517455e+00 -9.1231144918e-04 2.7864960070e+00 -4.8263526592e+00 2.7864960070e+00 4.8263526592e+00 
123000 5.1306517255e+00 -9.0899483412e-04 2.7865123773e+00 -4.8263810133e+00 2.7865123773e+00 4.8263810133e+00 
123100 5.1306517057e+00 -9.0569037688e-04 2.7865286879e+00 -4.8264092642e+00 2.7865286879e+00 4.8264092642e+00 
123200 5.1306516861e+00 -9.0239803218e-04 2.7865449391e+00 -4.8264374121e+00 2.7865449391e+00 4.8264374121e+00 
123300 5.1306516665e+00 -8.9911775487e-04 2.7865611312e+00 -4.8264654576e+00 2.7865611312e+00 4.8264654576e+00 
123400 5.1306516472e+00 -8.9584950000e-04 2.7865772643e+00 -4.8264934010e+00 2.7865772643e+00 4.8264934010e+00 
123500 5.1306516279e+00 -8.9259322278e-04 2.7865933387e+00 -4.8265212427e+00 2.7865933387e+00 4.8265212427e+00 
123600 5.1306516088e+00 -8.8934887861e-04 2.7866093546e+00 -4.8265489830e+00 2.7866093546e+00 4.8265489830e+00 
123700 5.1306515898e+00 -8.8611642304e-04 2.7866253121e+00 -4.8265766223e+00 2.7866253121e+00 4.8265766223e+00 
123800 5.1306515710e+00 -8.8289581181e-04 2.7866412116e+00 -4.8266041610e+00 2.7866412116e+00 4.8266041610e+00 
123900 5.1306515523e+00 -8.7968700081e-04 2.7866570532e+00 -4.8266315994e+00 2.7866570532e+00 4.8266315994e+00 
124000 5.1306515338e+00 -8.7648994610e-04 2.7866728371e+00 -4.8266589380e+00 2.7866728371e+00 4.8266589380e+00 
124100 5.1306515154e+00 -8.7330460394e-04 2.7866885636e+00 -4.8266861770e+00 2.7866885636e+00 4.8266861770e+00 
124200 5.1306514971e+00 -8.7013093073e-04 2.7867042328e+00 -4.8267133169e+00 2.7867042328e+00 4.8267133169e+00 
124300 5.1306514789e+00 -8.6696888304e-04 2.7867198450e+00 -4.8267403581e+00 2.7867198450e+00 4.8267403581e+00 
124400 5.1306514609e+00 -8.6381841760e-04 2.7867354004e+00 -4.8267673008e+00 2.7867354004e+00 4.8267673008e+00 
124500 5.1306514430e+00 -8.6067949134e-04 2.7867508992e+00 -4.8267941454e+00 2.7867508992e+00 4.8267941454e+00 
124600 5.1306514252e+00 -8.5755206131e-04 2.7867663415e+00 -4.8268208924e+00 2.7867663415e+00 4.8268208924e+00 
124700 5.1306514076e+00 -8.5443608476e-04 2.7867817277e+00 -4.8268475420e+00 2.7867817277e+00 4.8268475420e+00 
124800 5.1306513900e+00 -8.5133151908e-04 2.7867970579e+00 -4.8268740946e+00 2.7867970579e+00 4.8268740946e+00 
124900 5.1306513727e+00 -8.4823832184e-04 2.7868123323e+00 -4.8269005506e+00 2.7868123323e+00 4.8269005506e+00 
125000 5.1306513554e+00 -8.4515645077e-04 2.7868275511e+00 -4.8269269104e+00 2.7868275511e+00 4.8269269104e+00 
125100 5.1306513383e+00 -8.4208586375e-04 2.7868427145e+00 -4.8269531742e+00 2.7868427145e+00 4.8269531742e+00 
125200 5.1306513212e+00 -8.3902651883e-04 2.7868578228e+00 -4.8269793425e+00 2.7868578228e+00 4.8269793425e+00 
125300 5.1306513043e+00 -8.3597837422e-04 2.7868728760e+00 -4.8270054155e+00 2.7868728760e+00 4.8270054155e+00 
125400 5.1306512876e+00 -8.3294138829e-04 2.7868878746e+00 -4.8270313937e+00 2.7868878746e+00 4.8270313937e+00 
125500 5.1306512709e+00 -8.2991551958e-04 2.7869028185e+00 -4.8270572774e+00 2.7869028185e+00 4.8270572774e+00 
125600 5.1306512544e+00 -8.2690072676e-04 2.7869177081e+00 -4.8270830669e+00 2.7869177081e+00 4.8270830669e+00 
125700 5.1306512380e+00 -8.2389696869e-04 2.7869325435e+00 -4.8271087626e+00 2.7869325435e+00 4.8271087626e+00 
125800 5.1306512217e+00 -8.2090420437e-04 2.7869473249e+00 -4.8271343648e+00 2.7869473249e+00 4.8271343648e+00 
125900 5.1306512055e+00 -8.1792239296e-04 2.7869620526e+00 -4.8271598739e+00 2.7869620526e+00 4.8271598739e+00 
126000 5.1306511894e+00 -8.1495149378e-04 2.7869767267e+00 -4.8271852902e+00 2.7869767267e+00 4.8271852902e+00 
126100 5.1306511735e+00 -8.1199146630e-04 2.7869913474e+00 -4.8272106140e+00 2.7869913474e+00 4.8272106140e+00 
126200 5.1306511577e+00 -8.0904227014e-04 2.7870059150e+00 -4.8272358457e+00 2.7870059150e+00 4.8272358457e+00 
126300 5.1306511420e+00 -8.0610386509e-04 2.7870204295e+00 -4.8272609857e+00 2.7870204295e+00 4.8272609857e+00 
126400 5.1306511263e+00 -8.0317621108e-04 2.7870348913e+00 -4.8272860342e+00 2.7870348913e+00 4.8272860342e+00 
126500 5.1306511109e+00 -8.0025926820e-04 2.7870493005e+00 -4.8273109916e+00 2.7870493005e+00 4.8273109916e+00 
126600 5.1306510955e+00 -7.9735299669e-04 2.7870636572e+00 -4.8273358582e+00 2.7870636572e+00 4.8273358582e+00 
126700 5.1306510802e+00 -7.9445735694e-04 2.7870779618e+00 -4.8273606344e+00 2.7870779618e+00 4.8273606344e+00 
126800 5.1306510650e+00 -7.9157230951e-04 2.7870922143e+00 -4.8273853205e+00 2.7870922143e+00 4.8273853205e+00 
126900 5.1306510500e+00 -7.8869781507e-04 2.7871064150e+00 -4.8274099168e+00 2.7871064150e+00 4.8274099168e+00 
127000 5.1306510351e+00 -7.8583383448e-04 2.7871205640e+00 -4.8274344237e+00 2.7871205640e+00 4.8274344237e+00 
127100 5.1306510202e+00 -7.8298032872e-04 2.7871346616e+00 -4.8274588415e+00 2.7871346616e+00 4.8274588415e+00 
127200 5.1306510055e+00 -7.8013725895e-04 2.7871487080e+00 -4.8274831705e+00 2.7871487080e+00 4.8274831705e+00 
127300 5.1306509909e+00 -7.7730458645e-04 2.7871627033e+00 -4.8275074110e+00 2.7871627033e+00 4.8275074110e+00 
127400 5.1306509764e+00 -7.7448227265e-04 2.7871766476e+00 -4.8275315634e+00 2.7871766476e+00 4.8275315634e+00 
127500 5.1306509619e+00 -7.7167027915e-04 2.7871905413e+00 -4.8275556279e+00 2.7871905413e+00 4.8275556279e+00 
127600 5.1306509476e+00 -7.6886856768e-04 2.7872043845e+00 -4.8275796050e+00 2.7872043845e+00 4.8275796050e+00 
127700 5.1306509334e+00 -7.6607710011e-04 2.7872181773e+00 -4.8276034949e+00 2.7872181773e+00 4.8276034949e+00 
127800 5.1306509193e+00 -7.6329583846e-04 2.7872319200e+00 -4.8276272979e+00 2.7872319200e+00 4.8276272979e+00 
127900 5.1306509053e+00 -7.6052474491e-04 2.7872456128e+00 -4.8276510145e+00 2.7872456128e+00 4.8276510145e+00 
128000 5.1306508914e+00 -7.5776378176e-04 2.7872592557e+00 -4.8276746448e+00 2.7872592557e+00 4.8276746448e+00 
128100 5.1306508776e+00 -7.5501291146e-04 2.7872728491e+00 -4.8276981891e+00 2.7872728491e+00 4.8276981891e+00 
128200 5.1306508639e+00 -7.5227209663e-04 2.7872863930e+00 -4.8277216479e+00 2.7872863930e+00 4.8277216479e+00 
128300 5.1306508503e+00 -7.4954129999e-04 2.7872998877e+00 -4.8277450215e+00 2.7872998877e+00 4.8277450215e+00 
128400 5.1306508368e+00 -7.4682048443e-04 2.7873133334e+00 -4.8277683101e+00 2.7873133334e+00 4.8277683101e+00 
128500 5.1306508234e+00 -7.4410961297e-04 2.7873267302e+00 -4.8277915140e+00 2.7873267302e+00 4.8277915140e+00 
128600 5.1306508101e+00 -7.4140864877e-04 2.7873400783e+00 -4.8278146336e+00 2.7873400783e+00 4.8278146336e+00 
128700 5.1306507969e+00 -7.3871755514e-04 2.7873533779e+00 -4.8278376691e+00 2.7873533779e+00 4.8278376691e+00 
128800 5.1306507838e+00 -7.3603629552e-04 2.7873666291e+00 -4.8278606209e+00 2.7873666291e+00 4.8278606209e+00 
128900 5.1306507707e+00 -7.3336483349e-04 2.7873798322e+00 -4.8278834894e+00 2.7873798322e+00 4.8278834894e+00 
129000 5.1306507578e+00 -7.3070313278e-04 2.7873929873e+00 -4.8279062747e+00 2.7873929873e+00 4.8279062747e+00 
129100 5.1306507450e+00 -7.2805115724e-04 2.7874060946e+00 -4.8279289772e+00 2.7874060946e+00 4.8279289772e+00 
129200 5.1306507322e+00 -7.2540887087e-04 2.7874191543e+00 -4.8279515972e+00 2.7874191543e+00 4.8279515972e+00 
129300 5.1306507196e+00 -7.2277623780e-04 2.7874321665e+00 -4.8279741350e+00 2.7874321665e+00 4.8279741350e+00 
129400 5.1306507070e+00 -7.2015322230e-04 2.7874451314e+00 -4.8279965909e+00 2.7874451314e+00 4.8279965909e+00 
129500 5.1306506945e+00 -7.1753978877e-04 2.7874580492e+00 -4.8280189652e+00 2.7874580492e+00 4.8280189652e+00 
129600 5.1306506821e+00 -7.1493590175e-04 2.7874709201e+00 -4.8280412582e+00 2.7874709201e+00 4.8280412582e+00 
129700 5.1306506699e+00 -7.1234152593e-04 2.7874837442e+00 -4.8280634702e+00 2.7874837442e+00 4.8280634702e+00 
129800 5.1306506576e+00 -7.0975662609e-04 2.7874965217e+00 -4.8280856015e+00 2.7874965217e+00 4.8280856015e+00 
129900 5.1306506455e+00 -7.0718116720e-04 2.7875092528e+00 -4.8281076524e+00 2.7875092528e+00 4.8281076524e+00 
130000 5.1306506335e+00 -7.0461511431e-04 2.7875219376e+00 -4.8281296231e+00 2.7875219376e+00 4.8281296231e+00 
130100 5.1306506216e+00 -7.0205843265e-04 2.7875345764e+00 -4.8281515141e+00 2.7875345764e+00 4.8281515141e+00 
130200 5.1306506097e+00 -6.9951108754e-04 2.7875471692e+00 -4.8281733255e+00 2.7875471692e+00 4.8281733255e+00 
130300 5.1306505979e+00 -6.9697304446e-04 2.7875597163e+00 -4.8281950577e+00 2.7875597163e+00 4.8281950577e+00 
130400 5.1306505862e+00 -6.9444426902e-04 2.7875722178e+00 -4.8282167109e+00 2.7875722178e+00 4.8282167109e+00 
130500 5.1306505746e+00 -6.9192472693e-04 2.7875846739e+00 -4.8282382855e+00 2.7875846739e+00 4.8282382855e+00 
130600 5.1306505631e+00 -6.8941438407e-04 2.7875970847e+00 -4.8282597817e+00 2.7875970847e+00 4.8282597817e+00 
130700 5.1306505517e+00 -6.8691320642e-04 2.7876094504e+00 -4.8282811998e+00 2.7876094504e+00 4.8282811998e+00 
130800 5.1306505403e+00 -6.8442116010e-04 2.7876217713e+00 -4.8283025401e+00 2.7876217713e+00 4.8283025401e+00 
130900 5.1306505290e+00 -6.8193821137e-04 2.7876340474e+00 -4.8283238030e+00 2.7876340474e+00 4.8283238030e+00 
131000 5.1306505179e+00 -6.7946432659e-04 2.7876462789e+00 -4.8283449885e+00 2.7876462789e+00 4.8283449885e+00 
131100 5.1306505067e+00 -6.7699947228e-04 2.7876584659e+00 -4.8283660971e+00 2.7876584659e+00 4.8283660971e+00 
131200 5.1306504957e+00 -6.7454361505e-04 2.7876706087e+00 -4.8283871291e+00 2.7876706087e+00 4.8283871291e+00 
131300 5.1306504848e+00 -6.7209672168e-04 2.7876827074e+00 -4.8284080847e+00 2.7876827074e+00 4.8284080847e+00 
131400 5.1306504739e+00 -6.6965875903e-04 2.7876947622e+00 -4.8284289641e+00 2.7876947622e+00 4.8284289641e+00 
131500 5.1306504631e+00 -6.6722969412e-04 2.7877067732e+00 -4.8284497678e+00 2.7877067732e+00 4.8284497678e+00 
131600 5.1306504524e+00 -6.6480949408e-04 2.7877187406e+00 -4.8284704959e+00 2.7877187406e+00 4.8284704959e+00 
131700 5.1306504417e+00 -6.6239812617e-04 2.7877306645e+00 -4.8284911487e+00 2.7877306645e+00 4.8284911487e+00 
131800 5.1306504312e+00 -6.5999555776e-04 2.7877425451e+00 -4.8285117265e+00 2.7877425451e+00 4.8285117265e+00 
131900 5.1306504207e+00 -6.5760175635e-04 2.7877543825e+00 -4.8285322296e+00 2.7877543825e+00 4.8285322296e+00 
132000 5.1306504103e+00 -6.5521668959e-04 2.7877661770e+00 -4.8285526582e+00 2.7877661770e+00 4.8285526582e+00 
132100 5.1306503999e+00 -6.5284032521e-04 2.7877779287e+00 -4.8285730127e+00 2.7877779287e+00 4.8285730127e+00 
132200 5.1306503897e+00 -6.5047263108e-04 2.7877896377e+00 -4.8285932932e+00 2.7877896377e+00 4.8285932932e+00 
132300 5.1306503795e+00 -6.4811357520e-04 2.7878013041e+00 -4.8286135001e+00 2.7878013041e+00 4.8286135001e+00 
132400 5.1306503694e+00 -6.4576312568e-04 2.7878129282e+00 -4.8286336337e+00 2.7878129282e+00 4.8286336337e+00 
132500 5.1306503593e+00 -6.4342125076e-04 2.7878245101e+00 -4.8286536941e+00 2.7878245101e+00 4.8286536941e+00 
132600 5.1306503493e+00 -6.4108791878e-04 2.7878360500e+00 -4.8286736817e+00 2.7878360500e+00 4.8286736817e+00 
132700 5.1306503394e+00 -6.3876309822e-04 2.7878475479e+00 -4.8286935968e+00 2.7878475479e+00 4.8286935968e+00 
132800 5.1306503296e+00 -6.3644675767e-04 2.7878590042e+00 -4.8287134395e+00 2.7878590042e+00 4.8287134395e+00 
132900 5.1306503199e+00 -6.3413886584e-04 2.7878704188e+00 -4.8287332102e+00 2.7878704188e+00 4.8287332102e+00 
133000 5.1306503102e+00 -6.3183939156e-04 2.7878817920e+00 -4.8287529092e+00 2.7878817920e+00 4.8287529092e+00 
133100 5.1306503006e+00 -6.2954830378e-04 2.7878931239e+00 -4.8287725366e+00 2.7878931239e+00 4.8287725366e+00 
133200 5.1306502910e+00 -6.2726557156e-04 2.7879044146e+00 -4.8287920928e+00 2.7879044146e+00 4.8287920928e+00 
133300 5.1306502815e+00 -6.2499116408e-04 2.7879156644e+00 -4.8288115779e+00 2.7879156644e+00 4.8288115779e+00 
133400 5.1306502721e+00 -6.2272505063e-04 2.7879268733e+00 -4.8288309924e+00 2.7879268733e+00 4.8288309924e+00 
133500 5.1306502628e+00 -6.2046720062e-04 2.7879380416e+00 -4.8288503364e+00 2.7879380416e+00 4.8288503364e+00 
133600 5.1306502535e+00 -6.1821758359e-04 2.7879491693e+00 -4.8288696102e+00 2.7879491693e+00 4.8288696102e+00 
133700 5.1306502443e+00 -6.1597616918e-04 2.7879602566e+00 -4.8288888140e+00 2.7879602566e+00 4.8288888140e+00 
133800 5.1306502351e+00 -6.1374292714e-04 2.7879713037e+00 -4.8289079481e+00 2.7879713037e+00 4.8289079481e+00 
133900 5.1306502261e+00 -6.1151782734e-04 2.7879823107e+00 -4.8289270127e+00 2.7879823107e+00 4.8289270127e+00 
134000 5.1306502171e+00 -6.0930083977e-04 2.7879932777e+00 -4.8289460082e+00 2.7879932777e+00 4.8289460082e+00 
134100 5.1306502081e+00 -6.0709193452e-04 2.7880042050e+00 -4.8289649347e+00 2.7880042050e+00 4.8289649347e+00 
134200 5.1306501992e+00 -6.0489108181e-04 2.7880150926e+00 -4.8289837926e+00 2.7880150926e+00 4.8289837926e+00 
134300 5.1306501904e+00 -6.0269825195e-04 2.7880259406e+00 -4.8290025820e+00 2.7880259406e+00 4.8290025820e+00 
134400 5.1306501816e+00 -6.0051341538e-04 2.7880367493e+00 -4.8290213032e+00 2.7880367493e+00 4.8290213032e+00 
134500 5.1306501730e+00 -5.9833654264e-04 2.7880475188e+00 -4.8290399565e+00 2.7880475188e+00 4.8290399565e+00 
134600 5.1306501643e+00 -5.9616760439e-04 2.7880582492e+00 -4.8290585421e+00 2.7880582492e+00 4.8290585421e+00 
134700 5.1306501558e+00 -5.9400657139e-04 2.7880689406e+00 -4.8290770602e+00 2.7880689406e+00 4.8290770602e+00 
134800 5.1306501473e+00 -5.9185341453e-04 2.7880795933e+00 -4.8290955111e+00 2.7880795933e+00 4.8290955111e+00 
134900 5.1306501388e+00 -5.8970810478e-04 2.7880902073e+00 -4.8291138951e+00 2.7880902073e+00 4.8291138951e+00 
135000 5.1306501304e+00 -5.8757061324e-04 2.7881007828e+00 -4.8291322124e+00 2.7881007828e+00 4.8291322124e+00 
135100 5.1306501221e+00 -5.8544091112e-04 2.7881113199e+00 -4.8291504633e+00 2.7881113199e+00 4.8291504633e+00 
135200 5.1306501138e+00 -5.8331896973e-04 2.7881218188e+00 -4.8291686479e+00 2.7881218188e+00 4.8291686479e+00 
135300 5.1306501056e+00 -5.8120476048e-04 2.7881322796e+00 -4.8291867665e+00 2.7881322796e+00 4.8291867665e+00 
135400 5.1306500975e+00 -5.7909825491e-04 2.7881427024e+00 -4.8292048194e+00 2.7881427024e+00 4.8292048194e+00 
135500 5.1306500894e+00 -5.7699942464e-04 2.7881530875e+00 -4.8292228068e+00 2.7881530875e+00 4.8292228068e+00 
135600 5.1306500814e+00 -5.7490824142e-04 2.7881634348e+00 -4.8292407289e+00 2.7881634348e+00 4.8292407289e+00 
135700 5.1306500734e+00 -5.7282467710e-04 2.7881737446e+00 -4.8292585860e+00 2.7881737446e+00 4.8292585860e+00 
135800 5.1306500655e+00 -5.7074870362e-04 2.7881840170e+00 -4.8292763783e+00 2.7881840170e+00 4.8292763783e+00 
135900 5.1306500576e+00 -5.6868029305e-04 2.7881942522e+00 -4.8292941061e+00 2.7881942522e+00 4.8292941061e+00 
136000 5.1306500498e+00 -5.6661941755e-04 2.7882044502e+00 -4.8293117696e+00 2.7882044502e+00 4.8293117696e+00 
136100 5.1306500421e+00 -5.6456604939e-04 2.7882146112e+00 -4.8293293690e+00 2.7882146112e+00 4.8293293690e+00 
136200 5.1306500344e+00 -5.6252016093e-04 2.7882247353e+00 -4.8293469045e+00 2.7882247353e+00 4.8293469045e+00 
136300 5.1306500268e+00 -5.6048172466e-04 2.7882348228e+00 -4.8293643765e+00 2.7882348228e+00 4.8293643765e+00 
136400 5.1306500192e+00 -5.5845071315e-04 2.7882448736e+00 -4.8293817850e+00 2.7882448736e+00 4.8293817850e+00 
136500 5.1306500117e+00 -5.5642709908e-04 2.7882548880e+00 -4.8293991305e+00 2.7882548880e+00 4.8293991305e+00 
136600 5.1306500042e+00 -5.5441085524e-04 2.7882648661e+00 -4.8294164130e+00 2.7882648661e+00 4.8294164130e+00 
136700 5.1306499968e+00 -5.5240195452e-04 2.7882748079e+00 -4.8294336328e+00 2.7882748079e+00 4.8294336328e+00 
136800 5.1306499894e+00 -5.5040036990e-04 2.7882847137e+00 -4.8294507901e+00 2.7882847137e+00 4.8294507901e+00 
136900 5.1306499821e+00 -5.4840607447e-04 2.7882945836e+00 -4.8294678853e+00 2.7882945836e+00 4.8294678853e+00 
137000 5.1306499749e+00 -5.4641904142e-04 2.7883044177e+00 -4.8294849184e+00 2.7883044177e+00 4.8294849184e+00 
137100 5.1306499677e+00 -5.4443924404e-04 2.7883142161e+00 -4.8295018898e+00 2.7883142161e+00 4.8295018898e+00 
137200 5.1306499605e+00 -5.4246665573e-04 2.7883239790e+00 -4.8295187996e+00 2.7883239790e+00 4.8295187996e+00 
137300 5.1306499534e+00 -5.4050124997e-04 2.7883337065e+00 -4.8295356481e+00 2.7883337065e+00 4.8295356481e+00 
137400 5.1306499463e+00 -5.3854300036e-04 2.7883433987e+00 -4.8295524354e+00 2.7883433987e+00 4.8295524354e+00 
137500 5.1306499393e+00 -5.3659188058e-04 2.7883530557e+00 -4.8295691619e+00 2.7883530557e+00 4.8295691619e+00 
137600 5.1306499324e+00 -5.3464786441e-04 2.7883626777e+00 -4.8295858278e+00 2.7883626777e+00 4.8295858278e+00 
137700 5.1306499255e+00 -5.3271092576e-04 2.7883722649e+00 -4.8296024332e+00 2.7883722649e+00 4.8296024332e+00 
137800 5.1306499187e+00 -5.3078103859e-04 2.7883818172e+00 -4.8296189784e+00 2.7883818172e+00 4.8296189784e+00 
137900 5.1306499119e+00 -5.2885817700e-04 2.7883913350e+00 -4.8296354636e+00 2.7883913350e+00 4.8296354636e+00 
138000 5.1306499051e+00 -5.2694231515e-04 2.7884008182e+00 -4.8296518890e+00 2.7884008182e+00 4.8296518890e+00 
138100 5.1306498984e+00 -5.2503342733e-04 2.7884102670e+00 -4.8296682548e+00 2.7884102670e+00 4.8296682548e+00 
138200 5.1306498917e+00 -5.2313148791e-04 2.7884196816e+00 -4.8296845613e+00 2.7884196816e+00 4.8296845613e+00 
138300 5.1306498851e+00 -5.2123647134e-04 2.7884290620e+00 -4.8297008087e+00 2.7884290620e+00 4.8297008087e+00 
138400 5.1306498786e+00 -5.1934835221e-04 2.7884384084e+00 -4.8297169972e+00 2.7884384084e+00 4.8297169972e+00 
138500 5.1306498721e+00 -5.1746710515e-04 2.7884477210e+00 -4.8297331270e+00 2.7884477210e+00 4.8297331270e+00 
138600 5.1306498656e+00 -5.1559270493e-04 2.7884569998e+00 -4.8297491983e+00 2.7884569998e+00 4.8297491983e+00 
138700 5.1306498592e+00 -5.1372512639e-04 2.7884662449e+00 -4.8297652113e+00 2.7884662449e+00 4.8297652113e+00 
138800 5.1306498528e+00 -5.1186434448e-04 2.7884754565e+00 -4.8297811663e+00 2.7884754565e+00 4.8297811663e+00 
138900 5.1306498465e+00 -5.1001033422e-04 2.7884846347e+00 -4.8297970635e+00 2.7884846347e+00 4.8297970635e+00 
139000 5.1306498402e+00 -5.0816307076e-04 2.7884937797e+00 -4.8298129030e+00 2.7884937797e+00 4.8298129030e+00 
139100 5.1306498340e+00 -5.0632252930e-04 2.7885028914e+00 -4.8298286850e+00 2.7885028914e+00 4.8298286850e+00 
139200 5.1306498278e+00 -5.0448868517e-04 2.7885119702e+00 -4.8298444099e+00 2.7885119702e+00 4.8298444099e+00 
139300 5.1306498216e+00 -5.0266151376e-04 2.7885210161e+00 -4.8298600778e+00 2.7885210161e+00 4.8298600778e+00 
139400 5.1306498155e+00 -5.0084099058e-04 2.7885300291e+00 -4.8298756888e+00 2.7885300291e+00 4.8298756888e+00 
139500 5.1306498095e+00 -4.9902709122e-04 2.7885390095e+00 -4.8298912433e+00 2.7885390095e+00 4.8298912433e+00 
139600 5.1306498035e+00 -4.9721979136e-04 2.7885479573e+00 -4.8299067414e+00 2.7885479573e+00 4.8299067414e+00 
139700 5.1306497975e+00 -4.9541906677e-04 2.7885568727e+00 -4.8299221833e+00 2.7885568727e+00 4.8299221833e+00 
139800 5.1306497916e+00 -4.9362489331e-04 2.7885657558e+00 -4.8299375693e+00 2.7885657558e+00 4.8299375693e+00 
139900 5.1306497857e+00 -4.9183724694e-04 2.7885746067e+00 -4.8299528994e+00 2.7885746067e+00 4.8299528994e+00 
140000 5.1306497798e+00 -4.9005610369e-04 2.7885834255e+00 -4.8299681740e+00 2.7885834255e+00 4.8299681740e+00 
140100 5.1306497740e+00 -4.8828143971e-04 2.7885922123e+00 -4.8299833933e+00 2.7885922123e+00 4.8299833933e+00 
140200 5.1306497683e+00 -4.8651323120e-04 2.7886009673e+00 -4.8299985574e+00 2.7886009673e+00 4.8299985574e+00 
140300 5.1306497626e+00 -4.8475145449e-04 2.7886096905e+00 -4.8300136665e+00 2.7886096905e+00 4.8300136665e+00 
140400 5.1306497569e+00 -4.8299608597e-04 2.7886183822e+00 -4.8300287208e+00 2.7886183822e+00 4.8300287208e+00 
140500 5.1306497513e+00 -4.8124710212e-04 2.7886270423e+00 -4.8300437206e+00 2.7886270423e+00 4.8300437206e+00 
140600 5.1306497457e+00 -4.7950447953e-04 2.7886356711e+00 -4.8300586661e+00 2.7886356711e+00 4.8300586661e+00 
140700 5.1306497401e+00 -4.7776819484e-04 2.7886442685e+00 -4.8300735573e+00 2.7886442685e+00 4.8300735573e+00 
140800 5.1306497346e+00 -4.7603822482e-04 2.7886528349e+00 -4.8300883946e+00 2.7886528349e+00 4.8300883946e+00 
140900 5.1306497291e+00 -4.7431454629e-04 2.7886613701e+00 -4.8301031782e+00 2.7886613701e+00 4.8301031782e+00 
141000 5.1306497237e+00 -4.7259713618e-04 2.7886698745e+00 -4.8301179081e+00 2.7886698745e+00 4.8301179081e+00 
141100 5.1306497183e+00 -4.7088597149e-04 2.7886783480e+00 -4.8301325847e+00 2.7886783480e+00 4.8301325847e+00 
141200 5.1306497129e+00 -4.6918102933e-04 2.7886867908e+00 -4.8301472081e+00 2.7886867908e+00 4.8301472081e+00 
141300 5.1306497076e+00 -4.6748228686e-04 2.7886952031e+00 -4.8301617785e+00 2.7886952031e+00 4.8301617785e+00 
141400 5.1306497023e+00 -4.6578972136e-04 2.7887035848e+00 -4.8301762961e+00 2.7887035848e+00 4.8301762961e+00 
141500 5.1306496971e+00 -4.6410331016e-04 2.7887119362e+00 -4.8301907611e+00 2.7887119362e+00 4.8301907611e+00 
141600 5.1306496919e+00 -4.6242303072e-04 2.7887202573e+00 -4.8302051737e+00 2.7887202573e+00 4.8302051737e+00 
141700 5.1306496867e+00 -4.6074886053e-04 2.7887285482e+00 -4.8302195341e+00 2.7887285482e+00 4.8302195341e+00 
141800 5.1306496816e+00 -4.5908077721e-04 2.7887368092e+00 -4.8302338424e+00 2.7887368092e+00 4.8302338424e+00 
141900 5.1306496765e+00 -4.5741875844e-04 2.7887450401e+00 -4.8302480989e+00 2.7887450401e+00 4.8302480989e+00 
142000 5.1306496714e+00 -4.5576278199e-04 2.7887532413e+00 -4.8302623037e+00 2.7887532413e+00 4.8302623037e+00 
142100 5.1306496664e+00 -4.5411282571e-04 2.7887614127e+00 -4.8302764571e+00 2.7887614127e+00 4.8302764571e+00 
142200 5.1306496614e+00 -4.5246886752e-04 2.7887695546e+00 -4.8302905591e+00 2.7887695546e+00 4.8302905591e+00 
142300 5.1306496565e+00 -4.5083088545e-04 2.7887776669e+00 -4.8303046101e+00 2.7887776669e+00 4.8303046101e+00 
142400 5.1306496516e+00 -4.4919885760e-04 2.7887857499e+00 -4.8303186102e+00 2.7887857499e+00 4.8303186102e+00 
142500 5.1306496467e+00 -4.4757276214e-04 2.7887938035e+00 -4.8303325596e+00 2.7887938035e+00 4.8303325596e+00 
142600 5.1306496418e+00 -4.4595257733e-04 2.7888018280e+00 -4.8303464584e+00 2.7888018280e+00 4.8303464584e+00 
142700 5.1306496370e+00 -4.4433828152e-04 2.7888098235e+00 -4.8303603069e+00 2.7888098235e+00 4.8303603069e+00 
142800 5.1306496323e+00 -4.4272985313e-04 2.7888177899e+00 -4.8303741052e+00 2.7888177899e+00 4.8303741052e+00 
142900 5.1306496275e+00 -4.4112727065e-04 2.7888257275e+00 -4.8303878535e+00 2.7888257275e+00 4.8303878535e+00 
143000 5.1306496228e+00 -4.3953051267e-04 2.7888336363e+00 -4.8304015520e+00 2.7888336363e+00 4.8304015520e+00 
143100 5.1306496182e+00 -4.3793955786e-04 2.7888415165e+00 -4.8304152009e+00 2.7888415165e+00 4.8304152009e+00 
143200 5.1306496135e+00 -4.3635438495e-04 2.7888493682e+00 -4.8304288003e+00 2.7888493682e+00 4.8304288003e+00 
143300 5.1306496089e+00 -4.3477497276e-04 2.7888571914e+00 -4.8304423505e+00 2.7888571914e+00 4.8304423505e+00 
143400 5.1306496043e+00 -4.3320130019e-04 2.7888649862e+00 -4.8304558516e+00 2.7888649862e+00 4.8304558516e+00 
143500 5.1306495998e+00 -4.3163334623e-04 2.7888727529e+00 -4.8304693038e+00 2.7888727529e+00 4.8304693038e+00 
143600 5.1306495953e+00 -4.3007108992e-04 2.7888804914e+00 -4.8304827073e+00 2.7888804914e+00 4.8304827073e+00 
143700 5.1306495908e+00 -4.2851451041e-04 2.7888882018e+00 -4.8304960622e+00 2.7888882018e+00 4.8304960622e+00 
143800 5.1306495864e+00 -4.2696358689e-04 2.7888958844e+00 -4.8305093687e+00 2.7888958844e+00 4.8305093687e+00 
143900 5.1306495820e+00 -4.2541829866e-04 2.7889035391e+00 -4.8305226271e+00 2.7889035391e+00 4.8305226271e+00 
144000 5.1306495776e+00 -4.2387862509e-04 2.7889111661e+00 -4.8305358374e+00 2.7889111661e+00 4.8305358374e+00 
144100 5.1306495733e+00 -4.2234454562e-04 2.7889187654e+00 -4.8305489999e+00 2.7889187654e+00 4.8305489999e+00 
144200 5.1306495689e+00 -4.2081603976e-04 2.7889263373e+00 -4.8305621147e+00 2.7889263373e+00 4.8305621147e+00 
144300 5.1306495647e+00 -4.1929308712e-04 2.7889338817e+00 -4.8305751820e+00 2.7889338817e+00 4.8305751820e+00 
144400 5.1306495604e+00 -4.1777566736e-04 2.7889413988e+00 -4.8305882020e+00 2.7889413988e+00 4.8305882020e+00 
144500 5.1306495562e+00 -4.1626376022e-04 2.7889488886e+00 -4.8306011748e+00 2.7889488886e+00 4.8306011748e+00 
144600 5.1306495520e+00 -4.1475734553e-04 2.7889563514e+00 -4.8306141006e+00 2.7889563514e+00 4.8306141006e+00 
144700 5.1306495478e+00 -4.1325640319e-04 2.7889637871e+00 -4.8306269797e+00 2.7889637871e+00 4.8306269797e+00 
144800 5.1306495437e+00 -4.1176091317e-04 2.7889711959e+00 -4.8306398121e+00 2.7889711959e+00 4.8306398121e+00 
144900 5.1306495396e+00 -4.1027085551e-04 2.7889785778e+00 -4.8306525980e+00 2.7889785778e+00 4.8306525980e+00 
145000 5.1306495355e+00 -4.0878621033e-04 2.7889859330e+00 -4.8306653376e+00 2.7889859330e+00 4.8306653376e+00 
145100 5.1306495315e+00 -4.0730695782e-04 2.7889932616e+00 -4.8306780311e+00 2.7889932616e+00 4.8306780311e+00 
145200 5.1306495275e+00 -4.0583307826e-04 2.7890005637e+00 -4.8306906786e+00 2.7890005637e+00 4.8306906786e+00 
145300 5.1306495235e+00 -4.0436455198e-04 2.7890078393e+00 -4.8307032803e+00 2.7890078393e+00 4.8307032803e+00 
145400 5.1306495195e+00 -4.0290135939e-04 2.7890150885e+00 -4.8307158364e+00 2.7890150885e+00 4.8307158364e+00 
145500 5.1306495156e+00 -4.0144348098e-04 2.7890223115e+00 -4.8307283470e+00 2.7890223115e+00 4.8307283470e+00 
145600 5.1306495117e+00 -3.9999089732e-04 2.7890295084e+00 -4.8307408123e+00 2.7890295084e+00 4.8307408123e+00 
145700 5.1306495078e+00 -3.9854358902e-04 2.7890366792e+00 -4.8307532325e+00 2.7890366792e+00 4.8307532325e+00 
145800 5.1306495040e+00 -3.9710153680e-04 2.7890438240e+00 -4.8307656077e+00 2.7890438240e+00 4.8307656077e+00 
145900 5.1306495002e+00 -3.9566472142e-04 2.7890509430e+00 -4.8307779381e+00 2.7890509430e+00 4.8307779381e+00 
146000 5.1306494964e+00 -3.9423312373e-04 2.7890580361e+00 -4.8307902239e+00 2.7890580361e+00 4.8307902239e+00 
146100 5.1306494926e+00 -3.9280672465e-04 2.7890651036e+00 -4.8308024651e+00 2.7890651036e+00 4.8308024651e+00 
146200 5.1306494889e+00 -3.9138550516e-04 2.7890721456e+00 -4.8308146621e+00 2.7890721456e+00 4.8308146621e+00 
146300 5.1306494852e+00 -3.8996944633e-04 2.7890791620e+00 -4.8308268149e+00 2.7890791620e+00 4.8308268149e+00 
146400 5.1306494815e+00 -3.8855852927e-04 2.7890861530e+00 -4.8308389236e+00 2.7890861530e+00 4.8308389236e+00 
146500 5.1306494779e+00 -3.8715273519e-04 2.7890931187e+00 -4.8308509886e+00 2.7890931187e+00 4.8308509886e+00 
146600 5.1306494742e+00 -3.8575204536e-04 2.7891000592e+00 -4.8308630098e+00 2.7891000592e+00 4.8308630098e+00 
146700 5.1306494706e+00 -3.8435644110e-04 2.7891069745e+00 -4.8308749876e+00 2.7891069745e+00 4.8308749876e+00 
146800 5.1306494671e+00 -3.8296590384e-04 2.7891138648e+00 -4.8308869220e+00 2.7891138648e+00 4.8308869220e+00 
146900 5.1306494635e+00 -3.8158041504e-04 2.7891207302e+00 -4.8308988131e+00 2.7891207302e+00 4.8308988131e+00 
147000 5.1306494600e+00 -3.8019995624e-04 2.7891275707e+00 -4.8309106613e+00 2.7891275707e+00 4.8309106613e+00 
147100 5.1306494565e+00 -3.7882450907e-04 2.7891343865e+00 -4.8309224665e+00 2.7891343865e+00 4.8309224665e+00 
147200 5.1306494530e+00 -3.7745405519e-04 2.7891411775e+00 -4.8309342290e+00 2.7891411775e+00 4.8309342290e+00 
147300 5.1306494496e+00 -3.7608857636e-04 2.7891479440e+00 -4.8309459489e+00 2.7891479440e+00 4.8309459489e+00 
147400 5.1306494461e+00 -3.7472805439e-04 2.7891546860e+00 -4.8309576264e+00 2.7891546860e+00 4.8309576264e+00 
147500 5.1306494427e+00 -3.7337247116e-04 2.7891614036e+00 -4.8309692616e+00 2.7891614036e+00 4.8309692616e+00 
147600 5.1306494394e+00 -3.7202180864e-04 2.7891680969e+00 -4.8309808547e+00 2.7891680969e+00 4.8309808547e+00 
147700 5.1306494360e+00 -3.7067604882e-04 2.7891747660e+00 -4.8309924058e+00 2.7891747660e+00 4.8309924058e+00 
147800 5.1306494327e+00 -3.6933517380e-04 2.7891814109e+00 -4.8310039152e+00 2.7891814109e+00 4.8310039152e+00 
147900 5.1306494294e+00 -3.6799916573e-04 2.7891880317e+00 -4.8310153828e+00 2.7891880317e+00 4.8310153828e+00 
148000 5.1306494261e+00 -3.6666800681e-04 2.7891946286e+00 -4.8310268090e+00 2.7891946286e+00 4.8310268090e+00 
148100 5.1306494228e+00 -3.6534167935e-04 2.7892012016e+00 -4.8310381937e+00 2.7892012016e+00 4.8310381937e+00 
148200 5.1306494196e+00 -3.6402016567e-04 2.7892077508e+00 -4.8310495373e+00 2.7892077508e+00 4.8310495373e+00 
148300 5.1306494164e+00 -3.6270344820e-04 2.7892142764e+00 -4.8310608398e+00 2.7892142764e+00 4.8310608398e+00 
148400 5.1306494132e+00 -3.6139150941e-04 2.7892207783e+00 -4.8310721015e+00 2.7892207783e+00 4.8310721015e+00 
148500 5.1306494101e+00 -3.6008433184e-04 2.7892272566e+00 -4.8310833223e+00 2.7892272566e+00 4.8310833223e+00 
148600 5.1306494069e+00 -3.5878189811e-04 2.7892337115e+00 -4.8310945026e+00 2.7892337115e+00 4.8310945026e+00 
148700 5.1306494038e+00 -3.5748419088e-04 2.7892401431e+00 -4.8311056423e+00 2.7892401431e+00 4.8311056423e+00 
148800 5.1306494007e+00 -3.5619119289e-04 2.7892465514e+00 -4.8311167418e+00 2.7892465514e+00 4.8311167418e+00 
148900 5.1306493976e+00 -3.5490288693e-04 2.7892529364e+00 -4.8311278011e+00 2.7892529364e+00 4.8311278011e+00 
149000 5.1306493946e+00 -3.5361925589e-04 2.7892592984e+00 -4.8311388203e+00 2.7892592984e+00 4.8311388203e+00 
149100 5.1306493916e+00 -3.5234028266e-04 2.7892656374e+00 -4.8311497997e+00 2.7892656374e+00 4.8311497997e+00 
149200 5.1306493886e+00 -3.5106595026e-04 2.7892719534e+00 -4.8311607394e+00 2.7892719534e+00 4.8311607394e+00 
149300 5.1306493856e+00 -3.4979624173e-04 2.7892782465e+00 -4.8311716394e+00 2.7892782465e+00 4.8311716394e+00 
149400 5.1306493826e+00 -3.4853114019e-04 2.7892845169e+00 -4.8311825000e+00 2.7892845169e+00 4.8311825000e+00 
149500 5.1306493797e+00 -3.4727062881e-04 2.7892907646e+00 -4.8311933213e+00 2.7892907646e+00 4.8311933213e+00 
149600 5.1306493767e+00 -3.4601469084e-04 2.7892969896e+00 -4.8312041035e+00 2.7892969896e+00 4.8312041035e+00 
149700 5.1306493738e+00 -3.4476330957e-04 2.7893031922e+00 -4.8312148466e+00 2.7893031922e+00 4.8312148466e+00 
149800 5.1306493710e+00 -3.4351646837e-04 2.7893093723e+00 -4.8312255508e+00 2.7893093723e+00 4.8312255508e+00 
149900 5.1306493681e+00 -3.4227415067e-04 2.7893155300e+00 -4.8312362163e+00 2.7893155300e+00 4.8312362163e+00 
150000 5.1306493653e+00 -3.4103633995e-04 2.7893216655e+00 -4.8312468433e+00 2.7893216655e+00 4.8312468433e+00 
150100 5.1306493625e+00 -3.3980301976e-04 2.7893277787e+00 -4.8312574317e+00 2.7893277787e+00 4.8312574317e+00 
150200 5.1306493597e+00 -3.3857417371e-04 2.7893338699e+00 -4.8312679819e+00 2.7893338699e+00 4.8312679819e+00 
150300 5.1306493569e+00 -3.3734978546e-04 2.7893399389e+00 -4.8312784938e+00 2.7893399389e+00 4.8312784938e+00 
150400 5.1306493541e+00 -3.3612983875e-04 2.7893459861e+00 -4.8312889678e+00 2.7893459861e+00 4.8312889678e+00 
150500 5.1306493514e+00 -3.3491431737e-04 2.7893520113e+00 -4.8312994038e+00 2.7893520113e+00 4.8312994038e+00 
150600 5.1306493487e+00 -3.3370320515e-04 2.7893580148e+00 -4.8313098021e+00 2.7893580148e+00 4.8313098021e+00 
150700 5.1306493460e+00 -3.3249648602e-04 2.7893639965e+00 -4.8313201627e+00 2.7893639965e+00 4.8313201627e+00 
150800 5.1306493433e+00 -3.3129414394e-04 2.7893699566e+00 -4.8313304859e+00 2.7893699566e+00 4.8313304859e+00 
150900 5.1306493406e+00 -3.3009616294e-04 2.7893758951e+00 -4.8313407717e+00 2.7893758951e+00 4.8313407717e+00 
151000 5.1306493380e+00 -3.2890252711e-04 2.7893818121e+00 -4.8313510203e+00 2.7893818121e+00 4.8313510203e+00 
151100 5.1306493354e+00 -3.2771322058e-04 2.7893877077e+00 -4.8313612318e+00 2.7893877077e+00 4.8313612318e+00 
151200 5.1306493328e+00 -3.2652822756e-04 2.7893935820e+00 -4.8313714064e+00 2.7893935820e+00 4.8313714064e+00 
151300 5.1306493302e+00 -3.2534753232e-04 2.7893994351e+00 -4.8313815441e+00 2.7893994351e+00 4.8313815441e+00 
151400 5.1306493276e+00 -3.2417111918e-04 2.7894052669e+00 -4.8313916452e+00 2.7894052669e+00 4.8313916452e+00 
151500 5.1306493251e+00 -3.2299897251e-04 2.7894110777e+00 -4.8314017097e+00 2.7894110777e+00 4.8314017097e+00 
151600 5.1306493226e+00 -3.2183107675e-04 2.7894168674e+00 -4.8314117378e+00 2.7894168674e+00 4.8314117378e+00 
151700 5.1306493200e+00 -3.2066741638e-04 2.7894226362e+00 -4.8314217297e+00 2.7894226362e+00 4.8314217297e+00 
151800 5.1306493176e+00 -3.1950797598e-04 2.7894283841e+00 -4.8314316854e+00 2.7894283841e+00 4.8314316854e+00 
151900 5.1306493151e+00 -3.1835274013e-04 2.7894341112e+00 -4.8314416050e+00 2.7894341112e+00 4.8314416050e+00 
152000 5.1306493126e+00 -3.1720169350e-04 2.7894398176e+00 -4.8314514888e+00 2.7894398176e+00 4.8314514888e+00 
152100 5.1306493102e+00 -3.1605482082e-04 2.7894455034e+00 -4.8314613368e+00 2.7894455034e+00 4.8314613368e+00 
152200 5.1306493078e+00 -3.1491210686e-04 2.7894511686e+00 -4.8314711492e+00 2.7894511686e+00 4.8314711492e+00 
152300 5.1306493054e+00 -3.1377353645e-04 2.7894568133e+00 -4.8314809262e+00 2.7894568133e+00 4.8314809262e+00 
152400 5.1306493030e+00 -3.1263909448e-04 2.7894624376e+00 -4.8314906677e+00 2.7894624376e+00 4.8314906677e+00 
152500 5.1306493006e+00 -3.1150876591e-04 2.7894680415e+00 -4.8315003740e+00 2.7894680415e+00 4.8315003740e+00 
152600 5.1306492983e+00 -3.1038253572e-04 2.7894736252e+00 -4.8315100452e+00 2.7894736252e+00 4.8315100452e+00 
152700 5.1306492959e+00 -3.0926038897e-04 2.7894791886e+00 -4.8315196814e+00 2.7894791886e+00 4.8315196814e+00 
152800 5.1306492936e+00 -3.0814231078e-04 2.7894847320e+00 -4.8315292827e+00 2.7894847320e+00 4.8315292827e+00 
152900 5.1306492913e+00 -3.0702828631e-04 2.7894902553e+00 -4.8315388493e+00 2.7894902553e+00 4.8315388493e+00 
153000 5.1306492890e+00 -3.0591830078e-04 2.7894957586e+00 -4.8315483813e+00 2.7894957586e+00 4.8315483813e+00 
153100 5.1306492867e+00 -3.0481233947e-04 2.7895012420e+00 -4.8315578789e+00 2.7895012420e+00 4.8315578789e+00 
153200 5.1306492845e+00 -3.0371038770e-04 2.7895067055e+00 -4.8315673420e+00 2.7895067055e+00 4.8315673420e+00 
153300 5.1306492823e+00 -3.0261243085e-04 2.7895121493e+00 -4.8315767710e+00 2.7895121493e+00 4.8315767710e+00 
153400 5.1306492800e+00 -3.0151845437e-04 2.7895175734e+00 -4.8315861658e+00 2.7895175734e+00 4.8315861658e+00 
153500 5.1306492778e+00 -3.0042844375e-04 2.7895229779e+00 -4.8315955267e+00 2.7895229779e+00 4.8315955267e+00 
153600 5.1306492756e+00 -2.9934238452e-04 2.7895283629e+00 -4.8316048537e+00 2.7895283629e+00 4.8316048537e+00 
153700 5.1306492735e+00 -2.9826026229e-04 2.7895337283e+00 -4.8316141469e+00 2.7895337283e+00 4.8316141469e+00 
153800 5.1306492713e+00 -2.9718206271e-04 2.7895390744e+00 -4.8316234066e+00 2.7895390744e+00 4.8316234066e+00 
153900 5.1306492692e+00 -2.9610777148e-04 2.7895444011e+00 -4.8316326327e+00 2.7895444011e+00 4.8316326327e+00 
154000 5.1306492671e+00 -2.9503737435e-04 2.7895497086e+00 -4.8316418255e+00 2.7895497086e+00 4.8316418255e+00 
154100 5.1306492649e+00 -2.9397085714e-04 2.7895549969e+00 -4.8316509851e+00 2.7895549969e+00 4.8316509851e+00 
154200 5.1306492628e+00 -2.9290820571e-04 2.7895602660e+00 -4.8316601115e+00 2.7895602660e+00 4.8316601115e+00 
154300 5.1306492608e+00 -2.9184940596e-04 2.7895655161e+00 -4.8316692049e+00 2.7895655161e+00 4.8316692049e+00 
154400 5.1306492587e+00 -2.9079444386e-04 2.7895707472e+00 -4.8316782654e+00 2.7895707472e+00 4.8316782654e+00 
154500 5.1306492567e+00 -2.8974330544e-04 2.7895759593e+00 -4.8316872931e+00 2.7895759593e+00 4.8316872931e+00 
154600 5.1306492546e+00 -2.8869597675e-04 2.7895811527e+00 -4.8316962882e+00 2.7895811527e+00 4.8316962882e+00 
154700 5.1306492526e+00 -2.8765244391e-04 2.7895863272e+00 -4.8317052508e+00 2.7895863272e+00 4.8317052508e+00 
154800 5.1306492506e+00 -2.8661269310e-04 2.7895914830e+00 -4.8317141810e+00 2.7895914830e+00 4.8317141810e+00 
154900 5.1306492486e+00 -2.8557671054e-04 2.7895966202e+00 -4.8317230788e+00 2.7895966202e+00 4.8317230788e+00 
155000 5.1306492466e+00 -2.8454448250e-04 2.7896017388e+00 -4.8317319445e+00 2.7896017388e+00 4.8317319445e+00 
155100 5.1306492447e+00 -2.8351599530e-04 2.7896068389e+00 -4.8317407781e+00 2.7896068389e+00 4.8317407781e+00 
155200 5.1306492427e+00 -2.8249123531e-04 2.7896119206e+00 -4.8317495798e+00 2.7896119206e+00 4.8317495798e+00 
155300 5.1306492408e+00 -2.8147018896e-04 2.7896169838e+00 -4.8317583497e+00 2.7896169838e+00 4.8317583497e+00 
155400 5.1306492389e+00 -2.8045284272e-04 2.7896220288e+00 -4.8317670878e+00 2.7896220288e+00 4.8317670878e+00 
155500 5.1306492369e+00 -2.7943918311e-04 2.7896270555e+00 -4.8317757943e+00 2.7896270555e+00 4.8317757943e+00 
155600 5.1306492351e+00 -2.7842919671e-04 2.7896320641e+00 -4.8317844694e+00 2.7896320641e+00 4.8317844694e+00 
155700 5.1306492332e+00 -2.7742287013e-04 2.7896370545e+00 -4.8317931130e+00 2.7896370545e+00 4.8317931130e+00 
155800 5.1306492313e+00 -2.7642019004e-04 2.7896420269e+00 -4.8318017255e+00 2.7896420269e+00 4.8318017255e+00 
155900 5.1306492295e+00 -2.7542114318e-04 2.7896469813e+00 -4.8318103067e+00 2.7896469813e+00 4.8318103067e+00 
156000 5.1306492276e+00 -2.7442571630e-04 2.7896519178e+00 -4.8318188570e+00 2.7896519178e+00 4.8318188570e+00 
156100 5.1306492258e+00 -2.7343389622e-04 2.7896568364e+00 -4.8318273763e+00 2.7896568364e+00 4.8318273763e+00 
156200 5.1306492240e+00 -2.7244566981e-04 2.7896617373e+00 -4.8318358649e+00 2.7896617373e+00 4.8318358649e+00 
156300 5.1306492222e+00 -2.7146102398e-04 2.7896666204e+00 -4.8318443227e+00 2.7896666204e+00 4.8318443227e+00 
156400 5.1306492204e+00 -2.7047994569e-04 2.7896714859e+00 -4.8318527499e+00 2.7896714859e+00 4.8318527499e+00 
156500 5.1306492186e+00 -2.6950242196e-04 2.7896763337e+00 -4.8318611467e+00 2.7896763337e+00 4.8318611467e+00 
156600 5.1306492169e+00 -2.6852843984e-04 2.7896811641e+00 -4.8318695131e+00 2.7896811641e+00 4.8318695131e+00 
156700 5.1306492151e+00 -2.6755798644e-04 2.7896859770e+00 -4.8318778493e+00 2.7896859770e+00 4.8318778493e+00 
156800 5.1306492134e+00 -2.6659104891e-04 2.7896907725e+00 -4.8318861553e+00 2.7896907725e+00 4.8318861553e+00 
156900 5.1306492116e+00 -2.6562761445e-04 2.7896955506e+00 -4.8318944313e+00 2.7896955506e+00 4.8318944313e+00 
157000 5.1306492099e+00 -2.6466767031e-04 2.7897003115e+00 -4.8319026774e+00 2.7897003115e+00 4.8319026774e+00 
157100 5.1306492082e+00 -2.6371120378e-04 2.7897050552e+00 -4.8319108937e+00 2.7897050552e+00 4.8319108937e+00 
157200 5.1306492065e+00 -2.6275820221e-04 2.7897097817e+00 -4.8319190802e+00 2.7897097817e+00 4.8319190802e+00 
157300 5.1306492049e+00 -2.6180865297e-04 2.7897144911e+00 -4.8319272372e+00 2.7897144911e+00 4.8319272372e+00 
157400 5.1306492032e+00 -2.6086254351e-04 2.7897191835e+00 -4.8319353646e+00 2.7897191835e+00 4.8319353646e+00 
157500 5.1306492016e+00 -2.5991986130e-04 2.7897238589e+00 -4.8319434627e+00 2.7897238589e+00 4.8319434627e+00 
157600 5.1306491999e+00 -2.5898059386e-04 2.7897285174e+00 -4.8319515315e+00 2.7897285174e+00 4.8319515315e+00 
157700 5.1306491983e+00 -2.5804472878e-04 2.7897331591e+00 -4.8319595711e+00 2.7897331591e+00 4.8319595711e+00 
157800 5.1306491967e+00 -2.5711225367e-04 2.7897377840e+00 -4.8319675817e+00 2.7897377840e+00 4.8319675817e+00 
157900 5.1306491951e+00 -2.5618315618e-04 2.7897423922e+00 -4.8319755633e+00 2.7897423922e+00 4.8319755633e+00 
158000 5.1306491935e+00 -2.5525742404e-04 2.7897469837e+00 -4.8319835161e+00 2.7897469837e+00 4.8319835161e+00 
158100 5.1306491919e+00 -2.5433504498e-04 2.7897515586e+00 -4.8319914401e+00 2.7897515586e+00 4.8319914401e+00 
158200 5.1306491903e+00 -2.5341600682e-04 2.7897561170e+00 -4.8319993354e+00 2.7897561170e+00 4.8319993354e+00 
158300 5.1306491888e+00 -2.5250029739e-04 2.7897606589e+00 -4.8320072022e+00 2.7897606589e+00 4.8320072022e+00 
158400 5.1306491872e+00 -2.5158790458e-04 2.7897651844e+00 -4.8320150406e+00 2.7897651844e+00 4.8320150406e+00 
158500 5.1306491857e+00 -2.5067881632e-04 2.7897696935e+00 -4.8320228506e+00 2.7897696935e+00 4.8320228506e+00 
158600 5.1306491842e+00 -2.4977302059e-04 2.7897741864e+00 -4.8320306324e+00 2.7897741864e+00 4.8320306324e+00 
158700 5.1306491827e+00 -2.4887050541e-04 2.7897786629e+00 -4.8320383861e+00 2.7897786629e+00 4.8320383861e+00 
158800 5.1306491811e+00 -2.4797125884e-04 2.7897831233e+00 -4.8320461117e+00 2.7897831233e+00 4.8320461117e+00 
158900 5.1306491797e+00 -2.4707526899e-04 2.7897875676e+00 -4.8320538094e+00 2.7897875676e+00 4.8320538094e+00 
159000 5.1306491782e+00 -2.4618252402e-04 2.7897919958e+00 -4.8320614793e+00 2.7897919958e+00 4.8320614793e+00 
159100 5.1306491767e+00 -2.4529301212e-04 2.7897964080e+00 -4.8320691215e+00 2.7897964080e+00 4.8320691215e+00 
159200 5.1306491752e+00 -2.4440672152e-04 2.7898008043e+00 -4.8320767360e+00 2.7898008043e+00 4.8320767360e+00 
159300 5.1306491738e+00 -2.4352364052e-04 2.7898051846e+00 -4.8320843230e+00 2.7898051846e+00 4.8320843230e+00 
159400 5.1306491724e+00 -2.4264375743e-04 2.7898095492e+00 -4.8320918826e+00 2.7898095492e+00 4.8320918826e+00 
159500 5.1306491709e+00 -2.4176706062e-04 2.7898138979e+00 -4.8320994149e+00 2.7898138979e+00 4.8320994149e+00 
159600 5.1306491695e+00 -2.4089353851e-04 2.7898182310e+00 -4.8321069199e+00 2.7898182310e+00 4.8321069199e+00 
159700 5.1306491681e+00 -2.4002317954e-04 2.7898225483e+00 -4.8321143978e+00 2.7898225483e+00 4.8321143978e+00 
159800 5.1306491667e+00 -2.3915597222e-04 2.7898268501e+00 -4.8321218487e+00 2.7898268501e+00 4.8321218487e+00 
159900 5.1306491653e+00 -2.3829190507e-04 2.7898311363e+00 -4.8321292726e+00 2.7898311363e+00 4.8321292726e+00 
160000 5.1306491639e+00 -2.3743096668e-04 2.7898354070e+00 -4.8321366697e+00 2.7898354070e+00 4.8321366697e+00 
160100 5.1306491626e+00 -2.3657314567e-04 2.7898396623e+00 -4.8321440401e+00 2.7898396623e+00 4.8321440401e+00 
160200 5.1306491612e+00 -2.3571843071e-04 2.7898439022e+00 -4.8321513838e+00 2.7898439022e+00 4.8321513838e+00 
160300 5.1306491599e+00 -2.3486681049e-04 2.7898481268e+00 -4.8321587010e+00 2.7898481268e+00 4.8321587010e+00 
160400 5.1306491585e+00 -2.3401827377e-04 2.7898523361e+00 -4.8321659918e+00 2.7898523361e+00 4.8321659918e+00 
160500 5.1306491572e+00 -2.3317280933e-04 2.7898565302e+00 -4.8321732562e+00 2.7898565302e+00 4.8321732562e+00 
160600 5.1306491559e+00 -2.3233040600e-04 2.7898607092e+00 -4.8321804943e+00 2.7898607092e+00 4.8321804943e+00 
160700 5.1306491546e+00 -2.3149105265e-04 2.7898648730e+00 -4.8321877063e+00 2.7898648730e+00 4.8321877063e+00 
160800 5.1306491533e+00 -2.3065473819e-04 2.7898690218e+00 -4.8321948922e+00 2.7898690218e+00 4.8321948922e+00 
160900 5.1306491520e+00 -2.2982145158e-04 2.7898731556e+00 -4.8322020521e+00 2.7898731556e+00 4.8322020521e+00 
161000 5.1306491507e+00 -2.2899118179e-04 2.7898772744e+00 -4.8322091862e+00 2.7898772744e+00 4.8322091862e+00 
161100 5.1306491494e+00 -2.2816391788e-04 2.7898813784e+00 -4.8322162945e+00 2.7898813784e+00 4.8322162945e+00 
161200 5.1306491482e+00 -2.2733964889e-04 2.7898854675e+00 -4.8322233771e+00 2.7898854675e+00 4.8322233771e+00 
161300 5.1306491469e+00 -2.2651836396e-04 2.7898895419e+00 -4.8322304341e+00 2.7898895419e+00 4.8322304341e+00 
161400 5.1306491457e+00 -2.2570005223e-04 2.7898936015e+00 -4.8322374655e+00 2.7898936015e+00 4.8322374655e+00 
161500 5.1306491444e+00 -2.2488470289e-04 2.7898976465e+00 -4.8322444716e+00 2.7898976465e+00 4.8322444716e+00 
161600 5.1306491432e+00 -2.2407230518e-04 2.7899016768e+00 -4.8322514524e+00 2.7899016768e+00 4.8322514524e+00 
161700 5.1306491420e+00 -2.2326284836e-04 2.7899056926e+00 -4.8322584079e+00 2.7899056926e+00 4.8322584079e+00 
161800 5.1306491408e+00 -2.2245632175e-04 2.7899096939e+00 -4.8322653383e+00 2.7899096939e+00 4.8322653383e+00 
161900 5.1306491396e+00 -2.2165271470e-04 2.7899136807e+00 -4.8322722436e+00 2.7899136807e+00 4.8322722436e+00 
162000 5.1306491384e+00 -2.2085201658e-04 2.7899176531e+00 -4.8322791240e+00 2.7899176531e+00 4.8322791240e+00 
162100 5.1306491372e+00 -2.2005421684e-04 2.7899216111e+00 -4.8322859795e+00 2.7899216111e+00 4.8322859795e+00 
162200 5.1306491360e+00 -2.1925930494e-04 2.7899255548e+00 -4.8322928103e+00 2.7899255548e+00 4.8322928103e+00 
162300 5.1306491348e+00 -2.1846727037e-04 2.7899294843e+00 -4.8322996164e+00 2.7899294843e+00 4.8322996164e+00 
162400 5.1306491337e+00 -2.1767810269e-04 2.7899333996e+00 -4.8323063978e+00 2.7899333996e+00 4.8323063978e+00 
162500 5.1306491325e+00 -2.1689179148e-04 2.7899373007e+00 -4.8323131548e+00 2.7899373007e+00 4.8323131548e+00 
162600 5.1306491314e+00 -2.1610832635e-04 2.7899411878e+00 -4.8323198873e+00 2.7899411878e+00 4.8323198873e+00 
162700 5.1306491303e+00 -2.1532769697e-04 2.7899450608e+00 -4.8323265956e+00 2.7899450608e+00 4.8323265956e+00 
162800 5.1306491291e+00 -2.1454989302e-04 2.7899489198e+00 -4.8323332795e+00 2.7899489198e+00 4.8323332795e+00 
162900 5.1306491280e+00 -2.1377490425e-04 2.7899527648e+00 -4.8323399394e+00 2.7899527648e+00 4.8323399394e+00 
163000 5.1306491269e+00 -2.1300272042e-04 2.7899565960e+00 -4.8323465751e+00 2.7899565960e+00 4.8323465751e+00 
163100 5.1306491258e+00 -2.1223333134e-04 2.7899604133e+00 -4.8323531869e+00 2.7899604133e+00 4.8323531869e+00 
163200 5.1306491247e+00 -2.1146672685e-04 2.7899642168e+00 -4.8323597748e+00 2.7899642168e+00 4.8323597748e+00 
163300 5.1306491236e+00 -2.1070289685e-04 2.7899680066e+00 -4.8323663389e+00 2.7899680066e+00 4.8323663389e+00 
163400 5.1306491225e+00 -2.0994183124e-04 2.7899717827e+00 -4.8323728792e+00 2.7899717827e+00 4.8323728792e+00 
163500 5.1306491215e+00 -2.0918351998e-04 2.7899755451e+00 -4.8323793960e+00 2.7899755451e+00 4.8323793960e+00 
163600 5.1306491204e+00 -2.0842795308e-04 2.7899792939e+00 -4.8323858892e+00 2.7899792939e+00 4.8323858892e+00 
163700 5.1306491194e+00 -2.0767512055e-04 2.7899830292e+00 -4.8323923589e+00 2.7899830292e+00 4.8323923589e+00 
163800 5.1306491183e+00 -2.0692501247e-04 2.7899867510e+00 -4.8323988052e+00 2.7899867510e+00 4.8323988052e+00 
163900 5.1306491173e+00 -2.0617761894e-04 2.7899904594e+00 -4.8324052283e+00 2.7899904594e+00 4.8324052283e+00 
164000 5.1306491162e+00 -2.0543293010e-04 2.7899941543e+00 -4.8324116281e+00 2.7899941543e+00 4.8324116281e+00 
164100 5.1306491152e+00 -2.0469093611e-04 2.7899978359e+00 -4.8324180049e+00 2.7899978359e+00 4.8324180049e+00 
164200 5.1306491142e+00 -2.0395162721e-04 2.7900015042e+00 -4.8324243585e+00 2.7900015042e+00 4.8324243585e+00 
164300 5.1306491132e+00 -2.0321499362e-04 2.7900051593e+00 -4.8324306893e+00 2.7900051593e+00 4.8324306893e+00 
164400 5.1306491122e+00 -2.0248102563e-04 2.7900088011e+00 -4.8324369971e+00 2.7900088011e+00 4.8324369971e+00 
164500 5.1306491112e+00 -2.0174971357e-04 2.7900124298e+00 -4.8324432822e+00 2.7900124298e+00 4.8324432822e+00 
164600 5.1306491102e+00 -2.0102104778e-04 2.7900160454e+00 -4.8324495445e+00 2.7900160454e+00 4.8324495445e+00 
164700 5.1306491092e+00 -2.0029501865e-04 2.7900196479e+00 -4.8324557843e+00 2.7900196479e+00 4.8324557843e+00 
164800 5.1306491082e+00 -1.9957161661e-04 2.7900232374e+00 -4.8324620014e+00 2.7900232374e+00 4.8324620014e+00 
164900 5.1306491073e+00 -1.9885083213e-04 2.7900268139e+00 -4.8324681962e+00 2.7900268139e+00 4.8324681962e+00 
165000 5.1306491063e+00 -1.9813265568e-04 2.7900303775e+00 -4.8324743685e+00 2.7900303775e+00 4.8324743685e+00 
165100 5.1306491054e+00 -1.9741707780e-04 2.7900339282e+00 -4.8324805185e+00 2.7900339282e+00 4.8324805185e+00 
165200 5.1306491044e+00 -1.9670408905e-04 2.7900374661e+00 -4.8324866464e+00 2.7900374661e+00 4.8324866464e+00 
165300 5.1306491035e+00 -1.9599368004e-04 2.7900409912e+00 -4.8324927520e+00 2.7900409912e+00 4.8324927520e+00 
165400 5.1306491025e+00 -1.9528584139e-04 2.7900445036e+00 -4.8324988357e+00 2.7900445036e+00 4.8324988357e+00 
165500 5.1306491016e+00 -1.9458056377e-04 2.7900480033e+00 -4.8325048973e+00 2.7900480033e+00 4.8325048973e+00 
165600 5.1306491007e+00 -1.9387783788e-04 2.7900514904e+00 -4.8325109370e+00 2.7900514904e+00 4.8325109370e+00 
165700 5.1306490998e+00 -1.9317765445e-04 2.7900549648e+00 -4.8325169550e+00 2.7900549648e+00 4.8325169550e+00 
165800 5.1306490989e+00 -1.9248000426e-04 2.7900584267e+00 -4.8325229511e+00 2.7900584267e+00 4.8325229511e+00 
165900 5.1306490980e+00 -1.9178487811e-04 2.7900618761e+00 -4.8325289257e+00 2.7900618761e+00 4.8325289257e+00 
166000 5.1306490971e+00 -1.9109226683e-04 2.7900653130e+00 -4.8325348786e+00 2.7900653130e+00 4.8325348786e+00 
166100 5.1306490962e+00 -1.9040216129e-04 2.7900687375e+00 -4.8325408100e+00 2.7900687375e+00 4.8325408100e+00 
166200 5.1306490953e+00 -1.8971455240e-04 2.7900721497e+00 -4.8325467200e+00 2.7900721497e+00 4.8325467200e+00 
166300 5.1306490944e+00 -1.8902943109e-04 2.7900755495e+00 -4.8325526087e+00 2.7900755495e+00 4.8325526087e+00 
166400 5.1306490936e+00 -1.8834678833e-04 2.7900789370e+00 -4.8325584761e+00 2.7900789370e+00 4.8325584761e+00 
166500 5.1306490927e+00 -1.8766661512e-04 2.7900823123e+00 -4.8325643223e+00 2.7900823123e+00 4.8325643223e+00 
166600 5.1306490919e+00 -1.8698890250e-04 2.7900856754e+00 -4.8325701473e+00 2.7900856754e+00 4.8325701473e+00 
166700 5.1306490910e+00 -1.8631364153e-04 2.7900890264e+00 -4.8325759513e+00 2.7900890264e+00 4.8325759513e+00 
166800 5.1306490902e+00 -1.8564082332e-04 2.7900923652e+00 -4.8325817344e+00 2.7900923652e+00 4.8325817344e+00 
166900 5.1306490893e+00 -1.8497043901e-04 2.7900956920e+00 -4.8325874966e+00 2.7900956920e+00 4.8325874966e+00 
167000 5.1306490885e+00 -1.8430247974e-04 2.7900990068e+00 -4.8325932379e+00 2.7900990068e+00 4.8325932379e+00 
167100 5.1306490877e+00 -1.8363693673e-04 2.7901023096e+00 -4.8325989585e+00 2.7901023096e+00 4.8325989585e+00 
167200 5.1306490869e+00 -1.8297380120e-04 2.7901056004e+00 -4.8326046585e+00 2.7901056004e+00 4.8326046585e+00 
167300 5.1306490860e+00 -1.8231306441e-04 2.7901088794e+00 -4.8326103378e+00 2.7901088794e+00 4.8326103378e+00 
167400 5.1306490852e+00 -1.8165471767e-04 2.7901121466e+00 -4.8326159967e+00 2.7901121466e+00 4.8326159967e+00 
167500 5.1306490844e+00 -1.8099875228e-04 2.7901154019e+00 -4.8326216351e+00 2.7901154019e+00 4.8326216351e+00 
167600 5.1306490836e+00 -1.8034515962e-04 2.7901186455e+00 -4.8326272531e+00 2.7901186455e+00 4.8326272531e+00 
167700 5.1306490828e+00 -1.7969393107e-04 2.7901218773e+00 -4.8326328508e+00 2.7901218773e+00 4.8326328508e+00 
167800 5.1306490821e+00 -1.7904505805e-04 2.7901250975e+00 -4.8326384283e+00 2.7901250975e+00 4.8326384283e+00 
167900 5.1306490813e+00 -1.7839853201e-04 2.7901283060e+00 -4.8326439857e+00 2.7901283060e+00 4.8326439857e+00 
168000 5.1306490805e+00 -1.7775434444e-04 2.7901315030e+00 -4.8326495230e+00 2.7901315030e+00 4.8326495230e+00 
168100 5.1306490797e+00 -1.7711248685e-04 2.7901346884e+00 -4.8326550403e+00 2.7901346884e+00 4.8326550403e+00 
168200 5.1306490790e+00 -1.7647295078e-04 2.7901378623e+00 -4.8326605377e+00 2.7901378623e+00 4.8326605377e+00 
168300 5.1306490782e+00 -1.7583572782e-04 2.7901410248e+00 -4.8326660152e+00 2.7901410248e+00 4.8326660152e+00 
168400 5.1306490775e+00 -1.7520080956e-04 2.7901441758e+00 -4.8326714729e+00 2.7901441758e+00 4.8326714729e+00 
168500 5.1306490767e+00 -1.7456818764e-04 2.7901473154e+00 -4.8326769109e+00 2.7901473154e+00 4.8326769109e+00 
168600 5.1306490760e+00 -1.7393785374e-04 2.7901504437e+00 -4.8326823293e+00 2.7901504437e+00 4.8326823293e+00 
168700 5.1306490752e+00 -1.7330979955e-04 2.7901535607e+00 -4.8326877281e+00 2.7901535607e+00 4.8326877281e+00 
168800 5.1306490745e+00 -1.7268401680e-04 2.7901566665e+00 -4.8326931074e+00 2.7901566665e+00 4.8326931074e+00 
168900 5.1306490738e+00 -1.7206049725e-04 2.7901597610e+00 -4.8326984673e+00 2.7901597610e+00 4.8326984673e+00 
169000 5.1306490731e+00 -1.7143923268e-04 2.7901628443e+00 -4.8327038078e+00 2.7901628443e+00 4.8327038078e+00 
169100 5.1306490724e+00 -1.7082021492e-04 2.7901659165e+00 -4.8327091290e+00 2.7901659165e+00 4.8327091290e+00 
169200 5.1306490717e+00 -1.7020343582e-04 2.7901689776e+00 -4.8327144310e+00 2.7901689776e+00 4.8327144310e+00 
169300 5.1306490709e+00 -1.6958888725e-04 2.7901720277e+00 -4.8327197138e+00 2.7901720277e+00 4.8327197138e+00 
169400 5.1306490702e+00 -1.6897656112e-04 2.7901750667e+00 -4.8327249776e+00 2.7901750667e+00 4.8327249776e+00 
169500 5.1306490696e+00 -1.6836644938e-04 2.7901780948e+00 -4.8327302224e+00 2.7901780948e+00 4.8327302224e+00 
169600 5.1306490689e+00 -1.6775854398e-04 2.7901811119e+00 -4.8327354482e+00 2.7901811119e+00 4.8327354482e+00 
169700 5.1306490682e+00 -1.6715283692e-04 2.7901841182e+00 -4.8327406551e+00 2.7901841182e+00 4.8327406551e+00 
169800 5.1306490675e+00 -1.6654932023e-04 2.7901871135e+00 -4.8327458433e+00 2.7901871135e+00 4.8327458433e+00 
169900 5.1306490668e+00 -1.6594798596e-04 2.7901900981e+00 -4.8327510127e+00 2.7901900981e+00 4.8327510127e+00 
170000 5.1306490662e+00 -1.6534882621e-04 2.7901930719e+00 -4.8327561634e+00 2.7901930719e+00 4.8327561634e+00 
170100 5.1306490655e+00 -1.6475183307e-04 2.7901960349e+00 -4.8327612955e+00 2.7901960349e+00 4.8327612955e+00 
170200 5.1306490648e+00 -1.6415699869e-04 2.7901989872e+00 -4.8327664091e+00 2.7901989872e+00 4.8327664091e+00 
170300 5.1306490642e+00 -1.6356431525e-04 2.7902019289e+00 -4.8327715043e+00 2.7902019289e+00 4.8327715043e+00 
170400 5.1306490635e+00 -1.6297377493e-04 2.7902048600e+00 -4.8327765810e+00 2.7902048600e+00 4.8327765810e+00 
170500 5.1306490629e+00 -1.6238536998e-04 2.7902077804e+00 -4.8327816394e+00 2.7902077804e+00 4.8327816394e+00 
170600 5.1306490622e+00 -1.6179909263e-04 2.7902106903e+00 -4.8327866795e+00 2.7902106903e+00 4.8327866795e+00 
170700 5.1306490616e+00 -1.6121493518e-04 2.7902135898e+00 -4.8327917014e+00 2.7902135898e+00 4.8327917014e+00 
170800 5.1306490610e+00 -1.6063288994e-04 2.7902164787e+00 -4.8327967052e+00 2.7902164787e+00 4.8327967052e+00 
170900 5.1306490604e+00 -1.6005294925e-04 2.7902193572e+00 -4.8328016909e+00 2.7902193572e+00 4.8328016909e+00 
171000 5.1306490597e+00 -1.5947510548e-04 2.7902222253e+00 -4.8328066586e+00 2.7902222253e+00 4.8328066586e+00 
171100 5.1306490591e+00 -1.5889935102e-04 2.7902250830e+00 -4.8328116084e+00 2.7902250830e+00 4.8328116084e+00 
171200 5.1306490585e+00 -1.5832567829e-04 2.7902279305e+00 -4.8328165403e+00 2.7902279305e+00 4.8328165403e+00 
171300 5.1306490579e+00 -1.5775407975e-04 2.7902307676e+00 -4.8328214544e+00 2.7902307676e+00 4.8328214544e+00 
171400 5.1306490573e+00 -1.5718454788e-04 2.7902335945e+00 -4.8328263507e+00 2.7902335945e+00 4.8328263507e+00 
171500 5.1306490567e+00 -1.5661707518e-04 2.7902364112e+00 -4.8328312294e+00 2.7902364112e+00 4.8328312294e+00 
171600 5.1306490561e+00 -1.5605165418e-04 2.7902392177e+00 -4.8328360904e+00 2.7902392177e+00 4.8328360904e+00 
171700 5.1306490555e+00 -1.5548827744e-04 2.7902420141e+00 -4.8328409339e+00 2.7902420141e+00 4.8328409339e+00 
171800 5.1306490549e+00 -1.5492693757e-04 2.7902448004e+00 -4.8328457599e+00 2.7902448004e+00 4.8328457599e+00 
171900 5.1306490543e+00 -1.5436762715e-04 2.7902475766e+00 -4.8328505684e+00 2.7902475766e+00 4.8328505684e+00 
172000 5.1306490537e+00 -1.5381033885e-04 2.7902503428e+00 -4.8328553596e+00 2.7902503428e+00 4.8328553596e+00 
172100 5.1306490532e+00 -1.5325506533e-04 2.7902530990e+00 -4.8328601335e+00 2.7902530990e+00 4.8328601335e+00 
172200 5.1306490526e+00 -1.5270179928e-04 2.7902558453e+00 -4.8328648902e+00 2.7902558453e+00 4.8328648902e+00 
172300 5.1306490520e+00 -1.5215053342e-04 2.7902585816e+00 -4.8328696297e+00 2.7902585816e+00 4.8328696297e+00 
172400 5.1306490515e+00 -1.5160126051e-04 2.7902613081e+00 -4.8328743520e+00 2.7902613081e+00 4.8328743520e+00 
172500 5.1306490509e+00 -1.5105397332e-04 2.7902640247e+00 -4.8328790573e+00 2.7902640247e+00 4.8328790573e+00 
172600 5.1306490504e+00 -1.5050866464e-04 2.7902667315e+00 -4.8328837457e+00 2.7902667315e+00 4.8328837457e+00 
172700 5.1306490498e+00 -1.4996532732e-04 2.7902694286e+00 -4.8328884171e+00 2.7902694286e+00 4.8328884171e+00 
172800 5.1306490493e+00 -1.4942395419e-04 2.7902721158e+00 -4.8328930716e+00 2.7902721158e+00 4.8328930716e+00 
172900 5.1306490487e+00 -1.4888453815e-04 2.7902747934e+00 -4.8328977093e+00 2.7902747934e+00 4.8328977093e+00 
173000 5.1306490482e+00 -1.4834707209e-04 2.7902774614e+00 -4.8329023303e+00 2.7902774614e+00 4.8329023303e+00 
173100 5.1306490476e+00 -1.4781154895e-04 2.7902801196e+00 -4.8329069346e+00 2.7902801196e+00 4.8329069346e+00 
173200 5.1306490471e+00 -1.4727796168e-04 2.7902827683e+00 -4.8329115222e+00 2.7902827683e+00 4.8329115222e+00 
173300 5.1306490466e+00 -1.4674630327e-04 2.7902854074e+00 -4.8329160933e+00 2.7902854074e+00 4.8329160933e+00 
173400 5.1306490461e+00 -1.4621656673e-04 2.7902880370e+00 -4.8329206479e+00 2.7902880370e+00 4.8329206479e+00 
173500 5.1306490455e+00 -1.4568874509e-04 2.7902906571e+00 -4.8329251861e+00 2.7902906571e+00 4.8329251861e+00 
173600 5.1306490450e+00 -1.4516283140e-04 2.7902932678e+00 -4.8329297078e+00 2.7902932678e+00 4.8329297078e+00 
173700 5.1306490445e+00 -1.4463881876e-04 2.7902958690e+00 -4.8329342132e+00 2.7902958690e+00 4.8329342132e+00 
173800 5.1306490440e+00 -1.4411670028e-04 2.7902984608e+00 -4.8329387024e+00 2.7902984608e+00 4.8329387024e+00 
173900 5.1306490435e+00 -1.4359646908e-04 2.7903010433e+00 -4.8329431754e+00 2.7903010433e+00 4.8329431754e+00 
174000 5.1306490430e+00 -1.4307811833e-04 2.7903036164e+00 -4.8329476322e+00 2.7903036164e+00 4.8329476322e+00 
174100 5.1306490425e+00 -1.4256164121e-04 2.7903061803e+00 -4.8329520729e+00 2.7903061803e+00 4.8329520729e+00 
174200 5.1306490420e+00 -1.4204703094e-04 2.7903087348e+00 -4.8329564975e+00 2.7903087348e+00 4.8329564975e+00 
174300 5.1306490415e+00 -1.4153428074e-04 2.7903112802e+00 -4.8329609062e+00 2.7903112802e+00 4.8329609062e+00 
174400 5.1306490410e+00 -1.4102338388e-04 2.7903138164e+00 -4.8329652990e+00 2.7903138164e+00 4.8329652990e+00 
174500 5.1306490405e+00 -1.4051433364e-04 2.7903163434e+00 -4.8329696759e+00 2.7903163434e+00 4.8329696759e+00 
174600 5.1306490401e+00 -1.4000712333e-04 2.7903188613e+00 -4.8329740371e+00 2.7903188613e+00 4.8329740371e+00 
174700 5.1306490396e+00 -1.3950174628e-04 2.7903213701e+00 -4.8329783824e+00 2.7903213701e+00 4.8329783824e+00 
174800 5.1306490391e+00 -1.3899819584e-04 2.7903238698e+00 -4.8329827121e+00 2.7903238698e+00 4.8329827121e+00 
174900 5.1306490386e+00 -1.3849646541e-04 2.7903263606e+00 -4.8329870262e+00 2.7903263606e+00 4.8329870262e+00 
175000 5.1306490382e+00 -1.3799654837e-04 2.7903288423e+00 -4.8329913246e+00 2.7903288423e+00 4.8329913246e+00 
175100 5.1306490377e+00 -1.3749843817e-04 2.7903313150e+00 -4.8329956076e+00 2.7903313150e+00 4.8329956076e+00 
175200 5.1306490373e+00 -1.3700212826e-04 2.7903337789e+00 -4.8329998751e+00 2.7903337789e+00 4.8329998751e+00 
175300 5.1306490368e+00 -1.3650761210e-04 2.7903362338e+00 -4.8330041272e+00 2.7903362338e+00 4.8330041272e+00 
175400 5.1306490363e+00 -1.3601488321e-04 2.7903386799e+00 -4.8330083639e+00 2.7903386799e+00 4.8330083639e+00 
175500 5.1306490359e+00 -1.3552393510e-04 2.7903411171e+00 -4.8330125853e+00 2.7903411171e+00 4.8330125853e+00 
175600 5.1306490354e+00 -1.3503476133e-04 2.7903435456e+00 -4.8330167915e+00 2.7903435456e+00 4.8330167915e+00 
175700 5.1306490350e+00 -1.3454735547e-04 2.7903459653e+00 -4.8330209826e+00 2.7903459653e+00 4.8330209826e+00 
175800 5.1306490346e+00 -1.3406171111e-04 2.7903483762e+00 -4.8330251584e+00 2.7903483762e+00 4.8330251584e+00 
175900 5.1306490341e+00 -1.3357782186e-04 2.7903507785e+00 -4.8330293192e+00 2.7903507785e+00 4.8330293192e+00 
176000 5.1306490337e+00 -1.3309568138e-04 2.7903531720e+00 -4.8330334650e+00 2.7903531720e+00 4.8330334650e+00 
176100 5.1306490333e+00 -1.3261528331e-04 2.7903555570e+00 -4.8330375958e+00 2.7903555570e+00 4.8330375958e+00 
176200 5.1306490328e+00 -1.3213662137e-04 2.7903579333e+00 -4.8330417117e+00 2.7903579333e+00 4.8330417117e+00 
176300 5.1306490324e+00 -1.3165968924e-04 2.7903603010e+00 -4.8330458128e+00 2.7903603010e+00 4.8330458128e+00 
176400 5.1306490320e+00 -1.3118448067e-04 2.7903626602e+00 -4.8330498990e+00 2.7903626602e+00 4.8330498990e+00 
176500 5.1306490316e+00 -1.3071098941e-04 2.7903650109e+00 -4.8330539705e+00 2.7903650109e+00 4.8330539705e+00 
176600 5.1306490312e+00 -1.3023920924e-04 2.7903673530e+00 -4.8330580273e+00 2.7903673530e+00 4.8330580273e+00 
176700 5.1306490307e+00 -1.2976913396e-04 2.7903696868e+00 -4.8330620694e+00 2.7903696868e+00 4.8330620694e+00 
176800 5.1306490303e+00 -1.2930075740e-04 2.7903720121e+00 -4.8330660969e+00 2.7903720121e+00 4.8330660969e+00 
176900 5.1306490299e+00 -1.2883407340e-04 2.7903743290e+00 -4.8330701099e+00 2.7903743290e+00 4.8330701099e+00 
177000 5.1306490295e+00 -1.2836907584e-04 2.7903766375e+00 -4.8330741085e+00 2.7903766375e+00 4.8330741085e+00 
177100 5.1306490291e+00 -1.2790575860e-04 2.7903789377e+00 -4.8330780925e+00 2.7903789377e+00 4.8330780925e+00 
177200 5.1306490287e+00 -1.2744411559e-04 2.7903812297e+00 -4.8330820622e+00 2.7903812297e+00 4.8330820622e+00 
177300 5.1306490283e+00 -1.2698414076e-04 2.7903835133e+00 -4.8330860176e+00 2.7903835133e+00 4.8330860176e+00 
177400 5.1306490279e+00 -1.2652582806e-04 2.7903857887e+00 -4.8330899587e+00 2.7903857887e+00 4.8330899587e+00 
177500 5.1306490275e+00 -1.2606917147e-04 2.7903880558e+00 -4.8330938856e+00 2.7903880558e+00 4.8330938856e+00 
177600 5.1306490272e+00 -1.2561416499e-04 2.7903903148e+00 -4.8330977983e+00 2.7903903148e+00 4.8330977983e+00 
177700 5.1306490268e+00 -1.2516080264e-04 2.7903925657e+00 -4.8331016968e+00 2.7903925657e+00 4.8331016968e+00 
177800 5.1306490264e+00 -1.2470907847e-04 2.7903948084e+00 -4.8331055813e+00 2.7903948084e+00 4.8331055813e+00 
177900 5.1306490260e+00 -1.2425898656e-04 2.7903970430e+00 -4.8331094518e+00 2.7903970430e+00 4.8331094518e+00 
178000 5.1306490256e+00 -1.2381052097e-04 2.7903992695e+00 -4.8331133083e+00 2.7903992695e+00 4.8331133083e+00 
178100 5.1306490253e+00 -1.2336367584e-04 2.7904014881e+00 -4.8331171508e+00 2.7904014881e+00 4.8331171508e+00 
178200 5.1306490249e+00 -1.2291844528e-04 2.7904036986e+00 -4.8331209795e+00 2.7904036986e+00 4.8331209795e+00 
178300 5.1306490245e+00 -1.2247482344e-04 2.7904059011e+00 -4.8331247944e+00 2.7904059011e+00 4.8331247944e+00 
178400 5.1306490242e+00 -1.2203280452e-04 2.7904080956e+00 -4.8331285955e+00 2.7904080956e+00 4.8331285955e+00 
178500 5.1306490238e+00 -1.2159238269e-04 2.7904102823e+00 -4.8331323829e+00 2.7904102823e+00 4.8331323829e+00 
178600 5.1306490234e+00 -1.2115355218e-04 2.7904124611e+00 -4.8331361566e+00 2.7904124611e+00 4.8331361566e+00 
178700 5.1306490231e+00 -1.2071630722e-04 2.7904146319e+00 -4.8331399167e+00 2.7904146319e+00 4.8331399167e+00 
178800 5.1306490227e+00 -1.2028064207e-04 2.7904167950e+00 -4.8331436632e+00 2.7904167950e+00 4.8331436632e+00 
178900 5.1306490224e+00 -1.1984655101e-04 2.7904189502e+00 -4.8331473962e+00 2.7904189502e+00 4.8331473962e+00 
179000 5.1306490220e+00 -1.1941402834e-04 2.7904210977e+00 -4.8331511157e+00 2.7904210977e+00 4.8331511157e+00 
179100 5.1306490217e+00 -1.1898306838e-04 2.7904232374e+00 -4.8331548218e+00 2.7904232374e+00 4.8331548218e+00 
179200 5.1306490213e+00 -1.1855366548e-04 2.7904253694e+00 -4.8331585145e+00 2.7904253694e+00 4.8331585145e+00 
179300 5.1306490210e+00 -1.1812581399e-04 2.7904274937e+00 -4.8331621939e+00 2.7904274937e+00 4.8331621939e+00 
179400 5.1306490207e+00 -1.1769950829e-04 2.7904296103e+00 -4.8331658600e+00 2.7904296103e+00 4.8331658600e+00 
179500 5.1306490203e+00 -1.1727474280e-04 2.7904317193e+00 -4.8331695129e+00 2.7904317193e+00 4.8331695129e+00 
179600 5.1306490200e+00 -1.1685151193e-04 2.7904338207e+00 -4.8331731526e+00 2.7904338207e+00 4.8331731526e+00 
179700 5.1306490197e+00 -1.1642981012e-04 2.7904359145e+00 -4.8331767791e+00 2.7904359145e+00 4.8331767791e+00 
179800 5.1306490193e+00 -1.1600963185e-04 2.7904380007e+00 -4.8331803926e+00 2.7904380007e+00 4.8331803926e+00 
179900 5.1306490190e+00 -1.1559097159e-04 2.7904400794e+00 -4.8331839930e+00 2.7904400794e+00 4.8331839930e+00 
180000 5.1306490187e+00 -1.1517382385e-04 2.7904421506e+00 -4.8331875804e+00 2.7904421506e+00 4.8331875804e+00 
180100 5.1306490184e+00 -1.1475818315e-04 2.7904442143e+00 -4.8331911549e+00 2.7904442143e+00 4.8331911549e+00 
180200 5.1306490180e+00 -1.1434404403e-04 2.7904462706e+00 -4.8331947165e+00 2.7904462706e+00 4.8331947165e+00 
180300 5.1306490177e+00 -1.1393140107e-04 2.7904483194e+00 -4.8331982652e+00 2.7904483194e+00 4.8331982652e+00 
180400 5.1306490174e+00 -1.1352024884e-04 2.7904503609e+00 -4.8332018011e+00 2.7904503609e+00 4.8332018011e+00 
180500 5.1306490171e+00 -1.1311058194e-04 2.7904523950e+00 -4.8332053242e+00 2.7904523950e+00 4.8332053242e+00 
180600 5.1306490168e+00 -1.1270239500e-04 2.7904544217e+00 -4.8332088346e+00 2.7904544217e+00 4.8332088346e+00 
180700 5.1306490165e+00 -1.1229568267e-04 2.7904564412e+00 -4.8332123324e+00 2.7904564412e+00 4.8332123324e+00 
180800 5.1306490162e+00 -1.1189043960e-04 2.7904584533e+00 -4.8332158175e+00 2.7904584533e+00 4.8332158175e+00 
180900 5.1306490159e+00 -1.1148666047e-04 2.7904604582e+00 -4.8332192901e+00 2.7904604582e+00 4.8332192901e+00 
181000 5.1306490156e+00 -1.1108433998e-04 2.7904624558e+00 -4.8332227501e+00 2.7904624558e+00 4.8332227501e+00 
181100 5.1306490153e+00 -1.1068347286e-04 2.7904644462e+00 -4.8332261976e+00 2.7904644462e+00 4.8332261976e+00 
181200 5.1306490150e+00 -1.1028405385e-04 2.7904664295e+00 -4.8332296327e+00 2.7904664295e+00 4.8332296327e+00 
181300 5.1306490147e+00 -1.0988607769e-04 2.7904684056e+00 -4.8332330554e+00 2.7904684056e+00 4.8332330554e+00 
181400 5.1306490144e+00 -1.0948953917e-04 2.7904703745e+00 -4.8332364657e+00 2.7904703745e+00 4.8332364657e+00 
181500 5.1306490141e+00 -1.0909443309e-04 2.7904723364e+00 -4.8332398637e+00 2.7904723364e+00 4.8332398637e+00 
181600 5.1306490138e+00 -1.0870075426e-04 2.7904742911e+00 -4.8332432495e+00 2.7904742911e+00 4.8332432495e+00 
181700 5.1306490135e+00 -1.0830849751e-04 2.7904762388e+00 -4.8332466230e+00 2.7904762388e+00 4.8332466230e+00 
181800 5.1306490132e+00 -1.0791765770e-04 2.7904781795e+00 -4.8332499844e+00 2.7904781795e+00 4.8332499844e+00 
181900 5.1306490129e+00 -1.0752822970e-04 2.7904801132e+00 -4.8332533336e+00 2.7904801132e+00 4.8332533336e+00 
182000 5.1306490126e+00 -1.0714020839e-04 2.7904820399e+00 -4.8332566707e+00 2.7904820399e+00 4.8332566707e+00 
182100 5.1306490124e+00 -1.0675358869e-04 2.7904839596e+00 -4.8332599958e+00 2.7904839596e+00 4.8332599958e+00 
182200 5.1306490121e+00 -1.0636836552e-04 2.7904858725e+00 -4.8332633089e+00 2.7904858725e+00 4.8332633089e+00 
182300 5.1306490118e+00 -1.0598453383e-04 2.7904877784e+00 -4.8332666100e+00 2.7904877784e+00 4.8332666100e+00 
182400 5.1306490115e+00 -1.0560208858e-04 2.7904896774e+00 -4.8332698993e+00 2.7904896774e+00 4.8332698993e+00 
182500 5.1306490113e+00 -1.0522102476e-04 2.7904915696e+00 -4.8332731766e+00 2.7904915696e+00 4.8332731766e+00 
182600 5.1306490110e+00 -1.0484133736e-04 2.7904934549e+00 -4.8332764421e+00 2.7904934549e+00 4.8332764421e+00 
182700 5.1306490107e+00 -1.0446302141e-04 2.7904953335e+00 -4.8332796959e+00 2.7904953335e+00 4.8332796959e+00 
182800 5.1306490105e+00 -1.0408607194e-04 2.7904972052e+00 -4.8332829379e+00 2.7904972052e+00 4.8332829379e+00 
182900 5.1306490102e+00 -1.0371048400e-04 2.7904990703e+00 -4.8332861681e+00 2.7904990703e+00 4.8332861681e+00 
183000 5.1306490099e+00 -1.0333625267e-04 2.7905009285e+00 -4.8332893868e+00 2.7905009285e+00 4.8332893868e+00 
183100 5.1306490097e+00 -1.0296337304e-04 2.7905027801e+00 -4.8332925938e+00 2.7905027801e+00 4.8332925938e+00 
183200 5.1306490094e+00 -1.0259184021e-04 2.7905046250e+00 -4.8332957892e+00 2.7905046250e+00 4.8332957892e+00 
183300 5.1306490092e+00 -1.0222164932e-04 2.7905064632e+00 -4.8332989732e+00 2.7905064632e+00 4.8332989732e+00 
183400 5.1306490089e+00 -1.0185279550e-04 2.7905082948e+00 -4.8333021456e+00 2.7905082948e+00 4.8333021456e+00 
183500 5.1306490087e+00 -1.0148527392e-04 2.7905101198e+00 -4.8333053065e+00 2.7905101198e+00 4.8333053065e+00 
183600 5.1306490084e+00 -1.0111907976e-04 2.7905119382e+00 -4.8333084561e+00 2.7905119382e+00 4.8333084561e+00 
183700 5.1306490082e+00 -1.0075420821e-04 2.7905137500e+00 -4.8333115943e+00 2.7905137500e+00 4.8333115943e+00 
183800 5.1306490079e+00 -1.0039065449e-04 2.7905155553e+00 -4.8333147212e+00 2.7905155553e+00 4.8333147212e+00 
183900 5.1306490077e+00 -1.0002841383e-04 2.7905173541e+00 -4.8333178368e+00 2.7905173541e+00 4.8333178368e+00 
184000 5.1306490074e+00 -9.9667481474e-05 2.7905191464e+00 -4.8333209411e+00 2.7905191464e+00 4.8333209411e+00 
184100 5.1306490072e+00 -9.9307852694e-05 2.7905209322e+00 -4.8333240342e+00 2.7905209322e+00 4.8333240342e+00 
184200 5.1306490069e+00 -9.8949522770e-05 2.7905227116e+00 -4.8333271162e+00 2.7905227116e+00 4.8333271162e+00 
184300 5.1306490067e+00 -9.8592487005e-05 2.7905244846e+00 -4.8333301871e+00 2.7905244846e+00 4.8333301871e+00 
184400 5.1306490065e+00 -9.8236740713e-05 2.7905262511e+00 -4.8333332468e+00 2.7905262511e+00 4.8333332468e+00 
184500 5.1306490062e+00 -9.7882279231e-05 2.7905280113e+00 -4.8333362955e+00 2.7905280113e+00 4.8333362955e+00 
184600 5.1306490060e+00 -9.7529097910e-05 2.7905297652e+00 -4.8333393333e+00 2.7905297652e+00 4.8333393333e+00 
184700 5.1306490058e+00 -9.7177192115e-05 2.7905315127e+00 -4.8333423600e+00 2.7905315127e+00 4.8333423600e+00 
184800 5.1306490055e+00 -9.6826557235e-05 2.7905332538e+00 -4.8333453759e+00 2.7905332538e+00 4.8333453759e+00 
184900 5.1306490053e+00 -9.6477188671e-05 2.7905349888e+00 -4.8333483808e+00 2.7905349888e+00 4.8333483808e+00 
185000 5.1306490051e+00 -9.6129081840e-05 2.7905367174e+00 -4.8333513749e+00 2.7905367174e+00 4.8333513749e+00 
185100 5.1306490049e+00 -9.5782232178e-05 2.7905384398e+00 -4.8333543582e+00 2.7905384398e+00 4.8333543582e+00 
185200 5.1306490046e+00 -9.5436635136e-05 2.7905401560e+00 -4.8333573308e+00 2.7905401560e+00 4.8333573308e+00 
185300 5.1306490044e+00 -9.5092286183e-05 2.7905418660e+00 -4.8333602926e+00 2.7905418660e+00 4.8333602926e+00 
185400 5.1306490042e+00 -9.4749180804e-05 2.7905435699e+00 -4.8333632437e+00 2.7905435699e+00 4.8333632437e+00 
185500 5.1306490040e+00 -9.4407314497e-05 2.7905452675e+00 -4.8333661842e+00 2.7905452675e+00 4.8333661842e+00 
185600 5.1306490038e+00 -9.4066682784e-05 2.7905469591e+00 -4.8333691141e+00 2.7905469591e+00 4.8333691141e+00 
185700 5.1306490035e+00 -9.3727281197e-05 2.7905486445e+00 -4.8333720333e+00 2.7905486445e+00 4.8333720333e+00 
185800 5.1306490033e+00 -9.3389105284e-05 2.7905503239e+00 -4.8333749421e+00 2.7905503239e+00 4.8333749421e+00 
185900 5.1306490031e+00 -9.3052150614e-05 2.7905519972e+00 -4.8333778404e+00 2.7905519972e+00 4.8333778404e+00 
186000 5.1306490029e+00 -9.2716412766e-05 2.7905536645e+00 -4.8333807282e+00 2.7905536645e+00 4.8333807282e+00 
186100 5.1306490027e+00 -9.2381887339e-05 2.7905553258e+00 -4.8333836055e+00 2.7905553258e+00 4.8333836055e+00 
186200 5.1306490025e+00 -9.2048569949e-05 2.7905569810e+00 -4.8333864725e+00 2.7905569810e+00 4.8333864725e+00 
186300 5.1306490023e+00 -9.1716456223e-05 2.7905586303e+00 -4.8333893292e+00 2.7905586303e+00 4.8333893292e+00 
186400 5.1306490021e+00 -9.1385541810e-05 2.7905602736e+00 -4.8333921755e+00 2.7905602736e+00 4.8333921755e+00 
186500 5.1306490019e+00 -9.1055822370e-05 2.7905619110e+00 -4.8333950116e+00 2.7905619110e+00 4.8333950116e+00 
186600 5.1306490017e+00 -9.0727293581e-05 2.7905635425e+00 -4.8333978374e+00 2.7905635425e+00 4.8333978374e+00 
186700 5.1306490015e+00 -9.0399951136e-05 2.7905651681e+00 -4.8334006531e+00 2.7905651681e+00 4.8334006531e+00 
186800 5.1306490013e+00 -9.0073790743e-05 2.7905667879e+00 -4.8334034585e+00 2.7905667879e+00 4.8334034585e+00 
186900 5.1306490011e+00 -8.9748808128e-05 2.7905684018e+00 -4.8334062539e+00 2.7905684018e+00 4.8334062539e+00 
187000 5.1306490009e+00 -8.9424999029e-05 2.7905700099e+00 -4.8334090392e+00 2.7905700099e+00 4.8334090392e+00 
187100 5.1306490007e+00 -8.9102359202e-05 2.7905716121e+00 -4.8334118144e+00 2.7905716121e+00 4.8334118144e+00 
187200 5.1306490005e+00 -8.8780884418e-05 2.7905732086e+00 -4.8334145796e+00 2.7905732086e+00 4.8334145796e+00 
187300 5.1306490003e+00 -8.8460570465e-05 2.7905747993e+00 -4.8334173348e+00 2.7905747993e+00 4.8334173348e+00 
187400 5.1306490001e+00 -8.8141413140e-05 2.7905763843e+00 -4.8334200801e+00 2.7905763843e+00 4.8334200801e+00 
187500 5.1306489999e+00 -8.7823408263e-05 2.7905779636e+00 -4.8334228155e+00 2.7905779636e+00 4.8334228155e+00 
187600 5.1306489997e+00 -8.7506551665e-05 2.7905795372e+00 -4.8334255410e+00 2.7905795372e+00 4.8334255410e+00 
187700 5.1306489996e+00 -8.7190839192e-05 2.7905811051e+00 -4.8334282566e+00 2.7905811051e+00 4.8334282566e+00 
187800 5.1306489994e+00 -8.6876266706e-05 2.7905826673e+00 -4.8334309625e+00 2.7905826673e+00 4.8334309625e+00 
187900 5.1306489992e+00 -8.6562830086e-05 2.7905842239e+00 -4.8334336586e+00 2.7905842239e+00 4.8334336586e+00 
188000 5.1306489990e+00 -8.6250525222e-05 2.7905857749e+00 -4.8334363450e+00 2.7905857749e+00 4.8334363450e+00 
188100 5.1306489988e+00 -8.5939348021e-05 2.7905873203e+00 -4.8334390217e+00 2.7905873203e+00 4.8334390217e+00 
188200 5.1306489986e+00 -8.5629294406e-05 2.7905888601e+00 -4.8334416887e+00 2.7905888601e+00 4.8334416887e+00 
188300 5.1306489985e+00 -8.5320360313e-05 2.7905903943e+00 -4.8334443461e+00 2.7905903943e+00 4.8334443461e+00 
188400 5.1306489983e+00 -8.5012541691e-05 2.7905919230e+00 -4.8334469939e+00 2.7905919230e+00 4.8334469939e+00 
188500 5.1306489981e+00 -8.4705834509e-05 2.7905934462e+00 -4.8334496322e+00 2.7905934462e+00 4.8334496322e+00 
188600 5.1306489979e+00 -8.4400234747e-05 2.7905949639e+00 -4.8334522609e+00 2.7905949639e+00 4.8334522609e+00 
188700 5.1306489978e+00 -8.4095738399e-05 2.7905964762e+00 -4.8334548801e+00 2.7905964762e+00 4.8334548801e+00 
188800 5.1306489976e+00 -8.3792341476e-05 2.7905979829e+00 -4.8334574900e+00 2.7905979829e+00 4.8334574900e+00 
188900 5.1306489974e+00 -8.3490040001e-05 2.7905994843e+00 -4.8334600903e+00 2.7905994843e+00 4.8334600903e+00 
189000 5.1306489972e+00 -8.3188830012e-05 2.7906009802e+00 -4.8334626813e+00 2.7906009802e+00 4.8334626813e+00 
189100 5.1306489971e+00 -8.2888707563e-05 2.7906024707e+00 -4.8334652630e+00 2.7906024707e+00 4.8334652630e+00 
189200 5.1306489969e+00 -8.2589668722e-05 2.7906039558e+00 -4.8334678353e+00 2.7906039558e+00 4.8334678353e+00 
189300 5.1306489967e+00 -8.2291709570e-05 2.7906054356e+00 -4.8334703984e+00 2.7906054356e+00 4.8334703984e+00 
189400 5.1306489966e+00 -8.1994826201e-05 2.7906069101e+00 -4.8334729522e+00 2.7906069101e+00 4.8334729522e+00 
189500 5.1306489964e+00 -8.1699014727e-05 2.7906083792e+00 -4.8334754968e+00 2.7906083792e+00 4.8334754968e+00 
189600 5.1306489963e+00 -8.1404271272e-05 2.7906098430e+00 -4.8334780322e+00 2.7906098430e+00 4.8334780322e+00 
189700 5.1306489961e+00 -8.1110591973e-05 2.7906113016e+00 -4.8334805585e+00 2.7906113016e+00 4.8334805585e+00 
189800 5.1306489959e+00 -8.0817972982e-05 2.7906127548e+00 -4.8334830756e+00 2.7906127548e+00 4.8334830756e+00 
189900 5.1306489958e+00 -8.0526410466e-05 2.7906142029e+00 -4.8334855837e+00 2.7906142029e+00 4.8334855837e+00 
190000 5.1306489956e+00 -8.0235900604e-05 2.7906156457e+00 -4.8334880827e+00 2.7906156457e+00 4.8334880827e+00 
190100 5.1306489955e+00 -7.9946439591e-05 2.7906170833e+00 -4.8334905727e+00 2.7906170833e+00 4.8334905727e+00 
190200 5.1306489953e+00 -7.9658023634e-05 2.7906185157e+00 -4.8334930537e+00 2.7906185157e+00 4.8334930537e+00 
190300 5.1306489951e+00 -7.9370648953e-05 2.7906199429e+00 -4.8334955258e+00 2.7906199429e+00 4.8334955258e+00 
190400 5.1306489950e+00 -7.9084311784e-05 2.7906213650e+00 -4.8334979889e+00 2.7906213650e+00 4.8334979889e+00 
190500 5.1306489948e+00 -7.8799008378e-05 2.7906227820e+00 -4.8335004432e+00 2.7906227820e+00 4.8335004432e+00 
190600 5.1306489947e+00 -7.8514734994e-05 2.7906241939e+00 -4.8335028886e+00 2.7906241939e+00 4.8335028886e+00 
190700 5.1306489945e+00 -7.8231487908e-05 2.7906256006e+00 -4.8335053252e+00 2.7906256006e+00 4.8335053252e+00 
190800 5.1306489944e+00 -7.7949263412e-05 2.7906270023e+00 -4.8335077529e+00 2.7906270023e+00 4.8335077529e+00 
190900 5.1306489942e+00 -7.7668057807e-05 2.7906283989e+00 -4.8335101720e+00 2.7906283989e+00 4.8335101720e+00 
191000 5.1306489941e+00 -7.7387867408e-05 2.7906297905e+00 -4.8335125823e+00 2.7906297905e+00 4.8335125823e+00 
191100 5.1306489940e+00 -7.7108688547e-05 2.7906311771e+00 -4.8335149839e+00 2.7906311771e+00 4.8335149839e+00 
191200 5.1306489938e+00 -7.6830517567e-05 2.7906325586e+00 -4.8335173768e+00 2.7906325586e+00 4.8335173768e+00 
191300 5.1306489937e+00 -7.6553350822e-05 2.7906339352e+00 -4.8335197611e+00 2.7906339352e+00 4.8335197611e+00 
191400 5.1306489935e+00 -7.6277184683e-05 2.7906353068e+00 -4.8335221368e+00 2.7906353068e+00 4.8335221368e+00 
191500 5.1306489934e+00 -7.6002015532e-05 2.7906366735e+00 -4.8335245040e+00 2.7906366735e+00 4.8335245040e+00 
191600 5.1306489932e+00 -7.5727839764e-05 2.7906380352e+00 -4.8335268625e+00 2.7906380352e+00 4.8335268625e+00 
191700 5.1306489931e+00 -7.5454653788e-05 2.7906393920e+00 -4.8335292126e+00 2.7906393920e+00 4.8335292126e+00 
191800 5.1306489930e+00 -7.5182454027e-05 2.7906407440e+00 -4.8335315542e+00 2.7906407440e+00 4.8335315542e+00 
191900 5.1306489928e+00 -7.4911236914e-05 2.7906420910e+00 -4.8335338874e+00 2.7906420910e+00 4.8335338874e+00 
192000 5.1306489927e+00 -7.4640998898e-05 2.7906434332e+00 -4.8335362121e+00 2.7906434332e+00 4.8335362121e+00 
192100 5.1306489926e+00 -7.4371736440e-05 2.7906447705e+00 -4.8335385285e+00 2.7906447705e+00 4.8335385285e+00 
192200 5.1306489924e+00 -7.4103446010e-05 2.7906461031e+00 -4.8335408365e+00 2.7906461031e+00 4.8335408365e+00 
192300 5.1306489923e+00 -7.3836124098e-05 2.7906474308e+00 -4.8335431361e+00 2.7906474308e+00 4.8335431361e+00 
192400 5.1306489922e+00 -7.3569767200e-05 2.7906487537e+00 -4.8335454275e+00 2.7906487537e+00 4.8335454275e+00 
192500 5.1306489920e+00 -7.3304371829e-05 2.7906500718e+00 -4.8335477106e+00 2.7906500718e+00 4.8335477106e+00 
192600 5.1306489919e+00 -7.3039934509e-05 2.7906513852e+00 -4.8335499854e+00 2.7906513852e+00 4.8335499854e+00 
192700 5.1306489918e+00 -7.2776451776e-05 2.7906526939e+00 -4.8335522521e+00 2.7906526939e+00 4.8335522521e+00 
192800 5.1306489916e+00 -7.2513920181e-05 2.7906539978e+00 -4.8335545106e+00 2.7906539978e+00 4.8335545106e+00 
192900 5.1306489915e+00 -7.2252336285e-05 2.7906552971e+00 -4.8335567609e+00 2.7906552971e+00 4.8335567609e+00 
193000 5.1306489914e+00 -7.1991696661e-05 2.7906565916e+00 -4.8335590031e+00 2.7906565916e+00 4.8335590031e+00 
193100 5.1306489912e+00 -7.1731997898e-05 2.7906578815e+00 -4.8335612372e+00 2.7906578815e+00 4.8335612372e+00 
193200 5.1306489911e+00 -7.1473236594e-05 2.7906591667e+00 -4.8335634633e+00 2.7906591667e+00 4.8335634633e+00 
193300 5.1306489910e+00 -7.1215409360e-05 2.7906604473e+00 -4.8335656813e+00 2.7906604473e+00 4.8335656813e+00 
193400 5.1306489909e+00 -7.0958512820e-05 2.7906617232e+00 -4.8335678914e+00 2.7906617232e+00 4.8335678914e+00 
193500 5.1306489908e+00 -7.0702543610e-05 2.7906629946e+00 -4.8335700934e+00 2.7906629946e+00 4.8335700934e+00 
193600 5.1306489907e+00 -7.0910926309e-05 2.7906629946e+00 -4.8335700934e+00 2.7906629946e+00 4.8335700934e+00 
193700 5.1306489906e+00 -7.0654889610e-05 2.7906642651e+00 -4.8335722940e+00 2.7906642651e+00 4.8335722940e+00 
193800 5.1306489905e+00 -7.0862760462e-05 2.7906642651e+00 -4.8335722940e+00 2.7906642651e+00 4.8335722940e+00 
193900 5.1306489904e+00 -7.0606411318e-05 2.7906655347e+00 -4.8335744931e+00 2.7906655347e+00 4.8335744931e+00 
194000 5.1306489903e+00 -7.0813552368e-05 2.7906655347e+00 -4.8335744931e+00 2.7906655347e+00 4.8335744931e+00 
194100 5.1306489902e+00 -7.0556705548e-05 2.7906668035e+00 -4.8335766906e+00 2.7906668035e+00 4.8335766906e+00 
194200 5.1306489902e+00 -7.0762946605e-05 2.7906668035e+00 -4.8335766906e+00 2.7906668035e+00 4.8335766906e+00 
194300 5.1306489901e+00 -7.0505459668e-05 2.7906680713e+00 -4.8335788866e+00 2.7906680713e+00 4.8335788866e+00 
194400 5.1306489900e+00 -7.0710664978e-05 2.7906680713e+00 -4.8335788866e+00 2.7906680713e+00 4.8335788866e+00 
194500 5.1306489899e+00 -7.0915907622e-05 2.7906680713e+00 -4.8335788866e+00 2.7906680713e+00 4.8335788866e+00 
194600 5.1306489898e+00 -7.0656266395e-05 2.7906693419e+00 -4.8335810873e+00 2.7906693419e+00 4.8335810873e+00 
194700 5.1306489898e+00 -7.0860180771e-05 2.7906693419e+00 -4.8335810873e+00 2.7906693419e+00 4.8335810873e+00 
194800 5.1306489897e+00 -7.0599548698e-05 2.7906706115e+00 -4.8335832863e+00 2.7906706115e+00 4.8335832863e+00 
194900 5.1306489896e+00 -7.0802080610e-05 2.7906706115e+00 -4.8335832863e+00 2.7906706115e+00 4.8335832863e+00 
195000 5.1306489895e+00 -7.0540420884e-05 2.7906718801e+00 -4.8335854835e+00 2.7906718801e+00 4.8335854835e+00 
195100 5.1306489895e+00 -7.0741519908e-05 2.7906718801e+00 -4.8335854835e+00 2.7906718801e+00 4.8335854835e+00 
195200 5.1306489893e+00 -7.0478800170e-05 2.7906731475e+00 -4.8335876788e+00 2.7906731475e+00 4.8335876788e+00 
195300 5.1306489893e+00 -7.0678419755e-05 2.7906731475e+00 -4.8335876788e+00 2.7906731475e+00 4.8335876788e+00 
195400 5.1306489892e+00 -7.0877880996e-05 2.7906731475e+00 -4.8335876788e+00 2.7906731475e+00 4.8335876788e+00 
195500 5.1306489891e+00 -7.0612527241e-05 2.7906744174e+00 -4.8335898784e+00 2.7906744174e+00 4.8335898784e+00 
195600 5.1306489891e+00 -7.0810312072e-05 2.7906744174e+00 -4.8335898784e+00 2.7906744174e+00 4.8335898784e+00 
195700 5.1306489890e+00 -7.0543721497e-05 2.7906756861e+00 -4.8335920758e+00 2.7906756861e+00 4.8335920758e+00 
195800 5.1306489889e+00 -7.0739822213e-05 2.7906756861e+00 -4.8335920758e+00 2.7906756861e+00 4.8335920758e+00 
195900 5.1306489888e+00 -7.0472003099e-05 2.7906769536e+00 -4.8335942711e+00 2.7906769536e+00 4.8335942711e+00 
196000 5.1306489888e+00 -7.0666406566e-05 2.7906769536e+00 -4.8335942711e+00 2.7906769536e+00 4.8335942711e+00 
196100 5.1306489887e+00 -7.0860553110e-05 2.7906769536e+00 -4.8335942711e+00 2.7906769536e+00 4.8335942711e+00 
196200 5.1306489886e+00 -7.0589906225e-05 2.7906782232e+00 -4.8335964701e+00 2.7906782232e+00 4.8335964701e+00 
196300 5.1306489886e+00 -7.0782197212e-05 2.7906782232e+00 -4.8335964701e+00 2.7906782232e+00 4.8335964701e+00 
196400 5.1306489885e+00 -7.0510215724e-05 2.7906794913e+00 -4.8335986666e+00 2.7906794913e+00 4.8335986666e+00 
196500 5.1306489884e+00 -7.0700664069e-05 2.7906794913e+00 -4.8335986666e+00 2.7906794913e+00 4.8335986666e+00 
196600 5.1306489884e+00 -7.0890791062e-05 2.7906794913e+00 -4.8335986666e+00 2.7906794913e+00 4.8335986666e+00 
196700 5.1306489883e+00 -7.0615866885e-05 2.7906807615e+00 -4.8336008666e+00 2.7906807615e+00 4.8336008666e+00 
196800 5.1306489883e+00 -7.0804022224e-05 2.7906807615e+00 -4.8336008666e+00 2.7906807615e+00 4.8336008666e+00 
196900 5.1306489881e+00 -7.0527710472e-05 2.7906820301e+00 -4.8336030638e+00 2.7906820301e+00 4.8336030638e+00 
197000 5.1306489881e+00 -7.0713922478e-05 2.7906820301e+00 -4.8336030638e+00 2.7906820301e+00 4.8336030638e+00 
197100 5.1306489880e+00 -7.0436267422e-05 2.7906832970e+00 -4.8336052583e+00 2.7906832970e+00 4.8336052583e+00 
197200 5.1306489880e+00 -7.0587406911e-05 2.7906832970e+00 -4.8336052583e+00 2.7906832970e+00 4.8336052583e+00 
197200 5.1306489880e+00 -7.0587406911e-05 2.7906832970e+00 -4.8336052583e+00 2.7906832970e+00 4.8336052583e+00 
