# step Hamiltonian StressXX CellTensor1 CellTensor2 CellTensor3 CellTensor4 
0 5.4006479090e+00 -3.7583530170e-02 1.6087831444e+00 -2.7864941444e+00 1.6087831444e+00 2.7864941444e+00 
100 5.3992311347e+00 -3.8503336754e-02 1.6087831444e+00 -2.7864941444e+00 1.6087831444e+00 2.7864941444e+00 
200 5.3977829477e+00 -3.8142241437e-02 1.6099799528e+00 -2.7885670775e+00 1.6099799528e+00 2.7885670775e+00 
300 5.3963599652e+00 -3.7752537733e-02 1.6111646544e+00 -2.7906190408e+00 1.6111646544e+00 2.7906190408e+00 
400 5.3949617418e+00 -3.7333997334e-02 1.6123363878e+00 -2.7926485426e+00 1.6123363878e+00 2.7926485426e+00 
500 5.3935880946e+00 -3.6886533661e-02 1.6134942871e+00 -2.7946540830e+00 1.6134942871e+00 2.7946540830e+00 
600 5.3922390663e+00 -3.6410188849e-02 1.6146374856e+00 -2.7966341609e+00 1.6146374856e+00 2.7966341609e+00 
700 5.3909148899e+00 -3.5905122494e-02 1.6157651203e+00 -2.7985872814e+00 1.6157651203e+00 2.7985872814e+00 
800 5.3896159542e+00 -3.5371601911e-02 1.6168763348e+00 -2.8005119615e+00 1.6168763348e+00 2.8005119615e+00 
900 5.3883427718e+00 -3.4809993699e-02 1.6179702833e+00 -2.8024067358e+00 1.6179702833e+00 2.8024067358e+00 
1000 5.3870959487e+00 -3.4220756390e-02 1.6190461327e+00 -2.8042701617e+00 1.6190461327e+00 2.8042701617e+00 
1100 5.3858761559e+00 -3.3604434021e-02 1.6201030661e+00 -2.8061008239e+00 1.6201030661e+00 2.8061008239e+00 
1200 5.3846841034e+00 -3.2961650460e-02 1.6211402846e+00 -2.8078973391e+00 1.6211402846e+00 2.8078973391e+00 
1300 5.3835205165e+00 -3.2293104348e-02 1.6221570101e+00 -2.8096583593e+00 1.6221570101e+00 2.8096583593e+00 
1400 5.3823861142e+00 -3.1599564521e-02 1.6231524872e+00 -2.8113825763e+00 1.6231524872e+00 2.8113825763e+00 
1500 5.3812815902e+00 -3.0881865816e-02 1.6241259854e+00 -2.8130687247e+00 1.6241259854e+00 2.8130687247e+00 
1600 5.3802075964e+00 -3.0140905156e-02 1.6250768007e+00 -2.8147155851e+00 1.6250768007e+00 2.8147155851e+00 
1700 5.3791647278e+00 -2.9377637838e-02 1.6260042575e+00 -2.8163219874e+00 1.6260042575e+00 2.8163219874e+00 
1800 5.3781535110e+00 -2.8593073942e-02 1.6269077102e+00 -2.8178868132e+00 1.6269077102e+00 2.8178868132e+00 
1900 5.3771743937e+00 -2.7788274829e-02 1.6277865445e+00 -2.8194089989e+00 1.6277865445e+00 2.8194089989e+00 
2000 5.3762277369e+00 -2.6964349655e-02 1.6286401792e+00 -2.8208875376e+00 1.6286401792e+00 2.8208875376e+00 
2100 5.3753138086e+00 -2.6122451877e-02 1.6294680672e+00 -2.8223214817e+00 1.6294680672e+00 2.8223214817e+00 
2200 5.3744327801e+00 -2.5263775724e-02 1.6302696967e+00 -2.8237099446e+00 1.6302696967e+00 2.8237099446e+00 
2300 5.3735847230e+00 -2.4389552608e-02 1.6310445922e+00 -2.8250521032e+00 1.6310445922e+00 2.8250521032e+00 
2400 5.3727696083e+00 -2.3501047462e-02 1.6317923160e+00 -2.8263471987e+00 1.6317923160e+00 2.8263471987e+00 
2500 5.3719873071e+00 -2.2599555004e-02 1.6325124681e+00 -2.8275945388e+00 1.6325124681e+00 2.8275945388e+00 
2600 5.3712375922e+00 -2.1686395916e-02 1.6332046880e+00 -2.8287934988e+00 1.6332046880e+00 2.8287934988e+00 
2700 5.3705201411e+00 -2.0762912949e-02 1.6338686545e+00 -2.8299435225e+00 1.6338686545e+00 2.8299435225e+00 
2800 5.3698345394e+00 -1.9830466965e-02 1.6345040868e+00 -2.8310441236e+00 1.6345040868e+00 2.8310441236e+00 
2900 5.3691802864e+00 -1.8890432908e-02 1.6351107446e+00 -2.8320948857e+00 1.6351107446e+00 2.8320948857e+00 
3000 5.3685567995e+00 -1.7944195741e-02 1.6356884286e+00 -2.8330954636e+00 1.6356884286e+00 2.8330954636e+00 
3100 5.3679634210e+00 -1.6993146352e-02 1.6362369804e+00 -2.8340455833e+00 1.6362369804e+00 2.8340455833e+00 
3200 5.3673994241e+00 -1.6038677448e-02 1.6367562831e+00 -2.8349450419e+00 1.6367562831e+00 2.8349450419e+00 
3300 5.3668640201e+00 -1.5082179454e-02 1.6372462607e+00 -2.8357937080e+00 1.6372462607e+00 2.8357937080e+00 
3400 5.3663563649e+00 -1.4125036444e-02 1.6377068782e+00 -2.8365915210e+00 1.6377068782e+00 2.8365915210e+00 
3500 5.3658755667e+00 -1.3168622121e-02 1.6381381415e+00 -2.8373384908e+00 1.6381381415e+00 2.8373384908e+00 
3600 5.3654206931e+00 -1.2214295859e-02 1.6385400966e+00 -2.8380346975e+00 1.6385400966e+00 2.8380346975e+00 
3700 5.3649907781e+00 -1.1263398836e-02 1.6389128296e+00 -2.8386802900e+00 1.6389128296e+00 2.8386802900e+00 
3800 5.3645848291e+00 -1.0317250278e-02 1.6392564657e+00 -2.8392754852e+00 1.6392564657e+00 2.8392754852e+00 
3900 5.3642018342e+00 -9.3771438233e-03 1.6395711687e+00 -2.8398205669e+00 1.6395711687e+00 2.8398205669e+00 
4000 5.3638407682e+00 -8.4443440360e-03 1.6398571403e+00 -2.8403158842e+00 1.6398571403e+00 2.8403158842e+00 
4100 5.3635005994e+00 -7.5200830767e-03 1.6401146190e+00 -2.8407618504e+00 1.6401146190e+00 2.8407618504e+00 
4200 5.3631802953e+00 -6.6055575512e-03 1.6403438792e+00 -2.8411589406e+00 1.6403438792e+00 2.8411589406e+00 
4300 5.3628788285e+00 -5.7019255493e-03 1.6405452300e+00 -2.8415076905e+00 1.6405452300e+00 2.8415076905e+00 
4400 5.3625951815e+00 -4.8103038840e-03 1.6407190145e+00 -2.8418086941e+00 1.6407190145e+00 2.8418086941e+00 
4500 5.3623283517e+00 -3.9317655455e-03 1.6408656080e+00 -2.8420626015e+00 1.6408656080e+00 2.8420626015e+00 
4600 5.3620773560e+00 -3.0673373754e-03 1.6409854171e+00 -2.8422701170e+00 1.6409854171e+00 2.8422701170e+00 
4700 5.3618412341e+00 -2.2179979705e-03 1.6410788783e+00 -2.8424319964e+00 1.6410788783e+00 2.8424319964e+00 
4800 5.3616190526e+00 -1.3846758211e-03 1.6411464562e+00 -2.8425490447e+00 1.6411464562e+00 2.8425490447e+00 
4900 5.3614099076e+00 -5.6824768672e-04 1.6411886426e+00 -2.8426221137e+00 1.6411886426e+00 2.8426221137e+00 
5000 5.3612129275e+00 2.3046278766e-04 1.6412059547e+00 -2.8426520992e+00 1.6412059547e+00 2.8426520992e+00 
5100 5.3610272750e+00 1.0106862149e-03 1.6411989335e+00 -2.8426399382e+00 1.6411989335e+00 2.8426399382e+00 
5200 5.3608521490e+00 1.7717083705e-03 1.6411681425e+00 -2.8425866067e+00 1.6411681425e+00 2.8425866067e+00 
5300 5.3606867860e+00 2.5128708600e-03 1.6411141658e+00 -2.8424931162e+00 1.6411141658e+00 2.8424931162e+00 
5400 5.3605304609e+00 3.2335715559e-03 1.6410376065e+00 -2.8423605116e+00 1.6410376065e+00 2.8423605116e+00 
5500 5.3603824877e+00 3.9332648065e-03 1.6409390853e+00 -2.8421898679e+00 1.6409390853e+00 2.8421898679e+00 
5600 5.3602422201e+00 4.6114614266e-03 1.6408192388e+00 -2.8419822876e+00 1.6408192388e+00 2.8419822876e+00 
5700 5.3601090510e+00 5.2677284756e-03 1.6406787176e+00 -2.8417388979e+00 1.6406787176e+00 2.8417388979e+00 
5800 5.3599824128e+00 5.9016888339e-03 1.6405181852e+00 -2.8414608476e+00 1.6405181852e+00 2.8414608476e+00 
5900 5.3598617765e+00 6.5130205858e-03 1.6403383158e+00 -2.8411493046e+00 1.6403383158e+00 2.8411493046e+00 
6000 5.3597466509e+00 7.1014562212e-03 1.6401397931e+00 -2.8408054531e+00 1.6401397931e+00 2.8408054531e+00 
6100 5.3596365821e+00 7.6667816662e-03 1.6399233085e+00 -2.8404304908e+00 1.6399233085e+00 2.8404304908e+00 
6200 5.3595311519e+00 8.2088351549e-03 1.6396895598e+00 -2.8400256261e+00 1.6396895598e+00 2.8400256261e+00 
6300 5.3594299770e+00 8.7275059549e-03 1.6394392494e+00 -2.8395920758e+00 1.6394392494e+00 2.8395920758e+00 
6400 5.3593327072e+00 9.2227329581e-03 1.6391730831e+00 -2.8391310623e+00 1.6391730831e+00 2.8391310623e+00 
6500 5.3592390240e+00 9.6945031510e-03 1.6388917684e+00 -2.8386438110e+00 1.6388917684e+00 2.8386438110e+00 
6600 5.3591486392e+00 1.0142849975e-02 1.6385960133e+00 -2.8381315481e+00 1.6385960133e+00 2.8381315481e+00 
6700 5.3590612933e+00 1.0567851594e-02 1.6382865249e+00 -2.8375954984e+00 1.6382865249e+00 2.8375954984e+00 
6800 5.3589767534e+00 1.0969629071e-02 1.6379640079e+00 -2.8370368826e+00 1.6379640079e+00 2.8370368826e+00 
6900 5.3588948119e+00 1.1348344484e-02 1.6376291637e+00 -2.8364569154e+00 1.6376291637e+00 2.8364569154e+00 
7000 5.3588152846e+00 1.1704198975e-02 1.6372826889e+00 -2.8358568035e+00 1.6372826889e+00 2.8358568035e+00 
7100 5.3587380091e+00 1.2037430754e-02 1.6369252743e+00 -2.8352377433e+00 1.6369252743e+00 2.8352377433e+00 
7200 5.3586628430e+00 1.2348313066e-02 1.6365576039e+00 -2.8346009195e+00 1.6365576039e+00 2.8346009195e+00 
7300 5.3585896623e+00 1.2637152137e-02 1.6361803536e+00 -2.8339475027e+00 1.6361803536e+00 2.8339475027e+00 
7400 5.3585183598e+00 1.2904285097e-02 1.6357941903e+00 -2.8332786483e+00 1.6357941903e+00 2.8332786483e+00 
7500 5.3584488434e+00 1.3150077903e-02 1.6353997713e+00 -2.8325954946e+00 1.6353997713e+00 2.8325954946e+00 
7600 5.3583810346e+00 1.3374923267e-02 1.6349977430e+00 -2.8318991612e+00 1.6349977430e+00 2.8318991612e+00 
7700 5.3583148674e+00 1.3579238587e-02 1.6345887404e+00 -2.8311907479e+00 1.6345887404e+00 2.8311907479e+00 
7800 5.3582502862e+00 1.3763463911e-02 1.6341733863e+00 -2.8304713335e+00 1.6341733863e+00 2.8304713335e+00 
7900 5.3581872454e+00 1.3928059918e-02 1.6337522905e+00 -2.8297419741e+00 1.6337522905e+00 2.8297419741e+00 
8000 5.3581257073e+00 1.4073505933e-02 1.6333260492e+00 -2.8290037025e+00 1.6333260492e+00 2.8290037025e+00 
8100 5.3580656416e+00 1.4200297992e-02 1.6328952446e+00 -2.8282575271e+00 1.6328952446e+00 2.8282575271e+00 
8200 5.3580070238e+00 1.4308946937e-02 1.6324604443e+00 -2.8275044308e+00 1.6324604443e+00 2.8275044308e+00 
8300 5.3579498346e+00 1.4399976573e-02 1.6320222007e+00 -2.8267453706e+00 1.6320222007e+00 2.8267453706e+00 
8400 5.3578940590e+00 1.4473921875e-02 1.6315810508e+00 -2.8259812767e+00 1.6315810508e+00 2.8259812767e+00 
8500 5.3578396850e+00 1.4531327249e-02 1.6311375158e+00 -2.8252130515e+00 1.6311375158e+00 2.8252130515e+00 
8600 5.3577867033e+00 1.4572744860e-02 1.6306921007e+00 -2.8244415699e+00 1.6306921007e+00 2.8244415699e+00 
8700 5.3577351064e+00 1.4598733022e-02 1.6302452941e+00 -2.8236676782e+00 1.6302452941e+00 2.8236676782e+00 
8800 5.3576848882e+00 1.4609854647e-02 1.6297975681e+00 -2.8228921940e+00 1.6297975681e+00 2.8228921940e+00 
8900 5.3576360431e+00 1.4606675773e-02 1.6293493779e+00 -2.8221159059e+00 1.6293493779e+00 2.8221159059e+00 
9000 5.3575885658e+00 1.4589764147e-02 1.6289011621e+00 -2.8213395732e+00 1.6289011621e+00 2.8213395732e+00 
9100 5.3575424509e+00 1.4559687892e-02 1.6284533419e+00 -2.8205639259e+00 1.6284533419e+00 2.8205639259e+00 
9200 5.3574976923e+00 1.4517014228e-02 1.6280063220e+00 -2.8197896647e+00 1.6280063220e+00 2.8197896647e+00 
9300 5.3574542831e+00 1.4462308275e-02 1.6275604898e+00 -2.8190174608e+00 1.6275604898e+00 2.8190174608e+00 
9400 5.3574122155e+00 1.4396131921e-02 1.6271162160e+00 -2.8182479559e+00 1.6271162160e+00 2.8182479559e+00 
9500 5.3573714802e+00 1.4319042756e-02 1.6266738543e+00 -2.8174817629e+00 1.6266738543e+00 2.8174817629e+00 
9600 5.3573320665e+00 1.4231593084e-02 1.6262337415e+00 -2.8167194653e+00 1.6262337415e+00 2.8167194653e+00 
9700 5.3572939623e+00 1.4134328988e-02 1.6257961982e+00 -2.8159616181e+00 1.6257961982e+00 2.8159616181e+00 
9800 5.3572571538e+00 1.4027789477e-02 1.6253615281e+00 -2.8152087474e+00 1.6253615281e+00 2.8152087474e+00 
9900 5.3572216255e+00 1.3912505684e-02 1.6249300190e+00 -2.8144613516e+00 1.6249300190e+00 2.8144613516e+00 
10000 5.3571873604e+00 1.3789000136e-02 1.6245019422e+00 -2.8137199009e+00 1.6245019422e+00 2.8137199009e+00 
10100 5.3571543396e+00 1.3657786084e-02 1.6240775537e+00 -2.8129848384e+00 1.6240775537e+00 2.8129848384e+00 
10200 5.3571225429e+00 1.3519366888e-02 1.6236570936e+00 -2.8122565802e+00 1.6236570936e+00 2.8122565802e+00 
10300 5.3570919484e+00 1.3374235469e-02 1.6232407868e+00 -2.8115355157e+00 1.6232407868e+00 2.8115355157e+00 
10400 5.3570625326e+00 1.3222873805e-02 1.6228288433e+00 -2.8108220086e+00 1.6228288433e+00 2.8108220086e+00 
10500 5.3570342711e+00 1.3065752493e-02 1.6224214584e+00 -2.8101163972e+00 1.6224214584e+00 2.8101163972e+00 
10600 5.3570071376e+00 1.2903330356e-02 1.6220188130e+00 -2.8094189949e+00 1.6220188130e+00 2.8094189949e+00 
10700 5.3569811053e+00 1.2736054097e-02 1.6216210739e+00 -2.8087300907e+00 1.6216210739e+00 2.8087300907e+00 
10800 5.3569561459e+00 1.2564358012e-02 1.6212283947e+00 -2.8080499502e+00 1.6212283947e+00 2.8080499502e+00 
10900 5.3569322303e+00 1.2388663732e-02 1.6208409151e+00 -2.8073788160e+00 1.6208409151e+00 2.8073788160e+00 
11000 5.3569093289e+00 1.2209380025e-02 1.6204587623e+00 -2.8067169079e+00 1.6204587623e+00 2.8067169079e+00 
11100 5.3568874111e+00 1.2026902626e-02 1.6200820509e+00 -2.8060644246e+00 1.6200820509e+00 2.8060644246e+00 
11200 5.3568664460e+00 1.1841614113e-02 1.6197108832e+00 -2.8054215433e+00 1.6197108832e+00 2.8054215433e+00 
11300 5.3568464022e+00 1.1653883818e-02 1.6193453498e+00 -2.8047884208e+00 1.6193453498e+00 2.8047884208e+00 
11400 5.3568272482e+00 1.1464067773e-02 1.6189855299e+00 -2.8041651946e+00 1.6189855299e+00 2.8041651946e+00 
11500 5.3568089524e+00 1.1272508685e-02 1.6186314919e+00 -2.8035519827e+00 1.6186314919e+00 2.8035519827e+00 
11600 5.3567914828e+00 1.1079535951e-02 1.6182832933e+00 -2.8029488850e+00 1.6182832933e+00 2.8029488850e+00 
11700 5.3567748080e+00 1.0885465689e-02 1.6179409816e+00 -2.8023559838e+00 1.6179409816e+00 2.8023559838e+00 
11800 5.3567588966e+00 1.0690600811e-02 1.6176045945e+00 -2.8017733443e+00 1.6176045945e+00 2.8017733443e+00 
11900 5.3567437173e+00 1.0495231103e-02 1.6172741604e+00 -2.8012010155e+00 1.6172741604e+00 2.8012010155e+00 
12000 5.3567292396e+00 1.0299633345e-02 1.6169496984e+00 -2.8006390308e+00 1.6169496984e+00 2.8006390308e+00 
12100 5.3567154331e+00 1.0104071446e-02 1.6166312192e+00 -2.8000874088e+00 1.6166312192e+00 2.8000874088e+00 
12200 5.3567022682e+00 9.9087965934e-03 1.6163187254e+00 -2.7995461536e+00 1.6163187254e+00 2.7995461536e+00 
12300 5.3566897160e+00 9.7140474287e-03 1.6160122115e+00 -2.7990152559e+00 1.6160122115e+00 2.7990152559e+00 
12400 5.3566777481e+00 9.5200502378e-03 1.6157116647e+00 -2.7984946936e+00 1.6157116647e+00 2.7984946936e+00 
12500 5.3566663368e+00 9.3270191545e-03 1.6154170650e+00 -2.7979844321e+00 1.6154170650e+00 2.7979844321e+00 
12600 5.3566554555e+00 9.1351563795e-03 1.6151283860e+00 -2.7974844253e+00 1.6151283860e+00 2.7974844253e+00 
12700 5.3566450782e+00 8.9446524118e-03 1.6148455945e+00 -2.7969946161e+00 1.6148455945e+00 2.7969946161e+00 
12800 5.3566351798e+00 8.7556862908e-03 1.6145686518e+00 -2.7965149372e+00 1.6145686518e+00 2.7965149372e+00 
12900 5.3566257362e+00 8.5684258492e-03 1.6142975131e+00 -2.7960453111e+00 1.6142975131e+00 2.7960453111e+00 
13000 5.3566167242e+00 8.3830279739e-03 1.6140321285e+00 -2.7955856517e+00 1.6140321285e+00 2.7955856517e+00 
13100 5.3566081214e+00 8.1996388753e-03 1.6137724434e+00 -2.7951358638e+00 1.6137724434e+00 2.7951358638e+00 
13200 5.3565999065e+00 8.0183943629e-03 1.6135183982e+00 -2.7946958446e+00 1.6135183982e+00 2.7946958446e+00 
13300 5.3565920591e+00 7.8394201270e-03 1.6132699291e+00 -2.7942654835e+00 1.6132699291e+00 2.7942654835e+00 
13400 5.3565845597e+00 7.6628320247e-03 1.6130269684e+00 -2.7938446633e+00 1.6130269684e+00 2.7938446633e+00 
13500 5.3565773899e+00 7.4887363698e-03 1.6127894447e+00 -2.7934332601e+00 1.6127894447e+00 2.7934332601e+00 
13600 5.3565705320e+00 7.3172302264e-03 1.6125572830e+00 -2.7930311444e+00 1.6125572830e+00 2.7930311444e+00 
13700 5.3565639693e+00 7.1484017039e-03 1.6123304056e+00 -2.7926381810e+00 1.6123304056e+00 2.7926381810e+00 
13800 5.3565576861e+00 6.9823302539e-03 1.6121087315e+00 -2.7922542302e+00 1.6121087315e+00 2.7922542302e+00 
13900 5.3565516674e+00 6.8190869679e-03 1.6118921774e+00 -2.7918791476e+00 1.6118921774e+00 2.7918791476e+00 
14000 5.3565458992e+00 6.6587348756e-03 1.6116806577e+00 -2.7915127848e+00 1.6116806577e+00 2.7915127848e+00 
14100 5.3565403683e+00 6.5013292414e-03 1.6114740848e+00 -2.7911549899e+00 1.6114740848e+00 2.7911549899e+00 
14200 5.3565350622e+00 6.3469178616e-03 1.6112723691e+00 -2.7908056080e+00 1.6112723691e+00 2.7908056080e+00 
14300 5.3565299692e+00 6.1955413590e-03 1.6110754195e+00 -2.7904644813e+00 1.6110754195e+00 2.7904644813e+00 
14400 5.3565250785e+00 6.0472334756e-03 1.6108831436e+00 -2.7901314498e+00 1.6108831436e+00 2.7901314498e+00 
14500 5.3565203797e+00 5.9020213630e-03 1.6106954479e+00 -2.7898063513e+00 1.6106954479e+00 2.7898063513e+00 
14600 5.3565158633e+00 5.7599258698e-03 1.6105122380e+00 -2.7894890224e+00 1.6105122380e+00 2.7894890224e+00 
14700 5.3565115204e+00 5.6209618261e-03 1.6103334185e+00 -2.7891792979e+00 1.6103334185e+00 2.7891792979e+00 
14800 5.3565073427e+00 5.4851383231e-03 1.6101588937e+00 -2.7888770122e+00 1.6101588937e+00 2.7888770122e+00 
14900 5.3565033224e+00 5.3524589903e-03 1.6099885676e+00 -2.7885819988e+00 1.6099885676e+00 2.7885819988e+00 
15000 5.3564994522e+00 5.2229222676e-03 1.6098223439e+00 -2.7882940908e+00 1.6098223439e+00 2.7882940908e+00 
15100 5.3564957255e+00 5.0965216723e-03 1.6096601262e+00 -2.7880131214e+00 1.6096601262e+00 2.7880131214e+00 
15200 5.3564921360e+00 4.9732460623e-03 1.6095018183e+00 -2.7877389241e+00 1.6095018183e+00 2.7877389241e+00 
15300 5.3564886780e+00 4.8530798938e-03 1.6093473243e+00 -2.7874713327e+00 1.6093473243e+00 2.7874713327e+00 
15400 5.3564853459e+00 4.7360034736e-03 1.6091965488e+00 -2.7872101818e+00 1.6091965488e+00 2.7872101818e+00 
15500 5.3564821348e+00 4.6219932057e-03 1.6090493967e+00 -2.7869553070e+00 1.6090493967e+00 2.7869553070e+00 
15600 5.3564790400e+00 4.5110218335e-03 1.6089057739e+00 -2.7867065450e+00 1.6089057739e+00 2.7867065450e+00 
15700 5.3564760572e+00 4.4030586744e-03 1.6087655868e+00 -2.7864637338e+00 1.6087655868e+00 2.7864637338e+00 
15800 5.3564731823e+00 4.2980698502e-03 1.6086287429e+00 -2.7862267132e+00 1.6086287429e+00 2.7862267132e+00 
15900 5.3564704116e+00 4.1960185106e-03 1.6084951505e+00 -2.7859953244e+00 1.6084951505e+00 2.7859953244e+00 
16000 5.3564677414e+00 4.0968650507e-03 1.6083647192e+00 -2.7857694108e+00 1.6083647192e+00 2.7857694108e+00 
16100 5.3564651685e+00 4.0005673226e-03 1.6082373597e+00 -2.7855488176e+00 1.6082373597e+00 2.7855488176e+00 
16200 5.3564626898e+00 3.9070808406e-03 1.6081129839e+00 -2.7853333925e+00 1.6081129839e+00 2.7853333925e+00 
16300 5.3564603023e+00 3.8163589802e-03 1.6079915051e+00 -2.7851229851e+00 1.6079915051e+00 2.7851229851e+00 
16400 5.3564580032e+00 3.7283531705e-03 1.6078728381e+00 -2.7849174477e+00 1.6078728381e+00 2.7849174477e+00 
16500 5.3564557901e+00 3.6430130811e-03 1.6077568989e+00 -2.7847166352e+00 1.6077568989e+00 2.7847166352e+00 
16600 5.3564536603e+00 3.5602868014e-03 1.6076436054e+00 -2.7845204050e+00 1.6076436054e+00 2.7845204050e+00 
16700 5.3564516116e+00 3.4801210149e-03 1.6075328767e+00 -2.7843286172e+00 1.6075328767e+00 2.7843286172e+00 
16800 5.3564496416e+00 3.4024611660e-03 1.6074246337e+00 -2.7841411350e+00 1.6074246337e+00 2.7841411350e+00 
16900 5.3564477482e+00 3.3272516213e-03 1.6073187991e+00 -2.7839578240e+00 1.6073187991e+00 2.7839578240e+00 
17000 5.3564459293e+00 3.2544358246e-03 1.6072152970e+00 -2.7837785532e+00 1.6072152970e+00 2.7837785532e+00 
17100 5.3564441829e+00 3.1839564448e-03 1.6071140536e+00 -2.7836031943e+00 1.6071140536e+00 2.7836031943e+00 
17200 5.3564425070e+00 3.1157555191e-03 1.6070149964e+00 -2.7834316222e+00 1.6070149964e+00 2.7834316222e+00 
17300 5.3564408997e+00 3.0497745884e-03 1.6069180550e+00 -2.7832637149e+00 1.6069180550e+00 2.7832637149e+00 
17400 5.3564393591e+00 2.9859548282e-03 1.6068231608e+00 -2.7830993533e+00 1.6068231608e+00 2.7830993533e+00 
17500 5.3564378836e+00 2.9242371723e-03 1.6067302468e+00 -2.7829384216e+00 1.6067302468e+00 2.7829384216e+00 
17600 5.3564364712e+00 2.8645624315e-03 1.6066392481e+00 -2.7827808071e+00 1.6066392481e+00 2.7827808071e+00 
17700 5.3564351202e+00 2.8068714058e-03 1.6065501012e+00 -2.7826264003e+00 1.6065501012e+00 2.7826264003e+00 
17800 5.3564338289e+00 2.7511049913e-03 1.6064627449e+00 -2.7824750947e+00 1.6064627449e+00 2.7824750947e+00 
17900 5.3564325957e+00 2.6972042812e-03 1.6063771195e+00 -2.7823267871e+00 1.6063771195e+00 2.7823267871e+00 
18000 5.3564314188e+00 2.6451106615e-03 1.6062931672e+00 -2.7821813775e+00 1.6062931672e+00 2.7821813775e+00 
18100 5.3564302965e+00 2.5947659013e-03 1.6062108321e+00 -2.7820387688e+00 1.6062108321e+00 2.7820387688e+00 
18200 5.3564292274e+00 2.5461122372e-03 1.6061300599e+00 -2.7818988672e+00 1.6061300599e+00 2.7818988672e+00 
18300 5.3564282096e+00 2.4990924534e-03 1.6060507982e+00 -2.7817615820e+00 1.6060507982e+00 2.7817615820e+00 
18400 5.3564272418e+00 2.4536499560e-03 1.6059729964e+00 -2.7816268253e+00 1.6059729964e+00 2.7816268253e+00 
18500 5.3564263221e+00 2.4097288426e-03 1.6058966056e+00 -2.7814945126e+00 1.6058966056e+00 2.7814945126e+00 
18600 5.3564254492e+00 2.3672739671e-03 1.6058215787e+00 -2.7813645622e+00 1.6058215787e+00 2.7813645622e+00 
18700 5.3564246215e+00 2.3262309996e-03 1.6057478701e+00 -2.7812368952e+00 1.6057478701e+00 2.7812368952e+00 
18800 5.3564238373e+00 2.2865464820e-03 1.6056754362e+00 -2.7811114359e+00 1.6056754362e+00 2.7811114359e+00 
18900 5.3564230953e+00 2.2481678786e-03 1.6056042347e+00 -2.7809881113e+00 1.6056042347e+00 2.7809881113e+00 
19000 5.3564223940e+00 2.2110436230e-03 1.6055342252e+00 -2.7808668513e+00 1.6055342252e+00 2.7808668513e+00 
19100 5.3564217317e+00 2.1751231606e-03 1.6054653687e+00 -2.7807475884e+00 1.6054653687e+00 2.7807475884e+00 
19200 5.3564211072e+00 2.1403569865e-03 1.6053976280e+00 -2.7806302580e+00 1.6053976280e+00 2.7806302580e+00 
19300 5.3564205190e+00 2.1066966802e-03 1.6053309672e+00 -2.7805147981e+00 1.6053309672e+00 2.7805147981e+00 
19400 5.3564199657e+00 2.0740949361e-03 1.6052653520e+00 -2.7804011492e+00 1.6052653520e+00 2.7804011492e+00 
19500 5.3564194458e+00 2.0425055905e-03 1.6052007495e+00 -2.7802892545e+00 1.6052007495e+00 2.7802892545e+00 
19600 5.3564189582e+00 2.0118836449e-03 1.6051371284e+00 -2.7801790596e+00 1.6051371284e+00 2.7801790596e+00 
19700 5.3564185013e+00 1.9821852858e-03 1.6050744587e+00 -2.7800705124e+00 1.6050744587e+00 2.7800705124e+00 
19800 5.3564180740e+00 1.9533679018e-03 1.6050127116e+00 -2.7799635634e+00 1.6050127116e+00 2.7799635634e+00 
19900 5.3564176749e+00 1.9253900969e-03 1.6049518599e+00 -2.7798581651e+00 1.6049518599e+00 2.7798581651e+00 
20000 5.3564173029e+00 1.8982117011e-03 1.6048918775e+00 -2.7797542725e+00 1.6048918775e+00 2.7797542725e+00 
20100 5.3564169566e+00 1.8717937781e-03 1.6048327396e+00 -2.7796518426e+00 1.6048327396e+00 2.7796518426e+00 
20200 5.3564166350e+00 1.8460986304e-03 1.6047744225e+00 -2.7795508345e+00 1.6047744225e+00 2.7795508345e+00 
20300 5.3564163369e+00 1.8210898015e-03 1.6047169039e+00 -2.7794512093e+00 1.6047169039e+00 2.7794512093e+00 
20400 5.3564160612e+00 1.7967320757e-03 1.6046601625e+00 -2.7793529303e+00 1.6046601625e+00 2.7793529303e+00 
20500 5.3564158068e+00 1.7729914759e-03 1.6046041780e+00 -2.7792559623e+00 1.6046041780e+00 2.7792559623e+00 
20600 5.3564155726e+00 1.7498352586e-03 1.6045489313e+00 -2.7791602722e+00 1.6045489313e+00 2.7791602722e+00 
20700 5.3564153577e+00 1.7272319071e-03 1.6044944043e+00 -2.7790658287e+00 1.6044944043e+00 2.7790658287e+00 
20800 5.3564151610e+00 1.7051511228e-03 1.6044405798e+00 -2.7789726019e+00 1.6044405798e+00 2.7789726019e+00 
20900 5.3564149816e+00 1.6835638143e-03 1.6043874416e+00 -2.7788805638e+00 1.6043874416e+00 2.7788805638e+00 
21000 5.3564148187e+00 1.6624420851e-03 1.6043349744e+00 -2.7787896879e+00 1.6043349744e+00 2.7787896879e+00 
21100 5.3564146712e+00 1.6417592195e-03 1.6042831637e+00 -2.7786999492e+00 1.6042831637e+00 2.7786999492e+00 
21200 5.3564145385e+00 1.6214896668e-03 1.6042319960e+00 -2.7786113241e+00 1.6042319960e+00 2.7786113241e+00 
21300 5.3564144196e+00 1.6016090243e-03 1.6041814584e+00 -2.7785237904e+00 1.6041814584e+00 2.7785237904e+00 
21400 5.3564143139e+00 1.5820940188e-03 1.6041315388e+00 -2.7784373272e+00 1.6041315388e+00 2.7784373272e+00 
21500 5.3564142204e+00 1.5629224873e-03 1.6040822259e+00 -2.7783519149e+00 1.6040822259e+00 2.7783519149e+00 
21600 5.3564141387e+00 1.5440733558e-03 1.6040335092e+00 -2.7782675349e+00 1.6040335092e+00 2.7782675349e+00 
21700 5.3564140678e+00 1.5255266181e-03 1.6039853784e+00 -2.7781841701e+00 1.6039853784e+00 2.7781841701e+00 
21800 5.3564140073e+00 1.5072633124e-03 1.6039378244e+00 -2.7781018041e+00 1.6039378244e+00 2.7781018041e+00 
21900 5.3564139565e+00 1.4892654985e-03 1.6038908383e+00 -2.7780204218e+00 1.6038908383e+00 2.7780204218e+00 
22000 5.3564139148e+00 1.4715162329e-03 1.6038444119e+00 -2.7779400088e+00 1.6038444119e+00 2.7779400088e+00 
22100 5.3564138816e+00 1.4539995444e-03 1.6037985375e+00 -2.7778605520e+00 1.6037985375e+00 2.7778605520e+00 
22200 5.3564138564e+00 1.4367004082e-03 1.6037532078e+00 -2.7777820387e+00 1.6037532078e+00 2.7777820387e+00 
22300 5.3564138387e+00 1.4196047198e-03 1.6037084162e+00 -2.7777044574e+00 1.6037084162e+00 2.7777044574e+00 
22400 5.3564138280e+00 1.4026992692e-03 1.6036641563e+00 -2.7776277970e+00 1.6036641563e+00 2.7776277970e+00 
22500 5.3564138239e+00 1.3859717131e-03 1.6036204223e+00 -2.7775520475e+00 1.6036204223e+00 2.7775520475e+00 
22600 5.3564138259e+00 1.3694105487e-03 1.6035772087e+00 -2.7774771993e+00 1.6035772087e+00 2.7774771993e+00 
22700 5.3564138337e+00 1.3530050860e-03 1.6035345103e+00 -2.7774032435e+00 1.6035345103e+00 2.7774032435e+00 
22800 5.3564138468e+00 1.3367454202e-03 1.6034923222e+00 -2.7773301717e+00 1.6034923222e+00 2.7773301717e+00 
22900 5.3564138648e+00 1.3206224046e-03 1.6034506401e+00 -2.7772579761e+00 1.6034506401e+00 2.7772579761e+00 
23000 5.3564138875e+00 1.3046276224e-03 1.6034094596e+00 -2.7771866494e+00 1.6034094596e+00 2.7771866494e+00 
23100 5.3564139145e+00 1.2887533599e-03 1.6033687769e+00 -2.7771161848e+00 1.6033687769e+00 2.7771161848e+00 
23200 5.3564139454e+00 1.2729925784e-03 1.6033285881e+00 -2.7770465759e+00 1.6033285881e+00 2.7770465759e+00 
23300 5.3564139801e+00 1.2573388872e-03 1.6032888899e+00 -2.7769778165e+00 1.6032888899e+00 2.7769778165e+00 
23400 5.3564140183e+00 1.2417865162e-03 1.6032496788e+00 -2.7769099009e+00 1.6032496788e+00 2.7769099009e+00 
23500 5.3564140596e+00 1.2263302891e-03 1.6032109518e+00 -2.7768428237e+00 1.6032109518e+00 2.7768428237e+00 
23600 5.3564141039e+00 1.2109655967e-03 1.6031727059e+00 -2.7767765798e+00 1.6031727059e+00 2.7767765798e+00 
23700 5.3564141510e+00 1.1956883705e-03 1.6031349382e+00 -2.7767111644e+00 1.6031349382e+00 2.7767111644e+00 
23800 5.3564142005e+00 1.1804950565e-03 1.6030976462e+00 -2.7766465727e+00 1.6030976462e+00 2.7766465727e+00 
23900 5.3564142524e+00 1.1653825897e-03 1.6030608271e+00 -2.7765828002e+00 1.6030608271e+00 2.7765828002e+00 
24000 5.3564143064e+00 1.1503483686e-03 1.6030244786e+00 -2.7765198427e+00 1.6030244786e+00 2.7765198427e+00 
24100 5.3564143624e+00 1.1353902306e-03 1.6029885982e+00 -2.7764576960e+00 1.6029885982e+00 2.7764576960e+00 
24200 5.3564144202e+00 1.1205064274e-03 1.6029531835e+00 -2.7763963560e+00 1.6029531835e+00 2.7763963560e+00 
24300 5.3564144797e+00 1.1056956012e-03 1.6029182323e+00 -2.7763358187e+00 1.6029182323e+00 2.7763358187e+00 
24400 5.3564145406e+00 1.0909567613e-03 1.6028837424e+00 -2.7762760804e+00 1.6028837424e+00 2.7762760804e+00 
24500 5.3564146030e+00 1.0762892608e-03 1.6028497114e+00 -2.7762171371e+00 1.6028497114e+00 2.7762171371e+00 
24600 5.3564146666e+00 1.0616927751e-03 1.6028161373e+00 -2.7761589850e+00 1.6028161373e+00 2.7761589850e+00 
24700 5.3564147314e+00 1.0471672792e-03 1.6027830178e+00 -2.7761016203e+00 1.6027830178e+00 2.7761016203e+00 
24800 5.3564147972e+00 1.0327130271e-03 1.6027503508e+00 -2.7760450393e+00 1.6027503508e+00 2.7760450393e+00 
24900 5.3564148639e+00 1.0183305309e-03 1.6027181340e+00 -2.7759892382e+00 1.6027181340e+00 2.7759892382e+00 
25000 5.3564149314e+00 1.0040205409e-03 1.6026863652e+00 -2.7759342131e+00 1.6026863652e+00 2.7759342131e+00 
25100 5.3564149997e+00 9.8978402602e-04 1.6026550423e+00 -2.7758799602e+00 1.6026550423e+00 2.7758799602e+00 
25200 5.3564150686e+00 9.7562215523e-04 1.6026241628e+00 -2.7758264755e+00 1.6026241628e+00 2.7758264755e+00 
25300 5.3564151381e+00 9.6153627909e-04 1.6025937247e+00 -2.7757737550e+00 1.6025937247e+00 2.7757737550e+00 
25400 5.3564152081e+00 9.4752791234e-04 1.6025637254e+00 -2.7757217947e+00 1.6025637254e+00 2.7757217947e+00 
25500 5.3564152786e+00 9.3359871693e-04 1.6025341626e+00 -2.7756705905e+00 1.6025341626e+00 2.7756705905e+00 
25600 5.3564153493e+00 9.1975048566e-04 1.6025050339e+00 -2.7756201380e+00 1.6025050339e+00 2.7756201380e+00 
25700 5.3564154204e+00 9.0598512655e-04 1.6024763367e+00 -2.7755704330e+00 1.6024763367e+00 2.7755704330e+00 
25800 5.3564154917e+00 8.9230464774e-04 1.6024480685e+00 -2.7755214711e+00 1.6024480685e+00 2.7755214711e+00 
25900 5.3564155632e+00 8.7871114306e-04 1.6024202266e+00 -2.7754732476e+00 1.6024202266e+00 2.7754732476e+00 
26000 5.3564156349e+00 8.6520677820e-04 1.6023928085e+00 -2.7754257579e+00 1.6023928085e+00 2.7754257579e+00 
26100 5.3564157065e+00 8.5179377753e-04 1.6023658112e+00 -2.7753789973e+00 1.6023658112e+00 2.7753789973e+00 
26200 5.3564157783e+00 8.3847441148e-04 1.6023392320e+00 -2.7753329608e+00 1.6023392320e+00 2.7753329608e+00 
26300 5.3564158500e+00 8.2525098457e-04 1.6023130680e+00 -2.7752876434e+00 1.6023130680e+00 2.7752876434e+00 
26400 5.3564159216e+00 8.1212582402e-04 1.6022873162e+00 -2.7752430400e+00 1.6022873162e+00 2.7752430400e+00 
26500 5.3564159931e+00 7.9910126892e-04 1.6022619736e+00 -2.7751991453e+00 1.6022619736e+00 2.7751991453e+00 
26600 5.3564160645e+00 7.8617966006e-04 1.6022370370e+00 -2.7751559538e+00 1.6022370370e+00 2.7751559538e+00 
26700 5.3564161357e+00 7.7336333022e-04 1.6022125032e+00 -2.7751134601e+00 1.6022125032e+00 2.7751134601e+00 
26800 5.3564162067e+00 7.6065459512e-04 1.6021883691e+00 -2.7750716585e+00 1.6021883691e+00 2.7750716585e+00 
26900 5.3564162775e+00 7.4805574485e-04 1.6021646311e+00 -2.7750305432e+00 1.6021646311e+00 2.7750305432e+00 
27000 5.3564163479e+00 7.3556903588e-04 1.6021412860e+00 -2.7749901083e+00 1.6021412860e+00 2.7749901083e+00 
27100 5.3564164181e+00 7.2319668361e-04 1.6021183303e+00 -2.7749503478e+00 1.6021183303e+00 2.7749503478e+00 
27200 5.3564164879e+00 7.1094085536e-04 1.6020957603e+00 -2.7749112555e+00 1.6020957603e+00 2.7749112555e+00 
27300 5.3564165574e+00 6.9880366394e-04 1.6020735725e+00 -2.7748728251e+00 1.6020735725e+00 2.7748728251e+00 
27400 5.3564166264e+00 6.8678716166e-04 1.6020517632e+00 -2.7748350503e+00 1.6020517632e+00 2.7748350503e+00 
27500 5.3564166951e+00 6.7489333487e-04 1.6020303287e+00 -2.7747979245e+00 1.6020303287e+00 2.7747979245e+00 
27600 5.3564167633e+00 6.6312409890e-04 1.6020092650e+00 -2.7747614412e+00 1.6020092650e+00 2.7747614412e+00 
27700 5.3564168310e+00 6.5148129348e-04 1.6019885684e+00 -2.7747255937e+00 1.6019885684e+00 2.7747255937e+00 
27800 5.3564168983e+00 6.3996667861e-04 1.6019682350e+00 -2.7746903751e+00 1.6019682350e+00 2.7746903751e+00 
27900 5.3564169650e+00 6.2858193078e-04 1.6019482606e+00 -2.7746557785e+00 1.6019482606e+00 2.7746557785e+00 
28000 5.3564170313e+00 6.1732863975e-04 1.6019286414e+00 -2.7746217969e+00 1.6019286414e+00 2.7746217969e+00 
28100 5.3564170969e+00 6.0620830549e-04 1.6019093731e+00 -2.7745884233e+00 1.6019093731e+00 2.7745884233e+00 
28200 5.3564171621e+00 5.9522233576e-04 1.6018904517e+00 -2.7745556505e+00 1.6018904517e+00 2.7745556505e+00 
28300 5.3564172267e+00 5.8437204383e-04 1.6018718730e+00 -2.7745234712e+00 1.6018718730e+00 2.7745234712e+00 
28400 5.3564172906e+00 5.7365864668e-04 1.6018536327e+00 -2.7744918782e+00 1.6018536327e+00 2.7744918782e+00 
28500 5.3564173540e+00 5.6308326349e-04 1.6018357267e+00 -2.7744608640e+00 1.6018357267e+00 2.7744608640e+00 
28600 5.3564174168e+00 5.5264691446e-04 1.6018181505e+00 -2.7744304212e+00 1.6018181505e+00 2.7744304212e+00 
28700 5.3564174789e+00 5.4235051996e-04 1.6018009000e+00 -2.7744005423e+00 1.6018009000e+00 2.7744005423e+00 
28800 5.3564175405e+00 5.3219489989e-04 1.6017839706e+00 -2.7743712198e+00 1.6017839706e+00 2.7743712198e+00 
28900 5.3564176013e+00 5.2218077345e-04 1.6017673580e+00 -2.7743424460e+00 1.6017673580e+00 2.7743424460e+00 
29000 5.3564176616e+00 5.1230875902e-04 1.6017510579e+00 -2.7743142134e+00 1.6017510579e+00 2.7743142134e+00 
29100 5.3564177211e+00 5.0257937446e-04 1.6017350658e+00 -2.7742865142e+00 1.6017350658e+00 2.7742865142e+00 
29200 5.3564177800e+00 4.9299303749e-04 1.6017193772e+00 -2.7742593409e+00 1.6017193772e+00 2.7742593409e+00 
29300 5.3564178382e+00 4.8355006642e-04 1.6017039878e+00 -2.7742326855e+00 1.6017039878e+00 2.7742326855e+00 
29400 5.3564178958e+00 4.7425068098e-04 1.6016888929e+00 -2.7742065405e+00 1.6016888929e+00 2.7742065405e+00 
29500 5.3564179526e+00 4.6509500349e-04 1.6016740882e+00 -2.7741808980e+00 1.6016740882e+00 2.7741808980e+00 
29600 5.3564180088e+00 4.5608306005e-04 1.6016595692e+00 -2.7741557504e+00 1.6016595692e+00 2.7741557504e+00 
29700 5.3564180643e+00 4.4721478203e-04 1.6016453314e+00 -2.7741310898e+00 1.6016453314e+00 2.7741310898e+00 
29800 5.3564181190e+00 4.3849000768e-04 1.6016313704e+00 -2.7741069084e+00 1.6016313704e+00 2.7741069084e+00 
29900 5.3564181731e+00 4.2990848391e-04 1.6016176815e+00 -2.7740831987e+00 1.6016176815e+00 2.7740831987e+00 
30000 5.3564182265e+00 4.2146986815e-04 1.6016042605e+00 -2.7740599527e+00 1.6016042605e+00 2.7740599527e+00 
30100 5.3564182792e+00 4.1317373040e-04 1.6015911027e+00 -2.7740371629e+00 1.6015911027e+00 2.7740371629e+00 
30200 5.3564183311e+00 4.0501955539e-04 1.6015782039e+00 -2.7740148215e+00 1.6015782039e+00 2.7740148215e+00 
30300 5.3564183824e+00 3.9700674481e-04 1.6015655595e+00 -2.7739929208e+00 1.6015655595e+00 2.7739929208e+00 
30400 5.3564184330e+00 3.8913461969e-04 1.6015531652e+00 -2.7739714532e+00 1.6015531652e+00 2.7739714532e+00 
30500 5.3564184829e+00 3.8140242283e-04 1.6015410166e+00 -2.7739504111e+00 1.6015410166e+00 2.7739504111e+00 
30600 5.3564185320e+00 3.7380932128e-04 1.6015291092e+00 -2.7739297870e+00 1.6015291092e+00 2.7739297870e+00 
30700 5.3564185805e+00 3.6635440898e-04 1.6015174389e+00 -2.7739095733e+00 1.6015174389e+00 2.7739095733e+00 
30800 5.3564186283e+00 3.5903670937e-04 1.6015060011e+00 -2.7738897626e+00 1.6015060011e+00 2.7738897626e+00 
30900 5.3564186754e+00 3.5185517810e-04 1.6014947918e+00 -2.7738703475e+00 1.6014947918e+00 2.7738703475e+00 
31000 5.3564187218e+00 3.4480870575e-04 1.6014838066e+00 -2.7738513205e+00 1.6014838066e+00 2.7738513205e+00 
31100 5.3564187676e+00 3.3789612060e-04 1.6014730413e+00 -2.7738326745e+00 1.6014730413e+00 2.7738326745e+00 
31200 5.3564188126e+00 3.3111619147e-04 1.6014624918e+00 -2.7738144022e+00 1.6014624918e+00 2.7738144022e+00 
31300 5.3564188570e+00 3.2446763048e-04 1.6014521539e+00 -2.7737964964e+00 1.6014521539e+00 2.7737964964e+00 
31400 5.3564189007e+00 3.1794909593e-04 1.6014420235e+00 -2.7737789500e+00 1.6014420235e+00 2.7737789500e+00 
31500 5.3564189438e+00 3.1155919510e-04 1.6014320965e+00 -2.7737617560e+00 1.6014320965e+00 2.7737617560e+00 
31600 5.3564189862e+00 3.0529648710e-04 1.6014223690e+00 -2.7737449075e+00 1.6014223690e+00 2.7737449075e+00 
31700 5.3564190279e+00 2.9915948571e-04 1.6014128370e+00 -2.7737283975e+00 1.6014128370e+00 2.7737283975e+00 
31800 5.3564190690e+00 2.9314666221e-04 1.6014034965e+00 -2.7737122194e+00 1.6014034965e+00 2.7737122194e+00 
31900 5.3564191094e+00 2.8725644814e-04 1.6013943437e+00 -2.7736963663e+00 1.6013943437e+00 2.7736963663e+00 
32000 5.3564191493e+00 2.8148723811e-04 1.6013853748e+00 -2.7736808316e+00 1.6013853748e+00 2.7736808316e+00 
32100 5.3564191884e+00 2.7583739254e-04 1.6013765859e+00 -2.7736656088e+00 1.6013765859e+00 2.7736656088e+00 
32200 5.3564192270e+00 2.7030524041e-04 1.6013679734e+00 -2.7736506916e+00 1.6013679734e+00 2.7736506916e+00 
32300 5.3564192650e+00 2.6488908189e-04 1.6013595336e+00 -2.7736360734e+00 1.6013595336e+00 2.7736360734e+00 
32400 5.3564193023e+00 2.5958719103e-04 1.6013512628e+00 -2.7736217480e+00 1.6013512628e+00 2.7736217480e+00 
32500 5.3564193390e+00 2.5439781835e-04 1.6013431576e+00 -2.7736077093e+00 1.6013431576e+00 2.7736077093e+00 
32600 5.3564193752e+00 2.4931919339e-04 1.6013352143e+00 -2.7735939512e+00 1.6013352143e+00 2.7735939512e+00 
32700 5.3564194108e+00 2.4434952720e-04 1.6013274296e+00 -2.7735804676e+00 1.6013274296e+00 2.7735804676e+00 
32800 5.3564194457e+00 2.3948701483e-04 1.6013198000e+00 -2.7735672528e+00 1.6013198000e+00 2.7735672528e+00 
32900 5.3564194801e+00 2.3472983768e-04 1.6013123222e+00 -2.7735543009e+00 1.6013123222e+00 2.7735543009e+00 
33000 5.3564195140e+00 2.3007616588e-04 1.6013049929e+00 -2.7735416062e+00 1.6013049929e+00 2.7735416062e+00 
33100 5.3564195473e+00 2.2552416053e-04 1.6012978089e+00 -2.7735291631e+00 1.6012978089e+00 2.7735291631e+00 
33200 5.3564195800e+00 2.2107197596e-04 1.6012907670e+00 -2.7735169662e+00 1.6012907670e+00 2.7735169662e+00 
33300 5.3564196122e+00 2.1671776182e-04 1.6012838641e+00 -2.7735050099e+00 1.6012838641e+00 2.7735050099e+00 
33400 5.3564196439e+00 2.1245966522e-04 1.6012770971e+00 -2.7734932892e+00 1.6012770971e+00 2.7734932892e+00 
33500 5.3564196750e+00 2.0829583274e-04 1.6012704630e+00 -2.7734817986e+00 1.6012704630e+00 2.7734817986e+00 
33600 5.3564197056e+00 2.0422441236e-04 1.6012639590e+00 -2.7734705332e+00 1.6012639590e+00 2.7734705332e+00 
33700 5.3564197357e+00 2.0024355535e-04 1.6012575820e+00 -2.7734594880e+00 1.6012575820e+00 2.7734594880e+00 
33800 5.3564197653e+00 1.9635141811e-04 1.6012513293e+00 -2.7734486580e+00 1.6012513293e+00 2.7734486580e+00 
33900 5.3564197944e+00 1.9254616389e-04 1.6012451981e+00 -2.7734380385e+00 1.6012451981e+00 2.7734380385e+00 
34000 5.3564198230e+00 1.8882596445e-04 1.6012391857e+00 -2.7734276247e+00 1.6012391857e+00 2.7734276247e+00 
34100 5.3564198511e+00 1.8518900169e-04 1.6012332895e+00 -2.7734174122e+00 1.6012332895e+00 2.7734174122e+00 
34200 5.3564198787e+00 1.8163346919e-04 1.6012275068e+00 -2.7734073962e+00 1.6012275068e+00 2.7734073962e+00 
34300 5.3564199059e+00 1.7815757362e-04 1.6012218351e+00 -2.7733975726e+00 1.6012218351e+00 2.7733975726e+00 
34400 5.3564199326e+00 1.7475953620e-04 1.6012162719e+00 -2.7733879369e+00 1.6012162719e+00 2.7733879369e+00 
34500 5.3564199588e+00 1.7143759395e-04 1.6012108148e+00 -2.7733784849e+00 1.6012108148e+00 2.7733784849e+00 
34600 5.3564199846e+00 1.6819000100e-04 1.6012054615e+00 -2.7733692126e+00 1.6012054615e+00 2.7733692126e+00 
34700 5.3564200100e+00 1.6501502973e-04 1.6012002095e+00 -2.7733601159e+00 1.6012002095e+00 2.7733601159e+00 
34800 5.3564200349e+00 1.6191097193e-04 1.6011950566e+00 -2.7733511909e+00 1.6011950566e+00 2.7733511909e+00 
34900 5.3564200594e+00 1.5887613977e-04 1.6011900007e+00 -2.7733424338e+00 1.6011900007e+00 2.7733424338e+00 
35000 5.3564200835e+00 1.5590886686e-04 1.6011850395e+00 -2.7733338408e+00 1.6011850395e+00 2.7733338408e+00 
35100 5.3564201071e+00 1.5300750912e-04 1.6011801710e+00 -2.7733254082e+00 1.6011801710e+00 2.7733254082e+00 
35200 5.3564201304e+00 1.5017044561e-04 1.6011753930e+00 -2.7733171325e+00 1.6011753930e+00 2.7733171325e+00 
35300 5.3564201532e+00 1.4739607938e-04 1.6011707036e+00 -2.7733090103e+00 1.6011707036e+00 2.7733090103e+00 
35400 5.3564201757e+00 1.4468283812e-04 1.6011661009e+00 -2.7733010381e+00 1.6011661009e+00 2.7733010381e+00 
35500 5.3564201978e+00 1.4202917486e-04 1.6011615828e+00 -2.7732932126e+00 1.6011615828e+00 2.7732932126e+00 
35600 5.3564202195e+00 1.3943356855e-04 1.6011571476e+00 -2.7732855306e+00 1.6011571476e+00 2.7732855306e+00 
35700 5.3564202408e+00 1.3689452462e-04 1.6011527935e+00 -2.7732779890e+00 1.6011527935e+00 2.7732779890e+00 
35800 5.3564202617e+00 1.3441057546e-04 1.6011485186e+00 -2.7732705847e+00 1.6011485186e+00 2.7732705847e+00 
35900 5.3564202823e+00 1.3198028085e-04 1.6011443213e+00 -2.7732633148e+00 1.6011443213e+00 2.7732633148e+00 
36000 5.3564203025e+00 1.2960222833e-04 1.6011401999e+00 -2.7732561762e+00 1.6011401999e+00 2.7732561762e+00 
36100 5.3564203223e+00 1.2727503349e-04 1.6011361527e+00 -2.7732491663e+00 1.6011361527e+00 2.7732491663e+00 
36200 5.3564203418e+00 1.2499734034e-04 1.6011321782e+00 -2.7732422822e+00 1.6011321782e+00 2.7732422822e+00 
36300 5.3564203610e+00 1.2276782140e-04 1.6011282748e+00 -2.7732355213e+00 1.6011282748e+00 2.7732355213e+00 
36400 5.3564203799e+00 1.2058517798e-04 1.6011244410e+00 -2.7732288810e+00 1.6011244410e+00 2.7732288810e+00 
36500 5.3564203984e+00 1.1844814027e-04 1.6011206753e+00 -2.7732223587e+00 1.6011206753e+00 2.7732223587e+00 
36600 5.3564204165e+00 1.1635546741e-04 1.6011169764e+00 -2.7732159520e+00 1.6011169764e+00 2.7732159520e+00 
36700 5.3564204344e+00 1.1430594754e-04 1.6011133429e+00 -2.7732096585e+00 1.6011133429e+00 2.7732096585e+00 
36800 5.3564204520e+00 1.1229839784e-04 1.6011097733e+00 -2.7732034758e+00 1.6011097733e+00 2.7732034758e+00 
36900 5.3564204692e+00 1.1033166440e-04 1.6011062664e+00 -2.7731974017e+00 1.6011062664e+00 2.7731974017e+00 
37000 5.3564204861e+00 1.0840462226e-04 1.6011028209e+00 -2.7731914339e+00 1.6011028209e+00 2.7731914339e+00 
37100 5.3564205028e+00 1.0651617519e-04 1.6010994356e+00 -2.7731855704e+00 1.6010994356e+00 2.7731855704e+00 
37200 5.3564205191e+00 1.0466525561e-04 1.6010961093e+00 -2.7731798090e+00 1.6010961093e+00 2.7731798090e+00 
37300 5.3564205352e+00 1.0285082439e-04 1.6010928407e+00 -2.7731741477e+00 1.6010928407e+00 2.7731741477e+00 
37400 5.3564205509e+00 1.0107187062e-04 1.6010896288e+00 -2.7731685846e+00 1.6010896288e+00 2.7731685846e+00 
37500 5.3564205664e+00 9.9327411421e-05 1.6010864725e+00 -2.7731631176e+00 1.6010864725e+00 2.7731631176e+00 
37600 5.3564205817e+00 9.7616491613e-05 1.6010833706e+00 -2.7731577450e+00 1.6010833706e+00 2.7731577450e+00 
37700 5.3564205966e+00 9.5938183466e-05 1.6010803221e+00 -2.7731524649e+00 1.6010803221e+00 2.7731524649e+00 
37800 5.3564206113e+00 9.4291586364e-05 1.6010773261e+00 -2.7731472756e+00 1.6010773261e+00 2.7731472756e+00 
37900 5.3564206257e+00 9.2675826463e-05 1.6010743815e+00 -2.7731421754e+00 1.6010743815e+00 2.7731421754e+00 
38000 5.3564206399e+00 9.1090056338e-05 1.6010714873e+00 -2.7731371625e+00 1.6010714873e+00 2.7731371625e+00 
38100 5.3564206538e+00 8.9533454582e-05 1.6010686426e+00 -2.7731322354e+00 1.6010686426e+00 2.7731322354e+00 
38200 5.3564206675e+00 8.8005225419e-05 1.6010658466e+00 -2.7731273925e+00 1.6010658466e+00 2.7731273925e+00 
38300 5.3564206809e+00 8.6504598279e-05 1.6010630982e+00 -2.7731226323e+00 1.6010630982e+00 2.7731226323e+00 
38400 5.3564206941e+00 8.5030827360e-05 1.6010603968e+00 -2.7731179532e+00 1.6010603968e+00 2.7731179532e+00 
38500 5.3564207071e+00 8.3583191185e-05 1.6010577413e+00 -2.7731133538e+00 1.6010577413e+00 2.7731133538e+00 
38600 5.3564207198e+00 8.2160992130e-05 1.6010551311e+00 -2.7731088327e+00 1.6010551311e+00 2.7731088327e+00 
38700 5.3564207323e+00 8.0763555961e-05 1.6010525652e+00 -2.7731043886e+00 1.6010525652e+00 2.7731043886e+00 
38800 5.3564207446e+00 7.9390231339e-05 1.6010500430e+00 -2.7731000200e+00 1.6010500430e+00 2.7731000200e+00 
38900 5.3564207567e+00 7.8040389335e-05 1.6010475637e+00 -2.7730957257e+00 1.6010475637e+00 2.7730957257e+00 
39000 5.3564207685e+00 7.6713422919e-05 1.6010451266e+00 -2.7730915044e+00 1.6010451266e+00 2.7730915044e+00 
39100 5.3564207801e+00 7.5408746455e-05 1.6010427308e+00 -2.7730873549e+00 1.6010427308e+00 2.7730873549e+00 
39200 5.3564207916e+00 7.4125795187e-05 1.6010403758e+00 -2.7730832759e+00 1.6010403758e+00 2.7730832759e+00 
39300 5.3564208028e+00 7.2864024717e-05 1.6010380609e+00 -2.7730792663e+00 1.6010380609e+00 2.7730792663e+00 
39400 5.3564208138e+00 7.1622910483e-05 1.6010357854e+00 -2.7730753250e+00 1.6010357854e+00 2.7730753250e+00 
39500 5.3564208247e+00 7.0401947233e-05 1.6010335486e+00 -2.7730714508e+00 1.6010335486e+00 2.7730714508e+00 
39600 5.3564208355e+00 7.1003946451e-05 1.6010335486e+00 -2.7730714508e+00 1.6010335486e+00 2.7730714508e+00 
39700 5.3564208459e+00 6.9787994067e-05 1.6010313312e+00 -2.7730676101e+00 1.6010313312e+00 2.7730676101e+00 
39800 5.3564208564e+00 7.0378850441e-05 1.6010313312e+00 -2.7730676101e+00 1.6010313312e+00 2.7730676101e+00 
39900 5.3564208667e+00 7.0970064343e-05 1.6010313312e+00 -2.7730676101e+00 1.6010313312e+00 2.7730676101e+00 
40000 5.3564208765e+00 6.9743569495e-05 1.6010291148e+00 -2.7730637712e+00 1.6010291148e+00 2.7730637712e+00 
40100 5.3564208864e+00 7.0322384904e-05 1.6010291148e+00 -2.7730637712e+00 1.6010291148e+00 2.7730637712e+00 
40200 5.3564208962e+00 7.0900924617e-05 1.6010291148e+00 -2.7730637712e+00 1.6010291148e+00 2.7730637712e+00 
40300 5.3564209055e+00 6.9662897538e-05 1.6010269006e+00 -2.7730599361e+00 1.6010269006e+00 2.7730599361e+00 
40400 5.3564209149e+00 7.0227790115e-05 1.6010269006e+00 -2.7730599361e+00 1.6010269006e+00 2.7730599361e+00 
40500 5.3564209241e+00 7.0791783263e-05 1.6010269006e+00 -2.7730599361e+00 1.6010269006e+00 2.7730599361e+00 
40600 5.3564209329e+00 6.9541390115e-05 1.6010246897e+00 -2.7730561068e+00 1.6010246897e+00 2.7730561068e+00 
40700 5.3564209418e+00 7.0090529885e-05 1.6010246897e+00 -2.7730561068e+00 1.6010246897e+00 2.7730561068e+00 
40800 5.3564209505e+00 7.0638171648e-05 1.6010246897e+00 -2.7730561068e+00 1.6010246897e+00 2.7730561068e+00 
40900 5.3564209591e+00 7.1184110310e-05 1.6010246897e+00 -2.7730561068e+00 1.6010246897e+00 2.7730561068e+00 
41000 5.3564209673e+00 6.9904822655e-05 1.6010224667e+00 -2.7730522563e+00 1.6010224667e+00 2.7730522563e+00 
41100 5.3564209756e+00 7.0434262972e-05 1.6010224667e+00 -2.7730522563e+00 1.6010224667e+00 2.7730522563e+00 
41200 5.3564209837e+00 7.0961436939e-05 1.6010224667e+00 -2.7730522563e+00 1.6010224667e+00 2.7730522563e+00 
41300 5.3564209915e+00 6.9668541507e-05 1.6010202505e+00 -2.7730484179e+00 1.6010202505e+00 2.7730484179e+00 
41400 5.3564209993e+00 7.0178181945e-05 1.6010202505e+00 -2.7730484179e+00 1.6010202505e+00 2.7730484179e+00 
41500 5.3564210070e+00 7.0685046552e-05 1.6010202505e+00 -2.7730484179e+00 1.6010202505e+00 2.7730484179e+00 
41600 5.3564210146e+00 7.1188965163e-05 1.6010202505e+00 -2.7730484179e+00 1.6010202505e+00 2.7730484179e+00 
41700 5.3564210218e+00 6.9866327091e-05 1.6010180273e+00 -2.7730445671e+00 1.6010180273e+00 2.7730445671e+00 
41800 5.3564210291e+00 7.0351374421e-05 1.6010180273e+00 -2.7730445671e+00 1.6010180273e+00 2.7730445671e+00 
41900 5.3564210362e+00 7.0833029976e-05 1.6010180273e+00 -2.7730445671e+00 1.6010180273e+00 2.7730445671e+00 
42000 5.3564210430e+00 6.9496820266e-05 1.6010158152e+00 -2.7730407356e+00 1.6010158152e+00 2.7730407356e+00 
42100 5.3564210499e+00 6.9958843699e-05 1.6010158152e+00 -2.7730407356e+00 1.6010158152e+00 2.7730407356e+00 
42200 5.3564210567e+00 7.0417098113e-05 1.6010158152e+00 -2.7730407356e+00 1.6010158152e+00 2.7730407356e+00 
42300 5.3564210634e+00 7.0871459887e-05 1.6010158152e+00 -2.7730407356e+00 1.6010158152e+00 2.7730407356e+00 
42400 5.3564210697e+00 6.9506494037e-05 1.6010136018e+00 -2.7730369020e+00 1.6010136018e+00 2.7730369020e+00 
42500 5.3564210761e+00 6.9940290333e-05 1.6010136018e+00 -2.7730369020e+00 1.6010136018e+00 2.7730369020e+00 
42600 5.3564210825e+00 7.0369892632e-05 1.6010136018e+00 -2.7730369020e+00 1.6010136018e+00 2.7730369020e+00 
42700 5.3564210886e+00 7.0795203344e-05 1.6010136018e+00 -2.7730369020e+00 1.6010136018e+00 2.7730369020e+00 
42800 5.3564210945e+00 6.9402763937e-05 1.6010113909e+00 -2.7730330725e+00 1.6010113909e+00 2.7730330725e+00 
42900 5.3564211005e+00 6.9806803725e-05 1.6010113909e+00 -2.7730330725e+00 1.6010113909e+00 2.7730330725e+00 
43000 5.3564211064e+00 7.0206329724e-05 1.6010113909e+00 -2.7730330725e+00 1.6010113909e+00 2.7730330725e+00 
43100 5.3564211121e+00 7.0601270883e-05 1.6010113909e+00 -2.7730330725e+00 1.6010113909e+00 2.7730330725e+00 
43200 5.3564211178e+00 7.0991557886e-05 1.6010113909e+00 -2.7730330725e+00 1.6010113909e+00 2.7730330725e+00 
43300 5.3564211232e+00 6.9558727739e-05 1.6010091738e+00 -2.7730292324e+00 1.6010091738e+00 2.7730292324e+00 
43400 5.3564211286e+00 6.9927069953e-05 1.6010091738e+00 -2.7730292324e+00 1.6010091738e+00 2.7730292324e+00 
43500 5.3564211340e+00 7.0290621629e-05 1.6010091738e+00 -2.7730292324e+00 1.6010091738e+00 2.7730292324e+00 
43600 5.3564211393e+00 7.0649340357e-05 1.6010091738e+00 -2.7730292324e+00 1.6010091738e+00 2.7730292324e+00 
43700 5.3564211445e+00 7.1003185373e-05 1.6010091738e+00 -2.7730292324e+00 1.6010091738e+00 2.7730292324e+00 
43800 5.3564211493e+00 6.9533419535e-05 1.6010069564e+00 -2.7730253917e+00 1.6010069564e+00 2.7730253917e+00 
43900 5.3564211543e+00 6.9864963780e-05 1.6010069564e+00 -2.7730253917e+00 1.6010069564e+00 2.7730253917e+00 
44000 5.3564211592e+00 7.0191582437e-05 1.6010069564e+00 -2.7730253917e+00 1.6010069564e+00 2.7730253917e+00 
44100 5.3564211641e+00 7.0513260708e-05 1.6010069564e+00 -2.7730253917e+00 1.6010069564e+00 2.7730253917e+00 
44200 5.3564211688e+00 7.0829985081e-05 1.6010069564e+00 -2.7730253917e+00 1.6010069564e+00 2.7730253917e+00 
44300 5.3564211733e+00 6.9327475971e-05 1.6010047443e+00 -2.7730215603e+00 1.6010047443e+00 2.7730215603e+00 
44400 5.3564211778e+00 6.9621849852e-05 1.6010047443e+00 -2.7730215603e+00 1.6010047443e+00 2.7730215603e+00 
44500 5.3564211823e+00 6.9911296977e-05 1.6010047443e+00 -2.7730215603e+00 1.6010047443e+00 2.7730215603e+00 
44600 5.3564211867e+00 7.0195827911e-05 1.6010047443e+00 -2.7730215603e+00 1.6010047443e+00 2.7730215603e+00 
44700 5.3564211911e+00 7.0475453960e-05 1.6010047443e+00 -2.7730215603e+00 1.6010047443e+00 2.7730215603e+00 
44800 5.3564211953e+00 7.0750187248e-05 1.6010047443e+00 -2.7730215603e+00 1.6010047443e+00 2.7730215603e+00 
44900 5.3564211993e+00 6.9207810760e-05 1.6010025348e+00 -2.7730177333e+00 1.6010025348e+00 2.7730177333e+00 
45000 5.3564212034e+00 6.9460404938e-05 1.6010025348e+00 -2.7730177333e+00 1.6010025348e+00 2.7730177333e+00 
45100 5.3564212074e+00 6.9708207204e-05 1.6010025348e+00 -2.7730177333e+00 1.6010025348e+00 2.7730177333e+00 
45200 5.3564212114e+00 6.9951251560e-05 1.6010025348e+00 -2.7730177333e+00 1.6010025348e+00 2.7730177333e+00 
45300 5.3564212153e+00 7.0189572125e-05 1.6010025348e+00 -2.7730177333e+00 1.6010025348e+00 2.7730177333e+00 
45400 5.3564212191e+00 7.0423203201e-05 1.6010025348e+00 -2.7730177333e+00 1.6010025348e+00 2.7730177333e+00 
45500 5.3564212229e+00 7.0652179329e-05 1.6010025348e+00 -2.7730177333e+00 1.6010025348e+00 2.7730177333e+00 
45600 5.3564212266e+00 7.0876535339e-05 1.6010025348e+00 -2.7730177333e+00 1.6010025348e+00 2.7730177333e+00 
45700 5.3564212300e+00 6.9280832085e-05 1.6010003213e+00 -2.7730138993e+00 1.6010003213e+00 2.7730138993e+00 
45800 5.3564212336e+00 6.9483638275e-05 1.6010003213e+00 -2.7730138993e+00 1.6010003213e+00 2.7730138993e+00 
45900 5.3564212371e+00 6.9681989899e-05 1.6010003213e+00 -2.7730138993e+00 1.6010003213e+00 2.7730138993e+00 
46000 5.3564212405e+00 6.9875941279e-05 1.6010003213e+00 -2.7730138993e+00 1.6010003213e+00 2.7730138993e+00 
46100 5.3564212439e+00 7.0065546196e-05 1.6010003213e+00 -2.7730138993e+00 1.6010003213e+00 2.7730138993e+00 
46200 5.3564212472e+00 7.0250857936e-05 1.6010003213e+00 -2.7730138993e+00 1.6010003213e+00 2.7730138993e+00 
46300 5.3564212505e+00 7.0431929324e-05 1.6010003213e+00 -2.7730138993e+00 1.6010003213e+00 2.7730138993e+00 
46400 5.3564212537e+00 7.0608812770e-05 1.6010003213e+00 -2.7730138993e+00 1.6010003213e+00 2.7730138993e+00 
46500 5.3564212568e+00 7.0781560294e-05 1.6010003213e+00 -2.7730138993e+00 1.6010003213e+00 2.7730138993e+00 
46600 5.3564212597e+00 6.9137172511e-05 1.6009981107e+00 -2.7730100706e+00 1.6009981107e+00 2.7730100706e+00 
46700 5.3564212628e+00 6.9289404427e-05 1.6009981107e+00 -2.7730100706e+00 1.6009981107e+00 2.7730100706e+00 
46800 5.3564212658e+00 6.9437713287e-05 1.6009981107e+00 -2.7730100706e+00 1.6009981107e+00 2.7730100706e+00 
46900 5.3564212687e+00 6.9582167775e-05 1.6009981107e+00 -2.7730100706e+00 1.6009981107e+00 2.7730100706e+00 
47000 5.3564212716e+00 6.9722835312e-05 1.6009981107e+00 -2.7730100706e+00 1.6009981107e+00 2.7730100706e+00 
47100 5.3564212744e+00 6.9859782099e-05 1.6009981107e+00 -2.7730100706e+00 1.6009981107e+00 2.7730100706e+00 
47200 5.3564212772e+00 6.9993073155e-05 1.6009981107e+00 -2.7730100706e+00 1.6009981107e+00 2.7730100706e+00 
47300 5.3564212800e+00 7.0122772351e-05 1.6009981107e+00 -2.7730100706e+00 1.6009981107e+00 2.7730100706e+00 
47400 5.3564212826e+00 7.0248942450e-05 1.6009981107e+00 -2.7730100706e+00 1.6009981107e+00 2.7730100706e+00 
47500 5.3564212853e+00 7.0371645134e-05 1.6009981107e+00 -2.7730100706e+00 1.6009981107e+00 2.7730100706e+00 
47600 5.3564212879e+00 7.0490941045e-05 1.6009981107e+00 -2.7730100706e+00 1.6009981107e+00 2.7730100706e+00 
47700 5.3564212904e+00 7.0606889809e-05 1.6009981107e+00 -2.7730100706e+00 1.6009981107e+00 2.7730100706e+00 
47800 5.3564212930e+00 7.0719550074e-05 1.6009981107e+00 -2.7730100706e+00 1.6009981107e+00 2.7730100706e+00 
47900 5.3564212952e+00 6.9017504436e-05 1.6009959021e+00 -2.7730062452e+00 1.6009959021e+00 2.7730062452e+00 
48000 5.3564212977e+00 6.9111372736e-05 1.6009959021e+00 -2.7730062452e+00 1.6009959021e+00 2.7730062452e+00 
48100 5.3564213000e+00 6.9202181589e-05 1.6009959021e+00 -2.7730062452e+00 1.6009959021e+00 2.7730062452e+00 
48200 5.3564213024e+00 6.9290003888e-05 1.6009959021e+00 -2.7730062452e+00 1.6009959021e+00 2.7730062452e+00 
48300 5.3564213047e+00 6.9374910671e-05 1.6009959021e+00 -2.7730062452e+00 1.6009959021e+00 2.7730062452e+00 
48400 5.3564213070e+00 6.9456971165e-05 1.6009959021e+00 -2.7730062452e+00 1.6009959021e+00 2.7730062452e+00 
48500 5.3564213092e+00 6.9536252829e-05 1.6009959021e+00 -2.7730062452e+00 1.6009959021e+00 2.7730062452e+00 
48600 5.3564213114e+00 6.9612821397e-05 1.6009959021e+00 -2.7730062452e+00 1.6009959021e+00 2.7730062452e+00 
48700 5.3564213135e+00 6.9686740924e-05 1.6009959021e+00 -2.7730062452e+00 1.6009959021e+00 2.7730062452e+00 
48800 5.3564213156e+00 6.9758073821e-05 1.6009959021e+00 -2.7730062452e+00 1.6009959021e+00 2.7730062452e+00 
48900 5.3564213177e+00 6.9826880904e-05 1.6009959021e+00 -2.7730062452e+00 1.6009959021e+00 2.7730062452e+00 
49000 5.3564213198e+00 6.9893221431e-05 1.6009959021e+00 -2.7730062452e+00 1.6009959021e+00 2.7730062452e+00 
49100 5.3564213218e+00 6.9957153146e-05 1.6009959021e+00 -2.7730062452e+00 1.6009959021e+00 2.7730062452e+00 
49200 5.3564213237e+00 7.0018732316e-05 1.6009959021e+00 -2.7730062452e+00 1.6009959021e+00 2.7730062452e+00 
49300 5.3564213257e+00 7.0078013774e-05 1.6009959021e+00 -2.7730062452e+00 1.6009959021e+00 2.7730062452e+00 
49400 5.3564213276e+00 7.0135050954e-05 1.6009959021e+00 -2.7730062452e+00 1.6009959021e+00 2.7730062452e+00 
49500 5.3564213295e+00 7.0189895936e-05 1.6009959021e+00 -2.7730062452e+00 1.6009959021e+00 2.7730062452e+00 
49600 5.3564213313e+00 7.0242599475e-05 1.6009959021e+00 -2.7730062452e+00 1.6009959021e+00 2.7730062452e+00 
49700 5.3564213331e+00 7.0293211044e-05 1.6009959021e+00 -2.7730062452e+00 1.6009959021e+00 2.7730062452e+00 
49800 5.3564213349e+00 7.0341778873e-05 1.6009959021e+00 -2.7730062452e+00 1.6009959021e+00 2.7730062452e+00 
49900 5.3564213366e+00 7.0388349976e-05 1.6009959021e+00 -2.7730062452e+00 1.6009959021e+00 2.7730062452e+00 
50000 5.3564213384e+00 7.0432970197e-05 1.6009959021e+00 -2.7730062452e+00 1.6009959021e+00 2.7730062452e+00 
50100 5.3564213401e+00 7.0475684233e-05 1.6009959021e+00 -2.7730062452e+00 1.6009959021e+00 2.7730062452e+00 
50200 5.3564213417e+00 7.0516535677e-05 1.6009959021e+00 -2.7730062452e+00 1.6009959021e+00 2.7730062452e+00 
50300 5.3564213434e+00 7.0555567048e-05 1.6009959021e+00 -2.7730062452e+00 1.6009959021e+00 2.7730062452e+00 
50400 5.3564213450e+00 7.0592819820e-05 1.6009959021e+00 -2.7730062452e+00 1.6009959021e+00 2.7730062452e+00 
50500 5.3564213466e+00 7.0628334458e-05 1.6009959021e+00 -2.7730062452e+00 1.6009959021e+00 2.7730062452e+00 
50600 5.3564213481e+00 7.0662150446e-05 1.6009959021e+00 -2.7730062452e+00 1.6009959021e+00 2.7730062452e+00 
50700 5.3564213496e+00 7.0694306320e-05 1.6009959021e+00 -2.7730062452e+00 1.6009959021e+00 2.7730062452e+00 
50800 5.3564213511e+00 7.0724839692e-05 1.6009959021e+00 -2.7730062452e+00 1.6009959021e+00 2.7730062452e+00 
50900 5.3564213524e+00 6.8942153193e-05 1.6009936933e+00 -2.7730024194e+00 1.6009936933e+00 2.7730024194e+00 
51000 5.3564213539e+00 6.8957163687e-05 1.6009936933e+00 -2.7730024194e+00 1.6009936933e+00 2.7730024194e+00 
51100 5.3564213553e+00 6.8970717945e-05 1.6009936933e+00 -2.7730024194e+00 1.6009936933e+00 2.7730024194e+00 
51200 5.3564213567e+00 6.8982868079e-05 1.6009936933e+00 -2.7730024194e+00 1.6009936933e+00 2.7730024194e+00 
51300 5.3564213581e+00 6.8993664409e-05 1.6009936933e+00 -2.7730024194e+00 1.6009936933e+00 2.7730024194e+00 
51400 5.3564213595e+00 6.9003155507e-05 1.6009936933e+00 -2.7730024194e+00 1.6009936933e+00 2.7730024194e+00 
51500 5.3564213608e+00 6.9011388245e-05 1.6009936933e+00 -2.7730024194e+00 1.6009936933e+00 2.7730024194e+00 
51600 5.3564213621e+00 6.9018407840e-05 1.6009936933e+00 -2.7730024194e+00 1.6009936933e+00 2.7730024194e+00 
51700 5.3564213634e+00 6.9024257894e-05 1.6009936933e+00 -2.7730024194e+00 1.6009936933e+00 2.7730024194e+00 
51800 5.3564213647e+00 6.9028980444e-05 1.6009936933e+00 -2.7730024194e+00 1.6009936933e+00 2.7730024194e+00 
51900 5.3564213659e+00 6.9032616003e-05 1.6009936933e+00 -2.7730024194e+00 1.6009936933e+00 2.7730024194e+00 
52000 5.3564213672e+00 6.9035203609e-05 1.6009936933e+00 -2.7730024194e+00 1.6009936933e+00 2.7730024194e+00 
52100 5.3564213684e+00 6.9036780861e-05 1.6009936933e+00 -2.7730024194e+00 1.6009936933e+00 2.7730024194e+00 
52200 5.3564213696e+00 6.9037383971e-05 1.6009936933e+00 -2.7730024194e+00 1.6009936933e+00 2.7730024194e+00 
52300 5.3564213707e+00 6.9037047796e-05 1.6009936933e+00 -2.7730024194e+00 1.6009936933e+00 2.7730024194e+00 
52400 5.3564213719e+00 6.9035805894e-05 1.6009936933e+00 -2.7730024194e+00 1.6009936933e+00 2.7730024194e+00 
52500 5.3564213730e+00 6.9033690555e-05 1.6009936933e+00 -2.7730024194e+00 1.6009936933e+00 2.7730024194e+00 
52600 5.3564213741e+00 6.9030732846e-05 1.6009936933e+00 -2.7730024194e+00 1.6009936933e+00 2.7730024194e+00 
52700 5.3564213752e+00 6.9026962653e-05 1.6009936933e+00 -2.7730024194e+00 1.6009936933e+00 2.7730024194e+00 
52800 5.3564213763e+00 6.9022408719e-05 1.6009936933e+00 -2.7730024194e+00 1.6009936933e+00 2.7730024194e+00 
52900 5.3564213773e+00 6.9017098683e-05 1.6009936933e+00 -2.7730024194e+00 1.6009936933e+00 2.7730024194e+00 
53000 5.3564213784e+00 6.9011059121e-05 1.6009936933e+00 -2.7730024194e+00 1.6009936933e+00 2.7730024194e+00 
53100 5.3564213794e+00 6.9004315581e-05 1.6009936933e+00 -2.7730024194e+00 1.6009936933e+00 2.7730024194e+00 
53200 5.3564213804e+00 6.8996892627e-05 1.6009936933e+00 -2.7730024194e+00 1.6009936933e+00 2.7730024194e+00 
53300 5.3564213814e+00 6.8988813862e-05 1.6009936933e+00 -2.7730024194e+00 1.6009936933e+00 2.7730024194e+00 
53400 5.3564213824e+00 6.8980101980e-05 1.6009936933e+00 -2.7730024194e+00 1.6009936933e+00 2.7730024194e+00 
53500 5.3564213833e+00 6.8970778789e-05 1.6009936933e+00 -2.7730024194e+00 1.6009936933e+00 2.7730024194e+00 
53600 5.3564213843e+00 6.8960865251e-05 1.6009936933e+00 -2.7730024194e+00 1.6009936933e+00 2.7730024194e+00 
53700 5.3564213852e+00 6.8950381512e-05 1.6009936933e+00 -2.7730024194e+00 1.6009936933e+00 2.7730024194e+00 
53800 5.3564213861e+00 6.8939346936e-05 1.6009936933e+00 -2.7730024194e+00 1.6009936933e+00 2.7730024194e+00 
53900 5.3564213870e+00 6.8927780138e-05 1.6009936933e+00 -2.7730024194e+00 1.6009936933e+00 2.7730024194e+00 
54000 5.3564213879e+00 6.8915699014e-05 1.6009936933e+00 -2.7730024194e+00 1.6009936933e+00 2.7730024194e+00 
54100 5.3564213888e+00 6.8903120769e-05 1.6009936933e+00 -2.7730024194e+00 1.6009936933e+00 2.7730024194e+00 
54200 5.3564213896e+00 6.8890061950e-05 1.6009936933e+00 -2.7730024194e+00 1.6009936933e+00 2.7730024194e+00 
54300 5.3564213905e+00 6.8876538470e-05 1.6009936933e+00 -2.7730024194e+00 1.6009936933e+00 2.7730024194e+00 
54400 5.3564213913e+00 6.8862565640e-05 1.6009936933e+00 -2.7730024194e+00 1.6009936933e+00 2.7730024194e+00 
54500 5.3564213921e+00 6.8848158192e-05 1.6009936933e+00 -2.7730024194e+00 1.6009936933e+00 2.7730024194e+00 
54600 5.3564213929e+00 6.8833330306e-05 1.6009936933e+00 -2.7730024194e+00 1.6009936933e+00 2.7730024194e+00 
54700 5.3564213937e+00 6.8818095639e-05 1.6009936933e+00 -2.7730024194e+00 1.6009936933e+00 2.7730024194e+00 
54800 5.3564213945e+00 6.8802467342e-05 1.6009936933e+00 -2.7730024194e+00 1.6009936933e+00 2.7730024194e+00 
54900 5.3564213952e+00 6.8786458087e-05 1.6009936933e+00 -2.7730024194e+00 1.6009936933e+00 2.7730024194e+00 
55000 5.3564213960e+00 6.8770080093e-05 1.6009936933e+00 -2.7730024194e+00 1.6009936933e+00 2.7730024194e+00 
55100 5.3564213967e+00 6.8753345142e-05 1.6009936933e+00 -2.7730024194e+00 1.6009936933e+00 2.7730024194e+00 
55200 5.3564213975e+00 6.8736264604e-05 1.6009936933e+00 -2.7730024194e+00 1.6009936933e+00 2.7730024194e+00 
55300 5.3564213982e+00 6.8718849454e-05 1.6009936933e+00 -2.7730024194e+00 1.6009936933e+00 2.7730024194e+00 
55400 5.3564213989e+00 6.8701110296e-05 1.6009936933e+00 -2.7730024194e+00 1.6009936933e+00 2.7730024194e+00 
55500 5.3564213996e+00 6.8683057377e-05 1.6009936933e+00 -2.7730024194e+00 1.6009936933e+00 2.7730024194e+00 
55600 5.3564214003e+00 6.8664700607e-05 1.6009936933e+00 -2.7730024194e+00 1.6009936933e+00 2.7730024194e+00 
55700 5.3564214009e+00 6.8646049579e-05 1.6009936933e+00 -2.7730024194e+00 1.6009936933e+00 2.7730024194e+00 
55800 5.3564214016e+00 6.8627113580e-05 1.6009936933e+00 -2.7730024194e+00 1.6009936933e+00 2.7730024194e+00 
55900 5.3564214022e+00 6.8607901612e-05 1.6009936933e+00 -2.7730024194e+00 1.6009936933e+00 2.7730024194e+00 
56000 5.3564214029e+00 6.8588422403e-05 1.6009936933e+00 -2.7730024194e+00 1.6009936933e+00 2.7730024194e+00 
56100 5.3564214035e+00 6.8568684425e-05 1.6009936933e+00 -2.7730024194e+00 1.6009936933e+00 2.7730024194e+00 
56200 5.3564214041e+00 6.8548695904e-05 1.6009936933e+00 -2.7730024194e+00 1.6009936933e+00 2.7730024194e+00 
56300 5.3564214047e+00 6.8528464839e-05 1.6009936933e+00 -2.7730024194e+00 1.6009936933e+00 2.7730024194e+00 
56400 5.3564214053e+00 6.8507999007e-05 1.6009936933e+00 -2.7730024194e+00 1.6009936933e+00 2.7730024194e+00 
56500 5.3564214059e+00 6.8487305983e-05 1.6009936933e+00 -2.7730024194e+00 1.6009936933e+00 2.7730024194e+00 
56600 5.3564214065e+00 6.8466393144e-05 1.6009936933e+00 -2.7730024194e+00 1.6009936933e+00 2.7730024194e+00 
56700 5.3564214071e+00 6.8445267685e-05 1.6009936933e+00 -2.7730024194e+00 1.6009936933e+00 2.7730024194e+00 
56800 5.3564214076e+00 6.8423936626e-05 1.6009936933e+00 -2.7730024194e+00 1.6009936933e+00 2.7730024194e+00 
56900 5.3564214082e+00 6.8402406824e-05 1.6009936933e+00 -2.7730024194e+00 1.6009936933e+00 2.7730024194e+00 
57000 5.3564214087e+00 6.8380684981e-05 1.6009936933e+00 -2.7730024194e+00 1.6009936933e+00 2.7730024194e+00 
57100 5.3564214093e+00 6.8358777653e-05 1.6009936933e+00 -2.7730024194e+00 1.6009936933e+00 2.7730024194e+00 
57200 5.3564214098e+00 6.8336691256e-05 1.6009936933e+00 -2.7730024194e+00 1.6009936933e+00 2.7730024194e+00 
57300 5.3564214103e+00 6.8314432079e-05 1.6009936933e+00 -2.7730024194e+00 1.6009936933e+00 2.7730024194e+00 
57400 5.3564214108e+00 6.8292006283e-05 1.6009936933e+00 -2.7730024194e+00 1.6009936933e+00 2.7730024194e+00 
57500 5.3564214113e+00 6.8269419916e-05 1.6009936933e+00 -2.7730024194e+00 1.6009936933e+00 2.7730024194e+00 
57600 5.3564214118e+00 6.8246678915e-05 1.6009936933e+00 -2.7730024194e+00 1.6009936933e+00 2.7730024194e+00 
57700 5.3564214123e+00 6.8223789114e-05 1.6009936933e+00 -2.7730024194e+00 1.6009936933e+00 2.7730024194e+00 
57800 5.3564214128e+00 6.8200756245e-05 1.6009936933e+00 -2.7730024194e+00 1.6009936933e+00 2.7730024194e+00 
57900 5.3564214132e+00 6.8177585948e-05 1.6009936933e+00 -2.7730024194e+00 1.6009936933e+00 2.7730024194e+00 
58000 5.3564214137e+00 6.8154283775e-05 1.6009936933e+00 -2.7730024194e+00 1.6009936933e+00 2.7730024194e+00 
58100 5.3564214142e+00 6.8130855193e-05 1.6009936933e+00 -2.7730024194e+00 1.6009936933e+00 2.7730024194e+00 
58200 5.3564214146e+00 6.8107305586e-05 1.6009936933e+00 -2.7730024194e+00 1.6009936933e+00 2.7730024194e+00 
58300 5.3564214151e+00 6.8083640266e-05 1.6009936933e+00 -2.7730024194e+00 1.6009936933e+00 2.7730024194e+00 
58400 5.3564214155e+00 6.8059864467e-05 1.6009936933e+00 -2.7730024194e+00 1.6009936933e+00 2.7730024194e+00 
58500 5.3564214159e+00 6.8035983356e-05 1.6009936933e+00 -2.7730024194e+00 1.6009936933e+00 2.7730024194e+00 
58600 5.3564214163e+00 6.8012002032e-05 1.6009936933e+00 -2.7730024194e+00 1.6009936933e+00 2.7730024194e+00 
58700 5.3564214168e+00 6.7987925529e-05 1.6009936933e+00 -2.7730024194e+00 1.6009936933e+00 2.7730024194e+00 
58800 5.3564214172e+00 6.7963758817e-05 1.6009936933e+00 -2.7730024194e+00 1.6009936933e+00 2.7730024194e+00 
58900 5.3564214176e+00 6.7939506810e-05 1.6009936933e+00 -2.7730024194e+00 1.6009936933e+00 2.7730024194e+00 
59000 5.3564214180e+00 6.7915174360e-05 1.6009936933e+00 -2.7730024194e+00 1.6009936933e+00 2.7730024194e+00 
59100 5.3564214184e+00 6.7890766263e-05 1.6009936933e+00 -2.7730024194e+00 1.6009936933e+00 2.7730024194e+00 
59200 5.3564214187e+00 6.7866287261e-05 1.6009936933e+00 -2.7730024194e+00 1.6009936933e+00 2.7730024194e+00 
59300 5.3564214191e+00 6.7841742043e-05 1.6009936933e+00 -2.7730024194e+00 1.6009936933e+00 2.7730024194e+00 
59400 5.3564214195e+00 6.7817135242e-05 1.6009936933e+00 -2.7730024194e+00 1.6009936933e+00 2.7730024194e+00 
59500 5.3564214199e+00 6.7792471441e-05 1.6009936933e+00 -2.7730024194e+00 1.6009936933e+00 2.7730024194e+00 
59600 5.3564214202e+00 6.7767755173e-05 1.6009936933e+00 -2.7730024194e+00 1.6009936933e+00 2.7730024194e+00 
59700 5.3564214206e+00 6.7742990919e-05 1.6009936933e+00 -2.7730024194e+00 1.6009936933e+00 2.7730024194e+00 
59800 5.3564214209e+00 6.7718183111e-05 1.6009936933e+00 -2.7730024194e+00 1.6009936933e+00 2.7730024194e+00 
59900 5.3564214213e+00 6.7693336132e-05 1.6009936933e+00 -2.7730024194e+00 1.6009936933e+00 2.7730024194e+00 
60000 5.3564214216e+00 6.7668454316e-05 1.6009936933e+00 -2.7730024194e+00 1.6009936933e+00 2.7730024194e+00 
60100 5.3564214219e+00 6.7643541944e-05 1.6009936933e+00 -2.7730024194e+00 1.6009936933e+00 2.7730024194e+00 
60200 5.3564214223e+00 6.7618603254e-05 1.6009936933e+00 -2.7730024194e+00 1.6009936933e+00 2.7730024194e+00 
60300 5.3564214226e+00 6.7593642431e-05 1.6009936933e+00 -2.7730024194e+00 1.6009936933e+00 2.7730024194e+00 
60400 5.3564214229e+00 6.7568663612e-05 1.6009936933e+00 -2.7730024194e+00 1.6009936933e+00 2.7730024194e+00 
60500 5.3564214232e+00 6.7543670887e-05 1.6009936933e+00 -2.7730024194e+00 1.6009936933e+00 2.7730024194e+00 
60600 5.3564214235e+00 6.7518668294e-05 1.6009936933e+00 -2.7730024194e+00 1.6009936933e+00 2.7730024194e+00 
60700 5.3564214238e+00 6.7493659820e-05 1.6009936933e+00 -2.7730024194e+00 1.6009936933e+00 2.7730024194e+00 
60800 5.3564214241e+00 6.7468649406e-05 1.6009936933e+00 -2.7730024194e+00 1.6009936933e+00 2.7730024194e+00 
60900 5.3564214244e+00 6.7443640940e-05 1.6009936933e+00 -2.7730024194e+00 1.6009936933e+00 2.7730024194e+00 
61000 5.3564214247e+00 6.7418638260e-05 1.6009936933e+00 -2.7730024194e+00 1.6009936933e+00 2.7730024194e+00 
61100 5.3564214250e+00 6.7393645151e-05 1.6009936933e+00 -2.7730024194e+00 1.6009936933e+00 2.7730024194e+00 
61200 5.3564214253e+00 6.7368665348e-05 1.6009936933e+00 -2.7730024194e+00 1.6009936933e+00 2.7730024194e+00 
61300 5.3564214256e+00 6.7343702535e-05 1.6009936933e+00 -2.7730024194e+00 1.6009936933e+00 2.7730024194e+00 
61400 5.3564214258e+00 6.7318760338e-05 1.6009936933e+00 -2.7730024194e+00 1.6009936933e+00 2.7730024194e+00 
61500 5.3564214261e+00 6.7293842337e-05 1.6009936933e+00 -2.7730024194e+00 1.6009936933e+00 2.7730024194e+00 
61600 5.3564214264e+00 6.7268952052e-05 1.6009936933e+00 -2.7730024194e+00 1.6009936933e+00 2.7730024194e+00 
61700 5.3564214266e+00 6.7244092951e-05 1.6009936933e+00 -2.7730024194e+00 1.6009936933e+00 2.7730024194e+00 
61800 5.3564214269e+00 6.7219268448e-05 1.6009936933e+00 -2.7730024194e+00 1.6009936933e+00 2.7730024194e+00 
61900 5.3564214271e+00 6.7194481901e-05 1.6009936933e+00 -2.7730024194e+00 1.6009936933e+00 2.7730024194e+00 
62000 5.3564214274e+00 6.7169736610e-05 1.6009936933e+00 -2.7730024194e+00 1.6009936933e+00 2.7730024194e+00 
62100 5.3564214276e+00 6.7145035822e-05 1.6009936933e+00 -2.7730024194e+00 1.6009936933e+00 2.7730024194e+00 
62200 5.3564214279e+00 6.7120382724e-05 1.6009936933e+00 -2.7730024194e+00 1.6009936933e+00 2.7730024194e+00 
62300 5.3564214281e+00 6.7095780448e-05 1.6009936933e+00 -2.7730024194e+00 1.6009936933e+00 2.7730024194e+00 
62400 5.3564214283e+00 6.7071232065e-05 1.6009936933e+00 -2.7730024194e+00 1.6009936933e+00 2.7730024194e+00 
62500 5.3564214286e+00 6.7046740592e-05 1.6009936933e+00 -2.7730024194e+00 1.6009936933e+00 2.7730024194e+00 
62600 5.3564214288e+00 6.7022308984e-05 1.6009936933e+00 -2.7730024194e+00 1.6009936933e+00 2.7730024194e+00 
62700 5.3564214290e+00 6.6997940137e-05 1.6009936933e+00 -2.7730024194e+00 1.6009936933e+00 2.7730024194e+00 
62800 5.3564214292e+00 6.6973636891e-05 1.6009936933e+00 -2.7730024194e+00 1.6009936933e+00 2.7730024194e+00 
62900 5.3564214295e+00 6.6949402022e-05 1.6009936933e+00 -2.7730024194e+00 1.6009936933e+00 2.7730024194e+00 
63000 5.3564214297e+00 6.6925238248e-05 1.6009936933e+00 -2.7730024194e+00 1.6009936933e+00 2.7730024194e+00 
63100 5.3564214299e+00 6.6901148226e-05 1.6009936933e+00 -2.7730024194e+00 1.6009936933e+00 2.7730024194e+00 
63200 5.3564214301e+00 6.6877134553e-05 1.6009936933e+00 -2.7730024194e+00 1.6009936933e+00 2.7730024194e+00 
63300 5.3564214303e+00 6.6853199766e-05 1.6009936933e+00 -2.7730024194e+00 1.6009936933e+00 2.7730024194e+00 
63400 5.3564214305e+00 6.6829346340e-05 1.6009936933e+00 -2.7730024194e+00 1.6009936933e+00 2.7730024194e+00 
63500 5.3564214307e+00 6.6805576688e-05 1.6009936933e+00 -2.7730024194e+00 1.6009936933e+00 2.7730024194e+00 
63600 5.3564214309e+00 6.6781893165e-05 1.6009936933e+00 -2.7730024194e+00 1.6009936933e+00 2.7730024194e+00 
63700 5.3564214311e+00 6.6758298062e-05 1.6009936933e+00 -2.7730024194e+00 1.6009936933e+00 2.7730024194e+00 
63800 5.3564214313e+00 6.6734793611e-05 1.6009936933e+00 -2.7730024194e+00 1.6009936933e+00 2.7730024194e+00 
63900 5.3564214314e+00 6.6711381981e-05 1.6009936933e+00 -2.7730024194e+00 1.6009936933e+00 2.7730024194e+00 
64000 5.3564214316e+00 6.6688065281e-05 1.6009936933e+00 -2.7730024194e+00 1.6009936933e+00 2.7730024194e+00 
64100 5.3564214318e+00 6.6664845561e-05 1.6009936933e+00 -2.7730024194e+00 1.6009936933e+00 2.7730024194e+00 
64200 5.3564214320e+00 6.6641724805e-05 1.6009936933e+00 -2.7730024194e+00 1.6009936933e+00 2.7730024194e+00 
64300 5.3564214322e+00 6.6618704942e-05 1.6009936933e+00 -2.7730024194e+00 1.6009936933e+00 2.7730024194e+00 
64400 5.3564214323e+00 6.6595787837e-05 1.6009936933e+00 -2.7730024194e+00 1.6009936933e+00 2.7730024194e+00 
64500 5.3564214325e+00 6.6572975296e-05 1.6009936933e+00 -2.7730024194e+00 1.6009936933e+00 2.7730024194e+00 
64600 5.3564214327e+00 6.6550269066e-05 1.6009936933e+00 -2.7730024194e+00 1.6009936933e+00 2.7730024194e+00 
64700 5.3564214328e+00 6.6527670833e-05 1.6009936933e+00 -2.7730024194e+00 1.6009936933e+00 2.7730024194e+00 
64800 5.3564214330e+00 6.6505182225e-05 1.6009936933e+00 -2.7730024194e+00 1.6009936933e+00 2.7730024194e+00 
64900 5.3564214332e+00 6.6482804809e-05 1.6009936933e+00 -2.7730024194e+00 1.6009936933e+00 2.7730024194e+00 
65000 5.3564214333e+00 6.6460540096e-05 1.6009936933e+00 -2.7730024194e+00 1.6009936933e+00 2.7730024194e+00 
65100 5.3564214335e+00 6.6438389538e-05 1.6009936933e+00 -2.7730024194e+00 1.6009936933e+00 2.7730024194e+00 
65200 5.3564214336e+00 6.6416354529e-05 1.6009936933e+00 -2.7730024194e+00 1.6009936933e+00 2.7730024194e+00 
65300 5.3564214338e+00 6.6394436408e-05 1.6009936933e+00 -2.7730024194e+00 1.6009936933e+00 2.7730024194e+00 
65400 5.3564214339e+00 6.6372636454e-05 1.6009936933e+00 -2.7730024194e+00 1.6009936933e+00 2.7730024194e+00 
65500 5.3564214341e+00 6.6350955894e-05 1.6009936933e+00 -2.7730024194e+00 1.6009936933e+00 2.7730024194e+00 
65600 5.3564214342e+00 6.6329395897e-05 1.6009936933e+00 -2.7730024194e+00 1.6009936933e+00 2.7730024194e+00 
65700 5.3564214344e+00 6.6307957578e-05 1.6009936933e+00 -2.7730024194e+00 1.6009936933e+00 2.7730024194e+00 
65800 5.3564214345e+00 6.6286641997e-05 1.6009936933e+00 -2.7730024194e+00 1.6009936933e+00 2.7730024194e+00 
65900 5.3564214346e+00 6.6265450163e-05 1.6009936933e+00 -2.7730024194e+00 1.6009936933e+00 2.7730024194e+00 
66000 5.3564214348e+00 6.6244383029e-05 1.6009936933e+00 -2.7730024194e+00 1.6009936933e+00 2.7730024194e+00 
66100 5.3564214349e+00 6.6223441498e-05 1.6009936933e+00 -2.7730024194e+00 1.6009936933e+00 2.7730024194e+00 
66200 5.3564214350e+00 6.6202626423e-05 1.6009936933e+00 -2.7730024194e+00 1.6009936933e+00 2.7730024194e+00 
66300 5.3564214352e+00 6.6181938603e-05 1.6009936933e+00 -2.7730024194e+00 1.6009936933e+00 2.7730024194e+00 
66400 5.3564214353e+00 6.6161378788e-05 1.6009936933e+00 -2.7730024194e+00 1.6009936933e+00 2.7730024194e+00 
66500 5.3564214354e+00 6.6140947681e-05 1.6009936933e+00 -2.7730024194e+00 1.6009936933e+00 2.7730024194e+00 
66600 5.3564214355e+00 6.6120645935e-05 1.6009936933e+00 -2.7730024194e+00 1.6009936933e+00 2.7730024194e+00 
66700 5.3564214357e+00 6.6100474155e-05 1.6009936933e+00 -2.7730024194e+00 1.6009936933e+00 2.7730024194e+00 
66800 5.3564214358e+00 6.6080432902e-05 1.6009936933e+00 -2.7730024194e+00 1.6009936933e+00 2.7730024194e+00 
66900 5.3564214359e+00 6.6060522686e-05 1.6009936933e+00 -2.7730024194e+00 1.6009936933e+00 2.7730024194e+00 
67000 5.3564214360e+00 6.6040743979e-05 1.6009936933e+00 -2.7730024194e+00 1.6009936933e+00 2.7730024194e+00 
67100 5.3564214361e+00 6.6021097202e-05 1.6009936933e+00 -2.7730024194e+00 1.6009936933e+00 2.7730024194e+00 
67200 5.3564214362e+00 6.6001582736e-05 1.6009936933e+00 -2.7730024194e+00 1.6009936933e+00 2.7730024194e+00 
67300 5.3564214363e+00 6.5982200920e-05 1.6009936933e+00 -2.7730024194e+00 1.6009936933e+00 2.7730024194e+00 
67400 5.3564214365e+00 6.5962952051e-05 1.6009936933e+00 -2.7730024194e+00 1.6009936933e+00 2.7730024194e+00 
67500 5.3564214366e+00 6.5943836384e-05 1.6009936933e+00 -2.7730024194e+00 1.6009936933e+00 2.7730024194e+00 
67600 5.3564214367e+00 6.5924854134e-05 1.6009936933e+00 -2.7730024194e+00 1.6009936933e+00 2.7730024194e+00 
67700 5.3564214368e+00 6.5906005481e-05 1.6009936933e+00 -2.7730024194e+00 1.6009936933e+00 2.7730024194e+00 
67800 5.3564214369e+00 6.5887290561e-05 1.6009936933e+00 -2.7730024194e+00 1.6009936933e+00 2.7730024194e+00 
67900 5.3564214370e+00 6.5868709475e-05 1.6009936933e+00 -2.7730024194e+00 1.6009936933e+00 2.7730024194e+00 
68000 5.3564214371e+00 6.5850262291e-05 1.6009936933e+00 -2.7730024194e+00 1.6009936933e+00 2.7730024194e+00 
68100 5.3564214372e+00 6.5831949039e-05 1.6009936933e+00 -2.7730024194e+00 1.6009936933e+00 2.7730024194e+00 
68200 5.3564214373e+00 6.5813769712e-05 1.6009936933e+00 -2.7730024194e+00 1.6009936933e+00 2.7730024194e+00 
68300 5.3564214374e+00 6.5795724274e-05 1.6009936933e+00 -2.7730024194e+00 1.6009936933e+00 2.7730024194e+00 
68400 5.3564214375e+00 6.5777812652e-05 1.6009936933e+00 -2.7730024194e+00 1.6009936933e+00 2.7730024194e+00 
68500 5.3564214376e+00 6.5760034746e-05 1.6009936933e+00 -2.7730024194e+00 1.6009936933e+00 2.7730024194e+00 
68600 5.3564214377e+00 6.5742390419e-05 1.6009936933e+00 -2.7730024194e+00 1.6009936933e+00 2.7730024194e+00 
68700 5.3564214377e+00 6.5724879509e-05 1.6009936933e+00 -2.7730024194e+00 1.6009936933e+00 2.7730024194e+00 
68800 5.3564214378e+00 6.5707501823e-05 1.6009936933e+00 -2.7730024194e+00 1.6009936933e+00 2.7730024194e+00 
68900 5.3564214379e+00 6.5690257137e-05 1.6009936933e+00 -2.7730024194e+00 1.6009936933e+00 2.7730024194e+00 
69000 5.3564214380e+00 6.5673145205e-05 1.6009936933e+00 -2.7730024194e+00 1.6009936933e+00 2.7730024194e+00 
69100 5.3564214381e+00 6.5656165749e-05 1.6009936933e+00 -2.7730024194e+00 1.6009936933e+00 2.7730024194e+00 
69200 5.3564214382e+00 6.5639318468e-05 1.6009936933e+00 -2.7730024194e+00 1.6009936933e+00 2.7730024194e+00 
69300 5.3564214383e+00 6.5622603035e-05 1.6009936933e+00 -2.7730024194e+00 1.6009936933e+00 2.7730024194e+00 
69400 5.3564214383e+00 6.5606019099e-05 1.6009936933e+00 -2.7730024194e+00 1.6009936933e+00 2.7730024194e+00 
69500 5.3564214384e+00 6.5589566287e-05 1.6009936933e+00 -2.7730024194e+00 1.6009936933e+00 2.7730024194e+00 
69600 5.3564214385e+00 6.5573244201e-05 1.6009936933e+00 -2.7730024194e+00 1.6009936933e+00 2.7730024194e+00 
69700 5.3564214386e+00 6.5557052421e-05 1.6009936933e+00 -2.7730024194e+00 1.6009936933e+00 2.7730024194e+00 
69800 5.3564214387e+00 6.5540990511e-05 1.6009936933e+00 -2.7730024194e+00 1.6009936933e+00 2.7730024194e+00 
69900 5.3564214387e+00 6.5525058008e-05 1.6009936933e+00 -2.7730024194e+00 1.6009936933e+00 2.7730024194e+00 
70000 5.3564214388e+00 6.5509254434e-05 1.6009936933e+00 -2.7730024194e+00 1.6009936933e+00 2.7730024194e+00 
70100 5.3564214389e+00 6.5493579290e-05 1.6009936933e+00 -2.7730024194e+00 1.6009936933e+00 2.7730024194e+00 
70200 5.3564214389e+00 6.5478032062e-05 1.6009936933e+00 -2.7730024194e+00 1.6009936933e+00 2.7730024194e+00 
70300 5.3564214390e+00 6.5462612215e-05 1.6009936933e+00 -2.7730024194e+00 1.6009936933e+00 2.7730024194e+00 
70400 5.3564214391e+00 6.5447319199e-05 1.6009936933e+00 -2.7730024194e+00 1.6009936933e+00 2.7730024194e+00 
70500 5.3564214392e+00 6.5432152451e-05 1.6009936933e+00 -2.7730024194e+00 1.6009936933e+00 2.7730024194e+00 
70600 5.3564214392e+00 6.5417111389e-05 1.6009936933e+00 -2.7730024194e+00 1.6009936933e+00 2.7730024194e+00 
70700 5.3564214393e+00 6.5402195416e-05 1.6009936933e+00 -2.7730024194e+00 1.6009936933e+00 2.7730024194e+00 
70800 5.3564214394e+00 6.5387403926e-05 1.6009936933e+00 -2.7730024194e+00 1.6009936933e+00 2.7730024194e+00 
70900 5.3564214394e+00 6.5372736297e-05 1.6009936933e+00 -2.7730024194e+00 1.6009936933e+00 2.7730024194e+00 
71000 5.3564214395e+00 6.5358191892e-05 1.6009936933e+00 -2.7730024194e+00 1.6009936933e+00 2.7730024194e+00 
71100 5.3564214396e+00 6.5343770066e-05 1.6009936933e+00 -2.7730024194e+00 1.6009936933e+00 2.7730024194e+00 
71200 5.3564214396e+00 6.5329470162e-05 1.6009936933e+00 -2.7730024194e+00 1.6009936933e+00 2.7730024194e+00 
71300 5.3564214397e+00 6.5315291512e-05 1.6009936933e+00 -2.7730024194e+00 1.6009936933e+00 2.7730024194e+00 
71400 5.3564214397e+00 6.5301233437e-05 1.6009936933e+00 -2.7730024194e+00 1.6009936933e+00 2.7730024194e+00 
71500 5.3564214398e+00 6.5287295249e-05 1.6009936933e+00 -2.7730024194e+00 1.6009936933e+00 2.7730024194e+00 
71600 5.3564214399e+00 6.5273476251e-05 1.6009936933e+00 -2.7730024194e+00 1.6009936933e+00 2.7730024194e+00 
71700 5.3564214399e+00 6.5259775738e-05 1.6009936933e+00 -2.7730024194e+00 1.6009936933e+00 2.7730024194e+00 
71800 5.3564214400e+00 6.5246192997e-05 1.6009936933e+00 -2.7730024194e+00 1.6009936933e+00 2.7730024194e+00 
71900 5.3564214400e+00 6.5232727309e-05 1.6009936933e+00 -2.7730024194e+00 1.6009936933e+00 2.7730024194e+00 
72000 5.3564214401e+00 6.5219377944e-05 1.6009936933e+00 -2.7730024194e+00 1.6009936933e+00 2.7730024194e+00 
72100 5.3564214401e+00 6.5206144171e-05 1.6009936933e+00 -2.7730024194e+00 1.6009936933e+00 2.7730024194e+00 
72200 5.3564214402e+00 6.5193025249e-05 1.6009936933e+00 -2.7730024194e+00 1.6009936933e+00 2.7730024194e+00 
72300 5.3564214402e+00 6.5180020433e-05 1.6009936933e+00 -2.7730024194e+00 1.6009936933e+00 2.7730024194e+00 
72400 5.3564214403e+00 6.5167128973e-05 1.6009936933e+00 -2.7730024194e+00 1.6009936933e+00 2.7730024194e+00 
72500 5.3564214404e+00 6.5154350115e-05 1.6009936933e+00 -2.7730024194e+00 1.6009936933e+00 2.7730024194e+00 
72600 5.3564214404e+00 6.5141683100e-05 1.6009936933e+00 -2.7730024194e+00 1.6009936933e+00 2.7730024194e+00 
72700 5.3564214405e+00 6.5129127166e-05 1.6009936933e+00 -2.7730024194e+00 1.6009936933e+00 2.7730024194e+00 
72800 5.3564214405e+00 6.5118169222e-05 1.6009936933e+00 -2.7730024194e+00 1.6009936933e+00 2.7730024194e+00 
72800 5.3564214405e+00 6.5118169222e-05 1.6009936933e+00 -2.7730024194e+00 1.6009936933e+00 2.7730024194e+00 
