# step Hamiltonian StressXX CellTensor1 CellTensor2 CellTensor3 CellTensor4 
0 5.0200721298e+00 3.4199638953e-02 1.4739512762e+00 -2.5529584983e+00 1.4739512762e+00 2.5529584983e+00 
100 5.0205290892e+00 3.3957824190e-02 1.4739512762e+00 -2.5529584983e+00 1.4739512762e+00 2.5529584983e+00 
200 5.0208173722e+00 3.3214850104e-02 1.4727994947e+00 -2.5509635541e+00 1.4727994947e+00 2.5509635541e+00 
300 5.0210147225e+00 3.2445186499e-02 1.4716720293e+00 -2.5490107268e+00 1.4716720293e+00 2.5490107268e+00 
400 5.0211396261e+00 3.1662118326e-02 1.4705698431e+00 -2.5471016843e+00 1.4705698431e+00 2.5471016843e+00 
500 5.0212070418e+00 3.0875867925e-02 1.4694934490e+00 -2.5452373151e+00 1.4694934490e+00 2.5452373151e+00 
600 5.0212290925e+00 3.0094244060e-02 1.4684430127e+00 -2.5434179060e+00 1.4684430127e+00 2.5434179060e+00 
700 5.0212156115e+00 2.9323149699e-02 1.4674184329e+00 -2.5416432817e+00 1.4674184329e+00 2.5416432817e+00 
800 5.0211745781e+00 2.8566981179e-02 1.4664194056e+00 -2.5399129157e+00 1.4664194056e+00 2.5399129157e+00 
900 5.0211124655e+00 2.7828943306e-02 1.4654454750e+00 -2.5382260183e+00 1.4654454750e+00 2.5382260183e+00 
1000 5.0210345205e+00 2.7111299010e-02 1.4644960730e+00 -2.5365816059e+00 1.4644960730e+00 2.5365816059e+00 
1100 5.0209449888e+00 2.6415567790e-02 1.4635705519e+00 -2.5349785563e+00 1.4635705519e+00 2.5349785563e+00 
1200 5.0208472980e+00 2.5742683870e-02 1.4626682089e+00 -2.5334156524e+00 1.4626682089e+00 2.5334156524e+00 
1300 5.0207442054e+00 2.5093122547e-02 1.4617883067e+00 -2.5318916170e+00 1.4617883067e+00 2.5318916170e+00 
1400 5.0206379190e+00 2.4467001277e-02 1.4609300885e+00 -2.5304051396e+00 1.4609300885e+00 2.5304051396e+00 
1500 5.0205301965e+00 2.3864160683e-02 1.4600927910e+00 -2.5289548977e+00 1.4600927910e+00 2.5289548977e+00 
1600 5.0204224259e+00 2.3284229496e-02 1.4592756534e+00 -2.5275395740e+00 1.4592756534e+00 2.5275395740e+00 
1700 5.0203156922e+00 2.2726676631e-02 1.4584779252e+00 -2.5261578682e+00 1.4584779252e+00 2.5261578682e+00 
1800 5.0202108319e+00 2.2190852932e-02 1.4576988715e+00 -2.5248085076e+00 1.4576988715e+00 2.5248085076e+00 
1900 5.0201084785e+00 2.1676024587e-02 1.4569377774e+00 -2.5234902539e+00 1.4569377774e+00 2.5234902539e+00 
2000 5.0200090991e+00 2.1181399835e-02 1.4561939509e+00 -2.5222019086e+00 1.4561939509e+00 2.5222019086e+00 
2100 5.0199130259e+00 2.0706150233e-02 1.4554667251e+00 -2.5209423166e+00 1.4554667251e+00 2.5209423166e+00 
2200 5.0198204811e+00 2.0249427535e-02 1.4547554597e+00 -2.5197103688e+00 1.4547554597e+00 2.5197103688e+00 
2300 5.0197315984e+00 1.9810377009e-02 1.4540595416e+00 -2.5185050033e+00 1.4540595416e+00 2.5185050033e+00 
2400 5.0196464402e+00 1.9388147870e-02 1.4533783856e+00 -2.5173252064e+00 1.4533783856e+00 2.5173252064e+00 
2500 5.0195650122e+00 1.8981901367e-02 1.4527114339e+00 -2.5161700122e+00 1.4527114339e+00 2.5161700122e+00 
2600 5.0194872754e+00 1.8590816978e-02 1.4520581562e+00 -2.5150385021e+00 1.4520581562e+00 2.5150385021e+00 
2700 5.0194131559e+00 1.8214097066e-02 1.4514180493e+00 -2.5139298043e+00 1.4514180493e+00 2.5139298043e+00 
2800 5.0193425534e+00 1.7850970294e-02 1.4507906358e+00 -2.5128430924e+00 1.4507906358e+00 2.5128430924e+00 
2900 5.0192753472e+00 1.7500694032e-02 1.4501754641e+00 -2.5117775836e+00 1.4501754641e+00 2.5117775836e+00 
3000 5.0192114029e+00 1.7162555961e-02 1.4495721067e+00 -2.5107325381e+00 1.4495721067e+00 2.5107325381e+00 
3100 5.0191505757e+00 1.6835875027e-02 1.4489801601e+00 -2.5097072564e+00 1.4489801601e+00 2.5097072564e+00 
3200 5.0190927151e+00 1.6520001880e-02 1.4483992429e+00 -2.5087010783e+00 1.4483992429e+00 2.5087010783e+00 
3300 5.0190376673e+00 1.6214318896e-02 1.4478289955e+00 -2.5077133809e+00 1.4478289955e+00 2.5077133809e+00 
3400 5.0189852780e+00 1.5918239888e-02 1.4472690788e+00 -2.5067435767e+00 1.4472690788e+00 2.5067435767e+00 
3500 5.0189353940e+00 1.5631209557e-02 1.4467191731e+00 -2.5057911120e+00 1.4467191731e+00 2.5057911120e+00 
3600 5.0188878651e+00 1.5352702755e-02 1.4461789771e+00 -2.5048554652e+00 1.4461789771e+00 2.5048554652e+00 
3700 5.0188425449e+00 1.5082223607e-02 1.4456482073e+00 -2.5039361449e+00 1.4456482073e+00 2.5039361449e+00 
3800 5.0187992920e+00 1.4819304517e-02 1.4451265964e+00 -2.5030326884e+00 1.4451265964e+00 2.5030326884e+00 
3900 5.0187579707e+00 1.4563505116e-02 1.4446138930e+00 -2.5021446600e+00 1.4446138930e+00 2.5021446600e+00 
4000 5.0187184511e+00 1.4314411149e-02 1.4441098601e+00 -2.5012716494e+00 1.4441098601e+00 2.5012716494e+00 
4100 5.0186806098e+00 1.4071633342e-02 1.4436142748e+00 -2.5004132705e+00 1.4436142748e+00 2.5004132705e+00 
4200 5.0186443302e+00 1.3834806254e-02 1.4431269271e+00 -2.4995691596e+00 1.4431269271e+00 2.4995691596e+00 
4300 5.0186095019e+00 1.3603587140e-02 1.4426476193e+00 -2.4987389741e+00 1.4426476193e+00 2.4987389741e+00 
4400 5.0185760215e+00 1.3377654813e-02 1.4421761651e+00 -2.4979223914e+00 1.4421761651e+00 2.4979223914e+00 
4500 5.0185437921e+00 1.3156708546e-02 1.4417123890e+00 -2.4971191076e+00 1.4417123890e+00 2.4971191076e+00 
4600 5.0185127230e+00 1.2940466982e-02 1.4412561255e+00 -2.4963288361e+00 1.4412561255e+00 2.4963288361e+00 
4700 5.0184827301e+00 1.2728667090e-02 1.4408072186e+00 -2.4955513066e+00 1.4408072186e+00 2.4955513066e+00 
4800 5.0184537350e+00 1.2521063154e-02 1.4403655212e+00 -2.4947862642e+00 1.4403655212e+00 2.4947862642e+00 
4900 5.0184256654e+00 1.2317425795e-02 1.4399308943e+00 -2.4940334683e+00 1.4399308943e+00 2.4940334683e+00 
5000 5.0183984544e+00 1.2117541036e-02 1.4395032065e+00 -2.4932926914e+00 1.4395032065e+00 2.4932926914e+00 
5100 5.0183720405e+00 1.1921209410e-02 1.4390823339e+00 -2.4925637186e+00 1.4390823339e+00 2.4925637186e+00 
5200 5.0183463669e+00 1.1728245105e-02 1.4386681589e+00 -2.4918463465e+00 1.4386681589e+00 2.4918463465e+00 
5300 5.0183213820e+00 1.1538475148e-02 1.4382605705e+00 -2.4911403826e+00 1.4382605705e+00 2.4911403826e+00 
5400 5.0182970384e+00 1.1351738636e-02 1.4378594631e+00 -2.4904456442e+00 1.4378594631e+00 2.4904456442e+00 
5500 5.0182732927e+00 1.1167885997e-02 1.4374647368e+00 -2.4897619582e+00 1.4374647368e+00 2.4897619582e+00 
5600 5.0182501058e+00 1.0986778298e-02 1.4370762965e+00 -2.4890891600e+00 1.4370762965e+00 2.4890891600e+00 
5700 5.0182274421e+00 1.0808286584e-02 1.4366940520e+00 -2.4884270930e+00 1.4366940520e+00 2.4884270930e+00 
5800 5.0182052692e+00 1.0632291254e-02 1.4363179171e+00 -2.4877756083e+00 1.4363179171e+00 2.4877756083e+00 
5900 5.0181835580e+00 1.0458681474e-02 1.4359478099e+00 -2.4871345637e+00 1.4359478099e+00 2.4871345637e+00 
6000 5.0181622825e+00 1.0287354619e-02 1.4355836518e+00 -2.4865038234e+00 1.4355836518e+00 2.4865038234e+00 
6100 5.0181414190e+00 1.0118215750e-02 1.4352253680e+00 -2.4858832577e+00 1.4352253680e+00 2.4858832577e+00 
6200 5.0181209465e+00 9.9511771187e-03 1.4348728867e+00 -2.4852727422e+00 1.4348728867e+00 2.4852727422e+00 
6300 5.0181008463e+00 9.7861577025e-03 1.4345261391e+00 -2.4846721577e+00 1.4345261391e+00 2.4846721577e+00 
6400 5.0180811015e+00 9.6230827649e-03 1.4341850589e+00 -2.4840813894e+00 1.4341850589e+00 2.4840813894e+00 
6500 5.0180616974e+00 9.4618834428e-03 1.4338495824e+00 -2.4835003271e+00 1.4338495824e+00 2.4835003271e+00 
6600 5.0180426208e+00 9.3024963583e-03 1.4335196482e+00 -2.4829288643e+00 1.4335196482e+00 2.4829288643e+00 
6700 5.0180238601e+00 9.1448632533e-03 1.4331951969e+00 -2.4823668982e+00 1.4331951969e+00 2.4823668982e+00 
6800 5.0180054051e+00 8.9889306455e-03 1.4328761711e+00 -2.4818143294e+00 1.4328761711e+00 2.4818143294e+00 
6900 5.0179872468e+00 8.8346495056e-03 1.4325625152e+00 -2.4812710613e+00 1.4325625152e+00 2.4812710613e+00 
7000 5.0179693774e+00 8.6819749539e-03 1.4322541750e+00 -2.4807370004e+00 1.4322541750e+00 2.4807370004e+00 
7100 5.0179517900e+00 8.5308659747e-03 1.4319510979e+00 -2.4802120555e+00 1.4319510979e+00 2.4802120555e+00 
7200 5.0179344787e+00 8.3812851484e-03 1.4316532326e+00 -2.4796961377e+00 1.4316532326e+00 2.4796961377e+00 
7300 5.0179174381e+00 8.2331983998e-03 1.4313605291e+00 -2.4791891603e+00 1.4313605291e+00 2.4791891603e+00 
7400 5.0179006639e+00 8.0865747611e-03 1.4310729383e+00 -2.4786910384e+00 1.4310729383e+00 2.4786910384e+00 
7500 5.0178841521e+00 7.9413861504e-03 1.4307904122e+00 -2.4782016889e+00 1.4307904122e+00 2.4782016889e+00 
7600 5.0178678991e+00 7.7976071622e-03 1.4305129037e+00 -2.4777210301e+00 1.4305129037e+00 2.4777210301e+00 
7700 5.0178519021e+00 7.6552148719e-03 1.4302403665e+00 -2.4772489818e+00 1.4302403665e+00 2.4772489818e+00 
7800 5.0178361583e+00 7.5141886517e-03 1.4299727550e+00 -2.4767854651e+00 1.4299727550e+00 2.4767854651e+00 
7900 5.0178206655e+00 7.3745099973e-03 1.4297100242e+00 -2.4763304019e+00 1.4297100242e+00 2.4763304019e+00 
8000 5.0178054214e+00 7.2361623658e-03 1.4294521296e+00 -2.4758837155e+00 1.4294521296e+00 2.4758837155e+00 
8100 5.0177904243e+00 7.0991310234e-03 1.4291990274e+00 -2.4754453296e+00 1.4291990274e+00 2.4754453296e+00 
8200 5.0177756723e+00 6.9634029017e-03 1.4289506742e+00 -2.4750151691e+00 1.4289506742e+00 2.4750151691e+00 
8300 5.0177611638e+00 6.8289664635e-03 1.4287070267e+00 -2.4745931593e+00 1.4287070267e+00 2.4745931593e+00 
8400 5.0177468972e+00 6.6958115768e-03 1.4284680422e+00 -2.4741792261e+00 1.4284680422e+00 2.4741792261e+00 
8500 5.0177328710e+00 6.5639293955e-03 1.4282336782e+00 -2.4737732958e+00 1.4282336782e+00 2.4737732958e+00 
8600 5.0177190837e+00 6.4333122488e-03 1.4280038925e+00 -2.4733752953e+00 1.4280038925e+00 2.4733752953e+00 
8700 5.0177055337e+00 6.3039535364e-03 1.4277786430e+00 -2.4729851517e+00 1.4277786430e+00 2.4729851517e+00 
8800 5.0176922195e+00 6.1758476305e-03 1.4275578878e+00 -2.4726027925e+00 1.4275578878e+00 2.4726027925e+00 
8900 5.0176791394e+00 6.0489897833e-03 1.4273415852e+00 -2.4722281453e+00 1.4273415852e+00 2.4722281453e+00 
9000 5.0176662919e+00 5.9233760415e-03 1.4271296934e+00 -2.4718611379e+00 1.4271296934e+00 2.4718611379e+00 
9100 5.0176536751e+00 5.7990031644e-03 1.4269221708e+00 -2.4715016982e+00 1.4269221708e+00 2.4715016982e+00 
9200 5.0176412872e+00 5.6758685484e-03 1.4267189759e+00 -2.4711497544e+00 1.4267189759e+00 2.4711497544e+00 
9300 5.0176291264e+00 5.5539701555e-03 1.4265200672e+00 -2.4708052344e+00 1.4265200672e+00 2.4708052344e+00 
9400 5.0176171906e+00 5.4333064466e-03 1.4263254031e+00 -2.4704680664e+00 1.4263254031e+00 2.4704680664e+00 
9500 5.0176054776e+00 5.3138763192e-03 1.4261349422e+00 -2.4701381783e+00 1.4261349422e+00 2.4701381783e+00 
9600 5.0175939854e+00 5.1956790483e-03 1.4259486428e+00 -2.4698154984e+00 1.4259486428e+00 2.4698154984e+00 
9700 5.0175827115e+00 5.0787142318e-03 1.4257664635e+00 -2.4694999545e+00 1.4257664635e+00 2.4694999545e+00 
9800 5.0175716536e+00 4.9629817396e-03 1.4255883625e+00 -2.4691914745e+00 1.4255883625e+00 2.4691914745e+00 
9900 5.0175608091e+00 4.8484816650e-03 1.4254142982e+00 -2.4688899863e+00 1.4254142982e+00 2.4688899863e+00 
10000 5.0175501754e+00 4.7352142803e-03 1.4252442288e+00 -2.4685954175e+00 1.4252442288e+00 2.4685954175e+00 
10100 5.0175397498e+00 4.6231799953e-03 1.4250781127e+00 -2.4683076959e+00 1.4250781127e+00 2.4683076959e+00 
10200 5.0175295295e+00 4.5123793177e-03 1.4249159078e+00 -2.4680267488e+00 1.4249159078e+00 2.4680267488e+00 
10300 5.0175195116e+00 4.4028128176e-03 1.4247575723e+00 -2.4677525037e+00 1.4247575723e+00 2.4677525037e+00 
10400 5.0175096931e+00 4.2944810931e-03 1.4246030641e+00 -2.4674848877e+00 1.4246030641e+00 2.4674848877e+00 
10500 5.0175000710e+00 4.1873847396e-03 1.4244523413e+00 -2.4672238280e+00 1.4244523413e+00 2.4672238280e+00 
10600 5.0174906421e+00 4.0815243204e-03 1.4243053615e+00 -2.4669692516e+00 1.4243053615e+00 2.4669692516e+00 
10700 5.0174814034e+00 3.9769003398e-03 1.4241620827e+00 -2.4667210854e+00 1.4241620827e+00 2.4667210854e+00 
10800 5.0174723514e+00 3.8735132188e-03 1.4240224625e+00 -2.4664792562e+00 1.4240224625e+00 2.4664792562e+00 
10900 5.0174634831e+00 3.7713632715e-03 1.4238864586e+00 -2.4662436906e+00 1.4238864586e+00 2.4662436906e+00 
11000 5.0174547949e+00 3.6704506845e-03 1.4237540287e+00 -2.4660143151e+00 1.4237540287e+00 2.4660143151e+00 
11100 5.0174462836e+00 3.5707754977e-03 1.4236251302e+00 -2.4657910564e+00 1.4236251302e+00 2.4657910564e+00 
11200 5.0174379457e+00 3.4723375861e-03 1.4234997206e+00 -2.4655738407e+00 1.4234997206e+00 2.4655738407e+00 
11300 5.0174297779e+00 3.3751366446e-03 1.4233777576e+00 -2.4653625945e+00 1.4233777576e+00 2.4653625945e+00 
11400 5.0174217766e+00 3.2791721725e-03 1.4232591984e+00 -2.4651572440e+00 1.4232591984e+00 2.4651572440e+00 
11500 5.0174139385e+00 3.1844434611e-03 1.4231440005e+00 -2.4649577154e+00 1.4231440005e+00 2.4649577154e+00 
11600 5.0174062600e+00 3.0909495813e-03 1.4230321214e+00 -2.4647639351e+00 1.4230321214e+00 2.4647639351e+00 
11700 5.0173987377e+00 2.9986893736e-03 1.4229235185e+00 -2.4645758293e+00 1.4229235185e+00 2.4645758293e+00 
11800 5.0173913682e+00 2.9076614383e-03 1.4228181490e+00 -2.4643933241e+00 1.4228181490e+00 2.4643933241e+00 
11900 5.0173841480e+00 2.8178641274e-03 1.4227159706e+00 -2.4642163458e+00 1.4227159706e+00 2.4642163458e+00 
12000 5.0173770736e+00 2.7292955378e-03 1.4226169406e+00 -2.4640448208e+00 1.4226169406e+00 2.4640448208e+00 
12100 5.0173701418e+00 2.6419535046e-03 1.4225210165e+00 -2.4638786754e+00 1.4225210165e+00 2.4638786754e+00 
12200 5.0173633490e+00 2.5558355968e-03 1.4224281559e+00 -2.4637178361e+00 1.4224281559e+00 2.4637178361e+00 
12300 5.0173566920e+00 2.4709391123e-03 1.4223383162e+00 -2.4635622292e+00 1.4223383162e+00 2.4635622292e+00 
12400 5.0173501674e+00 2.3872610751e-03 1.4222514552e+00 -2.4634117816e+00 1.4222514552e+00 2.4634117816e+00 
12500 5.0173437720e+00 2.3047982328e-03 1.4221675306e+00 -2.4632664199e+00 1.4221675306e+00 2.4632664199e+00 
12600 5.0173375026e+00 2.2235470545e-03 1.4220865002e+00 -2.4631260712e+00 1.4220865002e+00 2.4631260712e+00 
12700 5.0173313559e+00 2.1435037300e-03 1.4220083219e+00 -2.4629906623e+00 1.4220083219e+00 2.4629906623e+00 
12800 5.0173253287e+00 2.0646641698e-03 1.4219329537e+00 -2.4628601207e+00 1.4219329537e+00 2.4628601207e+00 
12900 5.0173194181e+00 1.9870240051e-03 1.4218603537e+00 -2.4627343739e+00 1.4218603537e+00 2.4627343739e+00 
13000 5.0173136210e+00 1.9105785889e-03 1.4217904802e+00 -2.4626133494e+00 1.4217904802e+00 2.4626133494e+00 
13100 5.0173079344e+00 1.8353229975e-03 1.4217232915e+00 -2.4624969752e+00 1.4217232915e+00 2.4624969752e+00 
13200 5.0173023553e+00 1.7612520327e-03 1.4216587463e+00 -2.4623851796e+00 1.4216587463e+00 2.4623851796e+00 
13300 5.0172968810e+00 1.6883602244e-03 1.4215968032e+00 -2.4622778910e+00 1.4215968032e+00 2.4622778910e+00 
13400 5.0172915086e+00 1.6166418336e-03 1.4215374211e+00 -2.4621750382e+00 1.4215374211e+00 2.4621750382e+00 
13500 5.0172862354e+00 1.5460908559e-03 1.4214805590e+00 -2.4620765502e+00 1.4214805590e+00 2.4620765502e+00 
13600 5.0172810587e+00 1.4767010257e-03 1.4214261762e+00 -2.4619823565e+00 1.4214261762e+00 2.4619823565e+00 
13700 5.0172759758e+00 1.4084658199e-03 1.4213742322e+00 -2.4618923868e+00 1.4213742322e+00 2.4618923868e+00 
13800 5.0172709843e+00 1.3413784636e-03 1.4213246866e+00 -2.4618065712e+00 1.4213246866e+00 2.4618065712e+00 
13900 5.0172660816e+00 1.2754319341e-03 1.4212774992e+00 -2.4617248403e+00 1.4212774992e+00 2.4617248403e+00 
14000 5.0172612654e+00 1.2106189667e-03 1.4212326303e+00 -2.4616471250e+00 1.4212326303e+00 2.4616471250e+00 
14100 5.0172565332e+00 1.1469320604e-03 1.4211900400e+00 -2.4615733565e+00 1.4211900400e+00 2.4615733565e+00 
14200 5.0172518828e+00 1.0843634835e-03 1.4211496891e+00 -2.4615034667e+00 1.4211496891e+00 2.4615034667e+00 
14300 5.0172473120e+00 1.0229052797e-03 1.4211115383e+00 -2.4614373876e+00 1.4211115383e+00 2.4614373876e+00 
14400 5.0172428185e+00 9.6254927467e-04 1.4210755489e+00 -2.4613750520e+00 1.4210755489e+00 2.4613750520e+00 
14500 5.0172384004e+00 9.0328708213e-04 1.4210416821e+00 -2.4613163930e+00 1.4210416821e+00 2.4613163930e+00 
14600 5.0172340555e+00 8.4511011089e-04 1.4210098996e+00 -2.4612613442e+00 1.4210098996e+00 2.4612613442e+00 
14700 5.0172297819e+00 7.8800957144e-04 1.4209801635e+00 -2.4612098397e+00 1.4209801635e+00 2.4612098397e+00 
14800 5.0172255776e+00 7.3197648298e-04 1.4209524359e+00 -2.4611618141e+00 1.4209524359e+00 2.4611618141e+00 
14900 5.0172214409e+00 6.7700168044e-04 1.4209266794e+00 -2.4611172026e+00 1.4209266794e+00 2.4611172026e+00 
15000 5.0172173699e+00 6.2307582166e-04 1.4209028569e+00 -2.4610759408e+00 1.4209028569e+00 2.4610759408e+00 
15100 5.0172133629e+00 5.7018939464e-04 1.4208809317e+00 -2.4610379651e+00 1.4208809317e+00 2.4610379651e+00 
15200 5.0172094182e+00 5.1833272479e-04 1.4208608671e+00 -2.4610032122e+00 1.4208608671e+00 2.4610032122e+00 
15300 5.0172055342e+00 4.6749598236e-04 1.4208426270e+00 -2.4609716195e+00 1.4208426270e+00 2.4609716195e+00 
15400 5.0172017093e+00 4.1766918980e-04 1.4208261757e+00 -2.4609431250e+00 1.4208261757e+00 2.4609431250e+00 
15500 5.0171979421e+00 3.6884222915e-04 1.4208114776e+00 -2.4609176671e+00 1.4208114776e+00 2.4609176671e+00 
15600 5.0171942309e+00 3.2100484952e-04 1.4207984976e+00 -2.4608951852e+00 1.4207984976e+00 2.4608951852e+00 
15700 5.0171905746e+00 2.7414667449e-04 1.4207872010e+00 -2.4608756189e+00 1.4207872010e+00 2.4608756189e+00 
15800 5.0171869716e+00 2.2825720953e-04 1.4207775533e+00 -2.4608589086e+00 1.4207775533e+00 2.4608589086e+00 
15900 5.0171834207e+00 1.8332584941e-04 1.4207695205e+00 -2.4608449953e+00 1.4207695205e+00 2.4608449953e+00 
16000 5.0171799205e+00 1.3934188551e-04 1.4207630689e+00 -2.4608338208e+00 1.4207630689e+00 2.4608338208e+00 
16100 5.0171764700e+00 9.6294513175e-05 1.4207581651e+00 -2.4608253272e+00 1.4207581651e+00 2.4608253272e+00 
16200 5.0171730678e+00 5.4172838973e-05 1.4207547762e+00 -2.4608194575e+00 1.4207547762e+00 2.4608194575e+00 
16300 5.0171697129e+00 1.3850845531e-05 1.4207547762e+00 -2.4608194575e+00 1.4207547762e+00 2.4608194575e+00 
16400 5.0171664039e+00 -2.6237179166e-05 1.4207547762e+00 -2.4608194575e+00 1.4207547762e+00 2.4608194575e+00 
16500 5.0171631402e+00 -6.6090807804e-05 1.4207547762e+00 -2.4608194575e+00 1.4207547762e+00 2.4608194575e+00 
16600 5.0171599211e+00 -1.0570964783e-04 1.4207547762e+00 -2.4608194575e+00 1.4207547762e+00 2.4608194575e+00 
16700 5.0171567448e+00 -1.4336385457e-04 1.4207584964e+00 -2.4608259011e+00 1.4207584964e+00 2.4608259011e+00 
16800 5.0171536108e+00 -1.8015914376e-04 1.4207635418e+00 -2.4608346399e+00 1.4207635418e+00 2.4608346399e+00 
16900 5.0171505179e+00 -2.1610684172e-04 1.4207698820e+00 -2.4608456215e+00 1.4207698820e+00 2.4608456215e+00 
17000 5.0171474655e+00 -2.5121830766e-04 1.4207774873e+00 -2.4608587942e+00 1.4207774873e+00 2.4608587942e+00 
17100 5.0171444526e+00 -2.8550492728e-04 1.4207863282e+00 -2.4608741071e+00 1.4207863282e+00 2.4608741071e+00 
17200 5.0171414785e+00 -3.1897810652e-04 1.4207963756e+00 -2.4608915097e+00 1.4207963756e+00 2.4608915097e+00 
17300 5.0171385422e+00 -3.5164926539e-04 1.4208076009e+00 -2.4609109526e+00 1.4208076009e+00 2.4609109526e+00 
17400 5.0171356432e+00 -3.8352983196e-04 1.4208199759e+00 -2.4609323867e+00 1.4208199759e+00 2.4609323867e+00 
17500 5.0171327806e+00 -4.1463123645e-04 1.4208334727e+00 -2.4609557639e+00 1.4208334727e+00 2.4609557639e+00 
17600 5.0171299538e+00 -4.4496490549e-04 1.4208480639e+00 -2.4609810365e+00 1.4208480639e+00 2.4609810365e+00 
17700 5.0171271620e+00 -4.7454225644e-04 1.4208637223e+00 -2.4610081577e+00 1.4208637223e+00 2.4610081577e+00 
17800 5.0171244046e+00 -5.0337469193e-04 1.4208804215e+00 -2.4610370814e+00 1.4208804215e+00 2.4610370814e+00 
17900 5.0171216810e+00 -5.3147359451e-04 1.4208981350e+00 -2.4610677621e+00 1.4208981350e+00 2.4610677621e+00 
18000 5.0171189905e+00 -5.5885032143e-04 1.4209168370e+00 -2.4611001551e+00 1.4209168370e+00 2.4611001551e+00 
18100 5.0171163326e+00 -5.8551619955e-04 1.4209365022e+00 -2.4611342162e+00 1.4209365022e+00 2.4611342162e+00 
18200 5.0171137067e+00 -6.1148252046e-04 1.4209571054e+00 -2.4611699020e+00 1.4209571054e+00 2.4611699020e+00 
18300 5.0171111123e+00 -6.3676053565e-04 1.4209786221e+00 -2.4612071699e+00 1.4209786221e+00 2.4612071699e+00 
18400 5.0171085487e+00 -6.6136145196e-04 1.4210010278e+00 -2.4612459778e+00 1.4210010278e+00 2.4612459778e+00 
18500 5.0171060155e+00 -6.8529642700e-04 1.4210242989e+00 -2.4612862844e+00 1.4210242989e+00 2.4612862844e+00 
18600 5.0171035122e+00 -7.0857656492e-04 1.4210484117e+00 -2.4613280491e+00 1.4210484117e+00 2.4613280491e+00 
18700 5.0171010383e+00 -7.3121291215e-04 1.4210733432e+00 -2.4613712318e+00 1.4210733432e+00 2.4613712318e+00 
18800 5.0170985933e+00 -7.5321645341e-04 1.4210990708e+00 -2.4614157932e+00 1.4210990708e+00 2.4614157932e+00 
18900 5.0170961767e+00 -7.7459810781e-04 1.4211255721e+00 -2.4614616948e+00 1.4211255721e+00 2.4614616948e+00 
19000 5.0170937881e+00 -7.9536872511e-04 1.4211528252e+00 -2.4615088985e+00 1.4211528252e+00 2.4615088985e+00 
19100 5.0170914271e+00 -8.1553908217e-04 1.4211808085e+00 -2.4615573670e+00 1.4211808085e+00 2.4615573670e+00 
19200 5.0170890933e+00 -8.3511987943e-04 1.4212095009e+00 -2.4616070637e+00 1.4212095009e+00 2.4616070637e+00 
19300 5.0170867862e+00 -8.5412173771e-04 1.4212388816e+00 -2.4616579526e+00 1.4212388816e+00 2.4616579526e+00 
19400 5.0170845055e+00 -8.7255519499e-04 1.4212689302e+00 -2.4617099983e+00 1.4212689302e+00 2.4617099983e+00 
19500 5.0170822507e+00 -8.9043070344e-04 1.4212996266e+00 -2.4617631661e+00 1.4212996266e+00 2.4617631661e+00 
19600 5.0170800215e+00 -9.0775862655e-04 1.4213309513e+00 -2.4618174220e+00 1.4213309513e+00 2.4618174220e+00 
19700 5.0170778175e+00 -9.2454923638e-04 1.4213628848e+00 -2.4618727324e+00 1.4213628848e+00 2.4618727324e+00 
19800 5.0170756384e+00 -9.4081271103e-04 1.4213954082e+00 -2.4619290647e+00 1.4213954082e+00 2.4619290647e+00 
19900 5.0170734837e+00 -9.5655913214e-04 1.4214285031e+00 -2.4619863866e+00 1.4214285031e+00 2.4619863866e+00 
20000 5.0170713533e+00 -9.7179848261e-04 1.4214621510e+00 -2.4620446666e+00 1.4214621510e+00 2.4620446666e+00 
20100 5.0170692467e+00 -9.8654064442e-04 1.4214963342e+00 -2.4621038736e+00 1.4214963342e+00 2.4621038736e+00 
20200 5.0170671635e+00 -1.0007953966e-03 1.4215310351e+00 -2.4621639774e+00 1.4215310351e+00 2.4621639774e+00 
20300 5.0170651036e+00 -1.0145724132e-03 1.4215662366e+00 -2.4622249481e+00 1.4215662366e+00 2.4622249481e+00 
20400 5.0170630665e+00 -1.0278812617e-03 1.4216019218e+00 -2.4622867566e+00 1.4216019218e+00 2.4622867566e+00 
20500 5.0170610520e+00 -1.0407314012e-03 1.4216380741e+00 -2.4623493744e+00 1.4216380741e+00 2.4623493744e+00 
20600 5.0170590598e+00 -1.0531321809e-03 1.4216746775e+00 -2.4624127733e+00 1.4216746775e+00 2.4624127733e+00 
20700 5.0170570896e+00 -1.0650928387e-03 1.4217117161e+00 -2.4624769261e+00 1.4217117161e+00 2.4624769261e+00 
20800 5.0170551411e+00 -1.0766224999e-03 1.4217491744e+00 -2.4625418057e+00 1.4217491744e+00 2.4625418057e+00 
20900 5.0170532139e+00 -1.0877301760e-03 1.4217870372e+00 -2.4626073859e+00 1.4217870372e+00 2.4626073859e+00 
21000 5.0170513079e+00 -1.0984247636e-03 1.4218252896e+00 -2.4626736410e+00 1.4218252896e+00 2.4626736410e+00 
21100 5.0170494228e+00 -1.1087150433e-03 1.4218639170e+00 -2.4627405457e+00 1.4218639170e+00 2.4627405457e+00 
21200 5.0170475583e+00 -1.1186096794e-03 1.4219029053e+00 -2.4628080754e+00 1.4219029053e+00 2.4628080754e+00 
21300 5.0170457142e+00 -1.1281172182e-03 1.4219422404e+00 -2.4628762058e+00 1.4219422404e+00 2.4628762058e+00 
21400 5.0170438901e+00 -1.1372460882e-03 1.4219819088e+00 -2.4629449135e+00 1.4219819088e+00 2.4629449135e+00 
21500 5.0170420858e+00 -1.1460045992e-03 1.4220218970e+00 -2.4630141751e+00 1.4220218970e+00 2.4630141751e+00 
21600 5.0170403012e+00 -1.1544009417e-03 1.4220621921e+00 -2.4630839683e+00 1.4220621921e+00 2.4630839683e+00 
21700 5.0170385359e+00 -1.1624431867e-03 1.4221027813e+00 -2.4631542708e+00 1.4221027813e+00 2.4631542708e+00 
21800 5.0170367897e+00 -1.1701392856e-03 1.4221436521e+00 -2.4632250610e+00 1.4221436521e+00 2.4632250610e+00 
21900 5.0170350624e+00 -1.1774970695e-03 1.4221847923e+00 -2.4632963179e+00 1.4221847923e+00 2.4632963179e+00 
22000 5.0170333537e+00 -1.1845242498e-03 1.4222261899e+00 -2.4633680208e+00 1.4222261899e+00 2.4633680208e+00 
22100 5.0170316635e+00 -1.1912284173e-03 1.4222678334e+00 -2.4634401495e+00 1.4222678334e+00 2.4634401495e+00 
22200 5.0170299915e+00 -1.1976170431e-03 1.4223097114e+00 -2.4635126843e+00 1.4223097114e+00 2.4635126843e+00 
22300 5.0170283374e+00 -1.2036974782e-03 1.4223518128e+00 -2.4635856060e+00 1.4223518128e+00 2.4635856060e+00 
22400 5.0170267011e+00 -1.2094769540e-03 1.4223941266e+00 -2.4636588957e+00 1.4223941266e+00 2.4636588957e+00 
22500 5.0170250823e+00 -1.2149625823e-03 1.4224366424e+00 -2.4637325351e+00 1.4224366424e+00 2.4637325351e+00 
22600 5.0170234809e+00 -1.2201613560e-03 1.4224793497e+00 -2.4638065063e+00 1.4224793497e+00 2.4638065063e+00 
22700 5.0170218966e+00 -1.2250801491e-03 1.4225222384e+00 -2.4638807918e+00 1.4225222384e+00 2.4638807918e+00 
22800 5.0170203293e+00 -1.2297257176e-03 1.4225652988e+00 -2.4639553746e+00 1.4225652988e+00 2.4639553746e+00 
22900 5.0170187786e+00 -1.2341046996e-03 1.4226085211e+00 -2.4640302379e+00 1.4226085211e+00 2.4640302379e+00 
23000 5.0170172445e+00 -1.2382236164e-03 1.4226518960e+00 -2.4641053654e+00 1.4226518960e+00 2.4641053654e+00 
23100 5.0170157268e+00 -1.2420888727e-03 1.4226954144e+00 -2.4641807415e+00 1.4226954144e+00 2.4641807415e+00 
23200 5.0170142251e+00 -1.2457067575e-03 1.4227390673e+00 -2.4642563505e+00 1.4227390673e+00 2.4642563505e+00 
23300 5.0170127395e+00 -1.2490834449e-03 1.4227828460e+00 -2.4643321774e+00 1.4227828460e+00 2.4643321774e+00 
23400 5.0170112696e+00 -1.2522249949e-03 1.4228267420e+00 -2.4644082075e+00 1.4228267420e+00 2.4644082075e+00 
23500 5.0170098153e+00 -1.2551373540e-03 1.4228707471e+00 -2.4644844265e+00 1.4228707471e+00 2.4644844265e+00 
23600 5.0170083764e+00 -1.2578263567e-03 1.4229148531e+00 -2.4645608204e+00 1.4229148531e+00 2.4645608204e+00 
23700 5.0170069527e+00 -1.2602977256e-03 1.4229590523e+00 -2.4646373756e+00 1.4229590523e+00 2.4646373756e+00 
23800 5.0170055440e+00 -1.2625570731e-03 1.4230033369e+00 -2.4647140789e+00 1.4230033369e+00 2.4647140789e+00 
23900 5.0170041503e+00 -1.2646099020e-03 1.4230476995e+00 -2.4647909172e+00 1.4230476995e+00 2.4647909172e+00 
24000 5.0170027712e+00 -1.2664616068e-03 1.4230921329e+00 -2.4648678781e+00 1.4230921329e+00 2.4648678781e+00 
24100 5.0170014067e+00 -1.2681174746e-03 1.4231366300e+00 -2.4649449492e+00 1.4231366300e+00 2.4649449492e+00 
24200 5.0170000565e+00 -1.2695826862e-03 1.4231811838e+00 -2.4650221188e+00 1.4231811838e+00 2.4650221188e+00 
24300 5.0169987206e+00 -1.2708623177e-03 1.4232257877e+00 -2.4650993750e+00 1.4232257877e+00 2.4650993750e+00 
24400 5.0169973987e+00 -1.2719613407e-03 1.4232704352e+00 -2.4651767067e+00 1.4232704352e+00 2.4651767067e+00 
24500 5.0169960906e+00 -1.2728846247e-03 1.4233151199e+00 -2.4652541029e+00 1.4233151199e+00 2.4652541029e+00 
24600 5.0169947963e+00 -1.2736369373e-03 1.4233598356e+00 -2.4653315528e+00 1.4233598356e+00 2.4653315528e+00 
24700 5.0169935156e+00 -1.2742229461e-03 1.4234045764e+00 -2.4654090460e+00 1.4234045764e+00 2.4654090460e+00 
24800 5.0169922483e+00 -1.2746472196e-03 1.4234493363e+00 -2.4654865725e+00 1.4234493363e+00 2.4654865725e+00 
24900 5.0169909942e+00 -1.2749142286e-03 1.4234941097e+00 -2.4655641223e+00 1.4234941097e+00 2.4655641223e+00 
25000 5.0169897533e+00 -1.2750283476e-03 1.4235388911e+00 -2.4656416860e+00 1.4235388911e+00 2.4656416860e+00 
25100 5.0169885253e+00 -1.2749938559e-03 1.4235836751e+00 -2.4657192541e+00 1.4235836751e+00 2.4657192541e+00 
25200 5.0169873101e+00 -1.2748149390e-03 1.4236284565e+00 -2.4657968177e+00 1.4236284565e+00 2.4657968177e+00 
25300 5.0169861077e+00 -1.2744956902e-03 1.4236732302e+00 -2.4658743680e+00 1.4236732302e+00 2.4658743680e+00 
25400 5.0169849177e+00 -1.2740401113e-03 1.4237179912e+00 -2.4659518964e+00 1.4237179912e+00 2.4659518964e+00 
25500 5.0169837402e+00 -1.2734521148e-03 1.4237627349e+00 -2.4660293947e+00 1.4237627349e+00 2.4660293947e+00 
25600 5.0169825749e+00 -1.2727355246e-03 1.4238074565e+00 -2.4661068548e+00 1.4238074565e+00 2.4661068548e+00 
25700 5.0169814217e+00 -1.2718940774e-03 1.4238521515e+00 -2.4661842688e+00 1.4238521515e+00 2.4661842688e+00 
25800 5.0169802805e+00 -1.2709314248e-03 1.4238968156e+00 -2.4662616293e+00 1.4238968156e+00 2.4662616293e+00 
25900 5.0169791512e+00 -1.2698511335e-03 1.4239414444e+00 -2.4663389287e+00 1.4239414444e+00 2.4663389287e+00 
26000 5.0169780336e+00 -1.2686566878e-03 1.4239860340e+00 -2.4664161601e+00 1.4239860340e+00 2.4664161601e+00 
26100 5.0169769276e+00 -1.2673514903e-03 1.4240305802e+00 -2.4664933164e+00 1.4240305802e+00 2.4664933164e+00 
26200 5.0169758331e+00 -1.2659388635e-03 1.4240750791e+00 -2.4665703909e+00 1.4240750791e+00 2.4665703909e+00 
26300 5.0169747499e+00 -1.2644220511e-03 1.4241195271e+00 -2.4666473770e+00 1.4241195271e+00 2.4666473770e+00 
26400 5.0169736779e+00 -1.2628042194e-03 1.4241639205e+00 -2.4667242686e+00 1.4241639205e+00 2.4667242686e+00 
26500 5.0169726170e+00 -1.2610884589e-03 1.4242082556e+00 -2.4668010593e+00 1.4242082556e+00 2.4668010593e+00 
26600 5.0169715671e+00 -1.2592777853e-03 1.4242525292e+00 -2.4668777433e+00 1.4242525292e+00 2.4668777433e+00 
26700 5.0169705281e+00 -1.2573751409e-03 1.4242967378e+00 -2.4669543149e+00 1.4242967378e+00 2.4669543149e+00 
26800 5.0169694998e+00 -1.2553833964e-03 1.4243408782e+00 -2.4670307684e+00 1.4243408782e+00 2.4670307684e+00 
26900 5.0169684821e+00 -1.2533053518e-03 1.4243849474e+00 -2.4671070984e+00 1.4243849474e+00 2.4671070984e+00 
27000 5.0169674749e+00 -1.2511437376e-03 1.4244289422e+00 -2.4671832997e+00 1.4244289422e+00 2.4671832997e+00 
27100 5.0169664781e+00 -1.2489012169e-03 1.4244728598e+00 -2.4672593672e+00 1.4244728598e+00 2.4672593672e+00 
27200 5.0169654916e+00 -1.2465803858e-03 1.4245166974e+00 -2.4673352961e+00 1.4245166974e+00 2.4673352961e+00 
27300 5.0169645153e+00 -1.2441837756e-03 1.4245604521e+00 -2.4674110815e+00 1.4245604521e+00 2.4674110815e+00 
27400 5.0169635490e+00 -1.2417138531e-03 1.4246041213e+00 -2.4674867188e+00 1.4246041213e+00 2.4674867188e+00 
27500 5.0169625927e+00 -1.2391730230e-03 1.4246477026e+00 -2.4675622038e+00 1.4246477026e+00 2.4675622038e+00 
27600 5.0169616463e+00 -1.2365636282e-03 1.4246911933e+00 -2.4676375319e+00 1.4246911933e+00 2.4676375319e+00 
27700 5.0169607095e+00 -1.2338879519e-03 1.4247345911e+00 -2.4677126991e+00 1.4247345911e+00 2.4677126991e+00 
27800 5.0169597825e+00 -1.2311482181e-03 1.4247778937e+00 -2.4677877014e+00 1.4247778937e+00 2.4677877014e+00 
27900 5.0169588649e+00 -1.2283465935e-03 1.4248210989e+00 -2.4678625349e+00 1.4248210989e+00 2.4678625349e+00 
28000 5.0169579568e+00 -1.2254851883e-03 1.4248642044e+00 -2.4679371959e+00 1.4248642044e+00 2.4679371959e+00 
28100 5.0169570580e+00 -1.2225660576e-03 1.4249072082e+00 -2.4680116806e+00 1.4249072082e+00 2.4680116806e+00 
28200 5.0169561685e+00 -1.2195912025e-03 1.4249501082e+00 -2.4680859857e+00 1.4249501082e+00 2.4680859857e+00 
28300 5.0169552881e+00 -1.2165625715e-03 1.4249929026e+00 -2.4681601078e+00 1.4249929026e+00 2.4681601078e+00 
28400 5.0169544167e+00 -1.2134820614e-03 1.4250355895e+00 -2.4682340435e+00 1.4250355895e+00 2.4682340435e+00 
28500 5.0169535543e+00 -1.2103515187e-03 1.4250781669e+00 -2.4683077899e+00 1.4250781669e+00 2.4683077899e+00 
28600 5.0169527008e+00 -1.2071727405e-03 1.4251206333e+00 -2.4683813437e+00 1.4251206333e+00 2.4683813437e+00 
28700 5.0169518560e+00 -1.2039474760e-03 1.4251629868e+00 -2.4684547023e+00 1.4251629868e+00 2.4684547023e+00 
28800 5.0169510198e+00 -1.2006774271e-03 1.4252052260e+00 -2.4685278626e+00 1.4252052260e+00 2.4685278626e+00 
28900 5.0169501923e+00 -1.1973642499e-03 1.4252473492e+00 -2.4686008221e+00 1.4252473492e+00 2.4686008221e+00 
29000 5.0169493732e+00 -1.1940095558e-03 1.4252893549e+00 -2.4686735781e+00 1.4252893549e+00 2.4686735781e+00 
29100 5.0169485626e+00 -1.1906149121e-03 1.4253312416e+00 -2.4687461281e+00 1.4253312416e+00 2.4687461281e+00 
29200 5.0169477602e+00 -1.1871818437e-03 1.4253730081e+00 -2.4688184697e+00 1.4253730081e+00 2.4688184697e+00 
29300 5.0169469661e+00 -1.1837118336e-03 1.4254146529e+00 -2.4688906007e+00 1.4254146529e+00 2.4688906007e+00 
29400 5.0169461801e+00 -1.1802063241e-03 1.4254561748e+00 -2.4689625186e+00 1.4254561748e+00 2.4689625186e+00 
29500 5.0169454021e+00 -1.1766667178e-03 1.4254975725e+00 -2.4690342216e+00 1.4254975725e+00 2.4690342216e+00 
29600 5.0169446322e+00 -1.1730943788e-03 1.4255388448e+00 -2.4691057073e+00 1.4255388448e+00 2.4691057073e+00 
29700 5.0169438701e+00 -1.1694906332e-03 1.4255799906e+00 -2.4691769740e+00 1.4255799906e+00 2.4691769740e+00 
29800 5.0169431158e+00 -1.1658567703e-03 1.4256210089e+00 -2.4692480198e+00 1.4256210089e+00 2.4692480198e+00 
29900 5.0169423693e+00 -1.1621940437e-03 1.4256618985e+00 -2.4693188427e+00 1.4256618985e+00 2.4693188427e+00 
30000 5.0169416303e+00 -1.1585036718e-03 1.4257026585e+00 -2.4693894411e+00 1.4257026585e+00 2.4693894411e+00 
30100 5.0169408990e+00 -1.1547868392e-03 1.4257432879e+00 -2.4694598133e+00 1.4257432879e+00 2.4694598133e+00 
30200 5.0169401752e+00 -1.1510446970e-03 1.4257837858e+00 -2.4695299577e+00 1.4257837858e+00 2.4695299577e+00 
30300 5.0169394587e+00 -1.1472783641e-03 1.4258241514e+00 -2.4695998728e+00 1.4258241514e+00 2.4695998728e+00 
30400 5.0169387496e+00 -1.1434889280e-03 1.4258643837e+00 -2.4696695572e+00 1.4258643837e+00 2.4696695572e+00 
30500 5.0169380478e+00 -1.1396774453e-03 1.4259044820e+00 -2.4697390095e+00 1.4259044820e+00 2.4697390095e+00 
30600 5.0169373531e+00 -1.1358449430e-03 1.4259444455e+00 -2.4698082283e+00 1.4259444455e+00 2.4698082283e+00 
30700 5.0169366655e+00 -1.1319924188e-03 1.4259842735e+00 -2.4698772124e+00 1.4259842735e+00 2.4698772124e+00 
30800 5.0169359850e+00 -1.1281208422e-03 1.4260239653e+00 -2.4699459606e+00 1.4260239653e+00 2.4699459606e+00 
30900 5.0169353115e+00 -1.1242311551e-03 1.4260635202e+00 -2.4700144718e+00 1.4260635202e+00 2.4700144718e+00 
31000 5.0169346448e+00 -1.1203242728e-03 1.4261029377e+00 -2.4700827449e+00 1.4261029377e+00 2.4700827449e+00 
31100 5.0169339850e+00 -1.1164010843e-03 1.4261422171e+00 -2.4701507788e+00 1.4261422171e+00 2.4701507788e+00 
31200 5.0169333319e+00 -1.1124624533e-03 1.4261813578e+00 -2.4702185726e+00 1.4261813578e+00 2.4702185726e+00 
31300 5.0169326855e+00 -1.1085092190e-03 1.4262203595e+00 -2.4702861254e+00 1.4262203595e+00 2.4702861254e+00 
31400 5.0169320457e+00 -1.1045421964e-03 1.4262592214e+00 -2.4703534363e+00 1.4262592214e+00 2.4703534363e+00 
31500 5.0169314125e+00 -1.1005621773e-03 1.4262979432e+00 -2.4704205044e+00 1.4262979432e+00 2.4704205044e+00 
31600 5.0169307857e+00 -1.0965699307e-03 1.4263365245e+00 -2.4704873291e+00 1.4263365245e+00 2.4704873291e+00 
31700 5.0169301654e+00 -1.0925662039e-03 1.4263749648e+00 -2.4705539096e+00 1.4263749648e+00 2.4705539096e+00 
31800 5.0169295514e+00 -1.0885517224e-03 1.4264132636e+00 -2.4706202452e+00 1.4264132636e+00 2.4706202452e+00 
31900 5.0169289436e+00 -1.0845271910e-03 1.4264514207e+00 -2.4706863353e+00 1.4264514207e+00 2.4706863353e+00 
32000 5.0169283422e+00 -1.0804932943e-03 1.4264894358e+00 -2.4707521792e+00 1.4264894358e+00 2.4707521792e+00 
32100 5.0169277468e+00 -1.0764506973e-03 1.4265273084e+00 -2.4708177766e+00 1.4265273084e+00 2.4708177766e+00 
32200 5.0169271576e+00 -1.0724000459e-03 1.4265650383e+00 -2.4708831267e+00 1.4265650383e+00 2.4708831267e+00 
32300 5.0169265744e+00 -1.0683419672e-03 1.4266026253e+00 -2.4709482292e+00 1.4266026253e+00 2.4709482292e+00 
32400 5.0169259971e+00 -1.0642770707e-03 1.4266400690e+00 -2.4710130837e+00 1.4266400690e+00 2.4710130837e+00 
32500 5.0169254258e+00 -1.0602059481e-03 1.4266773693e+00 -2.4710776897e+00 1.4266773693e+00 2.4710776897e+00 
32600 5.0169248603e+00 -1.0561291742e-03 1.4267145260e+00 -2.4711420468e+00 1.4267145260e+00 2.4711420468e+00 
32700 5.0169243006e+00 -1.0520473073e-03 1.4267515387e+00 -2.4712061549e+00 1.4267515387e+00 2.4712061549e+00 
32800 5.0169237467e+00 -1.0479608896e-03 1.4267884075e+00 -2.4712700135e+00 1.4267884075e+00 2.4712700135e+00 
32900 5.0169231984e+00 -1.0438704479e-03 1.4268251322e+00 -2.4713336224e+00 1.4268251322e+00 2.4713336224e+00 
33000 5.0169226557e+00 -1.0397764937e-03 1.4268617125e+00 -2.4713969814e+00 1.4268617125e+00 2.4713969814e+00 
33100 5.0169221186e+00 -1.0356795240e-03 1.4268981484e+00 -2.4714600903e+00 1.4268981484e+00 2.4714600903e+00 
33200 5.0169215870e+00 -1.0315800215e-03 1.4269344399e+00 -2.4715229489e+00 1.4269344399e+00 2.4715229489e+00 
33300 5.0169210608e+00 -1.0274784551e-03 1.4269705867e+00 -2.4715855572e+00 1.4269705867e+00 2.4715855572e+00 
33400 5.0169205400e+00 -1.0233752802e-03 1.4270065890e+00 -2.4716479149e+00 1.4270065890e+00 2.4716479149e+00 
33500 5.0169200246e+00 -1.0192709394e-03 1.4270424466e+00 -2.4717100220e+00 1.4270424466e+00 2.4717100220e+00 
33600 5.0169195144e+00 -1.0151658625e-03 1.4270781594e+00 -2.4717718785e+00 1.4270781594e+00 2.4717718785e+00 
33700 5.0169190095e+00 -1.0110604670e-03 1.4271137275e+00 -2.4718334843e+00 1.4271137275e+00 2.4718334843e+00 
33800 5.0169185097e+00 -1.0069551587e-03 1.4271491509e+00 -2.4718948394e+00 1.4271491509e+00 2.4718948394e+00 
33900 5.0169180150e+00 -1.0028503316e-03 1.4271844296e+00 -2.4719559439e+00 1.4271844296e+00 2.4719559439e+00 
34000 5.0169175255e+00 -9.9874636878e-04 1.4272195637e+00 -2.4720167978e+00 1.4272195637e+00 2.4720167978e+00 
34100 5.0169170409e+00 -9.9464364215e-04 1.4272545530e+00 -2.4720774012e+00 1.4272545530e+00 2.4720774012e+00 
34200 5.0169165613e+00 -9.9054251329e-04 1.4272893978e+00 -2.4721377541e+00 1.4272893978e+00 2.4721377541e+00 
34300 5.0169160867e+00 -9.8644333343e-04 1.4273240981e+00 -2.4721978568e+00 1.4273240981e+00 2.4721978568e+00 
34400 5.0169156169e+00 -9.8234644392e-04 1.4273586539e+00 -2.4722577092e+00 1.4273586539e+00 2.4722577092e+00 
34500 5.0169151519e+00 -9.7825217643e-04 1.4273930654e+00 -2.4723173116e+00 1.4273930654e+00 2.4723173116e+00 
34600 5.0169146916e+00 -9.7416085328e-04 1.4274273326e+00 -2.4723766642e+00 1.4274273326e+00 2.4723766642e+00 
34700 5.0169142362e+00 -9.7007278771e-04 1.4274614557e+00 -2.4724357672e+00 1.4274614557e+00 2.4724357672e+00 
34800 5.0169137853e+00 -9.6598828415e-04 1.4274954348e+00 -2.4724946207e+00 1.4274954348e+00 2.4724946207e+00 
34900 5.0169133391e+00 -9.6190763845e-04 1.4275292700e+00 -2.4725532250e+00 1.4275292700e+00 2.4725532250e+00 
35000 5.0169128975e+00 -9.5783113817e-04 1.4275629615e+00 -2.4726115803e+00 1.4275629615e+00 2.4726115803e+00 
35100 5.0169124604e+00 -9.5375906281e-04 1.4275965094e+00 -2.4726696870e+00 1.4275965094e+00 2.4726696870e+00 
35200 5.0169120278e+00 -9.4969168402e-04 1.4276299139e+00 -2.4727275453e+00 1.4276299139e+00 2.4727275453e+00 
35300 5.0169115996e+00 -9.4562926589e-04 1.4276631752e+00 -2.4727851555e+00 1.4276631752e+00 2.4727851555e+00 
35400 5.0169111759e+00 -9.4157206509e-04 1.4276962934e+00 -2.4728425179e+00 1.4276962934e+00 2.4728425179e+00 
35500 5.0169107565e+00 -9.3752033115e-04 1.4277292687e+00 -2.4728996329e+00 1.4277292687e+00 2.4728996329e+00 
35600 5.0169103413e+00 -9.3347430663e-04 1.4277621014e+00 -2.4729565007e+00 1.4277621014e+00 2.4729565007e+00 
35700 5.0169099305e+00 -9.2943422733e-04 1.4277947916e+00 -2.4730131219e+00 1.4277947916e+00 2.4730131219e+00 
35800 5.0169095239e+00 -9.2540032251e-04 1.4278273397e+00 -2.4730694967e+00 1.4278273397e+00 2.4730694967e+00 
35900 5.0169091214e+00 -9.2137281501e-04 1.4278597457e+00 -2.4731256256e+00 1.4278597457e+00 2.4731256256e+00 
36000 5.0169087231e+00 -9.1735192152e-04 1.4278920099e+00 -2.4731815089e+00 1.4278920099e+00 2.4731815089e+00 
36100 5.0169083289e+00 -9.1333785267e-04 1.4279241326e+00 -2.4732371471e+00 1.4279241326e+00 2.4732371471e+00 
36200 5.0169079387e+00 -9.0933081327e-04 1.4279561141e+00 -2.4732925405e+00 1.4279561141e+00 2.4732925405e+00 
36300 5.0169075525e+00 -9.0533100243e-04 1.4279879545e+00 -2.4733476898e+00 1.4279879545e+00 2.4733476898e+00 
36400 5.0169071703e+00 -9.0133861373e-04 1.4280196541e+00 -2.4734025952e+00 1.4280196541e+00 2.4734025952e+00 
36500 5.0169067921e+00 -8.9735383537e-04 1.4280512133e+00 -2.4734572572e+00 1.4280512133e+00 2.4734572572e+00 
36600 5.0169064177e+00 -8.9337685033e-04 1.4280826322e+00 -2.4735116764e+00 1.4280826322e+00 2.4735116764e+00 
36700 5.0169060471e+00 -8.8940783651e-04 1.4281139112e+00 -2.4735658533e+00 1.4281139112e+00 2.4735658533e+00 
36800 5.0169056804e+00 -8.8544696685e-04 1.4281450506e+00 -2.4736197882e+00 1.4281450506e+00 2.4736197882e+00 
36900 5.0169053175e+00 -8.8149440950e-04 1.4281760506e+00 -2.4736734818e+00 1.4281760506e+00 2.4736734818e+00 
37000 5.0169049583e+00 -8.7755032790e-04 1.4282069116e+00 -2.4737269345e+00 1.4282069116e+00 2.4737269345e+00 
37100 5.0169046027e+00 -8.7361488094e-04 1.4282376338e+00 -2.4737801470e+00 1.4282376338e+00 2.4737801470e+00 
37200 5.0169042509e+00 -8.6968822309e-04 1.4282682175e+00 -2.4738331196e+00 1.4282682175e+00 2.4738331196e+00 
37300 5.0169039026e+00 -8.6577050448e-04 1.4282986632e+00 -2.4738858531e+00 1.4282986632e+00 2.4738858531e+00 
37400 5.0169035580e+00 -8.6186187103e-04 1.4283289711e+00 -2.4739383478e+00 1.4283289711e+00 2.4739383478e+00 
37500 5.0169032169e+00 -8.5796246457e-04 1.4283591415e+00 -2.4739906045e+00 1.4283591415e+00 2.4739906045e+00 
37600 5.0169028793e+00 -8.5407242292e-04 1.4283891747e+00 -2.4740426236e+00 1.4283891747e+00 2.4740426236e+00 
37700 5.0169025452e+00 -8.5019188002e-04 1.4284190712e+00 -2.4740944058e+00 1.4284190712e+00 2.4740944058e+00 
37800 5.0169022145e+00 -8.4632096601e-04 1.4284488312e+00 -2.4741459516e+00 1.4284488312e+00 2.4741459516e+00 
37900 5.0169018872e+00 -8.4245980731e-04 1.4284784550e+00 -2.4741972616e+00 1.4284784550e+00 2.4741972616e+00 
38000 5.0169015633e+00 -8.3860852677e-04 1.4285079431e+00 -2.4742483366e+00 1.4285079431e+00 2.4742483366e+00 
38100 5.0169012427e+00 -8.3476724367e-04 1.4285372959e+00 -2.4742991769e+00 1.4285372959e+00 2.4742991769e+00 
38200 5.0169009255e+00 -8.3093607389e-04 1.4285665135e+00 -2.4743497834e+00 1.4285665135e+00 2.4743497834e+00 
38300 5.0169006115e+00 -8.2711512993e-04 1.4285955965e+00 -2.4744001565e+00 1.4285955965e+00 2.4744001565e+00 
38400 5.0169003007e+00 -8.2330452104e-04 1.4286245451e+00 -2.4744502971e+00 1.4286245451e+00 2.4744502971e+00 
38500 5.0168999932e+00 -8.1950435325e-04 1.4286533598e+00 -2.4745002056e+00 1.4286533598e+00 2.4745002056e+00 
38600 5.0168996888e+00 -8.1571472947e-04 1.4286820409e+00 -2.4745498827e+00 1.4286820409e+00 2.4745498827e+00 
38700 5.0168993875e+00 -8.1193574957e-04 1.4287105888e+00 -2.4745993291e+00 1.4287105888e+00 2.4745993291e+00 
38800 5.0168990894e+00 -8.0816751044e-04 1.4287390039e+00 -2.4746485455e+00 1.4287390039e+00 2.4746485455e+00 
38900 5.0168987943e+00 -8.0441010602e-04 1.4287672865e+00 -2.4746975324e+00 1.4287672865e+00 2.4746975324e+00 
39000 5.0168985023e+00 -8.0066362745e-04 1.4287954371e+00 -2.4747462907e+00 1.4287954371e+00 2.4747462907e+00 
39100 5.0168982133e+00 -7.9692816305e-04 1.4288234560e+00 -2.4747948209e+00 1.4288234560e+00 2.4747948209e+00 
39200 5.0168979273e+00 -7.9320379843e-04 1.4288513437e+00 -2.4748431237e+00 1.4288513437e+00 2.4748431237e+00 
39300 5.0168976442e+00 -7.8949061651e-04 1.4288791005e+00 -2.4748911999e+00 1.4288791005e+00 2.4748911999e+00 
39400 5.0168973640e+00 -7.8578869762e-04 1.4289067268e+00 -2.4749390500e+00 1.4289067268e+00 2.4749390500e+00 
39500 5.0168970868e+00 -7.8209811954e-04 1.4289342230e+00 -2.4749866749e+00 1.4289342230e+00 2.4749866749e+00 
39600 5.0168968124e+00 -7.7841895752e-04 1.4289615896e+00 -2.4750340752e+00 1.4289615896e+00 2.4750340752e+00 
39700 5.0168965408e+00 -7.7475128439e-04 1.4289888269e+00 -2.4750812516e+00 1.4289888269e+00 2.4750812516e+00 
39800 5.0168962721e+00 -7.7109517056e-04 1.4290159354e+00 -2.4751282049e+00 1.4290159354e+00 2.4751282049e+00 
39900 5.0168960061e+00 -7.6745068409e-04 1.4290429154e+00 -2.4751749356e+00 1.4290429154e+00 2.4751749356e+00 
40000 5.0168957428e+00 -7.6381789076e-04 1.4290697674e+00 -2.4752214446e+00 1.4290697674e+00 2.4752214446e+00 
40100 5.0168954823e+00 -7.6019685406e-04 1.4290964918e+00 -2.4752677326e+00 1.4290964918e+00 2.4752677326e+00 
40200 5.0168952245e+00 -7.5658763527e-04 1.4291230890e+00 -2.4753138003e+00 1.4291230890e+00 2.4753138003e+00 
40300 5.0168949693e+00 -7.5299029352e-04 1.4291495594e+00 -2.4753596485e+00 1.4291495594e+00 2.4753596485e+00 
40400 5.0168947168e+00 -7.4940488580e-04 1.4291759035e+00 -2.4754052777e+00 1.4291759035e+00 2.4754052777e+00 
40500 5.0168944669e+00 -7.4583146700e-04 1.4292021216e+00 -2.4754506889e+00 1.4292021216e+00 2.4754506889e+00 
40600 5.0168942196e+00 -7.4227008996e-04 1.4292282143e+00 -2.4754958827e+00 1.4292282143e+00 2.4754958827e+00 
40700 5.0168939748e+00 -7.3872080554e-04 1.4292541819e+00 -2.4755408599e+00 1.4292541819e+00 2.4755408599e+00 
40800 5.0168937325e+00 -7.3518366259e-04 1.4292800248e+00 -2.4755856212e+00 1.4292800248e+00 2.4755856212e+00 
40900 5.0168934928e+00 -7.3165870805e-04 1.4293057436e+00 -2.4756301674e+00 1.4293057436e+00 2.4756301674e+00 
41000 5.0168932556e+00 -7.2814598693e-04 1.4293313385e+00 -2.4756744992e+00 1.4293313385e+00 2.4756744992e+00 
41100 5.0168930208e+00 -7.2464554240e-04 1.4293568102e+00 -2.4757186174e+00 1.4293568102e+00 2.4757186174e+00 
41200 5.0168927884e+00 -7.2115741578e-04 1.4293821589e+00 -2.4757625227e+00 1.4293821589e+00 2.4757625227e+00 
41300 5.0168925584e+00 -7.1768164659e-04 1.4294073852e+00 -2.4758062159e+00 1.4294073852e+00 2.4758062159e+00 
41400 5.0168923308e+00 -7.1421827259e-04 1.4294324894e+00 -2.4758496977e+00 1.4294324894e+00 2.4758496977e+00 
41500 5.0168921056e+00 -7.1076732980e-04 1.4294574721e+00 -2.4758929689e+00 1.4294574721e+00 2.4758929689e+00 
41600 5.0168918827e+00 -7.0732885251e-04 1.4294823336e+00 -2.4759360303e+00 1.4294823336e+00 2.4759360303e+00 
41700 5.0168916621e+00 -7.0390287338e-04 1.4295070744e+00 -2.4759788826e+00 1.4295070744e+00 2.4759788826e+00 
41800 5.0168914438e+00 -7.0048942336e-04 1.4295316949e+00 -2.4760215267e+00 1.4295316949e+00 2.4760215267e+00 
41900 5.0168912277e+00 -6.9708853184e-04 1.4295561957e+00 -2.4760639632e+00 1.4295561957e+00 2.4760639632e+00 
42000 5.0168910139e+00 -6.9370022657e-04 1.4295805770e+00 -2.4761061929e+00 1.4295805770e+00 2.4761061929e+00 
42100 5.0168908023e+00 -6.9032453377e-04 1.4296048395e+00 -2.4761482167e+00 1.4296048395e+00 2.4761482167e+00 
42200 5.0168905929e+00 -6.8696147809e-04 1.4296289834e+00 -2.4761900353e+00 1.4296289834e+00 2.4761900353e+00 
42300 5.0168903857e+00 -6.8361108270e-04 1.4296530094e+00 -2.4762316494e+00 1.4296530094e+00 2.4762316494e+00 
42400 5.0168901806e+00 -6.8027336925e-04 1.4296769177e+00 -2.4762730599e+00 1.4296769177e+00 2.4762730599e+00 
42500 5.0168899777e+00 -6.7694835797e-04 1.4297007089e+00 -2.4763142675e+00 1.4297007089e+00 2.4763142675e+00 
42600 5.0168897768e+00 -6.7363606760e-04 1.4297243835e+00 -2.4763552730e+00 1.4297243835e+00 2.4763552730e+00 
42700 5.0168895780e+00 -6.7033651552e-04 1.4297479418e+00 -2.4763960772e+00 1.4297479418e+00 2.4763960772e+00 
42800 5.0168893813e+00 -6.6704971768e-04 1.4297713843e+00 -2.4764366809e+00 1.4297713843e+00 2.4764366809e+00 
42900 5.0168891867e+00 -6.6377568870e-04 1.4297947115e+00 -2.4764770848e+00 1.4297947115e+00 2.4764770848e+00 
43000 5.0168889940e+00 -6.6051444182e-04 1.4298179239e+00 -2.4765172897e+00 1.4298179239e+00 2.4765172897e+00 
43100 5.0168888034e+00 -6.5726598900e-04 1.4298410218e+00 -2.4765572965e+00 1.4298410218e+00 2.4765572965e+00 
43200 5.0168886147e+00 -6.5403034087e-04 1.4298640057e+00 -2.4765971059e+00 1.4298640057e+00 2.4765971059e+00 
43300 5.0168884280e+00 -6.5080750680e-04 1.4298868762e+00 -2.4766367186e+00 1.4298868762e+00 2.4766367186e+00 
43400 5.0168882432e+00 -6.4759749491e-04 1.4299096335e+00 -2.4766761355e+00 1.4299096335e+00 2.4766761355e+00 
43500 5.0168880603e+00 -6.4440031208e-04 1.4299322783e+00 -2.4767153574e+00 1.4299322783e+00 2.4767153574e+00 
43600 5.0168878794e+00 -6.4121596397e-04 1.4299548109e+00 -2.4767543850e+00 1.4299548109e+00 2.4767543850e+00 
43700 5.0168877003e+00 -6.3804445507e-04 1.4299772318e+00 -2.4767932192e+00 1.4299772318e+00 2.4767932192e+00 
43800 5.0168875231e+00 -6.3488578868e-04 1.4299995415e+00 -2.4768318606e+00 1.4299995415e+00 2.4768318606e+00 
43900 5.0168873477e+00 -6.3173996697e-04 1.4300217403e+00 -2.4768703102e+00 1.4300217403e+00 2.4768703102e+00 
44000 5.0168871741e+00 -6.2860699096e-04 1.4300438289e+00 -2.4769085686e+00 1.4300438289e+00 2.4769085686e+00 
44100 5.0168870023e+00 -6.2548686057e-04 1.4300658075e+00 -2.4769466368e+00 1.4300658075e+00 2.4769466368e+00 
44200 5.0168868324e+00 -6.2237957462e-04 1.4300876767e+00 -2.4769845154e+00 1.4300876767e+00 2.4769845154e+00 
44300 5.0168866642e+00 -6.1928513086e-04 1.4301094370e+00 -2.4770222052e+00 1.4301094370e+00 2.4770222052e+00 
44400 5.0168864977e+00 -6.1620352601e-04 1.4301310887e+00 -2.4770597071e+00 1.4301310887e+00 2.4770597071e+00 
44500 5.0168863330e+00 -6.1313475571e-04 1.4301526324e+00 -2.4770970218e+00 1.4301526324e+00 2.4770970218e+00 
44600 5.0168861699e+00 -6.1007881463e-04 1.4301740684e+00 -2.4771341501e+00 1.4301740684e+00 2.4771341501e+00 
44700 5.0168860086e+00 -6.0703569641e-04 1.4301953973e+00 -2.4771710929e+00 1.4301953973e+00 2.4771710929e+00 
44800 5.0168858490e+00 -6.0400539372e-04 1.4302166195e+00 -2.4772078507e+00 1.4302166195e+00 2.4772078507e+00 
44900 5.0168856910e+00 -6.0098789827e-04 1.4302377354e+00 -2.4772444246e+00 1.4302377354e+00 2.4772444246e+00 
45000 5.0168855346e+00 -5.9798320083e-04 1.4302587455e+00 -2.4772808152e+00 1.4302587455e+00 2.4772808152e+00 
45100 5.0168853799e+00 -5.9499129123e-04 1.4302796503e+00 -2.4773170233e+00 1.4302796503e+00 2.4773170233e+00 
45200 5.0168852268e+00 -5.9201215840e-04 1.4303004502e+00 -2.4773530498e+00 1.4303004502e+00 2.4773530498e+00 
45300 5.0168850753e+00 -5.8904579038e-04 1.4303211456e+00 -2.4773888953e+00 1.4303211456e+00 2.4773888953e+00 
45400 5.0168849254e+00 -5.8609217432e-04 1.4303417370e+00 -2.4774245607e+00 1.4303417370e+00 2.4774245607e+00 
45500 5.0168847770e+00 -5.8315129653e-04 1.4303622249e+00 -2.4774600468e+00 1.4303622249e+00 2.4774600468e+00 
45600 5.0168846301e+00 -5.8022314246e-04 1.4303826097e+00 -2.4774953542e+00 1.4303826097e+00 2.4774953542e+00 
45700 5.0168844848e+00 -5.7730769674e-04 1.4304028918e+00 -2.4775304840e+00 1.4304028918e+00 2.4775304840e+00 
45800 5.0168843410e+00 -5.7440494320e-04 1.4304230718e+00 -2.4775654366e+00 1.4304230718e+00 2.4775654366e+00 
45900 5.0168841987e+00 -5.7151486487e-04 1.4304431500e+00 -2.4776002131e+00 1.4304431500e+00 2.4776002131e+00 
46000 5.0168840579e+00 -5.6863744399e-04 1.4304631269e+00 -2.4776348141e+00 1.4304631269e+00 2.4776348141e+00 
46100 5.0168839186e+00 -5.6577266206e-04 1.4304830029e+00 -2.4776692404e+00 1.4304830029e+00 2.4776692404e+00 
46200 5.0168837807e+00 -5.6292049981e-04 1.4305027785e+00 -2.4777034928e+00 1.4305027785e+00 2.4777034928e+00 
46300 5.0168836442e+00 -5.6008093726e-04 1.4305224542e+00 -2.4777375720e+00 1.4305224542e+00 2.4777375720e+00 
46400 5.0168835092e+00 -5.5725395370e-04 1.4305420303e+00 -2.4777714789e+00 1.4305420303e+00 2.4777714789e+00 
46500 5.0168833755e+00 -5.5443952772e-04 1.4305615074e+00 -2.4778052142e+00 1.4305615074e+00 2.4778052142e+00 
46600 5.0168832433e+00 -5.5163763724e-04 1.4305808858e+00 -2.4778387786e+00 1.4305808858e+00 2.4778387786e+00 
46700 5.0168831124e+00 -5.4884825949e-04 1.4306001661e+00 -2.4778721730e+00 1.4306001661e+00 2.4778721730e+00 
46800 5.0168829829e+00 -5.4607137106e-04 1.4306193486e+00 -2.4779053980e+00 1.4306193486e+00 2.4779053980e+00 
46900 5.0168828548e+00 -5.4330694787e-04 1.4306384337e+00 -2.4779384545e+00 1.4306384337e+00 2.4779384545e+00 
47000 5.0168827280e+00 -5.4055496525e-04 1.4306574221e+00 -2.4779713432e+00 1.4306574221e+00 2.4779713432e+00 
47100 5.0168826025e+00 -5.3781539789e-04 1.4306763139e+00 -2.4780040649e+00 1.4306763139e+00 2.4780040649e+00 
47200 5.0168824783e+00 -5.3508821989e-04 1.4306951098e+00 -2.4780366204e+00 1.4306951098e+00 2.4780366204e+00 
47300 5.0168823554e+00 -5.3237340477e-04 1.4307138102e+00 -2.4780690103e+00 1.4307138102e+00 2.4780690103e+00 
47400 5.0168822338e+00 -5.2967092546e-04 1.4307324154e+00 -2.4781012354e+00 1.4307324154e+00 2.4781012354e+00 
47500 5.0168821134e+00 -5.2698075436e-04 1.4307509259e+00 -2.4781332966e+00 1.4307509259e+00 2.4781332966e+00 
47600 5.0168819943e+00 -5.2430286330e-04 1.4307693422e+00 -2.4781651945e+00 1.4307693422e+00 2.4781651945e+00 
47700 5.0168818765e+00 -5.2163722358e-04 1.4307876646e+00 -2.4781969299e+00 1.4307876646e+00 2.4781969299e+00 
47800 5.0168817599e+00 -5.1898380600e-04 1.4308058937e+00 -2.4782285036e+00 1.4308058937e+00 2.4782285036e+00 
47900 5.0168816445e+00 -5.1634258084e-04 1.4308240298e+00 -2.4782599162e+00 1.4308240298e+00 2.4782599162e+00 
48000 5.0168815303e+00 -5.1371351790e-04 1.4308420733e+00 -2.4782911686e+00 1.4308420733e+00 2.4782911686e+00 
48100 5.0168814173e+00 -5.1109658648e-04 1.4308600248e+00 -2.4783222615e+00 1.4308600248e+00 2.4783222615e+00 
48200 5.0168813055e+00 -5.0849175544e-04 1.4308778846e+00 -2.4783531956e+00 1.4308778846e+00 2.4783531956e+00 
48300 5.0168811948e+00 -5.0589899315e-04 1.4308956532e+00 -2.4783839717e+00 1.4308956532e+00 2.4783839717e+00 
48400 5.0168810853e+00 -5.0331826758e-04 1.4309133309e+00 -2.4784145904e+00 1.4309133309e+00 2.4784145904e+00 
48500 5.0168809770e+00 -5.0074954622e-04 1.4309309183e+00 -2.4784450526e+00 1.4309309183e+00 2.4784450526e+00 
48600 5.0168808698e+00 -4.9819279620e-04 1.4309484156e+00 -2.4784753589e+00 1.4309484156e+00 2.4784753589e+00 
48700 5.0168807636e+00 -4.9564798418e-04 1.4309658235e+00 -2.4785055101e+00 1.4309658235e+00 2.4785055101e+00 
48800 5.0168806587e+00 -4.9311507648e-04 1.4309831421e+00 -2.4785355070e+00 1.4309831421e+00 2.4785355070e+00 
48900 5.0168805548e+00 -4.9059403900e-04 1.4310003721e+00 -2.4785653502e+00 1.4310003721e+00 2.4785653502e+00 
49000 5.0168804519e+00 -4.8808483728e-04 1.4310175138e+00 -2.4785950404e+00 1.4310175138e+00 2.4785950404e+00 
49100 5.0168803502e+00 -4.8558743650e-04 1.4310345676e+00 -2.4786245785e+00 1.4310345676e+00 2.4786245785e+00 
49200 5.0168802495e+00 -4.8310180150e-04 1.4310515339e+00 -2.4786539650e+00 1.4310515339e+00 2.4786539650e+00 
49300 5.0168801499e+00 -4.8062789675e-04 1.4310684132e+00 -2.4786832008e+00 1.4310684132e+00 2.4786832008e+00 
49400 5.0168800513e+00 -4.7816568641e-04 1.4310852059e+00 -2.4787122866e+00 1.4310852059e+00 2.4787122866e+00 
49500 5.0168799538e+00 -4.7571513434e-04 1.4311019123e+00 -2.4787412230e+00 1.4311019123e+00 2.4787412230e+00 
49600 5.0168798572e+00 -4.7327620407e-04 1.4311185330e+00 -2.4787700107e+00 1.4311185330e+00 2.4787700107e+00 
49700 5.0168797617e+00 -4.7084885883e-04 1.4311350682e+00 -2.4787986506e+00 1.4311350682e+00 2.4787986506e+00 
49800 5.0168796672e+00 -4.6843306156e-04 1.4311515184e+00 -2.4788271432e+00 1.4311515184e+00 2.4788271432e+00 
49900 5.0168795736e+00 -4.6602877496e-04 1.4311678840e+00 -2.4788554893e+00 1.4311678840e+00 2.4788554893e+00 
50000 5.0168794811e+00 -4.6363596141e-04 1.4311841655e+00 -2.4788836896e+00 1.4311841655e+00 2.4788836896e+00 
50100 5.0168793895e+00 -4.6125458307e-04 1.4312003631e+00 -2.4789117448e+00 1.4312003631e+00 2.4789117448e+00 
50200 5.0168792989e+00 -4.5888460183e-04 1.4312164774e+00 -2.4789396555e+00 1.4312164774e+00 2.4789396555e+00 
50300 5.0168792092e+00 -4.5652597936e-04 1.4312325087e+00 -2.4789674226e+00 1.4312325087e+00 2.4789674226e+00 
50400 5.0168791204e+00 -4.5417867709e-04 1.4312484575e+00 -2.4789950466e+00 1.4312484575e+00 2.4789950466e+00 
50500 5.0168790326e+00 -4.5184265622e-04 1.4312643240e+00 -2.4790225282e+00 1.4312643240e+00 2.4790225282e+00 
50600 5.0168789457e+00 -4.4951787776e-04 1.4312801088e+00 -2.4790498683e+00 1.4312801088e+00 2.4790498683e+00 
50700 5.0168788597e+00 -4.4720430249e-04 1.4312958122e+00 -2.4790770673e+00 1.4312958122e+00 2.4790770673e+00 
50800 5.0168787746e+00 -4.4490189103e-04 1.4313114345e+00 -2.4791041261e+00 1.4313114345e+00 2.4791041261e+00 
50900 5.0168786904e+00 -4.4261060379e-04 1.4313269763e+00 -2.4791310452e+00 1.4313269763e+00 2.4791310452e+00 
51000 5.0168786071e+00 -4.4033040099e-04 1.4313424379e+00 -2.4791578255e+00 1.4313424379e+00 2.4791578255e+00 
51100 5.0168785247e+00 -4.3806124273e-04 1.4313578197e+00 -2.4791844675e+00 1.4313578197e+00 2.4791844675e+00 
51200 5.0168784431e+00 -4.3580308889e-04 1.4313731220e+00 -2.4792109719e+00 1.4313731220e+00 2.4792109719e+00 
51300 5.0168783624e+00 -4.3355589924e-04 1.4313883453e+00 -2.4792373394e+00 1.4313883453e+00 2.4792373394e+00 
51400 5.0168782825e+00 -4.3131963339e-04 1.4314034899e+00 -2.4792635706e+00 1.4314034899e+00 2.4792635706e+00 
51500 5.0168782034e+00 -4.2909425081e-04 1.4314185562e+00 -2.4792896663e+00 1.4314185562e+00 2.4792896663e+00 
51600 5.0168781252e+00 -4.2687971083e-04 1.4314335447e+00 -2.4793156270e+00 1.4314335447e+00 2.4793156270e+00 
51700 5.0168780478e+00 -4.2467597269e-04 1.4314484556e+00 -2.4793414536e+00 1.4314484556e+00 2.4793414536e+00 
51800 5.0168779712e+00 -4.2248299548e-04 1.4314632894e+00 -2.4793671465e+00 1.4314632894e+00 2.4793671465e+00 
51900 5.0168778954e+00 -4.2030073820e-04 1.4314780465e+00 -2.4793927064e+00 1.4314780465e+00 2.4793927064e+00 
52000 5.0168778204e+00 -4.1812915974e-04 1.4314927272e+00 -2.4794181341e+00 1.4314927272e+00 2.4794181341e+00 
52100 5.0168777462e+00 -4.1596821891e-04 1.4315073319e+00 -2.4794434302e+00 1.4315073319e+00 2.4794434302e+00 
52200 5.0168776728e+00 -4.1381787441e-04 1.4315218609e+00 -2.4794685952e+00 1.4315218609e+00 2.4794685952e+00 
52300 5.0168776001e+00 -4.1167808487e-04 1.4315363147e+00 -2.4794936299e+00 1.4315363147e+00 2.4794936299e+00 
52400 5.0168775282e+00 -4.0954880885e-04 1.4315506936e+00 -2.4795185350e+00 1.4315506936e+00 2.4795185350e+00 
52500 5.0168774571e+00 -4.0743000483e-04 1.4315649980e+00 -2.4795433109e+00 1.4315649980e+00 2.4795433109e+00 
52600 5.0168773867e+00 -4.0532163125e-04 1.4315792283e+00 -2.4795679584e+00 1.4315792283e+00 2.4795679584e+00 
52700 5.0168773170e+00 -4.0322364646e-04 1.4315933847e+00 -2.4795924782e+00 1.4315933847e+00 2.4795924782e+00 
52800 5.0168772481e+00 -4.0113600879e-04 1.4316074678e+00 -2.4796168707e+00 1.4316074678e+00 2.4796168707e+00 
52900 5.0168771799e+00 -3.9905867651e-04 1.4316214778e+00 -2.4796411368e+00 1.4316214778e+00 2.4796411368e+00 
53000 5.0168771124e+00 -3.9699160784e-04 1.4316354151e+00 -2.4796652769e+00 1.4316354151e+00 2.4796652769e+00 
53100 5.0168770456e+00 -3.9493476100e-04 1.4316492801e+00 -2.4796892918e+00 1.4316492801e+00 2.4796892918e+00 
53200 5.0168769795e+00 -3.9288809416e-04 1.4316630731e+00 -2.4797131820e+00 1.4316630731e+00 2.4797131820e+00 
53300 5.0168769141e+00 -3.9085156545e-04 1.4316767946e+00 -2.4797369482e+00 1.4316767946e+00 2.4797369482e+00 
53400 5.0168768494e+00 -3.8882513303e-04 1.4316904447e+00 -2.4797605910e+00 1.4316904447e+00 2.4797605910e+00 
53500 5.0168767854e+00 -3.8680875500e-04 1.4317040240e+00 -2.4797841109e+00 1.4317040240e+00 2.4797841109e+00 
53600 5.0168767221e+00 -3.8480238948e-04 1.4317175327e+00 -2.4798075087e+00 1.4317175327e+00 2.4798075087e+00 
53700 5.0168766594e+00 -3.8280599459e-04 1.4317309712e+00 -2.4798307849e+00 1.4317309712e+00 2.4798307849e+00 
53800 5.0168765973e+00 -3.8081952842e-04 1.4317443398e+00 -2.4798539401e+00 1.4317443398e+00 2.4798539401e+00 
53900 5.0168765360e+00 -3.7884294911e-04 1.4317576390e+00 -2.4798769749e+00 1.4317576390e+00 2.4798769749e+00 
54000 5.0168764752e+00 -3.7687621478e-04 1.4317708690e+00 -2.4798998900e+00 1.4317708690e+00 2.4798998900e+00 
54100 5.0168764151e+00 -3.7491928358e-04 1.4317840302e+00 -2.4799226858e+00 1.4317840302e+00 2.4799226858e+00 
54200 5.0168763557e+00 -3.7297211368e-04 1.4317971230e+00 -2.4799453632e+00 1.4317971230e+00 2.4799453632e+00 
54300 5.0168762968e+00 -3.7103466326e-04 1.4318101476e+00 -2.4799679225e+00 1.4318101476e+00 2.4799679225e+00 
54400 5.0168762386e+00 -3.6910689055e-04 1.4318231045e+00 -2.4799903644e+00 1.4318231045e+00 2.4799903644e+00 
54500 5.0168761810e+00 -3.6718875379e-04 1.4318359939e+00 -2.4800126896e+00 1.4318359939e+00 2.4800126896e+00 
54600 5.0168761240e+00 -3.6528021128e-04 1.4318488162e+00 -2.4800348985e+00 1.4318488162e+00 2.4800348985e+00 
54700 5.0168760675e+00 -3.6338122135e-04 1.4318615718e+00 -2.4800569918e+00 1.4318615718e+00 2.4800569918e+00 
54800 5.0168760117e+00 -3.6149174235e-04 1.4318742609e+00 -2.4800789700e+00 1.4318742609e+00 2.4800789700e+00 
54900 5.0168759565e+00 -3.5961173272e-04 1.4318868840e+00 -2.4801008337e+00 1.4318868840e+00 2.4801008337e+00 
55000 5.0168759018e+00 -3.5774115093e-04 1.4318994413e+00 -2.4801225836e+00 1.4318994413e+00 2.4801225836e+00 
55100 5.0168758478e+00 -3.5587995549e-04 1.4319119331e+00 -2.4801442201e+00 1.4319119331e+00 2.4801442201e+00 
55200 5.0168757942e+00 -3.5402810498e-04 1.4319243599e+00 -2.4801657439e+00 1.4319243599e+00 2.4801657439e+00 
55300 5.0168757413e+00 -3.5218555806e-04 1.4319367219e+00 -2.4801871555e+00 1.4319367219e+00 2.4801871555e+00 
55400 5.0168756889e+00 -3.5035227343e-04 1.4319490194e+00 -2.4802084555e+00 1.4319490194e+00 2.4802084555e+00 
55500 5.0168756371e+00 -3.4852820985e-04 1.4319612528e+00 -2.4802296444e+00 1.4319612528e+00 2.4802296444e+00 
55600 5.0168755858e+00 -3.4671332618e-04 1.4319734225e+00 -2.4802507228e+00 1.4319734225e+00 2.4802507228e+00 
55700 5.0168755350e+00 -3.4490758133e-04 1.4319855286e+00 -2.4802716913e+00 1.4319855286e+00 2.4802716913e+00 
55800 5.0168754848e+00 -3.4311093428e-04 1.4319975716e+00 -2.4802925503e+00 1.4319975716e+00 2.4802925503e+00 
55900 5.0168754351e+00 -3.4132334412e-04 1.4320095518e+00 -2.4803133006e+00 1.4320095518e+00 2.4803133006e+00 
56000 5.0168753859e+00 -3.3954476998e-04 1.4320214694e+00 -2.4803339426e+00 1.4320214694e+00 2.4803339426e+00 
56100 5.0168753373e+00 -3.3777517111e-04 1.4320333249e+00 -2.4803544768e+00 1.4320333249e+00 2.4803544768e+00 
56200 5.0168752891e+00 -3.3601450683e-04 1.4320451185e+00 -2.4803749039e+00 1.4320451185e+00 2.4803749039e+00 
56300 5.0168752415e+00 -3.3426273654e-04 1.4320568504e+00 -2.4803952243e+00 1.4320568504e+00 2.4803952243e+00 
56400 5.0168751943e+00 -3.3251981974e-04 1.4320685212e+00 -2.4804154386e+00 1.4320685212e+00 2.4804154386e+00 
56500 5.0168751477e+00 -3.3078571602e-04 1.4320801310e+00 -2.4804355474e+00 1.4320801310e+00 2.4804355474e+00 
56600 5.0168751015e+00 -3.2906038508e-04 1.4320916801e+00 -2.4804555511e+00 1.4320916801e+00 2.4804555511e+00 
56700 5.0168750559e+00 -3.2734378669e-04 1.4321031689e+00 -2.4804754503e+00 1.4321031689e+00 2.4804754503e+00 
56800 5.0168750107e+00 -3.2563588074e-04 1.4321145977e+00 -2.4804952455e+00 1.4321145977e+00 2.4804952455e+00 
56900 5.0168749660e+00 -3.2393662721e-04 1.4321259668e+00 -2.4805149374e+00 1.4321259668e+00 2.4805149374e+00 
57000 5.0168749217e+00 -3.2224598620e-04 1.4321372765e+00 -2.4805345263e+00 1.4321372765e+00 2.4805345263e+00 
57100 5.0168748779e+00 -3.2056391789e-04 1.4321485270e+00 -2.4805540128e+00 1.4321485270e+00 2.4805540128e+00 
57200 5.0168748346e+00 -3.1889038258e-04 1.4321597187e+00 -2.4805733974e+00 1.4321597187e+00 2.4805733974e+00 
57300 5.0168747918e+00 -3.1722534069e-04 1.4321708519e+00 -2.4805926807e+00 1.4321708519e+00 2.4805926807e+00 
57400 5.0168747494e+00 -3.1556875273e-04 1.4321819269e+00 -2.4806118632e+00 1.4321819269e+00 2.4806118632e+00 
57500 5.0168747074e+00 -3.1392057933e-04 1.4321929440e+00 -2.4806309453e+00 1.4321929440e+00 2.4806309453e+00 
57600 5.0168746659e+00 -3.1228078123e-04 1.4322039035e+00 -2.4806499276e+00 1.4322039035e+00 2.4806499276e+00 
57700 5.0168746248e+00 -3.1064931929e-04 1.4322148056e+00 -2.4806688106e+00 1.4322148056e+00 2.4806688106e+00 
57800 5.0168745841e+00 -3.0902615449e-04 1.4322256507e+00 -2.4806875949e+00 1.4322256507e+00 2.4806875949e+00 
57900 5.0168745439e+00 -3.0741124792e-04 1.4322364390e+00 -2.4807062808e+00 1.4322364390e+00 2.4807062808e+00 
58000 5.0168745041e+00 -3.0580456079e-04 1.4322471709e+00 -2.4807248690e+00 1.4322471709e+00 2.4807248690e+00 
58100 5.0168744647e+00 -3.0420605442e-04 1.4322578466e+00 -2.4807433598e+00 1.4322578466e+00 2.4807433598e+00 
58200 5.0168744258e+00 -3.0261569027e-04 1.4322684664e+00 -2.4807617539e+00 1.4322684664e+00 2.4807617539e+00 
58300 5.0168743872e+00 -3.0103342992e-04 1.4322790306e+00 -2.4807800517e+00 1.4322790306e+00 2.4807800517e+00 
58400 5.0168743491e+00 -2.9945923506e-04 1.4322895395e+00 -2.4807982536e+00 1.4322895395e+00 2.4807982536e+00 
58500 5.0168743113e+00 -2.9789306751e-04 1.4322999934e+00 -2.4808163603e+00 1.4322999934e+00 2.4808163603e+00 
58600 5.0168742740e+00 -2.9633488922e-04 1.4323103925e+00 -2.4808343721e+00 1.4323103925e+00 2.4808343721e+00 
58700 5.0168742370e+00 -2.9478466227e-04 1.4323207372e+00 -2.4808522896e+00 1.4323207372e+00 2.4808522896e+00 
58800 5.0168742004e+00 -2.9324234886e-04 1.4323310277e+00 -2.4808701132e+00 1.4323310277e+00 2.4808701132e+00 
58900 5.0168741643e+00 -2.9170791131e-04 1.4323412642e+00 -2.4808878434e+00 1.4323412642e+00 2.4808878434e+00 
59000 5.0168741284e+00 -2.9018131210e-04 1.4323514471e+00 -2.4809054807e+00 1.4323514471e+00 2.4809054807e+00 
59100 5.0168740930e+00 -2.8866251380e-04 1.4323615767e+00 -2.4809230257e+00 1.4323615767e+00 2.4809230257e+00 
59200 5.0168740580e+00 -2.8715147914e-04 1.4323716532e+00 -2.4809404786e+00 1.4323716532e+00 2.4809404786e+00 
59300 5.0168740233e+00 -2.8564817098e-04 1.4323816768e+00 -2.4809578401e+00 1.4323816768e+00 2.4809578401e+00 
59400 5.0168739890e+00 -2.8415255229e-04 1.4323916479e+00 -2.4809751105e+00 1.4323916479e+00 2.4809751105e+00 
59500 5.0168739550e+00 -2.8266458619e-04 1.4324015667e+00 -2.4809922904e+00 1.4324015667e+00 2.4809922904e+00 
59600 5.0168739214e+00 -2.8118423593e-04 1.4324114336e+00 -2.4810093803e+00 1.4324114336e+00 2.4810093803e+00 
59700 5.0168738882e+00 -2.7971146490e-04 1.4324212486e+00 -2.4810263805e+00 1.4324212486e+00 2.4810263805e+00 
59800 5.0168738553e+00 -2.7824623662e-04 1.4324310122e+00 -2.4810432915e+00 1.4324310122e+00 2.4810432915e+00 
59900 5.0168738227e+00 -2.7678851474e-04 1.4324407246e+00 -2.4810601139e+00 1.4324407246e+00 2.4810601139e+00 
60000 5.0168737905e+00 -2.7533826305e-04 1.4324503861e+00 -2.4810768480e+00 1.4324503861e+00 2.4810768480e+00 
60100 5.0168737587e+00 -2.7389544548e-04 1.4324599968e+00 -2.4810934943e+00 1.4324599968e+00 2.4810934943e+00 
60200 5.0168737271e+00 -2.7246002609e-04 1.4324695572e+00 -2.4811100533e+00 1.4324695572e+00 2.4811100533e+00 
60300 5.0168736959e+00 -2.7103196908e-04 1.4324790673e+00 -2.4811265254e+00 1.4324790673e+00 2.4811265254e+00 
60400 5.0168736651e+00 -2.6961123879e-04 1.4324885276e+00 -2.4811429110e+00 1.4324885276e+00 2.4811429110e+00 
60500 5.0168736345e+00 -2.6819779968e-04 1.4324979382e+00 -2.4811592106e+00 1.4324979382e+00 2.4811592106e+00 
60600 5.0168736043e+00 -2.6679161637e-04 1.4325072994e+00 -2.4811754247e+00 1.4325072994e+00 2.4811754247e+00 
60700 5.0168735744e+00 -2.6539265362e-04 1.4325166114e+00 -2.4811915537e+00 1.4325166114e+00 2.4811915537e+00 
60800 5.0168735448e+00 -2.6400087630e-04 1.4325258746e+00 -2.4812075980e+00 1.4325258746e+00 2.4812075980e+00 
60900 5.0168735155e+00 -2.6261624945e-04 1.4325350891e+00 -2.4812235580e+00 1.4325350891e+00 2.4812235580e+00 
61000 5.0168734866e+00 -2.6123873822e-04 1.4325442553e+00 -2.4812394342e+00 1.4325442553e+00 2.4812394342e+00 
61100 5.0168734579e+00 -2.5986830793e-04 1.4325533733e+00 -2.4812552271e+00 1.4325533733e+00 2.4812552271e+00 
61200 5.0168734295e+00 -2.5850492402e-04 1.4325624434e+00 -2.4812709370e+00 1.4325624434e+00 2.4812709370e+00 
61300 5.0168734015e+00 -2.5714855207e-04 1.4325714659e+00 -2.4812865644e+00 1.4325714659e+00 2.4812865644e+00 
61400 5.0168733737e+00 -2.5579915779e-04 1.4325804410e+00 -2.4813021097e+00 1.4325804410e+00 2.4813021097e+00 
61500 5.0168733463e+00 -2.5445670705e-04 1.4325893689e+00 -2.4813175733e+00 1.4325893689e+00 2.4813175733e+00 
61600 5.0168733191e+00 -2.5312116586e-04 1.4325982499e+00 -2.4813329557e+00 1.4325982499e+00 2.4813329557e+00 
61700 5.0168732922e+00 -2.5179250035e-04 1.4326070842e+00 -2.4813482572e+00 1.4326070842e+00 2.4813482572e+00 
61800 5.0168732656e+00 -2.5047067679e-04 1.4326158722e+00 -2.4813634783e+00 1.4326158722e+00 2.4813634783e+00 
61900 5.0168732392e+00 -2.4915566161e-04 1.4326246139e+00 -2.4813786195e+00 1.4326246139e+00 2.4813786195e+00 
62000 5.0168732132e+00 -2.4784742136e-04 1.4326333097e+00 -2.4813936810e+00 1.4326333097e+00 2.4813936810e+00 
62100 5.0168731874e+00 -2.4654592275e-04 1.4326419598e+00 -2.4814086634e+00 1.4326419598e+00 2.4814086634e+00 
62200 5.0168731619e+00 -2.4525113260e-04 1.4326505644e+00 -2.4814235670e+00 1.4326505644e+00 2.4814235670e+00 
62300 5.0168731367e+00 -2.4396301790e-04 1.4326591237e+00 -2.4814383922e+00 1.4326591237e+00 2.4814383922e+00 
62400 5.0168731117e+00 -2.4268154576e-04 1.4326676381e+00 -2.4814531395e+00 1.4326676381e+00 2.4814531395e+00 
62500 5.0168730870e+00 -2.4140668343e-04 1.4326761076e+00 -2.4814678092e+00 1.4326761076e+00 2.4814678092e+00 
62600 5.0168730625e+00 -2.4013839830e-04 1.4326845327e+00 -2.4814824018e+00 1.4326845327e+00 2.4814824018e+00 
62700 5.0168730384e+00 -2.3887665791e-04 1.4326929134e+00 -2.4814969177e+00 1.4326929134e+00 2.4814969177e+00 
62800 5.0168730144e+00 -2.3762142993e-04 1.4327012500e+00 -2.4815113571e+00 1.4327012500e+00 2.4815113571e+00 
62900 5.0168729908e+00 -2.3637268217e-04 1.4327095428e+00 -2.4815257207e+00 1.4327095428e+00 2.4815257207e+00 
63000 5.0168729673e+00 -2.3513038257e-04 1.4327177920e+00 -2.4815400086e+00 1.4327177920e+00 2.4815400086e+00 
63100 5.0168729441e+00 -2.3389449922e-04 1.4327259977e+00 -2.4815542214e+00 1.4327259977e+00 2.4815542214e+00 
63200 5.0168729212e+00 -2.3266500034e-04 1.4327341603e+00 -2.4815683594e+00 1.4327341603e+00 2.4815683594e+00 
63300 5.0168728985e+00 -2.3144185430e-04 1.4327422799e+00 -2.4815824230e+00 1.4327422799e+00 2.4815824230e+00 
63400 5.0168728761e+00 -2.3022502959e-04 1.4327503568e+00 -2.4815964126e+00 1.4327503568e+00 2.4815964126e+00 
63500 5.0168728538e+00 -2.2901449486e-04 1.4327583912e+00 -2.4816103286e+00 1.4327583912e+00 2.4816103286e+00 
63600 5.0168728318e+00 -2.2781021886e-04 1.4327663833e+00 -2.4816241713e+00 1.4327663833e+00 2.4816241713e+00 
63700 5.0168728101e+00 -2.2661217053e-04 1.4327743333e+00 -2.4816379411e+00 1.4327743333e+00 2.4816379411e+00 
63800 5.0168727886e+00 -2.2542031889e-04 1.4327822415e+00 -2.4816516384e+00 1.4327822415e+00 2.4816516384e+00 
63900 5.0168727673e+00 -2.2423463315e-04 1.4327901080e+00 -2.4816652637e+00 1.4327901080e+00 2.4816652637e+00 
64000 5.0168727462e+00 -2.2305508260e-04 1.4327979331e+00 -2.4816788172e+00 1.4327979331e+00 2.4816788172e+00 
64100 5.0168727254e+00 -2.2188163672e-04 1.4328057170e+00 -2.4816922993e+00 1.4328057170e+00 2.4816922993e+00 
64200 5.0168727047e+00 -2.2071426510e-04 1.4328134600e+00 -2.4817057104e+00 1.4328134600e+00 2.4817057104e+00 
64300 5.0168726843e+00 -2.1955293745e-04 1.4328211621e+00 -2.4817190509e+00 1.4328211621e+00 2.4817190509e+00 
64400 5.0168726641e+00 -2.1839762364e-04 1.4328288237e+00 -2.4817323211e+00 1.4328288237e+00 2.4817323211e+00 
64500 5.0168726442e+00 -2.1724829366e-04 1.4328364449e+00 -2.4817455214e+00 1.4328364449e+00 2.4817455214e+00 
64600 5.0168726244e+00 -2.1610491766e-04 1.4328440259e+00 -2.4817586522e+00 1.4328440259e+00 2.4817586522e+00 
64700 5.0168726048e+00 -2.1496746588e-04 1.4328515671e+00 -2.4817717138e+00 1.4328515671e+00 2.4817717138e+00 
64800 5.0168725855e+00 -2.1383590873e-04 1.4328590684e+00 -2.4817847066e+00 1.4328590684e+00 2.4817847066e+00 
64900 5.0168725663e+00 -2.1271021674e-04 1.4328665303e+00 -2.4817976310e+00 1.4328665303e+00 2.4817976310e+00 
65000 5.0168725474e+00 -2.1159036058e-04 1.4328739529e+00 -2.4818104872e+00 1.4328739529e+00 2.4818104872e+00 
65100 5.0168725286e+00 -2.1047631103e-04 1.4328813363e+00 -2.4818232757e+00 1.4328813363e+00 2.4818232757e+00 
65200 5.0168725101e+00 -2.0936803903e-04 1.4328886808e+00 -2.4818359968e+00 1.4328886808e+00 2.4818359968e+00 
65300 5.0168724917e+00 -2.0826551565e-04 1.4328959866e+00 -2.4818486508e+00 1.4328959866e+00 2.4818486508e+00 
65400 5.0168724736e+00 -2.0716871206e-04 1.4329032539e+00 -2.4818612381e+00 1.4329032539e+00 2.4818612381e+00 
65500 5.0168724556e+00 -2.0607759960e-04 1.4329104829e+00 -2.4818737591e+00 1.4329104829e+00 2.4818737591e+00 
65600 5.0168724378e+00 -2.0499214973e-04 1.4329176738e+00 -2.4818862141e+00 1.4329176738e+00 2.4818862141e+00 
65700 5.0168724202e+00 -2.0391233401e-04 1.4329248268e+00 -2.4818986034e+00 1.4329248268e+00 2.4818986034e+00 
65800 5.0168724028e+00 -2.0283812418e-04 1.4329319420e+00 -2.4819109274e+00 1.4329319420e+00 2.4819109274e+00 
65900 5.0168723856e+00 -2.0176949206e-04 1.4329390198e+00 -2.4819231864e+00 1.4329390198e+00 2.4819231864e+00 
66000 5.0168723686e+00 -2.0070640965e-04 1.4329460602e+00 -2.4819353807e+00 1.4329460602e+00 2.4819353807e+00 
66100 5.0168723517e+00 -1.9964884903e-04 1.4329530635e+00 -2.4819475108e+00 1.4329530635e+00 2.4819475108e+00 
66200 5.0168723350e+00 -1.9859678244e-04 1.4329600298e+00 -2.4819595768e+00 1.4329600298e+00 2.4819595768e+00 
66300 5.0168723185e+00 -1.9755018225e-04 1.4329669594e+00 -2.4819715793e+00 1.4329669594e+00 2.4819715793e+00 
66400 5.0168723022e+00 -1.9650902092e-04 1.4329738525e+00 -2.4819835184e+00 1.4329738525e+00 2.4819835184e+00 
66500 5.0168722861e+00 -1.9547327109e-04 1.4329807092e+00 -2.4819953945e+00 1.4329807092e+00 2.4819953945e+00 
66600 5.0168722701e+00 -1.9444290548e-04 1.4329875297e+00 -2.4820072080e+00 1.4329875297e+00 2.4820072080e+00 
66700 5.0168722543e+00 -1.9341789697e-04 1.4329943142e+00 -2.4820189592e+00 1.4329943142e+00 2.4820189592e+00 
66800 5.0168722386e+00 -1.9239821854e-04 1.4330010629e+00 -2.4820306483e+00 1.4330010629e+00 2.4820306483e+00 
66900 5.0168722231e+00 -1.9138384332e-04 1.4330077761e+00 -2.4820422758e+00 1.4330077761e+00 2.4820422758e+00 
67000 5.0168722078e+00 -1.9037474455e-04 1.4330144538e+00 -2.4820538419e+00 1.4330144538e+00 2.4820538419e+00 
67100 5.0168721927e+00 -1.8937089560e-04 1.4330210962e+00 -2.4820653470e+00 1.4330210962e+00 2.4820653470e+00 
67200 5.0168721777e+00 -1.8837226996e-04 1.4330277036e+00 -2.4820767914e+00 1.4330277036e+00 2.4820767914e+00 
67300 5.0168721628e+00 -1.8737884124e-04 1.4330342762e+00 -2.4820881753e+00 1.4330342762e+00 2.4820881753e+00 
67400 5.0168721481e+00 -1.8639058319e-04 1.4330408140e+00 -2.4820994992e+00 1.4330408140e+00 2.4820994992e+00 
67500 5.0168721336e+00 -1.8540746966e-04 1.4330473173e+00 -2.4821107633e+00 1.4330473173e+00 2.4821107633e+00 
67600 5.0168721192e+00 -1.8442947464e-04 1.4330537863e+00 -2.4821219679e+00 1.4330537863e+00 2.4821219679e+00 
67700 5.0168721050e+00 -1.8345657224e-04 1.4330602212e+00 -2.4821331134e+00 1.4330602212e+00 2.4821331134e+00 
67800 5.0168720910e+00 -1.8248873669e-04 1.4330666221e+00 -2.4821442000e+00 1.4330666221e+00 2.4821442000e+00 
67900 5.0168720770e+00 -1.8152594234e-04 1.4330729891e+00 -2.4821552281e+00 1.4330729891e+00 2.4821552281e+00 
68000 5.0168720633e+00 -1.8056816366e-04 1.4330793226e+00 -2.4821661980e+00 1.4330793226e+00 2.4821661980e+00 
68100 5.0168720496e+00 -1.7961537523e-04 1.4330856226e+00 -2.4821771099e+00 1.4330856226e+00 2.4821771099e+00 
68200 5.0168720361e+00 -1.7866755177e-04 1.4330918893e+00 -2.4821879642e+00 1.4330918893e+00 2.4821879642e+00 
68300 5.0168720228e+00 -1.7772466812e-04 1.4330981230e+00 -2.4821987612e+00 1.4330981230e+00 2.4821987612e+00 
68400 5.0168720096e+00 -1.7678669921e-04 1.4331043237e+00 -2.4822095012e+00 1.4331043237e+00 2.4822095012e+00 
68500 5.0168719965e+00 -1.7585362012e-04 1.4331104917e+00 -2.4822201844e+00 1.4331104917e+00 2.4822201844e+00 
68600 5.0168719836e+00 -1.7492540603e-04 1.4331166271e+00 -2.4822308112e+00 1.4331166271e+00 2.4822308112e+00 
68700 5.0168719708e+00 -1.7400203225e-04 1.4331227300e+00 -2.4822413819e+00 1.4331227300e+00 2.4822413819e+00 
68800 5.0168719582e+00 -1.7308347420e-04 1.4331288008e+00 -2.4822518967e+00 1.4331288008e+00 2.4822518967e+00 
68900 5.0168719457e+00 -1.7216970741e-04 1.4331348394e+00 -2.4822623560e+00 1.4331348394e+00 2.4822623560e+00 
69000 5.0168719333e+00 -1.7126070755e-04 1.4331408462e+00 -2.4822727600e+00 1.4331408462e+00 2.4822727600e+00 
69100 5.0168719210e+00 -1.7035645037e-04 1.4331468212e+00 -2.4822831090e+00 1.4331468212e+00 2.4822831090e+00 
69200 5.0168719089e+00 -1.6945691177e-04 1.4331527646e+00 -2.4822934034e+00 1.4331527646e+00 2.4822934034e+00 
69300 5.0168718969e+00 -1.6856206775e-04 1.4331586767e+00 -2.4823036433e+00 1.4331586767e+00 2.4823036433e+00 
69400 5.0168718851e+00 -1.6767189441e-04 1.4331645575e+00 -2.4823138292e+00 1.4331645575e+00 2.4823138292e+00 
69500 5.0168718733e+00 -1.6678636800e-04 1.4331704072e+00 -2.4823239612e+00 1.4331704072e+00 2.4823239612e+00 
69600 5.0168718617e+00 -1.6590546485e-04 1.4331762260e+00 -2.4823340396e+00 1.4331762260e+00 2.4823340396e+00 
69700 5.0168718502e+00 -1.6502916142e-04 1.4331820140e+00 -2.4823440648e+00 1.4331820140e+00 2.4823440648e+00 
69800 5.0168718388e+00 -1.6415743428e-04 1.4331877715e+00 -2.4823540370e+00 1.4331877715e+00 2.4823540370e+00 
69900 5.0168718276e+00 -1.6329026011e-04 1.4331934985e+00 -2.4823639564e+00 1.4331934985e+00 2.4823639564e+00 
70000 5.0168718164e+00 -1.6242761571e-04 1.4331991952e+00 -2.4823738235e+00 1.4331991952e+00 2.4823738235e+00 
70100 5.0168718054e+00 -1.6156947796e-04 1.4332048618e+00 -2.4823836383e+00 1.4332048618e+00 2.4823836383e+00 
70200 5.0168717945e+00 -1.6071582391e-04 1.4332104985e+00 -2.4823934013e+00 1.4332104985e+00 2.4823934013e+00 
70300 5.0168717837e+00 -1.5986663066e-04 1.4332161053e+00 -2.4824031126e+00 1.4332161053e+00 2.4824031126e+00 
70400 5.0168717731e+00 -1.5902187546e-04 1.4332216825e+00 -2.4824127726e+00 1.4332216825e+00 2.4824127726e+00 
70500 5.0168717625e+00 -1.5818153565e-04 1.4332272302e+00 -2.4824223816e+00 1.4332272302e+00 2.4824223816e+00 
70600 5.0168717521e+00 -1.5734558869e-04 1.4332327486e+00 -2.4824319397e+00 1.4332327486e+00 2.4824319397e+00 
70700 5.0168717417e+00 -1.5651401214e-04 1.4332382378e+00 -2.4824414472e+00 1.4332382378e+00 2.4824414472e+00 
70800 5.0168717315e+00 -1.5568678367e-04 1.4332436980e+00 -2.4824509045e+00 1.4332436980e+00 2.4824509045e+00 
70900 5.0168717214e+00 -1.5486388106e-04 1.4332491292e+00 -2.4824603117e+00 1.4332491292e+00 2.4824603117e+00 
71000 5.0168717114e+00 -1.5404528221e-04 1.4332545318e+00 -2.4824696692e+00 1.4332545318e+00 2.4824696692e+00 
71100 5.0168717015e+00 -1.5323096510e-04 1.4332599057e+00 -2.4824789772e+00 1.4332599057e+00 2.4824789772e+00 
71200 5.0168716917e+00 -1.5242090784e-04 1.4332652513e+00 -2.4824882360e+00 1.4332652513e+00 2.4824882360e+00 
71300 5.0168716820e+00 -1.5161508864e-04 1.4332705686e+00 -2.4824974457e+00 1.4332705686e+00 2.4824974457e+00 
71400 5.0168716724e+00 -1.5081348580e-04 1.4332758577e+00 -2.4825066068e+00 1.4332758577e+00 2.4825066068e+00 
71500 5.0168716629e+00 -1.5001607775e-04 1.4332811188e+00 -2.4825157194e+00 1.4332811188e+00 2.4825157194e+00 
71600 5.0168716535e+00 -1.4922284301e-04 1.4332863522e+00 -2.4825247837e+00 1.4332863522e+00 2.4825247837e+00 
71700 5.0168716442e+00 -1.4843376021e-04 1.4332915578e+00 -2.4825338001e+00 1.4332915578e+00 2.4825338001e+00 
71800 5.0168716350e+00 -1.4764880807e-04 1.4332967358e+00 -2.4825427688e+00 1.4332967358e+00 2.4825427688e+00 
71900 5.0168716260e+00 -1.4686796544e-04 1.4333018865e+00 -2.4825516900e+00 1.4333018865e+00 2.4825516900e+00 
72000 5.0168716170e+00 -1.4609121125e-04 1.4333070099e+00 -2.4825605641e+00 1.4333070099e+00 2.4825605641e+00 
72100 5.0168716081e+00 -1.4531852455e-04 1.4333121062e+00 -2.4825693911e+00 1.4333121062e+00 2.4825693911e+00 
72200 5.0168715992e+00 -1.4454988447e-04 1.4333171756e+00 -2.4825781715e+00 1.4333171756e+00 2.4825781715e+00 
72300 5.0168715905e+00 -1.4378527026e-04 1.4333222181e+00 -2.4825869053e+00 1.4333222181e+00 2.4825869053e+00 
72400 5.0168715819e+00 -1.4302466127e-04 1.4333272339e+00 -2.4825955929e+00 1.4333272339e+00 2.4825955929e+00 
72500 5.0168715734e+00 -1.4226803694e-04 1.4333322231e+00 -2.4826042346e+00 1.4333322231e+00 2.4826042346e+00 
72600 5.0168715649e+00 -1.4151537683e-04 1.4333371860e+00 -2.4826128305e+00 1.4333371860e+00 2.4826128305e+00 
72700 5.0168715566e+00 -1.4076666057e-04 1.4333421226e+00 -2.4826213809e+00 1.4333421226e+00 2.4826213809e+00 
72800 5.0168715483e+00 -1.4002186792e-04 1.4333470330e+00 -2.4826298860e+00 1.4333470330e+00 2.4826298860e+00 
72900 5.0168715401e+00 -1.3928097873e-04 1.4333519174e+00 -2.4826383461e+00 1.4333519174e+00 2.4826383461e+00 
73000 5.0168715321e+00 -1.3854397293e-04 1.4333567760e+00 -2.4826467614e+00 1.4333567760e+00 2.4826467614e+00 
73100 5.0168715241e+00 -1.3781083058e-04 1.4333616089e+00 -2.4826551322e+00 1.4333616089e+00 2.4826551322e+00 
73200 5.0168715161e+00 -1.3708153181e-04 1.4333664161e+00 -2.4826634586e+00 1.4333664161e+00 2.4826634586e+00 
73300 5.0168715083e+00 -1.3635605686e-04 1.4333711979e+00 -2.4826717409e+00 1.4333711979e+00 2.4826717409e+00 
73400 5.0168715006e+00 -1.3563438608e-04 1.4333759544e+00 -2.4826799794e+00 1.4333759544e+00 2.4826799794e+00 
73500 5.0168714929e+00 -1.3491649988e-04 1.4333806857e+00 -2.4826881742e+00 1.4333806857e+00 2.4826881742e+00 
73600 5.0168714853e+00 -1.3420237881e-04 1.4333853919e+00 -2.4826963257e+00 1.4333853919e+00 2.4826963257e+00 
73700 5.0168714778e+00 -1.3349200348e-04 1.4333900733e+00 -2.4827044339e+00 1.4333900733e+00 2.4827044339e+00 
73800 5.0168714704e+00 -1.3278535462e-04 1.4333947298e+00 -2.4827124993e+00 1.4333947298e+00 2.4827124993e+00 
73900 5.0168714630e+00 -1.3208241305e-04 1.4333993616e+00 -2.4827205219e+00 1.4333993616e+00 2.4827205219e+00 
74000 5.0168714557e+00 -1.3138315966e-04 1.4334039689e+00 -2.4827285020e+00 1.4334039689e+00 2.4827285020e+00 
74100 5.0168714485e+00 -1.3068757547e-04 1.4334085518e+00 -2.4827364398e+00 1.4334085518e+00 2.4827364398e+00 
74200 5.0168714414e+00 -1.2999564158e-04 1.4334131105e+00 -2.4827443356e+00 1.4334131105e+00 2.4827443356e+00 
74300 5.0168714344e+00 -1.2930733917e-04 1.4334176450e+00 -2.4827521895e+00 1.4334176450e+00 2.4827521895e+00 
74400 5.0168714274e+00 -1.2862264954e-04 1.4334221554e+00 -2.4827600019e+00 1.4334221554e+00 2.4827600019e+00 
74500 5.0168714205e+00 -1.2794155405e-04 1.4334266420e+00 -2.4827677728e+00 1.4334266420e+00 2.4827677728e+00 
74600 5.0168714137e+00 -1.2726403417e-04 1.4334311048e+00 -2.4827755026e+00 1.4334311048e+00 2.4827755026e+00 
74700 5.0168714070e+00 -1.2659007147e-04 1.4334355439e+00 -2.4827831914e+00 1.4334355439e+00 2.4827831914e+00 
74800 5.0168714003e+00 -1.2591964761e-04 1.4334399595e+00 -2.4827908395e+00 1.4334399595e+00 2.4827908395e+00 
74900 5.0168713937e+00 -1.2525274431e-04 1.4334443518e+00 -2.4827984471e+00 1.4334443518e+00 2.4827984471e+00 
75000 5.0168713871e+00 -1.2458934342e-04 1.4334487207e+00 -2.4828060143e+00 1.4334487207e+00 2.4828060143e+00 
75100 5.0168713807e+00 -1.2392942685e-04 1.4334530665e+00 -2.4828135414e+00 1.4334530665e+00 2.4828135414e+00 
75200 5.0168713743e+00 -1.2327297663e-04 1.4334573893e+00 -2.4828210287e+00 1.4334573893e+00 2.4828210287e+00 
75300 5.0168713679e+00 -1.2261997485e-04 1.4334616891e+00 -2.4828284762e+00 1.4334616891e+00 2.4828284762e+00 
75400 5.0168713617e+00 -1.2197040370e-04 1.4334659662e+00 -2.4828358843e+00 1.4334659662e+00 2.4828358843e+00 
75500 5.0168713555e+00 -1.2132424548e-04 1.4334702206e+00 -2.4828432531e+00 1.4334702206e+00 2.4828432531e+00 
75600 5.0168713494e+00 -1.2068148253e-04 1.4334744524e+00 -2.4828505829e+00 1.4334744524e+00 2.4828505829e+00 
75700 5.0168713433e+00 -1.2004209732e-04 1.4334786618e+00 -2.4828578738e+00 1.4334786618e+00 2.4828578738e+00 
75800 5.0168713373e+00 -1.1940607240e-04 1.4334828489e+00 -2.4828651261e+00 1.4334828489e+00 2.4828651261e+00 
75900 5.0168713314e+00 -1.1877339038e-04 1.4334870138e+00 -2.4828723399e+00 1.4334870138e+00 2.4828723399e+00 
76000 5.0168713255e+00 -1.1814403400e-04 1.4334911566e+00 -2.4828795154e+00 1.4334911566e+00 2.4828795154e+00 
76100 5.0168713197e+00 -1.1751798604e-04 1.4334952775e+00 -2.4828866530e+00 1.4334952775e+00 2.4828866530e+00 
76200 5.0168713139e+00 -1.1689522940e-04 1.4334993765e+00 -2.4828937526e+00 1.4334993765e+00 2.4828937526e+00 
76300 5.0168713082e+00 -1.1627574706e-04 1.4335034537e+00 -2.4829008147e+00 1.4335034537e+00 2.4829008147e+00 
76400 5.0168713026e+00 -1.1565952207e-04 1.4335075094e+00 -2.4829078393e+00 1.4335075094e+00 2.4829078393e+00 
76500 5.0168712970e+00 -1.1504653757e-04 1.4335115435e+00 -2.4829148266e+00 1.4335115435e+00 2.4829148266e+00 
76600 5.0168712915e+00 -1.1443677679e-04 1.4335155563e+00 -2.4829217769e+00 1.4335155563e+00 2.4829217769e+00 
76700 5.0168712861e+00 -1.1383022304e-04 1.4335195478e+00 -2.4829286904e+00 1.4335195478e+00 2.4829286904e+00 
76800 5.0168712807e+00 -1.1322685973e-04 1.4335235181e+00 -2.4829355671e+00 1.4335235181e+00 2.4829355671e+00 
76900 5.0168712753e+00 -1.1262667032e-04 1.4335274673e+00 -2.4829424074e+00 1.4335274673e+00 2.4829424074e+00 
77000 5.0168712701e+00 -1.1202963837e-04 1.4335313956e+00 -2.4829492115e+00 1.4335313956e+00 2.4829492115e+00 
77100 5.0168712648e+00 -1.1143574753e-04 1.4335353031e+00 -2.4829559794e+00 1.4335353031e+00 2.4829559794e+00 
77200 5.0168712597e+00 -1.1084498153e-04 1.4335391898e+00 -2.4829627114e+00 1.4335391898e+00 2.4829627114e+00 
77300 5.0168712545e+00 -1.1025732417e-04 1.4335430560e+00 -2.4829694078e+00 1.4335430560e+00 2.4829694078e+00 
77400 5.0168712495e+00 -1.0967275933e-04 1.4335469016e+00 -2.4829760686e+00 1.4335469016e+00 2.4829760686e+00 
77500 5.0168712445e+00 -1.0909127099e-04 1.4335507268e+00 -2.4829826941e+00 1.4335507268e+00 2.4829826941e+00 
77600 5.0168712395e+00 -1.0851284319e-04 1.4335545318e+00 -2.4829892844e+00 1.4335545318e+00 2.4829892844e+00 
77700 5.0168712346e+00 -1.0793746006e-04 1.4335583165e+00 -2.4829958398e+00 1.4335583165e+00 2.4829958398e+00 
77800 5.0168712298e+00 -1.0736510582e-04 1.4335620812e+00 -2.4830023604e+00 1.4335620812e+00 2.4830023604e+00 
77900 5.0168712250e+00 -1.0679576474e-04 1.4335658259e+00 -2.4830088464e+00 1.4335658259e+00 2.4830088464e+00 
78000 5.0168712202e+00 -1.0622942120e-04 1.4335695507e+00 -2.4830152980e+00 1.4335695507e+00 2.4830152980e+00 
78100 5.0168712155e+00 -1.0566605963e-04 1.4335732558e+00 -2.4830217154e+00 1.4335732558e+00 2.4830217154e+00 
78200 5.0168712109e+00 -1.0510566457e-04 1.4335769412e+00 -2.4830280987e+00 1.4335769412e+00 2.4830280987e+00 
78300 5.0168712063e+00 -1.0454822062e-04 1.4335806070e+00 -2.4830344481e+00 1.4335806070e+00 2.4830344481e+00 
78400 5.0168712017e+00 -1.0399371245e-04 1.4335842534e+00 -2.4830407639e+00 1.4335842534e+00 2.4830407639e+00 
78500 5.0168711972e+00 -1.0344212482e-04 1.4335878805e+00 -2.4830470461e+00 1.4335878805e+00 2.4830470461e+00 
78600 5.0168711928e+00 -1.0289344256e-04 1.4335914883e+00 -2.4830532950e+00 1.4335914883e+00 2.4830532950e+00 
78700 5.0168711884e+00 -1.0234765058e-04 1.4335950770e+00 -2.4830595108e+00 1.4335950770e+00 2.4830595108e+00 
78800 5.0168711840e+00 -1.0180473386e-04 1.4335986466e+00 -2.4830656935e+00 1.4335986466e+00 2.4830656935e+00 
78900 5.0168711797e+00 -1.0126467748e-04 1.4336021973e+00 -2.4830718435e+00 1.4336021973e+00 2.4830718435e+00 
79000 5.0168711755e+00 -1.0072746656e-04 1.4336057291e+00 -2.4830779608e+00 1.4336057291e+00 2.4830779608e+00 
79100 5.0168711712e+00 -1.0019308631e-04 1.4336092422e+00 -2.4830840456e+00 1.4336092422e+00 2.4830840456e+00 
79200 5.0168711671e+00 -9.9661522022e-05 1.4336127366e+00 -2.4830900982e+00 1.4336127366e+00 2.4830900982e+00 
79300 5.0168711629e+00 -9.9132759055e-05 1.4336162125e+00 -2.4830961186e+00 1.4336162125e+00 2.4830961186e+00 
79400 5.0168711588e+00 -9.8606782844e-05 1.4336196699e+00 -2.4831021070e+00 1.4336196699e+00 2.4831021070e+00 
79500 5.0168711548e+00 -9.8083578894e-05 1.4336231090e+00 -2.4831080637e+00 1.4336231090e+00 2.4831080637e+00 
79600 5.0168711508e+00 -9.7563132787e-05 1.4336265298e+00 -2.4831139888e+00 1.4336265298e+00 2.4831139888e+00 
79700 5.0168711468e+00 -9.7045430178e-05 1.4336299325e+00 -2.4831198824e+00 1.4336299325e+00 2.4831198824e+00 
79800 5.0168711429e+00 -9.6530456793e-05 1.4336333171e+00 -2.4831257447e+00 1.4336333171e+00 2.4831257447e+00 
79900 5.0168711390e+00 -9.6018198429e-05 1.4336366838e+00 -2.4831315759e+00 1.4336366838e+00 2.4831315759e+00 
80000 5.0168711352e+00 -9.5508640958e-05 1.4336400325e+00 -2.4831373761e+00 1.4336400325e+00 2.4831373761e+00 
80100 5.0168711314e+00 -9.5001770322e-05 1.4336433635e+00 -2.4831431455e+00 1.4336433635e+00 2.4831431455e+00 
80200 5.0168711277e+00 -9.4497572534e-05 1.4336466768e+00 -2.4831488843e+00 1.4336466768e+00 2.4831488843e+00 
80300 5.0168711240e+00 -9.3996033679e-05 1.4336499725e+00 -2.4831545927e+00 1.4336499725e+00 2.4831545927e+00 
80400 5.0168711203e+00 -9.3497139909e-05 1.4336532507e+00 -2.4831602707e+00 1.4336532507e+00 2.4831602707e+00 
80500 5.0168711166e+00 -9.3000877453e-05 1.4336565115e+00 -2.4831659186e+00 1.4336565115e+00 2.4831659186e+00 
80600 5.0168711130e+00 -9.2507232601e-05 1.4336597550e+00 -2.4831715364e+00 1.4336597550e+00 2.4831715364e+00 
80700 5.0168711095e+00 -9.2016191722e-05 1.4336629813e+00 -2.4831771245e+00 1.4336629813e+00 2.4831771245e+00 
80800 5.0168711060e+00 -9.1527741246e-05 1.4336661904e+00 -2.4831826829e+00 1.4336661904e+00 2.4831826829e+00 
80900 5.0168711025e+00 -9.1041867677e-05 1.4336693825e+00 -2.4831882117e+00 1.4336693825e+00 2.4831882117e+00 
81000 5.0168710990e+00 -9.0558557584e-05 1.4336725576e+00 -2.4831937112e+00 1.4336725576e+00 2.4831937112e+00 
81100 5.0168710956e+00 -9.0077797608e-05 1.4336757159e+00 -2.4831991815e+00 1.4336757159e+00 2.4831991815e+00 
81200 5.0168710923e+00 -8.9599574455e-05 1.4336788574e+00 -2.4832046228e+00 1.4336788574e+00 2.4832046228e+00 
81300 5.0168710889e+00 -8.9123874900e-05 1.4336819822e+00 -2.4832100351e+00 1.4336819822e+00 2.4832100351e+00 
81400 5.0168710856e+00 -8.8650685784e-05 1.4336850904e+00 -2.4832154187e+00 1.4336850904e+00 2.4832154187e+00 
81500 5.0168710824e+00 -8.8179994017e-05 1.4336881821e+00 -2.4832207737e+00 1.4336881821e+00 2.4832207737e+00 
81600 5.0168710791e+00 -8.7711786572e-05 1.4336912574e+00 -2.4832261002e+00 1.4336912574e+00 2.4832261002e+00 
81700 5.0168710759e+00 -8.7246050493e-05 1.4336943164e+00 -2.4832313985e+00 1.4336943164e+00 2.4832313985e+00 
81800 5.0168710728e+00 -8.6782772886e-05 1.4336973591e+00 -2.4832366686e+00 1.4336973591e+00 2.4832366686e+00 
81900 5.0168710696e+00 -8.6321940925e-05 1.4337003856e+00 -2.4832419107e+00 1.4337003856e+00 2.4832419107e+00 
82000 5.0168710665e+00 -8.5863541846e-05 1.4337033961e+00 -2.4832471250e+00 1.4337033961e+00 2.4832471250e+00 
82100 5.0168710635e+00 -8.5407562956e-05 1.4337063905e+00 -2.4832523116e+00 1.4337063905e+00 2.4832523116e+00 
82200 5.0168710604e+00 -8.4953991621e-05 1.4337093691e+00 -2.4832574706e+00 1.4337093691e+00 2.4832574706e+00 
82300 5.0168710574e+00 -8.4502815273e-05 1.4337123318e+00 -2.4832626022e+00 1.4337123318e+00 2.4832626022e+00 
82400 5.0168710545e+00 -8.4054021410e-05 1.4337152788e+00 -2.4832677065e+00 1.4337152788e+00 2.4832677065e+00 
82500 5.0168710515e+00 -8.3607597593e-05 1.4337182102e+00 -2.4832727838e+00 1.4337182102e+00 2.4832727838e+00 
82600 5.0168710486e+00 -8.3163531443e-05 1.4337211259e+00 -2.4832778340e+00 1.4337211259e+00 2.4832778340e+00 
82700 5.0168710458e+00 -8.2721810650e-05 1.4337240262e+00 -2.4832828574e+00 1.4337240262e+00 2.4832828574e+00 
82800 5.0168710429e+00 -8.2282422962e-05 1.4337269111e+00 -2.4832878541e+00 1.4337269111e+00 2.4832878541e+00 
82900 5.0168710401e+00 -8.1845356192e-05 1.4337297806e+00 -2.4832928243e+00 1.4337297806e+00 2.4832928243e+00 
83000 5.0168710373e+00 -8.1410598215e-05 1.4337326349e+00 -2.4832977681e+00 1.4337326349e+00 2.4832977681e+00 
83100 5.0168710346e+00 -8.0978136966e-05 1.4337354740e+00 -2.4833026856e+00 1.4337354740e+00 2.4833026856e+00 
83200 5.0168710318e+00 -8.0547960445e-05 1.4337382980e+00 -2.4833075769e+00 1.4337382980e+00 2.4833075769e+00 
83300 5.0168710291e+00 -8.0120056709e-05 1.4337411070e+00 -2.4833124423e+00 1.4337411070e+00 2.4833124423e+00 
83400 5.0168710265e+00 -7.9694413881e-05 1.4337439011e+00 -2.4833172818e+00 1.4337439011e+00 2.4833172818e+00 
83500 5.0168710238e+00 -7.9271020142e-05 1.4337466804e+00 -2.4833220956e+00 1.4337466804e+00 2.4833220956e+00 
83600 5.0168710212e+00 -7.8849863732e-05 1.4337494448e+00 -2.4833268838e+00 1.4337494448e+00 2.4833268838e+00 
83700 5.0168710186e+00 -7.8430932955e-05 1.4337521946e+00 -2.4833316466e+00 1.4337521946e+00 2.4833316466e+00 
83800 5.0168710161e+00 -7.8014216171e-05 1.4337549298e+00 -2.4833363840e+00 1.4337549298e+00 2.4833363840e+00 
83900 5.0168710136e+00 -7.7599701802e-05 1.4337576504e+00 -2.4833410963e+00 1.4337576504e+00 2.4833410963e+00 
84000 5.0168710111e+00 -7.7187378329e-05 1.4337603566e+00 -2.4833457835e+00 1.4337603566e+00 2.4833457835e+00 
84100 5.0168710086e+00 -7.6777234291e-05 1.4337630484e+00 -2.4833504458e+00 1.4337630484e+00 2.4833504458e+00 
84200 5.0168710061e+00 -7.6369258286e-05 1.4337657258e+00 -2.4833550833e+00 1.4337657258e+00 2.4833550833e+00 
84300 5.0168710037e+00 -7.5963438972e-05 1.4337683891e+00 -2.4833596962e+00 1.4337683891e+00 2.4833596962e+00 
84400 5.0168710013e+00 -7.5559765061e-05 1.4337710382e+00 -2.4833642845e+00 1.4337710382e+00 2.4833642845e+00 
84500 5.0168709989e+00 -7.5158225328e-05 1.4337736732e+00 -2.4833688485e+00 1.4337736732e+00 2.4833688485e+00 
84600 5.0168709966e+00 -7.4758808603e-05 1.4337762942e+00 -2.4833733882e+00 1.4337762942e+00 2.4833733882e+00 
84700 5.0168709943e+00 -7.4361503773e-05 1.4337789012e+00 -2.4833779037e+00 1.4337789012e+00 2.4833779037e+00 
84800 5.0168709920e+00 -7.3966299783e-05 1.4337814944e+00 -2.4833823953e+00 1.4337814944e+00 2.4833823953e+00 
84900 5.0168709897e+00 -7.3573185632e-05 1.4337840738e+00 -2.4833868630e+00 1.4337840738e+00 2.4833868630e+00 
85000 5.0168709875e+00 -7.3182150381e-05 1.4337866395e+00 -2.4833913069e+00 1.4337866395e+00 2.4833913069e+00 
85100 5.0168709852e+00 -7.2793183141e-05 1.4337891916e+00 -2.4833957272e+00 1.4337891916e+00 2.4833957272e+00 
85200 5.0168709830e+00 -7.2406273084e-05 1.4337917301e+00 -2.4834001240e+00 1.4337917301e+00 2.4834001240e+00 
85300 5.0168709809e+00 -7.2021409432e-05 1.4337942551e+00 -2.4834044974e+00 1.4337942551e+00 2.4834044974e+00 
85400 5.0168709787e+00 -7.1638581469e-05 1.4337967666e+00 -2.4834088476e+00 1.4337967666e+00 2.4834088476e+00 
85500 5.0168709766e+00 -7.1257778528e-05 1.4337992649e+00 -2.4834131746e+00 1.4337992649e+00 2.4834131746e+00 
85600 5.0168709745e+00 -7.0878990002e-05 1.4338017498e+00 -2.4834174786e+00 1.4338017498e+00 2.4834174786e+00 
85700 5.0168709724e+00 -7.0502205333e-05 1.4338042215e+00 -2.4834217598e+00 1.4338042215e+00 2.4834217598e+00 
85800 5.0168709706e+00 -7.1350498530e-05 1.4338042215e+00 -2.4834217598e+00 1.4338042215e+00 2.4834217598e+00 
85900 5.0168709685e+00 -7.0960329823e-05 1.4338067097e+00 -2.4834260694e+00 1.4338067097e+00 2.4834260694e+00 
86000 5.0168709665e+00 -7.0572196964e-05 1.4338091842e+00 -2.4834303554e+00 1.4338091842e+00 2.4834303554e+00 
86100 5.0168709647e+00 -7.1410431654e-05 1.4338091842e+00 -2.4834303554e+00 1.4338091842e+00 2.4834303554e+00 
86200 5.0168709628e+00 -7.1008993586e-05 1.4338116744e+00 -2.4834346686e+00 1.4338116744e+00 2.4834346686e+00 
86300 5.0168709608e+00 -7.0609654928e-05 1.4338141507e+00 -2.4834389576e+00 1.4338141507e+00 2.4834389576e+00 
86400 5.0168709591e+00 -7.1437437134e-05 1.4338141507e+00 -2.4834389576e+00 1.4338141507e+00 2.4834389576e+00 
86500 5.0168709572e+00 -7.1024934910e-05 1.4338166418e+00 -2.4834432724e+00 1.4338166418e+00 2.4834432724e+00 
86600 5.0168709553e+00 -7.0614619282e-05 1.4338191186e+00 -2.4834475623e+00 1.4338191186e+00 2.4834475623e+00 
86700 5.0168709536e+00 -7.1431634814e-05 1.4338191186e+00 -2.4834475623e+00 1.4338191186e+00 2.4834475623e+00 
86800 5.0168709518e+00 -7.1008346054e-05 1.4338216096e+00 -2.4834518768e+00 1.4338216096e+00 2.4834518768e+00 
86900 5.0168709499e+00 -7.0587348533e-05 1.4338240858e+00 -2.4834561657e+00 1.4338240858e+00 2.4834561657e+00 
87000 5.0168709483e+00 -7.1393348246e-05 1.4338240858e+00 -2.4834561657e+00 1.4338240858e+00 2.4834561657e+00 
87100 5.0168709465e+00 -7.0959605902e-05 1.4338265754e+00 -2.4834604778e+00 1.4338265754e+00 2.4834604778e+00 
87200 5.0168709447e+00 -7.0528272130e-05 1.4338290499e+00 -2.4834647637e+00 1.4338290499e+00 2.4834647637e+00 
87300 5.0168709432e+00 -7.1323060487e-05 1.4338290499e+00 -2.4834647637e+00 1.4338290499e+00 2.4834647637e+00 
87400 5.0168709415e+00 -7.0879239573e-05 1.4338315370e+00 -2.4834690716e+00 1.4338315370e+00 2.4834690716e+00 
87500 5.0168709397e+00 -7.0437953559e-05 1.4338340087e+00 -2.4834733527e+00 1.4338340087e+00 2.4834733527e+00 
87600 5.0168709383e+00 -7.1221379748e-05 1.4338340087e+00 -2.4834733527e+00 1.4338340087e+00 2.4834733527e+00 
87700 5.0168709366e+00 -7.0767886999e-05 1.4338364923e+00 -2.4834776544e+00 1.4338364923e+00 2.4834776544e+00 
87800 5.0168709349e+00 -7.0317061615e-05 1.4338389601e+00 -2.4834819287e+00 1.4338389601e+00 2.4834819287e+00 
87900 5.0168709334e+00 -7.1089012643e-05 1.4338389601e+00 -2.4834819287e+00 1.4338389601e+00 2.4834819287e+00 
88000 5.0168709318e+00 -7.0626278448e-05 1.4338414391e+00 -2.4834862224e+00 1.4338414391e+00 2.4834862224e+00 
88100 5.0168709304e+00 -7.1391814040e-05 1.4338414391e+00 -2.4834862224e+00 1.4338414391e+00 2.4834862224e+00 
88200 5.0168709288e+00 -7.0917315542e-05 1.4338439286e+00 -2.4834905344e+00 1.4338439286e+00 2.4834905344e+00 
88300 5.0168709272e+00 -7.0445738418e-05 1.4338464016e+00 -2.4834948178e+00 1.4338464016e+00 2.4834948178e+00 
88400 5.0168709258e+00 -7.1199475474e-05 1.4338464016e+00 -2.4834948178e+00 1.4338464016e+00 2.4834948178e+00 
88500 5.0168709243e+00 -7.0716477485e-05 1.4338488844e+00 -2.4834991181e+00 1.4338488844e+00 2.4834991181e+00 
88600 5.0168709227e+00 -7.0236549956e-05 1.4338513503e+00 -2.4835033893e+00 1.4338513503e+00 2.4835033893e+00 
88700 5.0168709214e+00 -7.0978481264e-05 1.4338513503e+00 -2.4835033893e+00 1.4338513503e+00 2.4835033893e+00 
88800 5.0168709199e+00 -7.0487479496e-05 1.4338538254e+00 -2.4835076763e+00 1.4338538254e+00 2.4835076763e+00 
88900 5.0168709186e+00 -7.1222824100e-05 1.4338538254e+00 -2.4835076763e+00 1.4338538254e+00 2.4835076763e+00 
89000 5.0168709171e+00 -7.0720918753e-05 1.4338563091e+00 -2.4835119780e+00 1.4338563091e+00 2.4835119780e+00 
89100 5.0168709156e+00 -7.0222352644e-05 1.4338587752e+00 -2.4835162495e+00 1.4338587752e+00 2.4835162495e+00 
89200 5.0168709144e+00 -7.0945713304e-05 1.4338587752e+00 -2.4835162495e+00 1.4338587752e+00 2.4835162495e+00 
89300 5.0168709130e+00 -7.0436618079e-05 1.4338612491e+00 -2.4835205345e+00 1.4338612491e+00 2.4835205345e+00 
89400 5.0168709118e+00 -7.1153303583e-05 1.4338612491e+00 -2.4835205345e+00 1.4338612491e+00 2.4835205345e+00 
89500 5.0168709103e+00 -7.0633864702e-05 1.4338637303e+00 -2.4835248320e+00 1.4338637303e+00 2.4835248320e+00 
89600 5.0168709092e+00 -7.1343770779e-05 1.4338637303e+00 -2.4835248320e+00 1.4338637303e+00 2.4835248320e+00 
89700 5.0168709078e+00 -7.0814188845e-05 1.4338662181e+00 -2.4835291410e+00 1.4338662181e+00 2.4835291410e+00 
89800 5.0168709064e+00 -7.0288350528e-05 1.4338686875e+00 -2.4835334181e+00 1.4338686875e+00 2.4835334181e+00 
89900 5.0168709053e+00 -7.0986049792e-05 1.4338686875e+00 -2.4835334181e+00 1.4338686875e+00 2.4835334181e+00 
90000 5.0168709039e+00 -7.0450478884e-05 1.4338711628e+00 -2.4835377055e+00 1.4338711628e+00 2.4835377055e+00 
90100 5.0168709028e+00 -7.1141397422e-05 1.4338711628e+00 -2.4835377055e+00 1.4338711628e+00 2.4835377055e+00 
90200 5.0168709015e+00 -7.0596298255e-05 1.4338736435e+00 -2.4835420022e+00 1.4338736435e+00 2.4835420022e+00 
90300 5.0168709004e+00 -7.1280361277e-05 1.4338736435e+00 -2.4835420022e+00 1.4338736435e+00 2.4835420022e+00 
90400 5.0168708991e+00 -7.0725949908e-05 1.4338761291e+00 -2.4835463074e+00 1.4338761291e+00 2.4835463074e+00 
90500 5.0168708978e+00 -7.0175694313e-05 1.4338785954e+00 -2.4835505791e+00 1.4338785954e+00 2.4835505791e+00 
90600 5.0168708968e+00 -7.0847488686e-05 1.4338785954e+00 -2.4835505791e+00 1.4338785954e+00 2.4835505791e+00 
90700 5.0168708955e+00 -7.0288348879e-05 1.4338810659e+00 -2.4835548581e+00 1.4338810659e+00 2.4835548581e+00 
90800 5.0168708945e+00 -7.0953350009e-05 1.4338810659e+00 -2.4835548581e+00 1.4338810659e+00 2.4835548581e+00 
90900 5.0168708932e+00 -7.0385538996e-05 1.4338835400e+00 -2.4835591435e+00 1.4338835400e+00 2.4835591435e+00 
91000 5.0168708923e+00 -7.1043694378e-05 1.4338835400e+00 -2.4835591435e+00 1.4338835400e+00 2.4835591435e+00 
91100 5.0168708910e+00 -7.0467434701e-05 1.4338860173e+00 -2.4835634343e+00 1.4338860173e+00 2.4835634343e+00 
91200 5.0168708901e+00 -7.1118703458e-05 1.4338860173e+00 -2.4835634343e+00 1.4338860173e+00 2.4835634343e+00 
91300 5.0168708889e+00 -7.0534225514e-05 1.4338884973e+00 -2.4835677297e+00 1.4338884973e+00 2.4835677297e+00 
91400 5.0168708879e+00 -7.1178577185e-05 1.4338884973e+00 -2.4835677297e+00 1.4338884973e+00 2.4835677297e+00 
91500 5.0168708867e+00 -7.0586117789e-05 1.4338909793e+00 -2.4835720286e+00 1.4338909793e+00 2.4835720286e+00 
91600 5.0168708858e+00 -7.1223531280e-05 1.4338909793e+00 -2.4835720286e+00 1.4338909793e+00 2.4835720286e+00 
91700 5.0168708847e+00 -7.0623332415e-05 1.4338934629e+00 -2.4835763303e+00 1.4338934629e+00 2.4835763303e+00 
91800 5.0168708838e+00 -7.1253795095e-05 1.4338934629e+00 -2.4835763303e+00 1.4338934629e+00 2.4835763303e+00 
91900 5.0168708826e+00 -7.0646102825e-05 1.4338959475e+00 -2.4835806338e+00 1.4338959475e+00 2.4835806338e+00 
92000 5.0168708817e+00 -7.1269609734e-05 1.4338959475e+00 -2.4835806338e+00 1.4338959475e+00 2.4835806338e+00 
92100 5.0168708806e+00 -7.0654673271e-05 1.4338984327e+00 -2.4835849383e+00 1.4338984327e+00 2.4835849383e+00 
92200 5.0168708798e+00 -7.1271226433e-05 1.4338984327e+00 -2.4835849383e+00 1.4338984327e+00 2.4835849383e+00 
92300 5.0168708787e+00 -7.0649297306e-05 1.4339009179e+00 -2.4835892428e+00 1.4339009179e+00 2.4835892428e+00 
92400 5.0168708778e+00 -7.1258905122e-05 1.4339009179e+00 -2.4835892428e+00 1.4339009179e+00 2.4835892428e+00 
92500 5.0168708768e+00 -7.0630236466e-05 1.4339034027e+00 -2.4835935466e+00 1.4339034027e+00 2.4835935466e+00 
92600 5.0168708759e+00 -7.1232913178e-05 1.4339034027e+00 -2.4835935466e+00 1.4339034027e+00 2.4835935466e+00 
92700 5.0168708749e+00 -7.0597759093e-05 1.4339058866e+00 -2.4835978488e+00 1.4339058866e+00 2.4835978488e+00 
92800 5.0168708741e+00 -7.1193524310e-05 1.4339058866e+00 -2.4835978488e+00 1.4339058866e+00 2.4835978488e+00 
92900 5.0168708730e+00 -7.0552139306e-05 1.4339083691e+00 -2.4836021486e+00 1.4339083691e+00 2.4836021486e+00 
93000 5.0168708723e+00 -7.1141017580e-05 1.4339083691e+00 -2.4836021486e+00 1.4339083691e+00 2.4836021486e+00 
93100 5.0168708712e+00 -7.0493656078e-05 1.4339108497e+00 -2.4836064453e+00 1.4339108497e+00 2.4836064453e+00 
93200 5.0168708705e+00 -7.1075676515e-05 1.4339108497e+00 -2.4836064453e+00 1.4339108497e+00 2.4836064453e+00 
93300 5.0168708695e+00 -7.0422592403e-05 1.4339133281e+00 -2.4836107380e+00 1.4339133281e+00 2.4836107380e+00 
93400 5.0168708687e+00 -7.0997788321e-05 1.4339133281e+00 -2.4836107380e+00 1.4339133281e+00 2.4836107380e+00 
93500 5.0168708678e+00 -7.0339234563e-05 1.4339158038e+00 -2.4836150259e+00 1.4339158038e+00 2.4836150259e+00 
93600 5.0168708670e+00 -7.0907643170e-05 1.4339158038e+00 -2.4836150259e+00 1.4339158038e+00 2.4836150259e+00 
93700 5.0168708661e+00 -7.0243871444e-05 1.4339182763e+00 -2.4836193085e+00 1.4339182763e+00 2.4836193085e+00 
93800 5.0168708653e+00 -7.0805533549e-05 1.4339182763e+00 -2.4836193085e+00 1.4339182763e+00 2.4836193085e+00 
93900 5.0168708644e+00 -7.0136793930e-05 1.4339207453e+00 -2.4836235848e+00 1.4339207453e+00 2.4836235848e+00 
94000 5.0168708637e+00 -7.0691753674e-05 1.4339207453e+00 -2.4836235848e+00 1.4339207453e+00 2.4836235848e+00 
94100 5.0168708630e+00 -7.1245358152e-05 1.4339207453e+00 -2.4836235848e+00 1.4339207453e+00 2.4836235848e+00 
94200 5.0168708621e+00 -7.0560848470e-05 1.4339232296e+00 -2.4836278877e+00 1.4339232296e+00 2.4836278877e+00 
94300 5.0168708614e+00 -7.1107617803e-05 1.4339232296e+00 -2.4836278877e+00 1.4339232296e+00 2.4836278877e+00 
94400 5.0168708605e+00 -7.0418683485e-05 1.4339257090e+00 -2.4836321823e+00 1.4339257090e+00 2.4836321823e+00 
94500 5.0168708598e+00 -7.0958688736e-05 1.4339257090e+00 -2.4836321823e+00 1.4339257090e+00 2.4836321823e+00 
94600 5.0168708590e+00 -7.0265594861e-05 1.4339281833e+00 -2.4836364679e+00 1.4339281833e+00 2.4836364679e+00 
94700 5.0168708583e+00 -7.0798906920e-05 1.4339281833e+00 -2.4836364679e+00 1.4339281833e+00 2.4836364679e+00 
94800 5.0168708574e+00 -7.0101912695e-05 1.4339306520e+00 -2.4836407438e+00 1.4339306520e+00 2.4836407438e+00 
94900 5.0168708568e+00 -7.0628602506e-05 1.4339306520e+00 -2.4836407438e+00 1.4339306520e+00 2.4836407438e+00 
95000 5.0168708562e+00 -7.1153984663e-05 1.4339306520e+00 -2.4836407438e+00 1.4339306520e+00 2.4836407438e+00 
95100 5.0168708553e+00 -7.0442835836e-05 1.4339331331e+00 -2.4836450412e+00 1.4339331331e+00 2.4836450412e+00 
95200 5.0168708547e+00 -7.0961498092e-05 1.4339331331e+00 -2.4836450412e+00 1.4339331331e+00 2.4836450412e+00 
95300 5.0168708539e+00 -7.0247000069e-05 1.4339356075e+00 -2.4836493269e+00 1.4339356075e+00 2.4836493269e+00 
95400 5.0168708533e+00 -7.0759033779e-05 1.4339356075e+00 -2.4836493269e+00 1.4339356075e+00 2.4836493269e+00 
95500 5.0168708525e+00 -7.0041449886e-05 1.4339380748e+00 -2.4836536004e+00 1.4339380748e+00 2.4836536004e+00 
95600 5.0168708519e+00 -7.0546944173e-05 1.4339380748e+00 -2.4836536004e+00 1.4339380748e+00 2.4836536004e+00 
95700 5.0168708513e+00 -7.1051176248e-05 1.4339380748e+00 -2.4836536004e+00 1.4339380748e+00 2.4836536004e+00 
95800 5.0168708505e+00 -7.0320669796e-05 1.4339405523e+00 -2.4836578915e+00 1.4339405523e+00 2.4836578915e+00 
95900 5.0168708500e+00 -7.0818288631e-05 1.4339405523e+00 -2.4836578915e+00 1.4339405523e+00 2.4836578915e+00 
96000 5.0168708492e+00 -7.0085247610e-05 1.4339430216e+00 -2.4836621686e+00 1.4339430216e+00 2.4836621686e+00 
96100 5.0168708486e+00 -7.0576358190e-05 1.4339430216e+00 -2.4836621686e+00 1.4339430216e+00 2.4836621686e+00 
96200 5.0168708481e+00 -7.1066228407e-05 1.4339430216e+00 -2.4836621686e+00 1.4339430216e+00 2.4836621686e+00 
96300 5.0168708473e+00 -7.0321094916e-05 1.4339454996e+00 -2.4836664606e+00 1.4339454996e+00 2.4836664606e+00 
96400 5.0168708468e+00 -7.0804403288e-05 1.4339454996e+00 -2.4836664606e+00 1.4339454996e+00 2.4836664606e+00 
96500 5.0168708460e+00 -7.0057294670e-05 1.4339479685e+00 -2.4836707368e+00 1.4339479685e+00 2.4836707368e+00 
96600 5.0168708455e+00 -7.0534157783e-05 1.4339479685e+00 -2.4836707368e+00 1.4339479685e+00 2.4836707368e+00 
96700 5.0168708450e+00 -7.1009814867e-05 1.4339479685e+00 -2.4836707368e+00 1.4339479685e+00 2.4836707368e+00 
96800 5.0168708442e+00 -7.0251456531e-05 1.4339504445e+00 -2.4836750254e+00 1.4339504445e+00 2.4836750254e+00 
96900 5.0168708437e+00 -7.0720629851e-05 1.4339504445e+00 -2.4836750254e+00 1.4339504445e+00 2.4836750254e+00 
97000 5.0168708430e+00 -6.9960853620e-05 1.4339529104e+00 -2.4836792966e+00 1.4339529104e+00 2.4836792966e+00 
97100 5.0168708425e+00 -7.0423668347e-05 1.4339529104e+00 -2.4836792966e+00 1.4339529104e+00 2.4836792966e+00 
97200 5.0168708421e+00 -7.0885320290e-05 1.4339529104e+00 -2.4836792966e+00 1.4339529104e+00 2.4836792966e+00 
97300 5.0168708413e+00 -7.0115136502e-05 1.4339553821e+00 -2.4836835776e+00 1.4339553821e+00 2.4836835776e+00 
97400 5.0168708409e+00 -7.0570402804e-05 1.4339553821e+00 -2.4836835776e+00 1.4339553821e+00 2.4836835776e+00 
97500 5.0168708404e+00 -7.1024501698e-05 1.4339553821e+00 -2.4836835776e+00 1.4339553821e+00 2.4836835776e+00 
97600 5.0168708397e+00 -7.0244330164e-05 1.4339578586e+00 -2.4836878671e+00 1.4339578586e+00 2.4836878671e+00 
97700 5.0168708393e+00 -7.0692033835e-05 1.4339578586e+00 -2.4836878671e+00 1.4339578586e+00 2.4836878671e+00 
97800 5.0168708388e+00 -7.1138572630e-05 1.4339578586e+00 -2.4836878671e+00 1.4339578586e+00 2.4836878671e+00 
97900 5.0168708381e+00 -7.0348849223e-05 1.4339603391e+00 -2.4836921634e+00 1.4339603391e+00 2.4836921634e+00 
98000 5.0168708377e+00 -7.0788997477e-05 1.4339603391e+00 -2.4836921634e+00 1.4339603391e+00 2.4836921634e+00 
98100 5.0168708370e+00 -6.9999010043e-05 1.4339628074e+00 -2.4836964387e+00 1.4339628074e+00 2.4836964387e+00 
98200 5.0168708366e+00 -7.0432917685e-05 1.4339628074e+00 -2.4836964387e+00 1.4339628074e+00 2.4836964387e+00 
98300 5.0168708362e+00 -7.0865730325e-05 1.4339628074e+00 -2.4836964387e+00 1.4339628074e+00 2.4836964387e+00 
98400 5.0168708355e+00 -7.0067063184e-05 1.4339652784e+00 -2.4837007185e+00 1.4339652784e+00 2.4837007185e+00 
98500 5.0168708351e+00 -7.0493639825e-05 1.4339652784e+00 -2.4837007185e+00 1.4339652784e+00 2.4837007185e+00 
98600 5.0168708347e+00 -7.0919128832e-05 1.4339652784e+00 -2.4837007185e+00 1.4339652784e+00 2.4837007185e+00 
98700 5.0168708340e+00 -7.0112205131e-05 1.4339677513e+00 -2.4837050016e+00 1.4339677513e+00 2.4837050016e+00 
98800 5.0168708337e+00 -7.0531475093e-05 1.4339677513e+00 -2.4837050016e+00 1.4339677513e+00 2.4837050016e+00 
98900 5.0168708333e+00 -7.0949669706e-05 1.4339677513e+00 -2.4837050016e+00 1.4339677513e+00 2.4837050016e+00 
99000 5.0168708326e+00 -7.0134920442e-05 1.4339702252e+00 -2.4837092865e+00 1.4339702252e+00 2.4837092865e+00 
99100 5.0168708322e+00 -7.0546923083e-05 1.4339702252e+00 -2.4837092865e+00 1.4339702252e+00 2.4837092865e+00 
99200 5.0168708319e+00 -7.0957866608e-05 1.4339702252e+00 -2.4837092865e+00 1.4339702252e+00 2.4837092865e+00 
99300 5.0168708312e+00 -7.0135727027e-05 1.4339726993e+00 -2.4837135719e+00 1.4339726993e+00 2.4837135719e+00 
99400 5.0168708309e+00 -7.0540514004e-05 1.4339726993e+00 -2.4837135719e+00 1.4339726993e+00 2.4837135719e+00 
99500 5.0168708305e+00 -7.0944261271e-05 1.4339726993e+00 -2.4837135719e+00 1.4339726993e+00 2.4837135719e+00 
99600 5.0168708299e+00 -7.0115168036e-05 1.4339751730e+00 -2.4837178565e+00 1.4339751730e+00 2.4837178565e+00 
99700 5.0168708296e+00 -7.0512801131e-05 1.4339751730e+00 -2.4837178565e+00 1.4339751730e+00 2.4837178565e+00 
99800 5.0168708292e+00 -7.0909416482e-05 1.4339751730e+00 -2.4837178565e+00 1.4339751730e+00 2.4837178565e+00 
99900 5.0168708286e+00 -7.0073805428e-05 1.4339776455e+00 -2.4837221389e+00 1.4339776455e+00 2.4837221389e+00 
100000 5.0168708283e+00 -7.0464354804e-05 1.4339776455e+00 -2.4837221389e+00 1.4339776455e+00 2.4837221389e+00 
100100 5.0168708279e+00 -7.0853910475e-05 1.4339776455e+00 -2.4837221389e+00 1.4339776455e+00 2.4837221389e+00 
100200 5.0168708273e+00 -7.0012214841e-05 1.4339801160e+00 -2.4837264180e+00 1.4339801160e+00 2.4837264180e+00 
100300 5.0168708270e+00 -7.0395757643e-05 1.4339801160e+00 -2.4837264180e+00 1.4339801160e+00 2.4837264180e+00 
100400 5.0168708267e+00 -7.0778332457e-05 1.4339801160e+00 -2.4837264180e+00 1.4339801160e+00 2.4837264180e+00 
100500 5.0168708261e+00 -6.9930981475e-05 1.4339825839e+00 -2.4837306926e+00 1.4339825839e+00 2.4837306926e+00 
100600 5.0168708258e+00 -7.0307600693e-05 1.4339825839e+00 -2.4837306926e+00 1.4339825839e+00 2.4837306926e+00 
100700 5.0168708255e+00 -7.0683278997e-05 1.4339825839e+00 -2.4837306926e+00 1.4339825839e+00 2.4837306926e+00 
100800 5.0168708252e+00 -7.1057965711e-05 1.4339825839e+00 -2.4837306926e+00 1.4339825839e+00 2.4837306926e+00 
100900 5.0168708246e+00 -7.0197833123e-05 1.4339850616e+00 -2.4837349840e+00 1.4339850616e+00 2.4837349840e+00 
101000 5.0168708243e+00 -7.0566512642e-05 1.4339850616e+00 -2.4837349840e+00 1.4339850616e+00 2.4837349840e+00 
101100 5.0168708240e+00 -7.0934238550e-05 1.4339850616e+00 -2.4837349840e+00 1.4339850616e+00 2.4837349840e+00 
101200 5.0168708235e+00 -7.0069318806e-05 1.4339875349e+00 -2.4837392679e+00 1.4339875349e+00 2.4837392679e+00 
101300 5.0168708232e+00 -7.0431119446e-05 1.4339875349e+00 -2.4837392679e+00 1.4339875349e+00 2.4837392679e+00 
101400 5.0168708229e+00 -7.0792003326e-05 1.4339875349e+00 -2.4837392679e+00 1.4339875349e+00 2.4837392679e+00 
101500 5.0168708223e+00 -6.9922735881e-05 1.4339900033e+00 -2.4837435432e+00 1.4339900033e+00 2.4837435432e+00 
101600 5.0168708220e+00 -7.0277775515e-05 1.4339900033e+00 -2.4837435432e+00 1.4339900033e+00 2.4837435432e+00 
101700 5.0168708218e+00 -7.0631934390e-05 1.4339900033e+00 -2.4837435432e+00 1.4339900033e+00 2.4837435432e+00 
101800 5.0168708215e+00 -7.0985164427e-05 1.4339900033e+00 -2.4837435432e+00 1.4339900033e+00 2.4837435432e+00 
101900 5.0168708210e+00 -7.0104863007e-05 1.4339924784e+00 -2.4837478302e+00 1.4339924784e+00 2.4837478302e+00 
102000 5.0168708207e+00 -7.0452222810e-05 1.4339924784e+00 -2.4837478302e+00 1.4339924784e+00 2.4837478302e+00 
102100 5.0168708204e+00 -7.0798698423e-05 1.4339924784e+00 -2.4837478302e+00 1.4339924784e+00 2.4837478302e+00 
102200 5.0168708199e+00 -6.9914912899e-05 1.4339949470e+00 -2.4837521059e+00 1.4339949470e+00 2.4837521059e+00 
102300 5.0168708197e+00 -7.0255615769e-05 1.4339949470e+00 -2.4837521059e+00 1.4339949470e+00 2.4837521059e+00 
102400 5.0168708194e+00 -7.0595476681e-05 1.4339949470e+00 -2.4837521059e+00 1.4339949470e+00 2.4837521059e+00 
102500 5.0168708191e+00 -7.0934449365e-05 1.4339949470e+00 -2.4837521059e+00 1.4339949470e+00 2.4837521059e+00 
102600 5.0168708186e+00 -7.0040785953e-05 1.4339974203e+00 -2.4837563898e+00 1.4339974203e+00 2.4837563898e+00 
102700 5.0168708184e+00 -7.0373977595e-05 1.4339974203e+00 -2.4837563898e+00 1.4339974203e+00 2.4837563898e+00 
102800 5.0168708181e+00 -7.0706330297e-05 1.4339974203e+00 -2.4837563898e+00 1.4339974203e+00 2.4837563898e+00 
102900 5.0168708179e+00 -7.1037799709e-05 1.4339974203e+00 -2.4837563898e+00 1.4339974203e+00 2.4837563898e+00 
103000 5.0168708174e+00 -7.0134829446e-05 1.4339998972e+00 -2.4837606800e+00 1.4339998972e+00 2.4837606800e+00 
103100 5.0168708172e+00 -7.0460527386e-05 1.4339998972e+00 -2.4837606800e+00 1.4339998972e+00 2.4837606800e+00 
103200 5.0168708169e+00 -7.0785396554e-05 1.4339998972e+00 -2.4837606800e+00 1.4339998972e+00 2.4837606800e+00 
103300 5.0168708165e+00 -6.9880251641e-05 1.4340023653e+00 -2.4837649549e+00 1.4340023653e+00 2.4837649549e+00 
103400 5.0168708162e+00 -7.0199468283e-05 1.4340023653e+00 -2.4837649549e+00 1.4340023653e+00 2.4837649549e+00 
103500 5.0168708160e+00 -7.0517906309e-05 1.4340023653e+00 -2.4837649549e+00 1.4340023653e+00 2.4837649549e+00 
103600 5.0168708158e+00 -7.0835521786e-05 1.4340023653e+00 -2.4837649549e+00 1.4340023653e+00 2.4837649549e+00 
103700 5.0168708153e+00 -6.9922245896e-05 1.4340048352e+00 -2.4837692328e+00 1.4340048352e+00 2.4837692328e+00 
103800 5.0168708151e+00 -7.0234223859e-05 1.4340048352e+00 -2.4837692328e+00 1.4340048352e+00 2.4837692328e+00 
103900 5.0168708149e+00 -7.0545434495e-05 1.4340048352e+00 -2.4837692328e+00 1.4340048352e+00 2.4837692328e+00 
104000 5.0168708147e+00 -7.0855835290e-05 1.4340048352e+00 -2.4837692328e+00 1.4340048352e+00 2.4837692328e+00 
104100 5.0168708142e+00 -6.9934991567e-05 1.4340073057e+00 -2.4837735119e+00 1.4340073057e+00 2.4837735119e+00 
104200 5.0168708140e+00 -7.0239783141e-05 1.4340073057e+00 -2.4837735119e+00 1.4340073057e+00 2.4837735119e+00 
104300 5.0168708138e+00 -7.0543823841e-05 1.4340073057e+00 -2.4837735119e+00 1.4340073057e+00 2.4837735119e+00 
104400 5.0168708136e+00 -7.0847072221e-05 1.4340073057e+00 -2.4837735119e+00 1.4340073057e+00 2.4837735119e+00 
104500 5.0168708131e+00 -6.9919232772e-05 1.4340097760e+00 -2.4837777905e+00 1.4340097760e+00 2.4837777905e+00 
104600 5.0168708129e+00 -7.0216910500e-05 1.4340097760e+00 -2.4837777905e+00 1.4340097760e+00 2.4837777905e+00 
104700 5.0168708127e+00 -7.0513857659e-05 1.4340097760e+00 -2.4837777905e+00 1.4340097760e+00 2.4837777905e+00 
104800 5.0168708125e+00 -7.0810033624e-05 1.4340097760e+00 -2.4837777905e+00 1.4340097760e+00 2.4837777905e+00 
104900 5.0168708121e+00 -6.9875773255e-05 1.4340122449e+00 -2.4837820669e+00 1.4340122449e+00 2.4837820669e+00 
105000 5.0168708119e+00 -7.0166425212e-05 1.4340122449e+00 -2.4837820669e+00 1.4340122449e+00 2.4837820669e+00 
105100 5.0168708117e+00 -7.0456369800e-05 1.4340122449e+00 -2.4837820669e+00 1.4340122449e+00 2.4837820669e+00 
105200 5.0168708115e+00 -7.0745567036e-05 1.4340122449e+00 -2.4837820669e+00 1.4340122449e+00 2.4837820669e+00 
105300 5.0168708111e+00 -6.9805458708e-05 1.4340147116e+00 -2.4837863393e+00 1.4340147116e+00 2.4837863393e+00 
105400 5.0168708109e+00 -7.0089185027e-05 1.4340147116e+00 -2.4837863393e+00 1.4340147116e+00 2.4837863393e+00 
105500 5.0168708107e+00 -7.0372229367e-05 1.4340147116e+00 -2.4837863393e+00 1.4340147116e+00 2.4837863393e+00 
105600 5.0168708106e+00 -7.0654552262e-05 1.4340147116e+00 -2.4837863393e+00 1.4340147116e+00 2.4837863393e+00 
105700 5.0168708104e+00 -7.0936116741e-05 1.4340147116e+00 -2.4837863393e+00 1.4340147116e+00 2.4837863393e+00 
105800 5.0168708100e+00 -6.9985041412e-05 1.4340171850e+00 -2.4837906233e+00 1.4340171850e+00 2.4837906233e+00 
105900 5.0168708098e+00 -7.0261110737e-05 1.4340171850e+00 -2.4837906233e+00 1.4340171850e+00 2.4837906233e+00 
106000 5.0168708096e+00 -7.0536495258e-05 1.4340171850e+00 -2.4837906233e+00 1.4340171850e+00 2.4837906233e+00 
106100 5.0168708094e+00 -7.0811157719e-05 1.4340171850e+00 -2.4837906233e+00 1.4340171850e+00 2.4837906233e+00 
106200 5.0168708090e+00 -6.9855374217e-05 1.4340196539e+00 -2.4837948997e+00 1.4340196539e+00 2.4837948997e+00 
106300 5.0168708089e+00 -7.0124620445e-05 1.4340196539e+00 -2.4837948997e+00 1.4340196539e+00 2.4837948997e+00 
106400 5.0168708087e+00 -7.0393217264e-05 1.4340196539e+00 -2.4837948997e+00 1.4340196539e+00 2.4837948997e+00 
106500 5.0168708086e+00 -7.0661127274e-05 1.4340196539e+00 -2.4837948997e+00 1.4340196539e+00 2.4837948997e+00 
106600 5.0168708084e+00 -7.0928315438e-05 1.4340196539e+00 -2.4837948997e+00 1.4340196539e+00 2.4837948997e+00 
106700 5.0168708080e+00 -6.9963009480e-05 1.4340221270e+00 -2.4837991831e+00 1.4340221270e+00 2.4837991831e+00 
106800 5.0168708078e+00 -7.0224781601e-05 1.4340221270e+00 -2.4837991831e+00 1.4340221270e+00 2.4837991831e+00 
106900 5.0168708077e+00 -7.0485910566e-05 1.4340221270e+00 -2.4837991831e+00 1.4340221270e+00 2.4837991831e+00 
107000 5.0168708075e+00 -7.0746360623e-05 1.4340221270e+00 -2.4837991831e+00 1.4340221270e+00 2.4837991831e+00 
107100 5.0168708071e+00 -6.9777507288e-05 1.4340245937e+00 -2.4838034556e+00 1.4340245937e+00 2.4838034556e+00 
107200 5.0168708070e+00 -7.0032635329e-05 1.4340245937e+00 -2.4838034556e+00 1.4340245937e+00 2.4838034556e+00 
107300 5.0168708068e+00 -7.0287160946e-05 1.4340245937e+00 -2.4838034556e+00 1.4340245937e+00 2.4838034556e+00 
107400 5.0168708067e+00 -7.0541047932e-05 1.4340245937e+00 -2.4838034556e+00 1.4340245937e+00 2.4838034556e+00 
107500 5.0168708066e+00 -7.0794262381e-05 1.4340245937e+00 -2.4838034556e+00 1.4340245937e+00 2.4838034556e+00 
107600 5.0168708062e+00 -6.9817334815e-05 1.4340270621e+00 -2.4838077310e+00 1.4340270621e+00 2.4838077310e+00 
107700 5.0168708060e+00 -7.0065242513e-05 1.4340270621e+00 -2.4838077310e+00 1.4340270621e+00 2.4838077310e+00 
107800 5.0168708059e+00 -7.0312559062e-05 1.4340270621e+00 -2.4838077310e+00 1.4340270621e+00 2.4838077310e+00 
107900 5.0168708058e+00 -7.0559249635e-05 1.4340270621e+00 -2.4838077310e+00 1.4340270621e+00 2.4838077310e+00 
108000 5.0168708056e+00 -7.0805281609e-05 1.4340270621e+00 -2.4838077310e+00 1.4340270621e+00 2.4838077310e+00 
108100 5.0168708053e+00 -6.9820981062e-05 1.4340295308e+00 -2.4838120070e+00 1.4340295308e+00 2.4838120070e+00 
108200 5.0168708051e+00 -7.0061737192e-05 1.4340295308e+00 -2.4838120070e+00 1.4340295308e+00 2.4838120070e+00 
108300 5.0168708050e+00 -7.0301919499e-05 1.4340295308e+00 -2.4838120070e+00 1.4340295308e+00 2.4838120070e+00 
108400 5.0168708049e+00 -7.0541494136e-05 1.4340295308e+00 -2.4838120070e+00 1.4340295308e+00 2.4838120070e+00 
108500 5.0168708047e+00 -7.0780429396e-05 1.4340295308e+00 -2.4838120070e+00 1.4340295308e+00 2.4838120070e+00 
108600 5.0168708044e+00 -6.9789470077e-05 1.4340319987e+00 -2.4838162815e+00 1.4340319987e+00 2.4838162815e+00 
108700 5.0168708042e+00 -7.0023171929e-05 1.4340319987e+00 -2.4838162815e+00 1.4340319987e+00 2.4838162815e+00 
108800 5.0168708041e+00 -7.0256321540e-05 1.4340319987e+00 -2.4838162815e+00 1.4340319987e+00 2.4838162815e+00 
108900 5.0168708040e+00 -7.0488885775e-05 1.4340319987e+00 -2.4838162815e+00 1.4340319987e+00 2.4838162815e+00 
109000 5.0168708039e+00 -7.0720833604e-05 1.4340319987e+00 -2.4838162815e+00 1.4340319987e+00 2.4838162815e+00 
109100 5.0168708035e+00 -6.9723932237e-05 1.4340344645e+00 -2.4838205524e+00 1.4340344645e+00 2.4838205524e+00 
109200 5.0168708034e+00 -6.9950697826e-05 1.4340344645e+00 -2.4838205524e+00 1.4340344645e+00 2.4838205524e+00 
109300 5.0168708033e+00 -7.0176935790e-05 1.4340344645e+00 -2.4838205524e+00 1.4340344645e+00 2.4838205524e+00 
109400 5.0168708032e+00 -7.0402613539e-05 1.4340344645e+00 -2.4838205524e+00 1.4340344645e+00 2.4838205524e+00 
109500 5.0168708031e+00 -7.0627700552e-05 1.4340344645e+00 -2.4838205524e+00 1.4340344645e+00 2.4838205524e+00 
109600 5.0168708029e+00 -7.0852168221e-05 1.4340344645e+00 -2.4838205524e+00 1.4340344645e+00 2.4838205524e+00 
109700 5.0168708026e+00 -6.9845489041e-05 1.4340369349e+00 -2.4838248312e+00 1.4340369349e+00 2.4838248312e+00 
109800 5.0168708025e+00 -7.0064768141e-05 1.4340369349e+00 -2.4838248312e+00 1.4340369349e+00 2.4838248312e+00 
109900 5.0168708024e+00 -7.0283523281e-05 1.4340369349e+00 -2.4838248312e+00 1.4340369349e+00 2.4838248312e+00 
110000 5.0168708023e+00 -7.0501723665e-05 1.4340369349e+00 -2.4838248312e+00 1.4340369349e+00 2.4838248312e+00 
110100 5.0168708022e+00 -7.0719340448e-05 1.4340369349e+00 -2.4838248312e+00 1.4340369349e+00 2.4838248312e+00 
110200 5.0168708018e+00 -6.9708140658e-05 1.4340394007e+00 -2.4838291020e+00 1.4340394007e+00 2.4838291020e+00 
110300 5.0168708017e+00 -6.9920647118e-05 1.4340394007e+00 -2.4838291020e+00 1.4340394007e+00 2.4838291020e+00 
110400 5.0168708016e+00 -7.0132664499e-05 1.4340394007e+00 -2.4838291020e+00 1.4340394007e+00 2.4838291020e+00 
110500 5.0168708015e+00 -7.0344161897e-05 1.4340394007e+00 -2.4838291020e+00 1.4340394007e+00 2.4838291020e+00 
110600 5.0168708014e+00 -7.0555110375e-05 1.4340394007e+00 -2.4838291020e+00 1.4340394007e+00 2.4838291020e+00 
110700 5.0168708013e+00 -7.0765482816e-05 1.4340394007e+00 -2.4838291020e+00 1.4340394007e+00 2.4838291020e+00 
110800 5.0168708010e+00 -6.9746231697e-05 1.4340418680e+00 -2.4838333756e+00 1.4340418680e+00 2.4838333756e+00 
110900 5.0168708009e+00 -6.9951511258e-05 1.4340418680e+00 -2.4838333756e+00 1.4340418680e+00 2.4838333756e+00 
111000 5.0168708008e+00 -7.0156313917e-05 1.4340418680e+00 -2.4838333756e+00 1.4340418680e+00 2.4838333756e+00 
111100 5.0168708007e+00 -7.0360610067e-05 1.4340418680e+00 -2.4838333756e+00 1.4340418680e+00 2.4838333756e+00 
111200 5.0168708006e+00 -7.0564371985e-05 1.4340418680e+00 -2.4838333756e+00 1.4340418680e+00 2.4838333756e+00 
111300 5.0168708005e+00 -7.0767573688e-05 1.4340418680e+00 -2.4838333756e+00 1.4340418680e+00 2.4838333756e+00 
111400 5.0168708002e+00 -6.9741118274e-05 1.4340443354e+00 -2.4838376493e+00 1.4340443354e+00 2.4838376493e+00 
111500 5.0168708001e+00 -6.9939261848e-05 1.4340443354e+00 -2.4838376493e+00 1.4340443354e+00 2.4838376493e+00 
111600 5.0168708000e+00 -7.0136947325e-05 1.4340443354e+00 -2.4838376493e+00 1.4340443354e+00 2.4838376493e+00 
111700 5.0168707999e+00 -7.0334145970e-05 1.4340443354e+00 -2.4838376493e+00 1.4340443354e+00 2.4838376493e+00 
111800 5.0168707998e+00 -7.0530830882e-05 1.4340443354e+00 -2.4838376493e+00 1.4340443354e+00 2.4838376493e+00 
111900 5.0168707997e+00 -7.0726976848e-05 1.4340443354e+00 -2.4838376493e+00 1.4340443354e+00 2.4838376493e+00 
112000 5.0168707994e+00 -6.9694179291e-05 1.4340468014e+00 -2.4838419205e+00 1.4340468014e+00 2.4838419205e+00 
112100 5.0168707993e+00 -6.9885314127e-05 1.4340468014e+00 -2.4838419205e+00 1.4340468014e+00 2.4838419205e+00 
112200 5.0168707992e+00 -7.0076014085e-05 1.4340468014e+00 -2.4838419205e+00 1.4340468014e+00 2.4838419205e+00 
112300 5.0168707992e+00 -7.0266251047e-05 1.4340468014e+00 -2.4838419205e+00 1.4340468014e+00 2.4838419205e+00 
112400 5.0168707991e+00 -7.0455998688e-05 1.4340468014e+00 -2.4838419205e+00 1.4340468014e+00 2.4838419205e+00 
112500 5.0168707990e+00 -7.0645232346e-05 1.4340468014e+00 -2.4838419205e+00 1.4340468014e+00 2.4838419205e+00 
112600 5.0168707989e+00 -7.0833928889e-05 1.4340468014e+00 -2.4838419205e+00 1.4340468014e+00 2.4838419205e+00 
112700 5.0168707986e+00 -6.9791812443e-05 1.4340492711e+00 -2.4838461982e+00 1.4340492711e+00 2.4838461982e+00 
112800 5.0168707985e+00 -6.9975501472e-05 1.4340492711e+00 -2.4838461982e+00 1.4340492711e+00 2.4838461982e+00 
112900 5.0168707985e+00 -7.0158763123e-05 1.4340492711e+00 -2.4838461982e+00 1.4340492711e+00 2.4838461982e+00 
113000 5.0168707984e+00 -7.0341570831e-05 1.4340492711e+00 -2.4838461982e+00 1.4340492711e+00 2.4838461982e+00 
113100 5.0168707983e+00 -7.0523899725e-05 1.4340492711e+00 -2.4838461982e+00 1.4340492711e+00 2.4838461982e+00 
113200 5.0168707982e+00 -7.0705726496e-05 1.4340492711e+00 -2.4838461982e+00 1.4340492711e+00 2.4838461982e+00 
113300 5.0168707982e+00 -7.0887029282e-05 1.4340492711e+00 -2.4838461982e+00 1.4340492711e+00 2.4838461982e+00 
113400 5.0168707978e+00 -6.9836596257e-05 1.4340517427e+00 -2.4838504791e+00 1.4340517427e+00 2.4838504791e+00 
113500 5.0168707978e+00 -7.0012918491e-05 1.4340517427e+00 -2.4838504791e+00 1.4340517427e+00 2.4838504791e+00 
113600 5.0168707977e+00 -7.0188829947e-05 1.4340517427e+00 -2.4838504791e+00 1.4340517427e+00 2.4838504791e+00 
113700 5.0168707976e+00 -7.0364305037e-05 1.4340517427e+00 -2.4838504791e+00 1.4340517427e+00 2.4838504791e+00 
113800 5.0168707976e+00 -7.0539319806e-05 1.4340517427e+00 -2.4838504791e+00 1.4340517427e+00 2.4838504791e+00 
113900 5.0168707975e+00 -7.0713851811e-05 1.4340517427e+00 -2.4838504791e+00 1.4340517427e+00 2.4838504791e+00 
114000 5.0168707972e+00 -6.9659685037e-05 1.4340542082e+00 -2.4838547495e+00 1.4340542082e+00 2.4838547495e+00 
114100 5.0168707971e+00 -6.9829326982e-05 1.4340542082e+00 -2.4838547495e+00 1.4340542082e+00 2.4838547495e+00 
114200 5.0168707971e+00 -6.9998597545e-05 1.4340542082e+00 -2.4838547495e+00 1.4340542082e+00 2.4838547495e+00 
114300 5.0168707970e+00 -7.0167470786e-05 1.4340542082e+00 -2.4838547495e+00 1.4340542082e+00 2.4838547495e+00 
114400 5.0168707969e+00 -7.0335922440e-05 1.4340542082e+00 -2.4838547495e+00 1.4340542082e+00 2.4838547495e+00 
114500 5.0168707969e+00 -7.0503929789e-05 1.4340542082e+00 -2.4838547495e+00 1.4340542082e+00 2.4838547495e+00 
114600 5.0168707968e+00 -7.0671471539e-05 1.4340542082e+00 -2.4838547495e+00 1.4340542082e+00 2.4838547495e+00 
114700 5.0168707967e+00 -7.0838527720e-05 1.4340542082e+00 -2.4838547495e+00 1.4340542082e+00 2.4838547495e+00 
114800 5.0168707964e+00 -6.9774703211e-05 1.4340566781e+00 -2.4838590274e+00 1.4340566781e+00 2.4838590274e+00 
114900 5.0168707964e+00 -6.9936863751e-05 1.4340566781e+00 -2.4838590274e+00 1.4340566781e+00 2.4838590274e+00 
115000 5.0168707963e+00 -7.0098656806e-05 1.4340566781e+00 -2.4838590274e+00 1.4340566781e+00 2.4838590274e+00 
115100 5.0168707963e+00 -7.0260058269e-05 1.4340566781e+00 -2.4838590274e+00 1.4340566781e+00 2.4838590274e+00 
115200 5.0168707962e+00 -7.0421045579e-05 1.4340566781e+00 -2.4838590274e+00 1.4340566781e+00 2.4838590274e+00 
115300 5.0168707961e+00 -7.0581597610e-05 1.4340566781e+00 -2.4838590274e+00 1.4340566781e+00 2.4838590274e+00 
115400 5.0168707961e+00 -7.0741694555e-05 1.4340566781e+00 -2.4838590274e+00 1.4340566781e+00 2.4838590274e+00 
115500 5.0168707958e+00 -6.9672610708e-05 1.4340591446e+00 -2.4838632995e+00 1.4340591446e+00 2.4838632995e+00 
115600 5.0168707957e+00 -6.9827878871e-05 1.4340591446e+00 -2.4838632995e+00 1.4340591446e+00 2.4838632995e+00 
115700 5.0168707957e+00 -6.9982810298e-05 1.4340591446e+00 -2.4838632995e+00 1.4340591446e+00 2.4838632995e+00 
115800 5.0168707956e+00 -7.0137381063e-05 1.4340591446e+00 -2.4838632995e+00 1.4340591446e+00 2.4838632995e+00 
115900 5.0168707956e+00 -7.0291568787e-05 1.4340591446e+00 -2.4838632995e+00 1.4340591446e+00 2.4838632995e+00 
116000 5.0168707955e+00 -7.0445352518e-05 1.4340591446e+00 -2.4838632995e+00 1.4340591446e+00 2.4838632995e+00 
116100 5.0168707955e+00 -7.0598712627e-05 1.4340591446e+00 -2.4838632995e+00 1.4340591446e+00 2.4838632995e+00 
116200 5.0168707954e+00 -7.0751630701e-05 1.4340591446e+00 -2.4838632995e+00 1.4340591446e+00 2.4838632995e+00 
116300 5.0168707951e+00 -6.9675195526e-05 1.4340616114e+00 -2.4838675722e+00 1.4340616114e+00 2.4838675722e+00 
116400 5.0168707951e+00 -6.9823314307e-05 1.4340616114e+00 -2.4838675722e+00 1.4340616114e+00 2.4838675722e+00 
116500 5.0168707950e+00 -6.9971113069e-05 1.4340616114e+00 -2.4838675722e+00 1.4340616114e+00 2.4838675722e+00 
116600 5.0168707950e+00 -7.0118568945e-05 1.4340616114e+00 -2.4838675722e+00 1.4340616114e+00 2.4838675722e+00 
116700 5.0168707949e+00 -7.0265660545e-05 1.4340616114e+00 -2.4838675722e+00 1.4340616114e+00 2.4838675722e+00 
116800 5.0168707949e+00 -7.0412367846e-05 1.4340616114e+00 -2.4838675722e+00 1.4340616114e+00 2.4838675722e+00 
116900 5.0168707948e+00 -7.0558672085e-05 1.4340616114e+00 -2.4838675722e+00 1.4340616114e+00 2.4838675722e+00 
117000 5.0168707948e+00 -7.0704555664e-05 1.4340616114e+00 -2.4838675722e+00 1.4340616114e+00 2.4838675722e+00 
117100 5.0168707947e+00 -7.0850002064e-05 1.4340616114e+00 -2.4838675722e+00 1.4340616114e+00 2.4838675722e+00 
117200 5.0168707945e+00 -6.9764377650e-05 1.4340640817e+00 -2.4838718508e+00 1.4340640817e+00 2.4838718508e+00 
117300 5.0168707944e+00 -6.9905034374e-05 1.4340640817e+00 -2.4838718508e+00 1.4340640817e+00 2.4838718508e+00 
117400 5.0168707944e+00 -7.0045381097e-05 1.4340640817e+00 -2.4838718508e+00 1.4340640817e+00 2.4838718508e+00 
117500 5.0168707943e+00 -7.0185396366e-05 1.4340640817e+00 -2.4838718508e+00 1.4340640817e+00 2.4838718508e+00 
117600 5.0168707943e+00 -7.0325060118e-05 1.4340640817e+00 -2.4838718508e+00 1.4340640817e+00 2.4838718508e+00 
117700 5.0168707943e+00 -7.0346496383e-05 1.4340640817e+00 -2.4838718508e+00 1.4340640817e+00 2.4838718508e+00 
117700 5.0168707943e+00 -7.0346496383e-05 1.4340640817e+00 -2.4838718508e+00 1.4340640817e+00 2.4838718508e+00 
