# step Hamiltonian StressXX CellTensor1 CellTensor2 CellTensor3 CellTensor4 
0 4.8317498638e+00 -2.6916317951e-01 1.6087831444e+00 -2.7864941444e+00 1.6087831444e+00 2.7864941444e+00 
100 4.8256601573e+00 -2.7041348490e-01 1.6087831444e+00 -2.7864941444e+00 1.6087831444e+00 2.7864941444e+00 
200 4.8173942768e+00 -2.6346159396e-01 1.6171947100e+00 -2.8010634035e+00 1.6171947100e+00 2.8010634035e+00 
300 4.8098003032e+00 -2.5693146166e-01 1.6253471500e+00 -2.8151838437e+00 1.6253471500e+00 2.8151838437e+00 
400 4.8027756113e+00 -2.5078038948e-01 1.6332574199e+00 -2.8288848331e+00 1.6332574199e+00 2.8288848331e+00 
500 4.7962283738e+00 -2.4497110388e-01 1.6409407139e+00 -2.8421926887e+00 1.6409407139e+00 2.8421926887e+00 
600 4.7900770881e+00 -2.3947092273e-01 1.6484106969e+00 -2.8551310788e+00 1.6484106969e+00 2.8551310788e+00 
700 4.7842501113e+00 -2.3425103864e-01 1.6556796992e+00 -2.8677213600e+00 1.6556796992e+00 2.8677213600e+00 
800 4.7786851879e+00 -2.2928590577e-01 1.6627588806e+00 -2.8799828620e+00 1.6627588806e+00 2.8799828620e+00 
900 4.7733289601e+00 -2.2455271809e-01 1.6696583690e+00 -2.8919331263e+00 1.6696583690e+00 2.8919331263e+00 
1000 4.7681364535e+00 -2.2003096881e-01 1.6763873756e+00 -2.9035881076e+00 1.6763873756e+00 2.9035881076e+00 
1100 4.7630705374e+00 -2.1570208152e-01 1.6829542936e+00 -2.9149623433e+00 1.6829542936e+00 2.9149623433e+00 
1200 4.7581013590e+00 -2.1154910428e-01 1.6893667807e+00 -2.9260690969e+00 1.6893667807e+00 2.9260690969e+00 
1300 4.7532057561e+00 -2.0755645903e-01 1.6956318293e+00 -2.9369204792e+00 1.6956318293e+00 2.9369204792e+00 
1400 4.7483666528e+00 -2.0370973875e-01 1.7017558259e+00 -2.9475275525e+00 1.7017558259e+00 2.9475275525e+00 
1500 4.7435724431e+00 -1.9999554581e-01 1.7077446031e+00 -2.9579004190e+00 1.7077446031e+00 2.9579004190e+00 
1600 4.7388163722e+00 -1.9640136528e-01 1.7136034841e+00 -2.9680482985e+00 1.7136034841e+00 2.9680482985e+00 
1700 4.7340959195e+00 -1.9291546759e-01 1.7193373213e+00 -2.9779795958e+00 1.7193373213e+00 2.9779795958e+00 
1800 4.7294121930e+00 -1.8952683533e-01 1.7249505316e+00 -2.9877019613e+00 1.7249505316e+00 2.9877019613e+00 
1900 4.7247693415e+00 -1.8622510976e-01 1.7304471274e+00 -2.9972223445e+00 1.7304471274e+00 2.9972223445e+00 
2000 4.7201739901e+00 -1.8300055287e-01 1.7358307453e+00 -3.0065470442e+00 1.7358307453e+00 3.0065470442e+00 
2100 4.7156347062e+00 -1.7984402149e-01 1.7411046723e+00 -3.0156817538e+00 1.7411046723e+00 3.0156817538e+00 
2200 4.7111614993e+00 -1.7674695048e-01 1.7462718709e+00 -3.0246316042e+00 1.7462718709e+00 3.0246316042e+00 
2300 4.7067653594e+00 -1.7370134224e-01 1.7513350021e+00 -3.0334012047e+00 1.7513350021e+00 3.0334012047e+00 
2400 4.7024578373e+00 -1.7069976065e-01 1.7562964483e+00 -3.0419946815e+00 1.7562964483e+00 3.0419946815e+00 
2500 4.6982506676e+00 -1.6773532746e-01 1.7611583343e+00 -3.0504157152e+00 1.7611583343e+00 3.0504157152e+00 
2600 4.6941554359e+00 -1.6480171990e-01 1.7659225486e+00 -3.0586675764e+00 1.7659225486e+00 3.0586675764e+00 
2700 4.6901832907e+00 -1.6189316831e-01 1.7705907631e+00 -3.0667531612e+00 1.7705907631e+00 3.0667531612e+00 
2800 4.6863446994e+00 -1.5900445303e-01 1.7751644529e+00 -3.0746750243e+00 1.7751644529e+00 3.0746750243e+00 
2900 4.6826492464e+00 -1.5613090004e-01 1.7796449151e+00 -3.0824354124e+00 1.7796449151e+00 3.0824354124e+00 
3000 4.6791054722e+00 -1.5326837474e-01 1.7840332872e+00 -3.0900362958e+00 1.7840332872e+00 3.0900362958e+00 
3100 4.6757207510e+00 -1.5041327380e-01 1.7883305650e+00 -3.0974793993e+00 1.7883305650e+00 3.0974793993e+00 
3200 4.6725012035e+00 -1.4756251496e-01 1.7925376196e+00 -3.1047662317e+00 1.7925376196e+00 3.1047662317e+00 
3300 4.6694516430e+00 -1.4471352464e-01 1.7966552140e+00 -3.1118981144e+00 1.7966552140e+00 3.1118981144e+00 
3400 4.6665755512e+00 -1.4186422343e-01 1.8006840190e+00 -3.1188762092e+00 1.8006840190e+00 3.1188762092e+00 
3500 4.6638750798e+00 -1.3901300966e-01 1.8046246280e+00 -3.1257015443e+00 1.8046246280e+00 3.1257015443e+00 
3600 4.6613510758e+00 -1.3615874108e-01 1.8084775720e+00 -3.1323750391e+00 1.8084775720e+00 3.1323750391e+00 
3700 4.6590031268e+00 -1.3330071480e-01 1.8122433329e+00 -3.1388975282e+00 1.8122433329e+00 3.1388975282e+00 
3800 4.6568296227e+00 -1.3043864574e-01 1.8159223562e+00 -3.1452697835e+00 1.8159223562e+00 3.1452697835e+00 
3900 4.6548278318e+00 -1.2757264369e-01 1.8195150637e+00 -3.1514925355e+00 1.8195150637e+00 3.1514925355e+00 
4000 4.6529939875e+00 -1.2470318917e-01 1.8230218643e+00 -3.1575664923e+00 1.8230218643e+00 3.1575664923e+00 
4100 4.6513233840e+00 -1.2183110833e-01 1.8264431647e+00 -3.1634923585e+00 1.8264431647e+00 3.1634923585e+00 
4200 4.6498104776e+00 -1.1895754698e-01 1.8297793791e+00 -3.1692708513e+00 1.8297793791e+00 3.1692708513e+00 
4300 4.6484489917e+00 -1.1608394394e-01 1.8330309379e+00 -3.1749027164e+00 1.8330309379e+00 3.1749027164e+00 
4400 4.6472320239e+00 -1.1321200390e-01 1.8361982960e+00 -3.1803887415e+00 1.8361982960e+00 3.1803887415e+00 
4500 4.6461521534e+00 -1.1034366990e-01 1.8392819398e+00 -3.1857297692e+00 1.8392819398e+00 3.1857297692e+00 
4600 4.6452015460e+00 -1.0748109563e-01 1.8422823937e+00 -3.1909267079e+00 1.8422823937e+00 3.1909267079e+00 
4700 4.6443720570e+00 -1.0462661770e-01 1.8452002259e+00 -3.1959805413e+00 1.8452002259e+00 3.1959805413e+00 
4800 4.6436553298e+00 -1.0178272793e-01 1.8480360528e+00 -3.2008923376e+00 1.8480360528e+00 3.2008923376e+00 
4900 4.6430428891e+00 -9.8952045939e-02 1.8507905436e+00 -3.2056632558e+00 1.8507905436e+00 3.2056632558e+00 
5000 4.6425262292e+00 -9.6137292121e-02 1.8534644235e+00 -3.2102945516e+00 1.8534644235e+00 3.2102945516e+00 
5100 4.6420968947e+00 -9.3341261128e-02 1.8560584760e+00 -3.2147875823e+00 1.8560584760e+00 3.2147875823e+00 
5200 4.6417465549e+00 -9.0566796038e-02 1.8585735452e+00 -3.2191438099e+00 1.8585735452e+00 3.2191438099e+00 
5300 4.6414670711e+00 -8.7816763341e-02 1.8610105367e+00 -3.2233648029e+00 1.8610105367e+00 3.2233648029e+00 
5400 4.6412505558e+00 -8.5094028886e-02 1.8633704184e+00 -3.2274522380e+00 1.8633704184e+00 3.2274522380e+00 
5500 4.6410894248e+00 -8.2401434918e-02 1.8656542205e+00 -3.2314078993e+00 1.8656542205e+00 3.2314078993e+00 
5600 4.6409764414e+00 -7.9741778343e-02 1.8678630348e+00 -3.2352336778e+00 1.8678630348e+00 3.2352336778e+00 
5700 4.6409047533e+00 -7.7117790345e-02 1.8699980133e+00 -3.2389315691e+00 1.8699980133e+00 3.2389315691e+00 
5800 4.6408679223e+00 -7.4532117453e-02 1.8720603670e+00 -3.2425036705e+00 1.8720603670e+00 3.2425036705e+00 
5900 4.6408599465e+00 -7.1987304185e-02 1.8740513635e+00 -3.2459521776e+00 1.8740513635e+00 3.2459521776e+00 
6000 4.6408752767e+00 -6.9485777325e-02 1.8759723244e+00 -3.2492793794e+00 1.8759723244e+00 3.2492793794e+00 
6100 4.6409088255e+00 -6.7029831925e-02 1.8778246225e+00 -3.2524876538e+00 1.8778246225e+00 3.2524876538e+00 
6200 4.6409559713e+00 -6.4621619070e-02 1.8796096784e+00 -3.2555794614e+00 1.8796096784e+00 3.2555794614e+00 
6300 4.6410125567e+00 -6.2263135442e-02 1.8813289572e+00 -3.2585573396e+00 1.8813289572e+00 3.2585573396e+00 
6400 4.6410748816e+00 -5.9956214687e-02 1.8829839643e+00 -3.2614238959e+00 1.8829839643e+00 3.2614238959e+00 
6500 4.6411396928e+00 -5.7702520585e-02 1.8845762417e+00 -3.2641818013e+00 1.8845762417e+00 3.2641818013e+00 
6600 4.6412041687e+00 -5.5503541973e-02 1.8861073638e+00 -3.2668337826e+00 1.8861073638e+00 3.2668337826e+00 
6700 4.6412659018e+00 -5.3360589388e-02 1.8875789330e+00 -3.2693826153e+00 1.8875789330e+00 3.2693826153e+00 
6800 4.6413228775e+00 -5.1274793339e-02 1.8889925757e+00 -3.2718311163e+00 1.8889925757e+00 3.2718311163e+00 
6900 4.6413734511e+00 -4.9247104141e-02 1.8903499376e+00 -3.2741821360e+00 1.8903499376e+00 3.2741821360e+00 
7000 4.6414163230e+00 -4.7278293183e-02 1.8916526794e+00 -3.2764385509e+00 1.8916526794e+00 3.2764385509e+00 
7100 4.6414505126e+00 -4.5368955542e-02 1.8929024726e+00 -3.2786032563e+00 1.8929024726e+00 3.2786032563e+00 
7200 4.6414753311e+00 -4.3519513788e-02 1.8941009955e+00 -3.2806791589e+00 1.8941009955e+00 3.2806791589e+00 
7300 4.6414903541e+00 -4.1730222878e-02 1.8952499287e+00 -3.2826691696e+00 1.8952499287e+00 3.2826691696e+00 
7400 4.6414953942e+00 -4.0001175983e-02 1.8963509513e+00 -3.2845761967e+00 1.8963509513e+00 3.2845761967e+00 
7500 4.6414904735e+00 -3.8332311119e-02 1.8974057372e+00 -3.2864031393e+00 1.8974057372e+00 3.2864031393e+00 
7600 4.6414757974e+00 -3.6723418454e-02 1.8984159510e+00 -3.2881528810e+00 1.8984159510e+00 3.2881528810e+00 
7700 4.6414517281e+00 -3.5174148145e-02 1.8993832452e+00 -3.2898282837e+00 1.8993832452e+00 3.2898282837e+00 
7800 4.6414187604e+00 -3.3684018594e-02 1.9003092564e+00 -3.2914321822e+00 1.9003092564e+00 3.2914321822e+00 
7900 4.6413774975e+00 -3.2252425006e-02 1.9011956026e+00 -3.2929673788e+00 1.9011956026e+00 3.2929673788e+00 
8000 4.6413286296e+00 -3.0878648128e-02 1.9020438799e+00 -3.2944366382e+00 1.9020438799e+00 3.2944366382e+00 
8100 4.6412729126e+00 -2.9561863082e-02 1.9028556604e+00 -3.2958426833e+00 1.9028556604e+00 3.2958426833e+00 
8200 4.6412111492e+00 -2.8301148201e-02 1.9036324895e+00 -3.2971881908e+00 1.9036324895e+00 3.2971881908e+00 
8300 4.6411441716e+00 -2.7095493782e-02 1.9043758838e+00 -3.2984757874e+00 1.9043758838e+00 3.2984757874e+00 
8400 4.6410728256e+00 -2.5943810706e-02 1.9050873290e+00 -3.2997080466e+00 1.9050873290e+00 3.2997080466e+00 
8500 4.6409979563e+00 -2.4844938838e-02 1.9057682782e+00 -3.3008874853e+00 1.9057682782e+00 3.3008874853e+00 
8600 4.6409203960e+00 -2.3797655193e-02 1.9064201506e+00 -3.3020165614e+00 1.9064201506e+00 3.3020165614e+00 
8700 4.6408409532e+00 -2.2800681797e-02 1.9070443297e+00 -3.3030976714e+00 1.9070443297e+00 3.3030976714e+00 
8800 4.6407604030e+00 -2.1852693238e-02 1.9076421625e+00 -3.3041331481e+00 1.9076421625e+00 3.3041331481e+00 
8900 4.6406794800e+00 -2.0952323857e-02 1.9082149583e+00 -3.3051252595e+00 1.9082149583e+00 3.3051252595e+00 
9000 4.6405988712e+00 -2.0098174590e-02 1.9087639878e+00 -3.3060762066e+00 1.9087639878e+00 3.3060762066e+00 
9100 4.6405192115e+00 -1.9288819426e-02 1.9092904829e+00 -3.3069881229e+00 1.9092904829e+00 3.3069881229e+00 
9200 4.6404410799e+00 -1.8522811485e-02 1.9097956358e+00 -3.3078630732e+00 1.9097956358e+00 3.3078630732e+00 
9300 4.6403649965e+00 -1.7798688722e-02 1.9102805985e+00 -3.3087030534e+00 1.9102805985e+00 3.3087030534e+00 
9400 4.6402914215e+00 -1.7114979241e-02 1.9107464833e+00 -3.3095099894e+00 1.9107464833e+00 3.3095099894e+00 
9500 4.6402207543e+00 -1.6470206242e-02 1.9111943618e+00 -3.3102857378e+00 1.9111943618e+00 3.3102857378e+00 
9600 4.6401533340e+00 -1.5862892596e-02 1.9116252658e+00 -3.3110320854e+00 1.9116252658e+00 3.3110320854e+00 
9700 4.6400894403e+00 -1.5291565069e-02 1.9120401867e+00 -3.3117507495e+00 1.9120401867e+00 3.3117507495e+00 
9800 4.6400292952e+00 -1.4754758202e-02 1.9124400763e+00 -3.3124433786e+00 1.9124400763e+00 3.3124433786e+00 
9900 4.6399730657e+00 -1.4251017855e-02 1.9128258466e+00 -3.3131115524e+00 1.9128258466e+00 3.3131115524e+00 
10000 4.6399208662e+00 -1.3778904440e-02 1.9131983709e+00 -3.3137567834e+00 1.9131983709e+00 3.3137567834e+00 
10100 4.6398727618e+00 -1.3336995850e-02 1.9135584835e+00 -3.3143805167e+00 1.9135584835e+00 3.3143805167e+00 
10200 4.6398287719e+00 -1.2923890105e-02 1.9139069808e+00 -3.3149841318e+00 1.9139069808e+00 3.3149841318e+00 
10300 4.6397888739e+00 -1.2538207728e-02 1.9142446218e+00 -3.3155689432e+00 1.9142446218e+00 3.3155689432e+00 
10400 4.6397530074e+00 -1.2178593861e-02 1.9145721287e+00 -3.3161362017e+00 1.9145721287e+00 3.3161362017e+00 
10500 4.6397210778e+00 -1.1843720156e-02 1.9148901875e+00 -3.3166870957e+00 1.9148901875e+00 3.3166870957e+00 
10600 4.6396929604e+00 -1.1532286427e-02 1.9151994491e+00 -3.3172227525e+00 1.9151994491e+00 3.3172227525e+00 
10700 4.6396685049e+00 -1.1243022110e-02 1.9155005297e+00 -3.3177442394e+00 1.9155005297e+00 3.3177442394e+00 
10800 4.6396475390e+00 -1.0974687523e-02 1.9157940120e+00 -3.3182525656e+00 1.9157940120e+00 3.3182525656e+00 
10900 4.6396298724e+00 -1.0726074948e-02 1.9160804457e+00 -3.3187486834e+00 1.9160804457e+00 3.3187486834e+00 
11000 4.6396153005e+00 -1.0496009547e-02 1.9163603488e+00 -3.3192334897e+00 1.9163603488e+00 3.3192334897e+00 
11100 4.6396036079e+00 -1.0283350135e-02 1.9166342080e+00 -3.3197078278e+00 1.9166342080e+00 3.3197078278e+00 
11200 4.6395945719e+00 -1.0086989802e-02 1.9169024801e+00 -3.3201724888e+00 1.9169024801e+00 3.3201724888e+00 
11300 4.6395879655e+00 -9.9058564121e-03 1.9171655927e+00 -3.3206282130e+00 1.9171655927e+00 3.3206282130e+00 
11400 4.6395835604e+00 -9.7389129906e-03 1.9174239449e+00 -3.3210756921e+00 1.9174239449e+00 3.3210756921e+00 
11500 4.6395811294e+00 -9.5851579929e-03 1.9176779087e+00 -3.3215155705e+00 1.9176779087e+00 3.3215155705e+00 
11600 4.6395804489e+00 -9.4436254838e-03 1.9179278299e+00 -3.3219484466e+00 1.9179278299e+00 3.3219484466e+00 
11700 4.6395813009e+00 -9.3133852230e-03 1.9181740286e+00 -3.3223748753e+00 1.9181740286e+00 3.3223748753e+00 
11800 4.6395834752e+00 -9.1935426702e-03 1.9184168007e+00 -3.3227953689e+00 1.9184168007e+00 3.3227953689e+00 
11900 4.6395867701e+00 -9.0832389134e-03 1.9186564184e+00 -3.3232103990e+00 1.9186564184e+00 3.3232103990e+00 
12000 4.6395909948e+00 -8.9816505297e-03 1.9188931316e+00 -3.3236203983e+00 1.9188931316e+00 3.3236203983e+00 
12100 4.6395959696e+00 -8.8879893826e-03 1.9191271684e+00 -3.3240257619e+00 1.9191271684e+00 3.3240257619e+00 
12200 4.6396015269e+00 -8.8015023601e-03 1.9193587364e+00 -3.3244268494e+00 1.9193587364e+00 3.3244268494e+00 
12300 4.6396075124e+00 -8.7214710606e-03 1.9195880234e+00 -3.3248239860e+00 1.9195880234e+00 3.3248239860e+00 
12400 4.6396137844e+00 -8.6472114284e-03 1.9198151982e+00 -3.3252174645e+00 1.9198151982e+00 3.3252174645e+00 
12500 4.6396202150e+00 -8.5780733436e-03 1.9200404121e+00 -3.3256075463e+00 1.9200404121e+00 3.3256075463e+00 
12600 4.6396266896e+00 -8.5134401689e-03 1.9202637991e+00 -3.3259944639e+00 1.9202637991e+00 3.3259944639e+00 
12700 4.6396331070e+00 -8.4527282564e-03 1.9204854770e+00 -3.3263784214e+00 1.9204854770e+00 3.3263784214e+00 
12800 4.6396393787e+00 -8.3953864181e-03 1.9207055487e+00 -3.3267595968e+00 1.9207055487e+00 3.3267595968e+00 
12900 4.6396454292e+00 -8.3408953598e-03 1.9209241024e+00 -3.3271381429e+00 1.9209241024e+00 3.3271381429e+00 
13000 4.6396511948e+00 -8.2887670836e-03 1.9211412128e+00 -3.3275141891e+00 1.9211412128e+00 3.3275141891e+00 
13100 4.6396566235e+00 -8.2385442586e-03 1.9213569419e+00 -3.3278878429e+00 1.9213569419e+00 3.3278878429e+00 
13200 4.6396616740e+00 -8.1897995627e-03 1.9215713398e+00 -3.3282591910e+00 1.9215713398e+00 3.3282591910e+00 
13300 4.6396663153e+00 -8.1421349973e-03 1.9217844454e+00 -3.3286283006e+00 1.9217844454e+00 3.3286283006e+00 
13400 4.6396705256e+00 -8.0951811757e-03 1.9219962872e+00 -3.3289952213e+00 1.9219962872e+00 3.3289952213e+00 
13500 4.6396742917e+00 -8.0485965883e-03 1.9222068841e+00 -3.3293599859e+00 1.9222068841e+00 3.3293599859e+00 
13600 4.6396776081e+00 -8.0020668446e-03 1.9224162461e+00 -3.3297226115e+00 1.9224162461e+00 3.3297226115e+00 
13700 4.6396804764e+00 -7.9553038947e-03 1.9226243751e+00 -3.3300831015e+00 1.9226243751e+00 3.3300831015e+00 
13800 4.6396829042e+00 -7.9080452315e-03 1.9228312654e+00 -3.3304414460e+00 1.9228312654e+00 3.3304414460e+00 
13900 4.6396849043e+00 -7.8600530753e-03 1.9230369045e+00 -3.3307976234e+00 1.9230369045e+00 3.3307976234e+00 
14000 4.6396864943e+00 -7.8111135429e-03 1.9232412737e+00 -3.3311516013e+00 1.9232412737e+00 3.3311516013e+00 
14100 4.6396876955e+00 -7.7610358017e-03 1.9234443489e+00 -3.3315033379e+00 1.9234443489e+00 3.3315033379e+00 
14200 4.6396885323e+00 -7.7096512125e-03 1.9236461008e+00 -3.3318527824e+00 1.9236461008e+00 3.3318527824e+00 
14300 4.6396890314e+00 -7.6568124611e-03 1.9238464959e+00 -3.3321998769e+00 1.9238464959e+00 3.3321998769e+00 
14400 4.6396892214e+00 -7.6023926809e-03 1.9240454969e+00 -3.3325445566e+00 1.9240454969e+00 3.3325445566e+00 
14500 4.6396891323e+00 -7.5462845694e-03 1.9242430629e+00 -3.3328867511e+00 1.9242430629e+00 3.3328867511e+00 
14600 4.6396887945e+00 -7.4883994996e-03 1.9244391508e+00 -3.3332263852e+00 1.9244391508e+00 3.3332263852e+00 
14700 4.6396882388e+00 -7.4286666276e-03 1.9246337146e+00 -3.3335633797e+00 1.9246337146e+00 3.3335633797e+00 
14800 4.6396874957e+00 -7.3670320003e-03 1.9248267069e+00 -3.3338976522e+00 1.9248267069e+00 3.3338976522e+00 
14900 4.6396865951e+00 -7.3034576630e-03 1.9250180788e+00 -3.3342291180e+00 1.9250180788e+00 3.3342291180e+00 
15000 4.6396855661e+00 -7.2379207707e-03 1.9252077803e+00 -3.3345576907e+00 1.9252077803e+00 3.3345576907e+00 
15100 4.6396844365e+00 -7.1704127031e-03 1.9253957611e+00 -3.3348832828e+00 1.9253957611e+00 3.3348832828e+00 
15200 4.6396832326e+00 -7.1009381873e-03 1.9255819703e+00 -3.3352058066e+00 1.9255819703e+00 3.3352058066e+00 
15300 4.6396819792e+00 -7.0295144281e-03 1.9257663574e+00 -3.3355251745e+00 1.9257663574e+00 3.3355251745e+00 
15400 4.6396806993e+00 -6.9561702493e-03 1.9259488724e+00 -3.3358412998e+00 1.9259488724e+00 3.3358412998e+00 
15500 4.6396794139e+00 -6.8809452465e-03 1.9261294660e+00 -3.3361540970e+00 1.9261294660e+00 3.3361540970e+00 
15600 4.6396781421e+00 -6.8038889540e-03 1.9263080898e+00 -3.3364634825e+00 1.9263080898e+00 3.3364634825e+00 
15700 4.6396769011e+00 -6.7250600271e-03 1.9264846969e+00 -3.3367693750e+00 1.9264846969e+00 3.3367693750e+00 
15800 4.6396757058e+00 -6.6445254411e-03 1.9266592418e+00 -3.3370716956e+00 1.9266592418e+00 3.3370716956e+00 
15900 4.6396745694e+00 -6.5623597087e-03 1.9268316808e+00 -3.3373703687e+00 1.9268316808e+00 3.3373703687e+00 
16000 4.6396735030e+00 -6.4786441177e-03 1.9270019722e+00 -3.3376653221e+00 1.9270019722e+00 3.3376653221e+00 
16100 4.6396725158e+00 -6.3934659887e-03 1.9271700763e+00 -3.3379564869e+00 1.9271700763e+00 3.3379564869e+00 
16200 4.6396716150e+00 -6.3069179563e-03 1.9273359557e+00 -3.3382437985e+00 1.9273359557e+00 3.3382437985e+00 
16300 4.6396708064e+00 -6.2190972725e-03 1.9274995755e+00 -3.3385271963e+00 1.9274995755e+00 3.3385271963e+00 
16400 4.6396700939e+00 -6.1301051347e-03 1.9276609033e+00 -3.3388066242e+00 1.9276609033e+00 3.3388066242e+00 
16500 4.6396694800e+00 -6.0400460392e-03 1.9278199092e+00 -3.3390820305e+00 1.9278199092e+00 3.3390820305e+00 
16600 4.6396689657e+00 -5.9490271598e-03 1.9279765661e+00 -3.3393533683e+00 1.9279765661e+00 3.3393533683e+00 
16700 4.6396685509e+00 -5.8571577535e-03 1.9281308498e+00 -3.3396205955e+00 1.9281308498e+00 3.3396205955e+00 
16800 4.6396682341e+00 -5.7645485932e-03 1.9282827387e+00 -3.3398836749e+00 1.9282827387e+00 3.3398836749e+00 
16900 4.6396680130e+00 -5.6713114269e-03 1.9284322143e+00 -3.3401425741e+00 1.9284322143e+00 3.3401425741e+00 
17000 4.6396678842e+00 -5.5775584660e-03 1.9285792608e+00 -3.3403972661e+00 1.9285792608e+00 3.3403972661e+00 
17100 4.6396678438e+00 -5.4834019005e-03 1.9287238654e+00 -3.3406477286e+00 1.9287238654e+00 3.3406477286e+00 
17200 4.6396678871e+00 -5.3889534428e-03 1.9288660182e+00 -3.3408939444e+00 1.9288660182e+00 3.3408939444e+00 
17300 4.6396680087e+00 -5.2943238989e-03 1.9290057121e+00 -3.3411359015e+00 1.9290057121e+00 3.3411359015e+00 
17400 4.6396682032e+00 -5.1996227687e-03 1.9291429431e+00 -3.3413735925e+00 1.9291429431e+00 3.3413735925e+00 
17500 4.6396684645e+00 -5.1049578725e-03 1.9292777098e+00 -3.3416070152e+00 1.9292777098e+00 3.3416070152e+00 
17600 4.6396687864e+00 -5.0104350067e-03 1.9294100136e+00 -3.3418361721e+00 1.9294100136e+00 3.3418361721e+00 
17700 4.6396691628e+00 -4.9161576254e-03 1.9295398587e+00 -3.3420610706e+00 1.9295398587e+00 3.3420610706e+00 
17800 4.6396695873e+00 -4.8222265490e-03 1.9296672521e+00 -3.3422817224e+00 1.9296672521e+00 3.3422817224e+00 
17900 4.6396700537e+00 -4.7287396997e-03 1.9297922032e+00 -3.3424981439e+00 1.9297922032e+00 3.3424981439e+00 
18000 4.6396705557e+00 -4.6357918619e-03 1.9299147238e+00 -3.3427103560e+00 1.9299147238e+00 3.3427103560e+00 
18100 4.6396710875e+00 -4.5434744682e-03 1.9300348286e+00 -3.3429183836e+00 1.9300348286e+00 3.3429183836e+00 
18200 4.6396716431e+00 -4.4518754094e-03 1.9301525343e+00 -3.3431222558e+00 1.9301525343e+00 3.3431222558e+00 
18300 4.6396722171e+00 -4.3610788684e-03 1.9302678599e+00 -3.3433220056e+00 1.9302678599e+00 3.3433220056e+00 
18400 4.6396728043e+00 -4.2711651772e-03 1.9303808266e+00 -3.3435176697e+00 1.9303808266e+00 3.3435176697e+00 
18500 4.6396733998e+00 -4.1822106954e-03 1.9304914578e+00 -3.3437092885e+00 1.9304914578e+00 3.3437092885e+00 
18600 4.6396739990e+00 -4.0942877108e-03 1.9305997787e+00 -3.3438969057e+00 1.9305997787e+00 3.3438969057e+00 
18700 4.6396745979e+00 -4.0074643595e-03 1.9307058163e+00 -3.3440805683e+00 1.9307058163e+00 3.3440805683e+00 
18800 4.6396751925e+00 -3.9218045660e-03 1.9308095996e+00 -3.3442603263e+00 1.9308095996e+00 3.3442603263e+00 
18900 4.6396757794e+00 -3.8373680022e-03 1.9309111591e+00 -3.3444362324e+00 1.9309111591e+00 3.3444362324e+00 
19000 4.6396763557e+00 -3.7542100632e-03 1.9310105267e+00 -3.3446083422e+00 1.9310105267e+00 3.3446083422e+00 
19100 4.6396769187e+00 -3.6723818605e-03 1.9311077359e+00 -3.3447767135e+00 1.9311077359e+00 3.3447767135e+00 
19200 4.6396774661e+00 -3.5919302307e-03 1.9312028216e+00 -3.3449414067e+00 1.9312028216e+00 3.3449414067e+00 
19300 4.6396779959e+00 -3.5128977595e-03 1.9312958195e+00 -3.3451024839e+00 1.9312958195e+00 3.3451024839e+00 
19400 4.6396785067e+00 -3.4353228185e-03 1.9313867669e+00 -3.3452600093e+00 1.9313867669e+00 3.3452600093e+00 
19500 4.6396789970e+00 -3.3592396164e-03 1.9314757017e+00 -3.3454140489e+00 1.9314757017e+00 3.3454140489e+00 
19600 4.6396794660e+00 -3.2846782611e-03 1.9315626628e+00 -3.3455646699e+00 1.9315626628e+00 3.3455646699e+00 
19700 4.6396799130e+00 -3.2116648335e-03 1.9316476898e+00 -3.3457119411e+00 1.9316476898e+00 3.3457119411e+00 
19800 4.6396803377e+00 -3.1402214715e-03 1.9317308232e+00 -3.3458559324e+00 1.9317308232e+00 3.3458559324e+00 
19900 4.6396807398e+00 -3.0703664630e-03 1.9318121038e+00 -3.3459967144e+00 1.9318121038e+00 3.3459967144e+00 
20000 4.6396811194e+00 -3.0021143477e-03 1.9318915729e+00 -3.3461343590e+00 1.9318915729e+00 3.3461343590e+00 
20100 4.6396814768e+00 -2.9354760263e-03 1.9319692722e+00 -3.3462689382e+00 1.9319692722e+00 3.3462689382e+00 
20200 4.6396818124e+00 -2.8704588771e-03 1.9320452438e+00 -3.3464005248e+00 1.9320452438e+00 3.3464005248e+00 
20300 4.6396821268e+00 -2.8070668775e-03 1.9321195298e+00 -3.3465291919e+00 1.9321195298e+00 3.3465291919e+00 
20400 4.6396824208e+00 -2.7453007321e-03 1.9321921724e+00 -3.3466550126e+00 1.9321921724e+00 3.3466550126e+00 
20500 4.6396826951e+00 -2.6851580042e-03 1.9322632139e+00 -3.3467780601e+00 1.9322632139e+00 3.3467780601e+00 
20600 4.6396829508e+00 -2.6266332516e-03 1.9323326966e+00 -3.3468984076e+00 1.9323326966e+00 3.3468984076e+00 
20700 4.6396831886e+00 -2.5697181657e-03 1.9324006623e+00 -3.3470161277e+00 1.9324006623e+00 3.3470161277e+00 
20800 4.6396834098e+00 -2.5144017128e-03 1.9324671530e+00 -3.3471312929e+00 1.9324671530e+00 3.3471312929e+00 
20900 4.6396836154e+00 -2.4606702771e-03 1.9325322101e+00 -3.3472439752e+00 1.9325322101e+00 3.3472439752e+00 
21000 4.6396838064e+00 -2.4085078053e-03 1.9325958749e+00 -3.3473542458e+00 1.9325958749e+00 3.3473542458e+00 
21100 4.6396839840e+00 -2.3578959518e-03 1.9326581880e+00 -3.3474621753e+00 1.9326581880e+00 3.3474621753e+00 
21200 4.6396841493e+00 -2.3088142240e-03 1.9327191897e+00 -3.3475678333e+00 1.9327191897e+00 3.3475678333e+00 
21300 4.6396843033e+00 -2.2612401271e-03 1.9327789197e+00 -3.3476712887e+00 1.9327789197e+00 3.3476712887e+00 
21400 4.6396844471e+00 -2.2151493086e-03 1.9328374171e+00 -3.3477726092e+00 1.9328374171e+00 3.3477726092e+00 
21500 4.6396845816e+00 -2.1705157012e-03 1.9328947204e+00 -3.3478718614e+00 1.9328947204e+00 3.3478718614e+00 
21600 4.6396847079e+00 -2.1273116640e-03 1.9329508675e+00 -3.3479691110e+00 1.9329508675e+00 3.3479691110e+00 
21700 4.6396848269e+00 -2.0855081219e-03 1.9330058953e+00 -3.3480644220e+00 1.9330058953e+00 3.3480644220e+00 
21800 4.6396849395e+00 -2.0450747025e-03 1.9330598402e+00 -3.3481578573e+00 1.9330598402e+00 3.3481578573e+00 
21900 4.6396850463e+00 -2.0059798705e-03 1.9331127378e+00 -3.3482494786e+00 1.9331127378e+00 3.3482494786e+00 
22000 4.6396851483e+00 -1.9681910589e-03 1.9331646227e+00 -3.3483393460e+00 1.9331646227e+00 3.3483393460e+00 
22100 4.6396852460e+00 -1.9316747970e-03 1.9332155289e+00 -3.3484275181e+00 1.9332155289e+00 3.3484275181e+00 
22200 4.6396853402e+00 -1.8963968348e-03 1.9332654893e+00 -3.3485140519e+00 1.9332654893e+00 3.3485140519e+00 
22300 4.6396854313e+00 -1.8623222645e-03 1.9333145359e+00 -3.3485990033e+00 1.9333145359e+00 3.3485990033e+00 
22400 4.6396855198e+00 -1.8294156366e-03 1.9333627001e+00 -3.3486824261e+00 1.9333627001e+00 3.3486824261e+00 
22500 4.6396856063e+00 -1.7976410736e-03 1.9334100121e+00 -3.3487643728e+00 1.9334100121e+00 3.3487643728e+00 
22600 4.6396856910e+00 -1.7669623781e-03 1.9334565011e+00 -3.3488448942e+00 1.9334565011e+00 3.3488448942e+00 
22700 4.6396857744e+00 -1.7373431376e-03 1.9335021957e+00 -3.3489240395e+00 1.9335021957e+00 3.3489240395e+00 
22800 4.6396858567e+00 -1.7087468243e-03 1.9335471232e+00 -3.3490018563e+00 1.9335471232e+00 3.3490018563e+00 
22900 4.6396859381e+00 -1.6811368909e-03 1.9335913103e+00 -3.3490783904e+00 1.9335913103e+00 3.3490783904e+00 
23000 4.6396860187e+00 -1.6544768610e-03 1.9336347823e+00 -3.3491536862e+00 1.9336347823e+00 3.3491536862e+00 
23100 4.6396860989e+00 -1.6287304157e-03 1.9336775640e+00 -3.3492277863e+00 1.9336775640e+00 3.3492277863e+00 
23200 4.6396861785e+00 -1.6038614753e-03 1.9337196790e+00 -3.3493007316e+00 1.9337196790e+00 3.3493007316e+00 
23300 4.6396862578e+00 -1.5798342762e-03 1.9337611500e+00 -3.3493725615e+00 1.9337611500e+00 3.3493725615e+00 
23400 4.6396863367e+00 -1.5566134436e-03 1.9338019989e+00 -3.3494433139e+00 1.9338019989e+00 3.3494433139e+00 
23500 4.6396864153e+00 -1.5341640587e-03 1.9338422465e+00 -3.3495130248e+00 1.9338422465e+00 3.3495130248e+00 
23600 4.6396864935e+00 -1.5124517223e-03 1.9338819129e+00 -3.3495817289e+00 1.9338819129e+00 3.3495817289e+00 
23700 4.6396865714e+00 -1.4914426133e-03 1.9339210170e+00 -3.3496494593e+00 1.9339210170e+00 3.3496494593e+00 
23800 4.6396866487e+00 -1.4711035428e-03 1.9339595772e+00 -3.3497162476e+00 1.9339595772e+00 3.3497162476e+00 
23900 4.6396867256e+00 -1.4514020037e-03 1.9339976108e+00 -3.3497821237e+00 1.9339976108e+00 3.3497821237e+00 
24000 4.6396868018e+00 -1.4323062165e-03 1.9340351343e+00 -3.3498471162e+00 1.9340351343e+00 3.3498471162e+00 
24100 4.6396868774e+00 -1.4137851695e-03 1.9340721634e+00 -3.3499112525e+00 1.9340721634e+00 3.3499112525e+00 
24200 4.6396869522e+00 -1.3958086568e-03 1.9341087129e+00 -3.3499745582e+00 1.9341087129e+00 3.3499745582e+00 
24300 4.6396870261e+00 -1.3783473101e-03 1.9341447971e+00 -3.3500370577e+00 1.9341447971e+00 3.3500370577e+00 
24400 4.6396870991e+00 -1.3613726284e-03 1.9341804292e+00 -3.3500987743e+00 1.9341804292e+00 3.3500987743e+00 
24500 4.6396871710e+00 -1.3448570027e-03 1.9342156218e+00 -3.3501597297e+00 1.9342156218e+00 3.3501597297e+00 
24600 4.6396872418e+00 -1.3287737372e-03 1.9342503868e+00 -3.3502199445e+00 1.9342503868e+00 3.3502199445e+00 
24700 4.6396873113e+00 -1.3130970673e-03 1.9342847354e+00 -3.3502794381e+00 1.9342847354e+00 3.3502794381e+00 
24800 4.6396873796e+00 -1.2978021738e-03 1.9343186782e+00 -3.3503382287e+00 1.9343186782e+00 3.3503382287e+00 
24900 4.6396874464e+00 -1.2828651936e-03 1.9343522251e+00 -3.3503963336e+00 1.9343522251e+00 3.3503963336e+00 
25000 4.6396875118e+00 -1.2682632279e-03 1.9343853852e+00 -3.3504537687e+00 1.9343853852e+00 3.3504537687e+00 
25100 4.6396875757e+00 -1.2539743462e-03 1.9344181674e+00 -3.3505105490e+00 1.9344181674e+00 3.3505105490e+00 
25200 4.6396876379e+00 -1.2399775888e-03 1.9344505797e+00 -3.3505666887e+00 1.9344505797e+00 3.3505666887e+00 
25300 4.6396876986e+00 -1.2262529655e-03 1.9344826296e+00 -3.3506222009e+00 1.9344826296e+00 3.3506222009e+00 
25400 4.6396877577e+00 -1.2127814516e-03 1.9345143243e+00 -3.3506770977e+00 1.9345143243e+00 3.3506770977e+00 
25500 4.6396878150e+00 -1.1995449823e-03 1.9345456703e+00 -3.3507313905e+00 1.9345456703e+00 3.3507313905e+00 
25600 4.6396878707e+00 -1.1865264441e-03 1.9345766736e+00 -3.3507850899e+00 1.9345766736e+00 3.3507850899e+00 
25700 4.6396879246e+00 -1.1737096641e-03 1.9346073400e+00 -3.3508382056e+00 1.9346073400e+00 3.3508382056e+00 
25800 4.6396879769e+00 -1.1610793972e-03 1.9346376747e+00 -3.3508907468e+00 1.9346376747e+00 3.3508907468e+00 
25900 4.6396880274e+00 -1.1486213115e-03 1.9346676824e+00 -3.3509427217e+00 1.9346676824e+00 3.3509427217e+00 
26000 4.6396880763e+00 -1.1363219721e-03 1.9346973677e+00 -3.3509941382e+00 1.9346973677e+00 3.3509941382e+00 
26100 4.6396881235e+00 -1.1241688230e-03 1.9347267347e+00 -3.3510450033e+00 1.9347267347e+00 3.3510450033e+00 
26200 4.6396881690e+00 -1.1121501672e-03 1.9347557872e+00 -3.3510953237e+00 1.9347557872e+00 3.3510953237e+00 
26300 4.6396882129e+00 -1.1002551463e-03 1.9347845286e+00 -3.3511451053e+00 1.9347845286e+00 3.3511451053e+00 
26400 4.6396882553e+00 -1.0884737183e-03 1.9348129622e+00 -3.3511943537e+00 1.9348129622e+00 3.3511943537e+00 
26500 4.6396882961e+00 -1.0767966340e-03 1.9348410910e+00 -3.3512430741e+00 1.9348410910e+00 3.3512430741e+00 
26600 4.6396883354e+00 -1.0652154131e-03 1.9348689175e+00 -3.3512912711e+00 1.9348689175e+00 3.3512912711e+00 
26700 4.6396883733e+00 -1.0537223192e-03 1.9348964444e+00 -3.3513389491e+00 1.9348964444e+00 3.3513389491e+00 
26800 4.6396884097e+00 -1.0423103334e-03 1.9349236739e+00 -3.3513861119e+00 1.9349236739e+00 3.3513861119e+00 
26900 4.6396884449e+00 -1.0309731287e-03 1.9349506081e+00 -3.3514327633e+00 1.9349506081e+00 3.3514327633e+00 
27000 4.6396884787e+00 -1.0197050423e-03 1.9349772490e+00 -3.3514789067e+00 1.9349772490e+00 3.3514789067e+00 
27100 4.6396885113e+00 -1.0085010484e-03 1.9350035983e+00 -3.3515245451e+00 1.9350035983e+00 3.3515245451e+00 
27200 4.6396885427e+00 -9.9735673072e-04 1.9350296578e+00 -3.3515696814e+00 1.9350296578e+00 3.3515696814e+00 
27300 4.6396885730e+00 -9.8626825436e-04 1.9350554289e+00 -3.3516143183e+00 1.9350554289e+00 3.3516143183e+00 
27400 4.6396886021e+00 -9.7523233775e-04 1.9350809132e+00 -3.3516584584e+00 1.9350809132e+00 3.3516584584e+00 
27500 4.6396886303e+00 -9.6424622459e-04 1.9351061120e+00 -3.3517021040e+00 1.9351061120e+00 3.3517021040e+00 
27600 4.6396886575e+00 -9.5330765585e-04 1.9351310266e+00 -3.3517452574e+00 1.9351310266e+00 3.3517452574e+00 
27700 4.6396886838e+00 -9.4241484178e-04 1.9351556583e+00 -3.3517879207e+00 1.9351556583e+00 3.3517879207e+00 
27800 4.6396887092e+00 -9.3156643426e-04 1.9351800082e+00 -3.3518300960e+00 1.9351800082e+00 3.3518300960e+00 
27900 4.6396887338e+00 -9.2076149932e-04 1.9352040775e+00 -3.3518717852e+00 1.9352040775e+00 3.3518717852e+00 
28000 4.6396887576e+00 -9.0999949007e-04 1.9352278673e+00 -3.3519129904e+00 1.9352278673e+00 3.3519129904e+00 
28100 4.6396887807e+00 -8.9928021996e-04 1.9352513788e+00 -3.3519537135e+00 1.9352513788e+00 3.3519537135e+00 
28200 4.6396888030e+00 -8.8860383659e-04 1.9352746130e+00 -3.3519939563e+00 1.9352746130e+00 3.3519939563e+00 
28300 4.6396888248e+00 -8.7797079594e-04 1.9352975711e+00 -3.3520337210e+00 1.9352975711e+00 3.3520337210e+00 
28400 4.6396888459e+00 -8.6738183724e-04 1.9353202543e+00 -3.3520730093e+00 1.9353202543e+00 3.3520730093e+00 
28500 4.6396888664e+00 -8.5683795835e-04 1.9353426636e+00 -3.3521118234e+00 1.9353426636e+00 3.3521118234e+00 
28600 4.6396888864e+00 -8.4634039190e-04 1.9353648002e+00 -3.3521501652e+00 1.9353648002e+00 3.3521501652e+00 
28700 4.6396889059e+00 -8.3589058201e-04 1.9353866654e+00 -3.3521880368e+00 1.9353866654e+00 3.3521880368e+00 
28800 4.6396889248e+00 -8.2549016180e-04 1.9354082604e+00 -3.3522254403e+00 1.9354082604e+00 3.3522254403e+00 
28900 4.6396889433e+00 -8.1514093160e-04 1.9354295864e+00 -3.3522623781e+00 1.9354295864e+00 3.3522623781e+00 
29000 4.6396889614e+00 -8.0484483790e-04 1.9354506448e+00 -3.3522988524e+00 1.9354506448e+00 3.3522988524e+00 
29100 4.6396889790e+00 -7.9460395318e-04 1.9354714371e+00 -3.3523348656e+00 1.9354714371e+00 3.3523348656e+00 
29200 4.6396889962e+00 -7.8442045648e-04 1.9354919645e+00 -3.3523704202e+00 1.9354919645e+00 3.3523704202e+00 
29300 4.6396890131e+00 -7.7429661478e-04 1.9355122286e+00 -3.3524055187e+00 1.9355122286e+00 3.3524055187e+00 
29400 4.6396890295e+00 -7.6423476526e-04 1.9355322310e+00 -3.3524401639e+00 1.9355322310e+00 3.3524401639e+00 
29500 4.6396890457e+00 -7.5423729835e-04 1.9355519733e+00 -3.3524743585e+00 1.9355519733e+00 3.3524743585e+00 
29600 4.6396890614e+00 -7.4430664171e-04 1.9355714571e+00 -3.3525081054e+00 1.9355714571e+00 3.3525081054e+00 
29700 4.6396890769e+00 -7.3444524492e-04 1.9355906842e+00 -3.3525414077e+00 1.9355906842e+00 3.3525414077e+00 
29800 4.6396890920e+00 -7.2465556517e-04 1.9356096564e+00 -3.3525742684e+00 1.9356096564e+00 3.3525742684e+00 
29900 4.6396891068e+00 -7.1494005368e-04 1.9356283754e+00 -3.3526066908e+00 1.9356283754e+00 3.3526066908e+00 
30000 4.6396891213e+00 -7.0530114301e-04 1.9356468434e+00 -3.3526386782e+00 1.9356468434e+00 3.3526386782e+00 
30100 4.6396891355e+00 -6.9574123522e-04 1.9356650622e+00 -3.3526702341e+00 1.9356650622e+00 3.3526702341e+00 
30200 4.6396891494e+00 -6.8626269078e-04 1.9356830338e+00 -3.3527013619e+00 1.9356830338e+00 3.3527013619e+00 
30300 4.6396891630e+00 -6.7686781837e-04 1.9357007605e+00 -3.3527320654e+00 1.9357007605e+00 3.3527320654e+00 
30400 4.6396891763e+00 -6.6755886544e-04 1.9357182443e+00 -3.3527623483e+00 1.9357182443e+00 3.3527623483e+00 
30500 4.6396891894e+00 -6.5833800954e-04 1.9357354875e+00 -3.3527922144e+00 1.9357354875e+00 3.3527922144e+00 
30600 4.6396892022e+00 -6.4920735043e-04 1.9357524924e+00 -3.3528216677e+00 1.9357524924e+00 3.3528216677e+00 
30700 4.6396892147e+00 -6.4016890297e-04 1.9357692613e+00 -3.3528507122e+00 1.9357692613e+00 3.3528507122e+00 
30800 4.6396892270e+00 -6.3122459064e-04 1.9357857965e+00 -3.3528793522e+00 1.9357857965e+00 3.3528793522e+00 
30900 4.6396892390e+00 -6.2237623989e-04 1.9358021007e+00 -3.3529075917e+00 1.9358021007e+00 3.3529075917e+00 
31000 4.6396892507e+00 -6.1362557509e-04 1.9358181761e+00 -3.3529354352e+00 1.9358181761e+00 3.3529354352e+00 
31100 4.6396892622e+00 -6.0497421416e-04 1.9358340254e+00 -3.3529628870e+00 1.9358340254e+00 3.3529628870e+00 
31200 4.6396892734e+00 -5.9642366486e-04 1.9358496511e+00 -3.3529899515e+00 1.9358496511e+00 3.3529899515e+00 
31300 4.6396892844e+00 -5.8797532165e-04 1.9358650558e+00 -3.3530166332e+00 1.9358650558e+00 3.3530166332e+00 
31400 4.6396892951e+00 -5.7963046321e-04 1.9358802422e+00 -3.3530429368e+00 1.9358802422e+00 3.3530429368e+00 
31500 4.6396893056e+00 -5.7139025046e-04 1.9358952129e+00 -3.3530688669e+00 1.9358952129e+00 3.3530688669e+00 
31600 4.6396893159e+00 -5.6325572515e-04 1.9359099707e+00 -3.3530944282e+00 1.9359099707e+00 3.3530944282e+00 
31700 4.6396893259e+00 -5.5522780895e-04 1.9359245183e+00 -3.3531196253e+00 1.9359245183e+00 3.3531196253e+00 
31800 4.6396893357e+00 -5.4730730303e-04 1.9359388584e+00 -3.3531444632e+00 1.9359388584e+00 3.3531444632e+00 
31900 4.6396893452e+00 -5.3949488812e-04 1.9359529939e+00 -3.3531689465e+00 1.9359529939e+00 3.3531689465e+00 
32000 4.6396893546e+00 -5.3179112498e-04 1.9359669275e+00 -3.3531930802e+00 1.9359669275e+00 3.3531930802e+00 
32100 4.6396893637e+00 -5.2419645529e-04 1.9359806620e+00 -3.3532168691e+00 1.9359806620e+00 3.3532168691e+00 
32200 4.6396893726e+00 -5.1671120291e-04 1.9359942003e+00 -3.3532403181e+00 1.9359942003e+00 3.3532403181e+00 
32300 4.6396893813e+00 -5.0933557553e-04 1.9360075452e+00 -3.3532634321e+00 1.9360075452e+00 3.3532634321e+00 
32400 4.6396893898e+00 -5.0206966662e-04 1.9360206995e+00 -3.3532862160e+00 1.9360206995e+00 3.3532862160e+00 
32500 4.6396893981e+00 -4.9491345770e-04 1.9360336660e+00 -3.3533086747e+00 1.9360336660e+00 3.3533086747e+00 
32600 4.6396894061e+00 -4.8786682089e-04 1.9360464477e+00 -3.3533308132e+00 1.9360464477e+00 3.3533308132e+00 
32700 4.6396894140e+00 -4.8092952172e-04 1.9360590472e+00 -3.3533526363e+00 1.9360590472e+00 3.3533526363e+00 
32800 4.6396894217e+00 -4.7410122217e-04 1.9360714676e+00 -3.3533741489e+00 1.9360714676e+00 3.3533741489e+00 
32900 4.6396894293e+00 -4.6738148395e-04 1.9360837115e+00 -3.3533953560e+00 1.9360837115e+00 3.3533953560e+00 
33000 4.6396894366e+00 -4.6076977191e-04 1.9360957818e+00 -3.3534162624e+00 1.9360957818e+00 3.3534162624e+00 
33100 4.6396894438e+00 -4.5426545768e-04 1.9361076813e+00 -3.3534368729e+00 1.9361076813e+00 3.3534368729e+00 
33200 4.6396894508e+00 -4.4786782344e-04 1.9361194127e+00 -3.3534571923e+00 1.9361194127e+00 3.3534571923e+00 
33300 4.6396894576e+00 -4.4157606576e-04 1.9361309788e+00 -3.3534772254e+00 1.9361309788e+00 3.3534772254e+00 
33400 4.6396894643e+00 -4.3538929965e-04 1.9361423824e+00 -3.3534969770e+00 1.9361423824e+00 3.3534969770e+00 
33500 4.6396894708e+00 -4.2930656262e-04 1.9361536261e+00 -3.3535164517e+00 1.9361536261e+00 3.3535164517e+00 
33600 4.6396894772e+00 -4.2332681879e-04 1.9361647127e+00 -3.3535356543e+00 1.9361647127e+00 3.3535356543e+00 
33700 4.6396894834e+00 -4.1744896318e-04 1.9361756448e+00 -3.3535545892e+00 1.9361756448e+00 3.3535545892e+00 
33800 4.6396894895e+00 -4.1167182585e-04 1.9361864251e+00 -3.3535732612e+00 1.9361864251e+00 3.3535732612e+00 
33900 4.6396894954e+00 -4.0599417625e-04 1.9361970561e+00 -3.3535916746e+00 1.9361970561e+00 3.3535916746e+00 
34000 4.6396895012e+00 -4.0041472739e-04 1.9362075404e+00 -3.3536098340e+00 1.9362075404e+00 3.3536098340e+00 
34100 4.6396895069e+00 -3.9493214020e-04 1.9362178806e+00 -3.3536277437e+00 1.9362178806e+00 3.3536277437e+00 
34200 4.6396895124e+00 -3.8954502764e-04 1.9362280792e+00 -3.3536454082e+00 1.9362280792e+00 3.3536454082e+00 
34300 4.6396895179e+00 -3.8425195900e-04 1.9362381386e+00 -3.3536628315e+00 1.9362381386e+00 3.3536628315e+00 
34400 4.6396895232e+00 -3.7905146400e-04 1.9362480612e+00 -3.3536800181e+00 1.9362480612e+00 3.3536800181e+00 
34500 4.6396895284e+00 -3.7394203686e-04 1.9362578495e+00 -3.3536969719e+00 1.9362578495e+00 3.3536969719e+00 
34600 4.6396895334e+00 -3.6892214035e-04 1.9362675058e+00 -3.3537136971e+00 1.9362675058e+00 3.3537136971e+00 
34700 4.6396895384e+00 -3.6399020975e-04 1.9362770325e+00 -3.3537301978e+00 1.9362770325e+00 3.3537301978e+00 
34800 4.6396895433e+00 -3.5914465665e-04 1.9362864317e+00 -3.3537464777e+00 1.9362864317e+00 3.3537464777e+00 
34900 4.6396895480e+00 -3.5438387278e-04 1.9362957058e+00 -3.3537625409e+00 1.9362957058e+00 3.3537625409e+00 
35000 4.6396895527e+00 -3.4970623359e-04 1.9363048569e+00 -3.3537783910e+00 1.9363048569e+00 3.3537783910e+00 
35100 4.6396895572e+00 -3.4511010188e-04 1.9363138871e+00 -3.3537940319e+00 1.9363138871e+00 3.3537940319e+00 
35200 4.6396895617e+00 -3.4059383121e-04 1.9363227986e+00 -3.3538094671e+00 1.9363227986e+00 3.3538094671e+00 
35300 4.6396895661e+00 -3.3615576918e-04 1.9363315935e+00 -3.3538247003e+00 1.9363315935e+00 3.3538247003e+00 
35400 4.6396895704e+00 -3.3179426068e-04 1.9363402737e+00 -3.3538397349e+00 1.9363402737e+00 3.3538397349e+00 
35500 4.6396895746e+00 -3.2750765094e-04 1.9363488413e+00 -3.3538545743e+00 1.9363488413e+00 3.3538545743e+00 
35600 4.6396895787e+00 -3.2329428846e-04 1.9363572981e+00 -3.3538692220e+00 1.9363572981e+00 3.3538692220e+00 
35700 4.6396895827e+00 -3.1915252781e-04 1.9363656462e+00 -3.3538836812e+00 1.9363656462e+00 3.3538836812e+00 
35800 4.6396895867e+00 -3.1508073233e-04 1.9363738872e+00 -3.3538979550e+00 1.9363738872e+00 3.3538979550e+00 
35900 4.6396895905e+00 -3.1107727661e-04 1.9363820230e+00 -3.3539120467e+00 1.9363820230e+00 3.3539120467e+00 
36000 4.6396895943e+00 -3.0714054894e-04 1.9363900555e+00 -3.3539259593e+00 1.9363900555e+00 3.3539259593e+00 
36100 4.6396895980e+00 -3.0326895352e-04 1.9363979862e+00 -3.3539396958e+00 1.9363979862e+00 3.3539396958e+00 
36200 4.6396896017e+00 -2.9946091261e-04 1.9364058170e+00 -3.3539532591e+00 1.9364058170e+00 3.3539532591e+00 
36300 4.6396896053e+00 -2.9571486850e-04 1.9364135494e+00 -3.3539666520e+00 1.9364135494e+00 3.3539666520e+00 
36400 4.6396896088e+00 -2.9202928535e-04 1.9364211850e+00 -3.3539798773e+00 1.9364211850e+00 3.3539798773e+00 
36500 4.6396896122e+00 -2.8840265089e-04 1.9364287255e+00 -3.3539929377e+00 1.9364287255e+00 3.3539929377e+00 
36600 4.6396896156e+00 -2.8483347798e-04 1.9364361722e+00 -3.3540058359e+00 1.9364361722e+00 3.3540058359e+00 
36700 4.6396896189e+00 -2.8132030611e-04 1.9364435268e+00 -3.3540185744e+00 1.9364435268e+00 3.3540185744e+00 
36800 4.6396896221e+00 -2.7786170262e-04 1.9364507907e+00 -3.3540311558e+00 1.9364507907e+00 3.3540311558e+00 
36900 4.6396896253e+00 -2.7445626395e-04 1.9364579652e+00 -3.3540435824e+00 1.9364579652e+00 3.3540435824e+00 
37000 4.6396896284e+00 -2.7110261667e-04 1.9364650517e+00 -3.3540558567e+00 1.9364650517e+00 3.3540558567e+00 
37100 4.6396896315e+00 -2.6779941841e-04 1.9364720517e+00 -3.3540679809e+00 1.9364720517e+00 3.3540679809e+00 
37200 4.6396896345e+00 -2.6454535866e-04 1.9364789663e+00 -3.3540799574e+00 1.9364789663e+00 3.3540799574e+00 
37300 4.6396896374e+00 -2.6133915952e-04 1.9364857969e+00 -3.3540917883e+00 1.9364857969e+00 3.3540917883e+00 
37400 4.6396896403e+00 -2.5817957622e-04 1.9364925446e+00 -3.3541034758e+00 1.9364925446e+00 3.3541034758e+00 
37500 4.6396896431e+00 -2.5506539765e-04 1.9364992108e+00 -3.3541150220e+00 1.9364992108e+00 3.3541150220e+00 
37600 4.6396896459e+00 -2.5199544670e-04 1.9365057966e+00 -3.3541264288e+00 1.9365057966e+00 3.3541264288e+00 
37700 4.6396896486e+00 -2.4896858056e-04 1.9365123030e+00 -3.3541376983e+00 1.9365123030e+00 3.3541376983e+00 
37800 4.6396896513e+00 -2.4598369088e-04 1.9365187313e+00 -3.3541488324e+00 1.9365187313e+00 3.3541488324e+00 
37900 4.6396896539e+00 -2.4303970386e-04 1.9365250825e+00 -3.3541598330e+00 1.9365250825e+00 3.3541598330e+00 
38000 4.6396896564e+00 -2.4013558024e-04 1.9365313576e+00 -3.3541707019e+00 1.9365313576e+00 3.3541707019e+00 
38100 4.6396896590e+00 -2.3727031524e-04 1.9365375578e+00 -3.3541814408e+00 1.9365375578e+00 3.3541814408e+00 
38200 4.6396896614e+00 -2.3444293837e-04 1.9365436839e+00 -3.3541920516e+00 1.9365436839e+00 3.3541920516e+00 
38300 4.6396896639e+00 -2.3165251318e-04 1.9365497371e+00 -3.3542025360e+00 1.9365497371e+00 3.3542025360e+00 
38400 4.6396896662e+00 -2.2889813701e-04 1.9365557181e+00 -3.3542128955e+00 1.9365557181e+00 3.3542128955e+00 
38500 4.6396896686e+00 -2.2617894052e-04 1.9365616281e+00 -3.3542231318e+00 1.9365616281e+00 3.3542231318e+00 
38600 4.6396896708e+00 -2.2349408735e-04 1.9365674678e+00 -3.3542332464e+00 1.9365674678e+00 3.3542332464e+00 
38700 4.6396896731e+00 -2.2084277357e-04 1.9365732381e+00 -3.3542432410e+00 1.9365732381e+00 3.3542432410e+00 
38800 4.6396896753e+00 -2.1822422713e-04 1.9365789400e+00 -3.3542531170e+00 1.9365789400e+00 3.3542531170e+00 
38900 4.6396896775e+00 -2.1563770728e-04 1.9365845743e+00 -3.3542628758e+00 1.9365845743e+00 3.3542628758e+00 
39000 4.6396896796e+00 -2.1308250394e-04 1.9365901418e+00 -3.3542725190e+00 1.9365901418e+00 3.3542725190e+00 
39100 4.6396896817e+00 -2.1055793701e-04 1.9365956433e+00 -3.3542820479e+00 1.9365956433e+00 3.3542820479e+00 
39200 4.6396896837e+00 -2.0806335560e-04 1.9366010796e+00 -3.3542914638e+00 1.9366010796e+00 3.3542914638e+00 
39300 4.6396896857e+00 -2.0559813737e-04 1.9366064514e+00 -3.3543007681e+00 1.9366064514e+00 3.3543007681e+00 
39400 4.6396896877e+00 -2.0316168769e-04 1.9366117596e+00 -3.3543099622e+00 1.9366117596e+00 3.3543099622e+00 
39500 4.6396896896e+00 -2.0075343883e-04 1.9366170049e+00 -3.3543190473e+00 1.9366170049e+00 3.3543190473e+00 
39600 4.6396896915e+00 -1.9837284917e-04 1.9366221880e+00 -3.3543280247e+00 1.9366221880e+00 3.3543280247e+00 
39700 4.6396896933e+00 -1.9601940231e-04 1.9366273097e+00 -3.3543368956e+00 1.9366273097e+00 3.3543368956e+00 
39800 4.6396896952e+00 -1.9369260623e-04 1.9366323705e+00 -3.3543456613e+00 1.9366323705e+00 3.3543456613e+00 
39900 4.6396896969e+00 -1.9139199244e-04 1.9366373713e+00 -3.3543543229e+00 1.9366373713e+00 3.3543543229e+00 
40000 4.6396896987e+00 -1.8911711503e-04 1.9366423126e+00 -3.3543628815e+00 1.9366423126e+00 3.3543628815e+00 
40100 4.6396897004e+00 -1.8686754987e-04 1.9366471952e+00 -3.3543713384e+00 1.9366471952e+00 3.3543713384e+00 
40200 4.6396897021e+00 -1.8464289361e-04 1.9366520197e+00 -3.3543796948e+00 1.9366520197e+00 3.3543796948e+00 
40300 4.6396897038e+00 -1.8244276291e-04 1.9366567868e+00 -3.3543879516e+00 1.9366567868e+00 3.3543879516e+00 
40400 4.6396897054e+00 -1.8026679342e-04 1.9366614970e+00 -3.3543961099e+00 1.9366614970e+00 3.3543961099e+00 
40500 4.6396897070e+00 -1.7811463902e-04 1.9366661511e+00 -3.3544041710e+00 1.9366661511e+00 3.3544041710e+00 
40600 4.6396897086e+00 -1.7598597083e-04 1.9366707496e+00 -3.3544121358e+00 1.9366707496e+00 3.3544121358e+00 
40700 4.6396897101e+00 -1.7388047640e-04 1.9366752931e+00 -3.3544200054e+00 1.9366752931e+00 3.3544200054e+00 
40800 4.6396897116e+00 -1.7179785883e-04 1.9366797823e+00 -3.3544277809e+00 1.9366797823e+00 3.3544277809e+00 
40900 4.6396897131e+00 -1.6973783594e-04 1.9366842176e+00 -3.3544354632e+00 1.9366842176e+00 3.3544354632e+00 
41000 4.6396897146e+00 -1.6770013940e-04 1.9366885998e+00 -3.3544430533e+00 1.9366885998e+00 3.3544430533e+00 
41100 4.6396897160e+00 -1.6568451395e-04 1.9366929294e+00 -3.3544505523e+00 1.9366929294e+00 3.3544505523e+00 
41200 4.6396897174e+00 -1.6369071654e-04 1.9366972069e+00 -3.3544579612e+00 1.9366972069e+00 3.3544579612e+00 
41300 4.6396897188e+00 -1.6171851563e-04 1.9367014329e+00 -3.3544652809e+00 1.9367014329e+00 3.3544652809e+00 
41400 4.6396897202e+00 -1.5976769036e-04 1.9367056080e+00 -3.3544725124e+00 1.9367056080e+00 3.3544725124e+00 
41500 4.6396897215e+00 -1.5783802982e-04 1.9367097328e+00 -3.3544796566e+00 1.9367097328e+00 3.3544796566e+00 
41600 4.6396897228e+00 -1.5592933234e-04 1.9367138077e+00 -3.3544867146e+00 1.9367138077e+00 3.3544867146e+00 
41700 4.6396897241e+00 -1.5404140481e-04 1.9367178333e+00 -3.3544936872e+00 1.9367178333e+00 3.3544936872e+00 
41800 4.6396897254e+00 -1.5217406195e-04 1.9367218101e+00 -3.3545005753e+00 1.9367218101e+00 3.3545005753e+00 
41900 4.6396897266e+00 -1.5032712570e-04 1.9367257388e+00 -3.3545073799e+00 1.9367257388e+00 3.3545073799e+00 
42000 4.6396897278e+00 -1.4850042459e-04 1.9367296198e+00 -3.3545141019e+00 1.9367296198e+00 3.3545141019e+00 
42100 4.6396897290e+00 -1.4669379313e-04 1.9367334536e+00 -3.3545207423e+00 1.9367334536e+00 3.3545207423e+00 
42200 4.6396897302e+00 -1.4490707122e-04 1.9367372407e+00 -3.3545273018e+00 1.9367372407e+00 3.3545273018e+00 
42300 4.6396897314e+00 -1.4314010361e-04 1.9367409817e+00 -3.3545337814e+00 1.9367409817e+00 3.3545337814e+00 
42400 4.6396897325e+00 -1.4139273940e-04 1.9367446771e+00 -3.3545401820e+00 1.9367446771e+00 3.3545401820e+00 
42500 4.6396897336e+00 -1.3966483149e-04 1.9367483274e+00 -3.3545465045e+00 1.9367483274e+00 3.3545465045e+00 
42600 4.6396897347e+00 -1.3795623612e-04 1.9367519330e+00 -3.3545527496e+00 1.9367519330e+00 3.3545527496e+00 
42700 4.6396897358e+00 -1.3626681247e-04 1.9367554946e+00 -3.3545589184e+00 1.9367554946e+00 3.3545589184e+00 
42800 4.6396897368e+00 -1.3459642215e-04 1.9367590125e+00 -3.3545650116e+00 1.9367590125e+00 3.3545650116e+00 
42900 4.6396897379e+00 -1.3294492887e-04 1.9367624873e+00 -3.3545710301e+00 1.9367624873e+00 3.3545710301e+00 
43000 4.6396897389e+00 -1.3131219804e-04 1.9367659194e+00 -3.3545769748e+00 1.9367659194e+00 3.3545769748e+00 
43100 4.6396897399e+00 -1.2969809641e-04 1.9367693094e+00 -3.3545828464e+00 1.9367693094e+00 3.3545828464e+00 
43200 4.6396897409e+00 -1.2810249178e-04 1.9367726577e+00 -3.3545886458e+00 1.9367726577e+00 3.3545886458e+00 
43300 4.6396897419e+00 -1.2652525264e-04 1.9367759648e+00 -3.3545943739e+00 1.9367759648e+00 3.3545943739e+00 
43400 4.6396897428e+00 -1.2496624795e-04 1.9367792312e+00 -3.3546000315e+00 1.9367792312e+00 3.3546000315e+00 
43500 4.6396897438e+00 -1.2342534686e-04 1.9367824573e+00 -3.3546056193e+00 1.9367824573e+00 3.3546056193e+00 
43600 4.6396897447e+00 -1.2190241847e-04 1.9367856437e+00 -3.3546111382e+00 1.9367856437e+00 3.3546111382e+00 
43700 4.6396897456e+00 -1.2039733162e-04 1.9367887907e+00 -3.3546165891e+00 1.9367887907e+00 3.3546165891e+00 
43800 4.6396897465e+00 -1.1890995470e-04 1.9367918989e+00 -3.3546219726e+00 1.9367918989e+00 3.3546219726e+00 
43900 4.6396897474e+00 -1.1744015548e-04 1.9367949687e+00 -3.3546272896e+00 1.9367949687e+00 3.3546272896e+00 
44000 4.6396897482e+00 -1.1598780095e-04 1.9367980005e+00 -3.3546325408e+00 1.9367980005e+00 3.3546325408e+00 
44100 4.6396897491e+00 -1.1455275723e-04 1.9368009948e+00 -3.3546377271e+00 1.9368009948e+00 3.3546377271e+00 
44200 4.6396897499e+00 -1.1313488936e-04 1.9368039521e+00 -3.3546428493e+00 1.9368039521e+00 3.3546428493e+00 
44300 4.6396897507e+00 -1.1173406130e-04 1.9368068727e+00 -3.3546479080e+00 1.9368068727e+00 3.3546479080e+00 
44400 4.6396897515e+00 -1.1035013580e-04 1.9368097572e+00 -3.3546529041e+00 1.9368097572e+00 3.3546529041e+00 
44500 4.6396897523e+00 -1.0898297433e-04 1.9368126060e+00 -3.3546578383e+00 1.9368126060e+00 3.3546578383e+00 
44600 4.6396897531e+00 -1.0763243705e-04 1.9368154194e+00 -3.3546627113e+00 1.9368154194e+00 3.3546627113e+00 
44700 4.6396897539e+00 -1.0629838276e-04 1.9368181980e+00 -3.3546675240e+00 1.9368181980e+00 3.3546675240e+00 
44800 4.6396897546e+00 -1.0498066888e-04 1.9368209422e+00 -3.3546722770e+00 1.9368209422e+00 3.3546722770e+00 
44900 4.6396897553e+00 -1.0367915144e-04 1.9368236523e+00 -3.3546769711e+00 1.9368236523e+00 3.3546769711e+00 
45000 4.6396897561e+00 -1.0239368509e-04 1.9368263288e+00 -3.3546816070e+00 1.9368263288e+00 3.3546816070e+00 
45100 4.6396897568e+00 -1.0112412308e-04 1.9368289722e+00 -3.3546861854e+00 1.9368289722e+00 3.3546861854e+00 
45200 4.6396897575e+00 -9.9870317325e-05 1.9368315827e+00 -3.3546907070e+00 1.9368315827e+00 3.3546907070e+00 
45300 4.6396897582e+00 -9.8632118417e-05 1.9368341609e+00 -3.3546951726e+00 1.9368341609e+00 3.3546951726e+00 
45400 4.6396897588e+00 -9.7409375660e-05 1.9368367071e+00 -3.3546995827e+00 1.9368367071e+00 3.3546995827e+00 
45500 4.6396897595e+00 -9.6201937130e-05 1.9368392218e+00 -3.3547039382e+00 1.9368392218e+00 3.3547039382e+00 
45600 4.6396897602e+00 -9.5009649731e-05 1.9368417053e+00 -3.3547082397e+00 1.9368417053e+00 3.3547082397e+00 
45700 4.6396897608e+00 -9.3832359258e-05 1.9368441580e+00 -3.3547124879e+00 1.9368441580e+00 3.3547124879e+00 
45800 4.6396897614e+00 -9.2669910464e-05 1.9368465803e+00 -3.3547166835e+00 1.9368465803e+00 3.3547166835e+00 
45900 4.6396897621e+00 -9.1522147142e-05 1.9368489726e+00 -3.3547208271e+00 1.9368489726e+00 3.3547208271e+00 
46000 4.6396897627e+00 -9.0388912198e-05 1.9368513352e+00 -3.3547249193e+00 1.9368513352e+00 3.3547249193e+00 
46100 4.6396897633e+00 -8.9270047745e-05 1.9368536686e+00 -3.3547289609e+00 1.9368536686e+00 3.3547289609e+00 
46200 4.6396897639e+00 -8.8165395183e-05 1.9368559731e+00 -3.3547329524e+00 1.9368559731e+00 3.3547329524e+00 
46300 4.6396897644e+00 -8.7074795300e-05 1.9368582491e+00 -3.3547368945e+00 1.9368582491e+00 3.3547368945e+00 
46400 4.6396897650e+00 -8.5998088357e-05 1.9368604970e+00 -3.3547407879e+00 1.9368604970e+00 3.3547407879e+00 
46500 4.6396897656e+00 -8.4935114194e-05 1.9368627170e+00 -3.3547446331e+00 1.9368627170e+00 3.3547446331e+00 
46600 4.6396897661e+00 -8.3885712319e-05 1.9368649096e+00 -3.3547484308e+00 1.9368649096e+00 3.3547484308e+00 
46700 4.6396897667e+00 -8.2849722018e-05 1.9368670751e+00 -3.3547521816e+00 1.9368670751e+00 3.3547521816e+00 
46800 4.6396897672e+00 -8.1826982447e-05 1.9368692138e+00 -3.3547558860e+00 1.9368692138e+00 3.3547558860e+00 
46900 4.6396897677e+00 -8.0817332733e-05 1.9368713262e+00 -3.3547595447e+00 1.9368713262e+00 3.3547595447e+00 
47000 4.6396897682e+00 -7.9820612080e-05 1.9368734125e+00 -3.3547631583e+00 1.9368734125e+00 3.3547631583e+00 
47100 4.6396897688e+00 -7.8836659863e-05 1.9368754730e+00 -3.3547667272e+00 1.9368754730e+00 3.3547667272e+00 
47200 4.6396897693e+00 -7.7865315731e-05 1.9368775082e+00 -3.3547702522e+00 1.9368775082e+00 3.3547702522e+00 
47300 4.6396897697e+00 -7.6906419702e-05 1.9368795183e+00 -3.3547737338e+00 1.9368795183e+00 3.3547737338e+00 
47400 4.6396897702e+00 -7.5959812261e-05 1.9368815036e+00 -3.3547771724e+00 1.9368815036e+00 3.3547771724e+00 
47500 4.6396897707e+00 -7.5025334452e-05 1.9368834645e+00 -3.3547805688e+00 1.9368834645e+00 3.3547805688e+00 
47600 4.6396897712e+00 -7.4102827975e-05 1.9368854012e+00 -3.3547839233e+00 1.9368854012e+00 3.3547839233e+00 
47700 4.6396897716e+00 -7.3192135273e-05 1.9368873142e+00 -3.3547872366e+00 1.9368873142e+00 3.3547872366e+00 
47800 4.6396897721e+00 -7.2293099616e-05 1.9368892036e+00 -3.3547905092e+00 1.9368892036e+00 3.3547905092e+00 
47900 4.6396897725e+00 -7.1405565195e-05 1.9368910698e+00 -3.3547937416e+00 1.9368910698e+00 3.3547937416e+00 
48000 4.6396897730e+00 -7.0529377199e-05 1.9368929131e+00 -3.3547969343e+00 1.9368929131e+00 3.3547969343e+00 
48100 4.6396897735e+00 -7.0447763463e-05 1.9368929131e+00 -3.3547969343e+00 1.9368929131e+00 3.3547969343e+00 
48200 4.6396897741e+00 -7.0373881572e-05 1.9368929131e+00 -3.3547969343e+00 1.9368929131e+00 3.3547969343e+00 
48300 4.6396897746e+00 -7.0307499534e-05 1.9368929131e+00 -3.3547969343e+00 1.9368929131e+00 3.3547969343e+00 
48400 4.6396897751e+00 -7.0248384925e-05 1.9368929131e+00 -3.3547969343e+00 1.9368929131e+00 3.3547969343e+00 
48500 4.6396897757e+00 -7.0196304764e-05 1.9368929131e+00 -3.3547969343e+00 1.9368929131e+00 3.3547969343e+00 
48600 4.6396897762e+00 -7.0151025455e-05 1.9368929131e+00 -3.3547969343e+00 1.9368929131e+00 3.3547969343e+00 
48700 4.6396897767e+00 -7.0112312804e-05 1.9368929131e+00 -3.3547969343e+00 1.9368929131e+00 3.3547969343e+00 
48800 4.6396897772e+00 -7.0079932098e-05 1.9368929131e+00 -3.3547969343e+00 1.9368929131e+00 3.3547969343e+00 
48900 4.6396897776e+00 -7.0053648224e-05 1.9368929131e+00 -3.3547969343e+00 1.9368929131e+00 3.3547969343e+00 
49000 4.6396897781e+00 -7.0033225838e-05 1.9368929131e+00 -3.3547969343e+00 1.9368929131e+00 3.3547969343e+00 
49100 4.6396897786e+00 -7.0018429567e-05 1.9368929131e+00 -3.3547969343e+00 1.9368929131e+00 3.3547969343e+00 
49200 4.6396897790e+00 -7.0009024242e-05 1.9368929131e+00 -3.3547969343e+00 1.9368929131e+00 3.3547969343e+00 
49300 4.6396897795e+00 -7.0004775163e-05 1.9368929131e+00 -3.3547969343e+00 1.9368929131e+00 3.3547969343e+00 
49400 4.6396897799e+00 -7.0005448369e-05 1.9368929131e+00 -3.3547969343e+00 1.9368929131e+00 3.3547969343e+00 
49500 4.6396897804e+00 -7.0010810936e-05 1.9368929131e+00 -3.3547969343e+00 1.9368929131e+00 3.3547969343e+00 
49600 4.6396897808e+00 -7.0020631280e-05 1.9368929131e+00 -3.3547969343e+00 1.9368929131e+00 3.3547969343e+00 
49700 4.6396897812e+00 -7.0034679469e-05 1.9368929131e+00 -3.3547969343e+00 1.9368929131e+00 3.3547969343e+00 
49800 4.6396897816e+00 -7.0052727541e-05 1.9368929131e+00 -3.3547969343e+00 1.9368929131e+00 3.3547969343e+00 
49900 4.6396897820e+00 -7.0074549811e-05 1.9368929131e+00 -3.3547969343e+00 1.9368929131e+00 3.3547969343e+00 
50000 4.6396897824e+00 -7.0099923192e-05 1.9368929131e+00 -3.3547969343e+00 1.9368929131e+00 3.3547969343e+00 
50100 4.6396897828e+00 -7.0128627501e-05 1.9368929131e+00 -3.3547969343e+00 1.9368929131e+00 3.3547969343e+00 
50200 4.6396897832e+00 -7.0160445758e-05 1.9368929131e+00 -3.3547969343e+00 1.9368929131e+00 3.3547969343e+00 
50300 4.6396897836e+00 -7.0195164480e-05 1.9368929131e+00 -3.3547969343e+00 1.9368929131e+00 3.3547969343e+00 
50400 4.6396897839e+00 -7.0232573960e-05 1.9368929131e+00 -3.3547969343e+00 1.9368929131e+00 3.3547969343e+00 
50500 4.6396897843e+00 -7.0272468539e-05 1.9368929131e+00 -3.3547969343e+00 1.9368929131e+00 3.3547969343e+00 
50600 4.6396897847e+00 -7.0314646859e-05 1.9368929131e+00 -3.3547969343e+00 1.9368929131e+00 3.3547969343e+00 
50700 4.6396897850e+00 -7.0358912106e-05 1.9368929131e+00 -3.3547969343e+00 1.9368929131e+00 3.3547969343e+00 
50800 4.6396897854e+00 -7.0405072233e-05 1.9368929131e+00 -3.3547969343e+00 1.9368929131e+00 3.3547969343e+00 
50900 4.6396897857e+00 -7.0452940170e-05 1.9368929131e+00 -3.3547969343e+00 1.9368929131e+00 3.3547969343e+00 
51000 4.6396897860e+00 -7.0502334020e-05 1.9368929131e+00 -3.3547969343e+00 1.9368929131e+00 3.3547969343e+00 
51100 4.6396897864e+00 -7.0553077226e-05 1.9368929131e+00 -3.3547969343e+00 1.9368929131e+00 3.3547969343e+00 
51200 4.6396897867e+00 -7.0604998736e-05 1.9368929131e+00 -3.3547969343e+00 1.9368929131e+00 3.3547969343e+00 
51300 4.6396897870e+00 -7.0657933142e-05 1.9368929131e+00 -3.3547969343e+00 1.9368929131e+00 3.3547969343e+00 
51400 4.6396897873e+00 -7.0711720798e-05 1.9368929131e+00 -3.3547969343e+00 1.9368929131e+00 3.3547969343e+00 
51500 4.6396897875e+00 -6.9980776815e-05 1.9368947385e+00 -3.3548000960e+00 1.9368947385e+00 3.3548000960e+00 
51600 4.6396897878e+00 -7.0029499920e-05 1.9368947385e+00 -3.3548000960e+00 1.9368947385e+00 3.3548000960e+00 
51700 4.6396897881e+00 -7.0078759162e-05 1.9368947385e+00 -3.3548000960e+00 1.9368947385e+00 3.3548000960e+00 
51800 4.6396897884e+00 -7.0128421423e-05 1.9368947385e+00 -3.3548000960e+00 1.9368947385e+00 3.3548000960e+00 
51900 4.6396897886e+00 -7.0178359902e-05 1.9368947385e+00 -3.3548000960e+00 1.9368947385e+00 3.3548000960e+00 
52000 4.6396897889e+00 -7.0228454064e-05 1.9368947385e+00 -3.3548000960e+00 1.9368947385e+00 3.3548000960e+00 
52100 4.6396897892e+00 -7.0278589578e-05 1.9368947385e+00 -3.3548000960e+00 1.9368947385e+00 3.3548000960e+00 
52200 4.6396897895e+00 -7.0328658236e-05 1.9368947385e+00 -3.3548000960e+00 1.9368947385e+00 3.3548000960e+00 
52300 4.6396897897e+00 -7.0378557888e-05 1.9368947385e+00 -3.3548000960e+00 1.9368947385e+00 3.3548000960e+00 
52400 4.6396897900e+00 -7.0428192343e-05 1.9368947385e+00 -3.3548000960e+00 1.9368947385e+00 3.3548000960e+00 
52500 4.6396897903e+00 -7.0477471281e-05 1.9368947385e+00 -3.3548000960e+00 1.9368947385e+00 3.3548000960e+00 
52600 4.6396897905e+00 -7.0526310155e-05 1.9368947385e+00 -3.3548000960e+00 1.9368947385e+00 3.3548000960e+00 
52700 4.6396897907e+00 -7.0574630077e-05 1.9368947385e+00 -3.3548000960e+00 1.9368947385e+00 3.3548000960e+00 
52800 4.6396897910e+00 -7.0622357705e-05 1.9368947385e+00 -3.3548000960e+00 1.9368947385e+00 3.3548000960e+00 
52900 4.6396897912e+00 -7.0669425128e-05 1.9368947385e+00 -3.3548000960e+00 1.9368947385e+00 3.3548000960e+00 
53000 4.6396897915e+00 -7.0715769731e-05 1.9368947385e+00 -3.3548000960e+00 1.9368947385e+00 3.3548000960e+00 
53100 4.6396897916e+00 -6.9975856280e-05 1.9368965640e+00 -3.3548032578e+00 1.9368965640e+00 3.3548032578e+00 
53200 4.6396897918e+00 -7.0014271997e-05 1.9368965640e+00 -3.3548032578e+00 1.9368965640e+00 3.3548032578e+00 
53300 4.6396897920e+00 -7.0051933781e-05 1.9368965640e+00 -3.3548032578e+00 1.9368965640e+00 3.3548032578e+00 
53400 4.6396897922e+00 -7.0088801445e-05 1.9368965640e+00 -3.3548032578e+00 1.9368965640e+00 3.3548032578e+00 
53500 4.6396897924e+00 -7.0124839607e-05 1.9368965640e+00 -3.3548032578e+00 1.9368965640e+00 3.3548032578e+00 
53600 4.6396897926e+00 -7.0160017452e-05 1.9368965640e+00 -3.3548032578e+00 1.9368965640e+00 3.3548032578e+00 
53700 4.6396897928e+00 -7.0194308511e-05 1.9368965640e+00 -3.3548032578e+00 1.9368965640e+00 3.3548032578e+00 
53800 4.6396897931e+00 -7.0227690449e-05 1.9368965640e+00 -3.3548032578e+00 1.9368965640e+00 3.3548032578e+00 
53900 4.6396897933e+00 -7.0260144839e-05 1.9368965640e+00 -3.3548032578e+00 1.9368965640e+00 3.3548032578e+00 
54000 4.6396897934e+00 -7.0291656964e-05 1.9368965640e+00 -3.3548032578e+00 1.9368965640e+00 3.3548032578e+00 
54100 4.6396897936e+00 -7.0322215609e-05 1.9368965640e+00 -3.3548032578e+00 1.9368965640e+00 3.3548032578e+00 
54200 4.6396897938e+00 -7.0351812861e-05 1.9368965640e+00 -3.3548032578e+00 1.9368965640e+00 3.3548032578e+00 
54300 4.6396897940e+00 -7.0380443916e-05 1.9368965640e+00 -3.3548032578e+00 1.9368965640e+00 3.3548032578e+00 
54400 4.6396897942e+00 -7.0408106891e-05 1.9368965640e+00 -3.3548032578e+00 1.9368965640e+00 3.3548032578e+00 
54500 4.6396897944e+00 -7.0434802642e-05 1.9368965640e+00 -3.3548032578e+00 1.9368965640e+00 3.3548032578e+00 
54600 4.6396897945e+00 -7.0460534578e-05 1.9368965640e+00 -3.3548032578e+00 1.9368965640e+00 3.3548032578e+00 
54700 4.6396897947e+00 -7.0485308493e-05 1.9368965640e+00 -3.3548032578e+00 1.9368965640e+00 3.3548032578e+00 
54800 4.6396897949e+00 -7.0509132394e-05 1.9368965640e+00 -3.3548032578e+00 1.9368965640e+00 3.3548032578e+00 
54900 4.6396897951e+00 -7.0532016339e-05 1.9368965640e+00 -3.3548032578e+00 1.9368965640e+00 3.3548032578e+00 
55000 4.6396897952e+00 -7.0553972274e-05 1.9368965640e+00 -3.3548032578e+00 1.9368965640e+00 3.3548032578e+00 
55100 4.6396897954e+00 -7.0575013882e-05 1.9368965640e+00 -3.3548032578e+00 1.9368965640e+00 3.3548032578e+00 
55200 4.6396897955e+00 -7.0595156432e-05 1.9368965640e+00 -3.3548032578e+00 1.9368965640e+00 3.3548032578e+00 
55300 4.6396897957e+00 -7.0614416638e-05 1.9368965640e+00 -3.3548032578e+00 1.9368965640e+00 3.3548032578e+00 
55400 4.6396897959e+00 -7.0632812516e-05 1.9368965640e+00 -3.3548032578e+00 1.9368965640e+00 3.3548032578e+00 
55500 4.6396897960e+00 -7.0650363254e-05 1.9368965640e+00 -3.3548032578e+00 1.9368965640e+00 3.3548032578e+00 
55600 4.6396897961e+00 -7.0667089081e-05 1.9368965640e+00 -3.3548032578e+00 1.9368965640e+00 3.3548032578e+00 
55700 4.6396897963e+00 -7.0683011144e-05 1.9368965640e+00 -3.3548032578e+00 1.9368965640e+00 3.3548032578e+00 
55800 4.6396897964e+00 -7.0698151390e-05 1.9368965640e+00 -3.3548032578e+00 1.9368965640e+00 3.3548032578e+00 
55900 4.6396897966e+00 -7.0712532454e-05 1.9368965640e+00 -3.3548032578e+00 1.9368965640e+00 3.3548032578e+00 
56000 4.6396897966e+00 -6.9940733409e-05 1.9368983894e+00 -3.3548064195e+00 1.9368983894e+00 3.3548064195e+00 
56100 4.6396897967e+00 -6.9947350581e-05 1.9368983894e+00 -3.3548064195e+00 1.9368983894e+00 3.3548064195e+00 
56200 4.6396897968e+00 -6.9953405782e-05 1.9368983894e+00 -3.3548064195e+00 1.9368983894e+00 3.3548064195e+00 
56300 4.6396897970e+00 -6.9958925955e-05 1.9368983894e+00 -3.3548064195e+00 1.9368983894e+00 3.3548064195e+00 
56400 4.6396897971e+00 -6.9963938445e-05 1.9368983894e+00 -3.3548064195e+00 1.9368983894e+00 3.3548064195e+00 
56500 4.6396897972e+00 -6.9968470839e-05 1.9368983894e+00 -3.3548064195e+00 1.9368983894e+00 3.3548064195e+00 
56600 4.6396897974e+00 -6.9972550819e-05 1.9368983894e+00 -3.3548064195e+00 1.9368983894e+00 3.3548064195e+00 
56700 4.6396897975e+00 -6.9976206026e-05 1.9368983894e+00 -3.3548064195e+00 1.9368983894e+00 3.3548064195e+00 
56800 4.6396897976e+00 -6.9979463938e-05 1.9368983894e+00 -3.3548064195e+00 1.9368983894e+00 3.3548064195e+00 
56900 4.6396897977e+00 -6.9982351760e-05 1.9368983894e+00 -3.3548064195e+00 1.9368983894e+00 3.3548064195e+00 
57000 4.6396897978e+00 -6.9984896322e-05 1.9368983894e+00 -3.3548064195e+00 1.9368983894e+00 3.3548064195e+00 
57100 4.6396897979e+00 -6.9987123985e-05 1.9368983894e+00 -3.3548064195e+00 1.9368983894e+00 3.3548064195e+00 
57200 4.6396897981e+00 -6.9989060562e-05 1.9368983894e+00 -3.3548064195e+00 1.9368983894e+00 3.3548064195e+00 
57300 4.6396897982e+00 -6.9990731246e-05 1.9368983894e+00 -3.3548064195e+00 1.9368983894e+00 3.3548064195e+00 
57400 4.6396897983e+00 -6.9992160541e-05 1.9368983894e+00 -3.3548064195e+00 1.9368983894e+00 3.3548064195e+00 
57500 4.6396897984e+00 -6.9993372211e-05 1.9368983894e+00 -3.3548064195e+00 1.9368983894e+00 3.3548064195e+00 
57600 4.6396897985e+00 -6.9994389224e-05 1.9368983894e+00 -3.3548064195e+00 1.9368983894e+00 3.3548064195e+00 
57700 4.6396897986e+00 -6.9995233720e-05 1.9368983894e+00 -3.3548064195e+00 1.9368983894e+00 3.3548064195e+00 
57800 4.6396897987e+00 -6.9995926962e-05 1.9368983894e+00 -3.3548064195e+00 1.9368983894e+00 3.3548064195e+00 
57900 4.6396897988e+00 -6.9996489321e-05 1.9368983894e+00 -3.3548064195e+00 1.9368983894e+00 3.3548064195e+00 
58000 4.6396897989e+00 -6.9996940242e-05 1.9368983894e+00 -3.3548064195e+00 1.9368983894e+00 3.3548064195e+00 
58100 4.6396897990e+00 -6.9997298231e-05 1.9368983894e+00 -3.3548064195e+00 1.9368983894e+00 3.3548064195e+00 
58200 4.6396897991e+00 -6.9997580841e-05 1.9368983894e+00 -3.3548064195e+00 1.9368983894e+00 3.3548064195e+00 
58300 4.6396897992e+00 -6.9997804665e-05 1.9368983894e+00 -3.3548064195e+00 1.9368983894e+00 3.3548064195e+00 
58400 4.6396897993e+00 -6.9997985331e-05 1.9368983894e+00 -3.3548064195e+00 1.9368983894e+00 3.3548064195e+00 
58500 4.6396897994e+00 -6.9998137505e-05 1.9368983894e+00 -3.3548064195e+00 1.9368983894e+00 3.3548064195e+00 
58600 4.6396897994e+00 -6.9998274892e-05 1.9368983894e+00 -3.3548064195e+00 1.9368983894e+00 3.3548064195e+00 
58700 4.6396897995e+00 -6.9998410246e-05 1.9368983894e+00 -3.3548064195e+00 1.9368983894e+00 3.3548064195e+00 
58800 4.6396897996e+00 -6.9998555379e-05 1.9368983894e+00 -3.3548064195e+00 1.9368983894e+00 3.3548064195e+00 
58900 4.6396897997e+00 -6.9998721179e-05 1.9368983894e+00 -3.3548064195e+00 1.9368983894e+00 3.3548064195e+00 
59000 4.6396897998e+00 -6.9998917624e-05 1.9368983894e+00 -3.3548064195e+00 1.9368983894e+00 3.3548064195e+00 
59100 4.6396897999e+00 -6.9999153800e-05 1.9368983894e+00 -3.3548064195e+00 1.9368983894e+00 3.3548064195e+00 
59200 4.6396897999e+00 -6.9999437925e-05 1.9368983894e+00 -3.3548064195e+00 1.9368983894e+00 3.3548064195e+00 
59300 4.6396898000e+00 -6.9999777367e-05 1.9368983894e+00 -3.3548064195e+00 1.9368983894e+00 3.3548064195e+00 
59400 4.6396898001e+00 -7.0000178678e-05 1.9368983894e+00 -3.3548064195e+00 1.9368983894e+00 3.3548064195e+00 
59500 4.6396898002e+00 -7.0000647612e-05 1.9368983894e+00 -3.3548064195e+00 1.9368983894e+00 3.3548064195e+00 
59600 4.6396898002e+00 -7.0001189155e-05 1.9368983894e+00 -3.3548064195e+00 1.9368983894e+00 3.3548064195e+00 
59700 4.6396898003e+00 -7.0001807558e-05 1.9368983894e+00 -3.3548064195e+00 1.9368983894e+00 3.3548064195e+00 
59800 4.6396898004e+00 -7.0002506358e-05 1.9368983894e+00 -3.3548064195e+00 1.9368983894e+00 3.3548064195e+00 
59900 4.6396898005e+00 -7.0003288421e-05 1.9368983894e+00 -3.3548064195e+00 1.9368983894e+00 3.3548064195e+00 
60000 4.6396898005e+00 -7.0004155960e-05 1.9368983894e+00 -3.3548064195e+00 1.9368983894e+00 3.3548064195e+00 
60100 4.6396898006e+00 -7.0005110578e-05 1.9368983894e+00 -3.3548064195e+00 1.9368983894e+00 3.3548064195e+00 
60200 4.6396898007e+00 -7.0006153288e-05 1.9368983894e+00 -3.3548064195e+00 1.9368983894e+00 3.3548064195e+00 
60300 4.6396898007e+00 -7.0007284560e-05 1.9368983894e+00 -3.3548064195e+00 1.9368983894e+00 3.3548064195e+00 
60400 4.6396898008e+00 -7.0008504338e-05 1.9368983894e+00 -3.3548064195e+00 1.9368983894e+00 3.3548064195e+00 
60500 4.6396898009e+00 -7.0009812084e-05 1.9368983894e+00 -3.3548064195e+00 1.9368983894e+00 3.3548064195e+00 
60600 4.6396898009e+00 -7.0011206802e-05 1.9368983894e+00 -3.3548064195e+00 1.9368983894e+00 3.3548064195e+00 
60700 4.6396898010e+00 -7.0012687073e-05 1.9368983894e+00 -3.3548064195e+00 1.9368983894e+00 3.3548064195e+00 
60800 4.6396898010e+00 -7.0014251087e-05 1.9368983894e+00 -3.3548064195e+00 1.9368983894e+00 3.3548064195e+00 
60900 4.6396898011e+00 -7.0015896671e-05 1.9368983894e+00 -3.3548064195e+00 1.9368983894e+00 3.3548064195e+00 
61000 4.6396898012e+00 -7.0017621322e-05 1.9368983894e+00 -3.3548064195e+00 1.9368983894e+00 3.3548064195e+00 
61100 4.6396898012e+00 -7.0019422236e-05 1.9368983894e+00 -3.3548064195e+00 1.9368983894e+00 3.3548064195e+00 
61200 4.6396898013e+00 -7.0021296335e-05 1.9368983894e+00 -3.3548064195e+00 1.9368983894e+00 3.3548064195e+00 
61300 4.6396898013e+00 -7.0023240295e-05 1.9368983894e+00 -3.3548064195e+00 1.9368983894e+00 3.3548064195e+00 
61400 4.6396898014e+00 -7.0025250579e-05 1.9368983894e+00 -3.3548064195e+00 1.9368983894e+00 3.3548064195e+00 
61500 4.6396898014e+00 -7.0027323456e-05 1.9368983894e+00 -3.3548064195e+00 1.9368983894e+00 3.3548064195e+00 
61600 4.6396898015e+00 -7.0029455031e-05 1.9368983894e+00 -3.3548064195e+00 1.9368983894e+00 3.3548064195e+00 
61700 4.6396898015e+00 -7.0031641270e-05 1.9368983894e+00 -3.3548064195e+00 1.9368983894e+00 3.3548064195e+00 
61800 4.6396898016e+00 -7.0033878020e-05 1.9368983894e+00 -3.3548064195e+00 1.9368983894e+00 3.3548064195e+00 
61900 4.6396898016e+00 -7.0036161037e-05 1.9368983894e+00 -3.3548064195e+00 1.9368983894e+00 3.3548064195e+00 
62000 4.6396898017e+00 -7.0038111368e-05 1.9368983894e+00 -3.3548064195e+00 1.9368983894e+00 3.3548064195e+00 
62000 4.6396898017e+00 -7.0038111368e-05 1.9368983894e+00 -3.3548064195e+00 1.9368983894e+00 3.3548064195e+00 
