# step Hamiltonian StressXX CellTensor1 CellTensor2 CellTensor3 CellTensor4 
0 5.6466760939e+00 8.5744939379e-02 2.5594246509e+00 -4.4330535334e+00 2.5594246509e+00 4.4330535334e+00 
100 5.6495810176e+00 9.3491950254e-02 2.5594246509e+00 -4.4330535334e+00 2.5594246509e+00 4.4330535334e+00 
200 5.6523354712e+00 1.0070396548e-01 2.5575984431e+00 -4.4298904488e+00 2.5575984431e+00 4.4298904488e+00 
300 5.6550223165e+00 1.0766822649e-01 2.5556299747e+00 -4.4264809615e+00 2.5556299747e+00 4.4264809615e+00 
400 5.6576109233e+00 1.1439256733e-01 2.5535237734e+00 -4.4228329138e+00 2.5535237734e+00 4.4228329138e+00 
500 5.6600711897e+00 1.2088005723e-01 2.5512842049e+00 -4.4189538674e+00 2.5512842049e+00 4.4189538674e+00 
600 5.6623750454e+00 1.2713039182e-01 2.5489155677e+00 -4.4148512674e+00 2.5489155677e+00 4.4148512674e+00 
700 5.6644976072e+00 1.3314113777e-01 2.5464221614e+00 -4.4105325611e+00 2.5464221614e+00 4.4105325611e+00 
800 5.6664180133e+00 1.3890882223e-01 2.5438083306e+00 -4.4060052733e+00 2.5438083306e+00 4.4060052733e+00 
900 5.6681199546e+00 1.4442985308e-01 2.5410784876e+00 -4.4012770466e+00 2.5410784876e+00 4.4012770466e+00 
1000 5.6695919293e+00 1.4970125565e-01 2.5382371173e+00 -4.3963556488e+00 2.5382371173e+00 4.3963556488e+00 
1100 5.6708272477e+00 1.5472121597e-01 2.5352887671e+00 -4.3912489566e+00 2.5352887671e+00 4.3912489566e+00 
1200 5.6718238205e+00 1.5948942878e-01 2.5322380270e+00 -4.3859649197e+00 2.5322380270e+00 4.3859649197e+00 
1300 5.6725837727e+00 1.6400725919e-01 2.5290895013e+00 -4.3805115132e+00 2.5290895013e+00 4.3805115132e+00 
1400 5.6731129274e+00 1.6827773792e-01 2.5258477780e+00 -4.3748966837e+00 2.5258477780e+00 4.3748966837e+00 
1500 5.6734202063e+00 1.7230541923e-01 2.5225173971e+00 -4.3691282948e+00 2.5225173971e+00 4.3691282948e+00 
1600 5.6735169932e+00 1.7609613717e-01 2.5191028224e+00 -4.3632140779e+00 2.5191028224e+00 4.3632140779e+00 
1700 5.6734165021e+00 1.7965669821e-01 2.5156084164e+00 -4.3571615892e+00 2.5156084164e+00 4.3571615892e+00 
1800 5.6731331829e+00 1.8299454680e-01 2.5120384225e+00 -4.3509781783e+00 2.5120384225e+00 4.3509781783e+00 
1900 5.6726821902e+00 1.8611743562e-01 2.5083969523e+00 -4.3446709670e+00 2.5083969523e+00 4.3446709670e+00 
2000 5.6720789325e+00 1.8903312535e-01 2.5046879801e+00 -4.3382468387e+00 2.5046879801e+00 4.3382468387e+00 
2100 5.6713387057e+00 1.9174913068e-01 2.5009153428e+00 -4.3317124392e+00 2.5009153428e+00 4.3317124392e+00 
2200 5.6704764137e+00 1.9427252171e-01 2.4970827447e+00 -4.3250741846e+00 2.4970827447e+00 4.3250741846e+00 
2300 5.6695063677e+00 1.9660978310e-01 2.4931937666e+00 -4.3183382769e+00 2.4931937666e+00 4.3183382769e+00 
2400 5.6684421554e+00 1.9876672811e-01 2.4892518773e+00 -4.3115107243e+00 2.4892518773e+00 4.3115107243e+00 
2500 5.6672965676e+00 2.0074846147e-01 2.4852604469e+00 -4.3045973641e+00 2.4852604469e+00 4.3045973641e+00 
2600 5.6660815707e+00 2.0255938267e-01 2.4812227614e+00 -4.2976038877e+00 2.4812227614e+00 4.2976038877e+00 
2700 5.6648083116e+00 2.0420322121e-01 2.4771420365e+00 -4.2905358648e+00 2.4771420365e+00 4.2905358648e+00 
2800 5.6634871475e+00 2.0568309499e-01 2.4730214311e+00 -4.2833987668e+00 2.4730214311e+00 4.2833987668e+00 
2900 5.6621276880e+00 2.0700158451e-01 2.4688640600e+00 -4.2761979890e+00 2.4688640600e+00 4.2761979890e+00 
3000 5.6607388465e+00 2.0816081622e-01 2.4646730050e+00 -4.2689388688e+00 2.4646730050e+00 4.2689388688e+00 
3100 5.6593288916e+00 2.0916255000e-01 2.4604513239e+00 -4.2616267025e+00 2.4604513239e+00 4.2616267025e+00 
3200 5.6579054981e+00 2.1000826664e-01 2.4562020583e+00 -4.2542667586e+00 2.4562020583e+00 4.2542667586e+00 
3300 5.6564757928e+00 2.1069925250e-01 2.4519282397e+00 -4.2468642877e+00 2.4519282397e+00 4.2468642877e+00 
3400 5.6550463944e+00 2.1123667907e-01 2.4476328936e+00 -4.2394245300e+00 2.4476328936e+00 4.2394245300e+00 
3500 5.6536234472e+00 2.1162167633e-01 2.4433190420e+00 -4.2319527198e+00 2.4433190420e+00 4.2319527198e+00 
3600 5.6522126474e+00 2.1185539876e-01 2.4389897046e+00 -4.2244540874e+00 2.4389897046e+00 4.2244540874e+00 
3700 5.6508192633e+00 2.1193908384e-01 2.4346478984e+00 -4.2169338585e+00 2.4346478984e+00 4.2169338585e+00 
3800 5.6494481500e+00 2.1187410263e-01 2.4302966363e+00 -4.2093972515e+00 2.4302966363e+00 4.2093972515e+00 
3900 5.6481037586e+00 2.1166200265e-01 2.4259389244e+00 -4.2018494731e+00 2.4259389244e+00 4.2018494731e+00 
4000 5.6467901418e+00 2.1130454319e-01 2.4215777583e+00 -4.1942957119e+00 2.4215777583e+00 4.1942957119e+00 
4100 5.6455109562e+00 2.1080372331e-01 2.4172161189e+00 -4.1867411309e+00 2.4172161189e+00 4.1867411309e+00 
4200 5.6442694629e+00 2.1016180303e-01 2.4128569673e+00 -4.1791908588e+00 2.4128569673e+00 4.1791908588e+00 
4300 5.6430685266e+00 2.0938131801e-01 2.4085032392e+00 -4.1716499804e+00 2.4085032392e+00 4.1716499804e+00 
4400 5.6419106148e+00 2.0846508821e-01 2.4041578386e+00 -4.1641235259e+00 2.4041578386e+00 4.1641235259e+00 
4500 5.6407977969e+00 2.0741622112e-01 2.3998236324e+00 -4.1566164605e+00 2.3998236324e+00 4.1566164605e+00 
4600 5.6397317459e+00 2.0623810996e-01 2.3955034429e+00 -4.1491336727e+00 2.3955034429e+00 4.1491336727e+00 
4700 5.6387137398e+00 2.0493442749e-01 2.3912000420e+00 -4.1416799638e+00 2.3912000420e+00 4.1416799638e+00 
4800 5.6377446678e+00 2.0350911581e-01 2.3869161447e+00 -4.1342600360e+00 2.3869161447e+00 4.1342600360e+00 
4900 5.6368250367e+00 2.0196637287e-01 2.3826544024e+00 -4.1268784818e+00 2.3826544024e+00 4.1268784818e+00 
5000 5.6359549820e+00 2.0031063612e-01 2.3784173970e+00 -4.1195397733e+00 2.3784173970e+00 4.1195397733e+00 
5100 5.6351342811e+00 1.9854656373e-01 2.3742076351e+00 -4.1122482516e+00 2.3742076351e+00 4.1122482516e+00 
5200 5.6343623696e+00 1.9667901408e-01 2.3700275419e+00 -4.1050081179e+00 2.3700275419e+00 4.1050081179e+00 
5300 5.6336383609e+00 1.9471302371e-01 2.3658794567e+00 -4.0978234235e+00 2.3658794567e+00 4.0978234235e+00 
5400 5.6329610680e+00 1.9265378443e-01 2.3617656274e+00 -4.0906980623e+00 2.3617656274e+00 4.0906980623e+00 
5500 5.6323290282e+00 1.9050661977e-01 2.3576882068e+00 -4.0836357626e+00 2.3576882068e+00 4.0836357626e+00 
5600 5.6317405300e+00 1.8827696124e-01 2.3536492478e+00 -4.0766400804e+00 2.3536492478e+00 4.0766400804e+00 
5700 5.6311936417e+00 1.8597032465e-01 2.3496507008e+00 -4.0697143938e+00 2.3496507008e+00 4.0697143938e+00 
5800 5.6306862414e+00 1.8359228680e-01 2.3456944099e+00 -4.0628618970e+00 2.3456944099e+00 4.0628618970e+00 
5900 5.6302160481e+00 1.8114846278e-01 2.3417821110e+00 -4.0560855965e+00 2.3417821110e+00 4.0560855965e+00 
6000 5.6297806531e+00 1.7864448400e-01 2.3379154294e+00 -4.0493883075e+00 2.3379154294e+00 4.0493883075e+00 
6100 5.6293775520e+00 1.7608597724e-01 2.3340958783e+00 -4.0427726510e+00 2.3340958783e+00 4.0427726510e+00 
6200 5.6290041758e+00 1.7347854463e-01 2.3303248577e+00 -4.0362410517e+00 2.3303248577e+00 4.0362410517e+00 
6300 5.6286579214e+00 1.7082774491e-01 2.3266036536e+00 -4.0297957372e+00 2.3266036536e+00 4.0297957372e+00 
6400 5.6283361812e+00 1.6813907582e-01 2.3229334379e+00 -4.0234387370e+00 2.3229334379e+00 4.0234387370e+00 
6500 5.6280363709e+00 1.6541795774e-01 2.3193152682e+00 -4.0171718832e+00 2.3193152682e+00 4.0171718832e+00 
6600 5.6277559556e+00 1.6266971861e-01 2.3157500887e+00 -4.0109968113e+00 2.3157500887e+00 4.0109968113e+00 
6700 5.6274924736e+00 1.5989958009e-01 2.3122387310e+00 -4.0049149614e+00 2.3122387310e+00 4.0049149614e+00 
6800 5.6272435586e+00 1.5711264498e-01 2.3087819152e+00 -3.9989275808e+00 2.3087819152e+00 3.9989275808e+00 
6900 5.6270069583e+00 1.5431388585e-01 2.3053802514e+00 -3.9930357262e+00 2.3053802514e+00 3.9930357262e+00 
7000 5.6267805513e+00 1.5150813480e-01 2.3020342417e+00 -3.9872402674e+00 2.3020342417e+00 3.9872402674e+00 
7100 5.6265623610e+00 1.4870007445e-01 2.2987442822e+00 -3.9815418904e+00 2.2987442822e+00 3.9815418904e+00 
7200 5.6263505668e+00 1.4589422986e-01 2.2955106656e+00 -3.9759411021e+00 2.2955106656e+00 3.9759411021e+00 
7300 5.6261435128e+00 1.4309496165e-01 2.2923335834e+00 -3.9704382344e+00 2.2923335834e+00 3.9704382344e+00 
7400 5.6259397136e+00 1.4030645996e-01 2.2892131291e+00 -3.9650334489e+00 2.2892131291e+00 3.9650334489e+00 
7500 5.6257378574e+00 1.3753273937e-01 2.2861493009e+00 -3.9597267428e+00 2.2861493009e+00 3.9597267428e+00 
7600 5.6255368077e+00 1.3477763474e-01 2.2831420052e+00 -3.9545179539e+00 2.2831420052e+00 3.9545179539e+00 
7700 5.6253356016e+00 1.3204479775e-01 2.2801910596e+00 -3.9494067661e+00 2.2801910596e+00 3.9494067661e+00 
7800 5.6251334464e+00 1.2933769431e-01 2.2772961965e+00 -3.9443927163e+00 2.2772961965e+00 3.9443927163e+00 
7900 5.6249297146e+00 1.2665960259e-01 2.2744570669e+00 -3.9394751995e+00 2.2744570669e+00 3.9394751995e+00 
8000 5.6247239370e+00 1.2401361180e-01 2.2716732437e+00 -3.9346534763e+00 2.2716732437e+00 3.9346534763e+00 
8100 5.6245157941e+00 1.2140262150e-01 2.2689442256e+00 -3.9299266783e+00 2.2689442256e+00 3.9299266783e+00 
8200 5.6243051069e+00 1.1882934154e-01 2.2662694412e+00 -3.9252938157e+00 2.2662694412e+00 3.9252938157e+00 
8300 5.6240918259e+00 1.1629629254e-01 2.2636482523e+00 -3.9207537834e+00 2.2636482523e+00 3.9207537834e+00 
8400 5.6238760196e+00 1.1380580683e-01 2.2610799586e+00 -3.9163053682e+00 2.2610799586e+00 3.9163053682e+00 
8500 5.6236578630e+00 1.1136002987e-01 2.2585638009e+00 -3.9119472554e+00 2.2585638009e+00 3.9119472554e+00 
8600 5.6234376243e+00 1.0896092213e-01 2.2560989658e+00 -3.9076780356e+00 2.2560989658e+00 3.9076780356e+00 
8700 5.6232156529e+00 1.0661026132e-01 2.2536845889e+00 -3.9034962122e+00 2.2536845889e+00 3.9034962122e+00 
8800 5.6229923665e+00 1.0430964503e-01 2.2513197595e+00 -3.8994002075e+00 2.2513197595e+00 3.8994002075e+00 
8900 5.6227682382e+00 1.0206049368e-01 2.2490035239e+00 -3.8953883698e+00 2.2490035239e+00 3.8953883698e+00 
9000 5.6225437848e+00 9.9864053837e-02 2.2467348900e+00 -3.8914589805e+00 2.2467348900e+00 3.8914589805e+00 
9100 5.6223195545e+00 9.7721401770e-02 2.2445128304e+00 -3.8876102605e+00 2.2445128304e+00 3.8876102605e+00 
9200 5.6220961156e+00 9.5633447327e-02 2.2423362871e+00 -3.8838403768e+00 2.2423362871e+00 3.8838403768e+00 
9300 5.6218740461e+00 9.3600938031e-02 2.2402041743e+00 -3.8801474492e+00 2.2402041743e+00 3.8801474492e+00 
9400 5.6216539235e+00 9.1624463428e-02 2.2381153831e+00 -3.8765295567e+00 2.2381153831e+00 3.8765295567e+00 
9500 5.6214363156e+00 8.9704459639e-02 2.2360687843e+00 -3.8729847436e+00 2.2360687843e+00 3.8729847436e+00 
9600 5.6212217723e+00 8.7841214111e-02 2.2340632325e+00 -3.8695110260e+00 2.2340632325e+00 3.8695110260e+00 
9700 5.6210108183e+00 8.6034870548e-02 2.2320975693e+00 -3.8661063974e+00 2.2320975693e+00 3.8661063974e+00 
9800 5.6208039464e+00 8.4285434006e-02 2.2301706266e+00 -3.8627688349e+00 2.2301706266e+00 3.8627688349e+00 
9900 5.6206016119e+00 8.2592776128e-02 2.2282812304e+00 -3.8594963045e+00 2.2282812304e+00 3.8594963045e+00 
10000 5.6204042283e+00 8.0956640526e-02 2.2264282031e+00 -3.8562867671e+00 2.2264282031e+00 3.8562867671e+00 
10100 5.6202121630e+00 7.9376648268e-02 2.2246103674e+00 -3.8531381834e+00 2.2246103674e+00 3.8531381834e+00 
10200 5.6200257351e+00 7.7852303475e-02 2.2228265487e+00 -3.8500485188e+00 2.2228265487e+00 3.8500485188e+00 
10300 5.6198452129e+00 7.6382999012e-02 2.2210755782e+00 -3.8470157490e+00 2.2210755782e+00 3.8470157490e+00 
10400 5.6196708130e+00 7.4968022246e-02 2.2193562956e+00 -3.8440378640e+00 2.2193562956e+00 3.8440378640e+00 
10500 5.6195027000e+00 7.3606560881e-02 2.2176675512e+00 -3.8411128730e+00 2.2176675512e+00 3.8411128730e+00 
10600 5.6193409866e+00 7.2297708832e-02 2.2160082093e+00 -3.8382388086e+00 2.2160082093e+00 3.8382388086e+00 
10700 5.6191857347e+00 7.1040472147e-02 2.2143771497e+00 -3.8354137304e+00 2.2143771497e+00 3.8354137304e+00 
10800 5.6190369574e+00 6.9833774940e-02 2.2127732700e+00 -3.8326357293e+00 2.2127732700e+00 3.8326357293e+00 
10900 5.6188946203e+00 6.8676465351e-02 2.2111954882e+00 -3.8299029310e+00 2.2111954882e+00 3.8299029310e+00 
11000 5.6187586452e+00 6.7567321494e-02 2.2096427440e+00 -3.8272134991e+00 2.2096427440e+00 3.8272134991e+00 
11100 5.6186289122e+00 6.6505057393e-02 2.2081140008e+00 -3.8245656383e+00 2.2081140008e+00 3.8245656383e+00 
11200 5.6185052637e+00 6.5488328891e-02 2.2066082476e+00 -3.8219575973e+00 2.2066082476e+00 3.8219575973e+00 
11300 5.6183875077e+00 6.4515739515e-02 2.2051245003e+00 -3.8193876715e+00 2.2051245003e+00 3.8193876715e+00 
11400 5.6182754220e+00 6.3585846295e-02 2.2036618028e+00 -3.8168542051e+00 2.2036618028e+00 3.8168542051e+00 
11500 5.6181687578e+00 6.2697165504e-02 2.2022192288e+00 -3.8143555937e+00 2.2022192288e+00 3.8143555937e+00 
11600 5.6180672443e+00 6.1848178330e-02 2.2007958826e+00 -3.8118902858e+00 2.2007958826e+00 3.8118902858e+00 
11700 5.6179705923e+00 6.1037336448e-02 2.1993909001e+00 -3.8094567847e+00 2.1993909001e+00 3.8094567847e+00 
11800 5.6178784986e+00 6.0263067490e-02 2.1980034498e+00 -3.8070536502e+00 2.1980034498e+00 3.8070536502e+00 
11900 5.6177906503e+00 5.9523780396e-02 2.1966327331e+00 -3.8046794993e+00 2.1966327331e+00 3.8046794993e+00 
12000 5.6177067280e+00 5.8817870641e-02 2.1952779855e+00 -3.8023330077e+00 2.1952779855e+00 3.8023330077e+00 
12100 5.6176264102e+00 5.8143725312e-02 2.1939384767e+00 -3.8000129103e+00 2.1939384767e+00 3.8000129103e+00 
12200 5.6175493766e+00 5.7499728048e-02 2.1926135109e+00 -3.7977180022e+00 2.1926135109e+00 3.7977180022e+00 
12300 5.6174753113e+00 5.6884263803e-02 2.1913024273e+00 -3.7954471388e+00 2.1913024273e+00 3.7954471388e+00 
12400 5.6174039064e+00 5.6295723452e-02 2.1900045999e+00 -3.7931992358e+00 2.1900045999e+00 3.7931992358e+00 
12500 5.6173348638e+00 5.5732508206e-02 2.1887194379e+00 -3.7909732700e+00 2.1887194379e+00 3.7909732700e+00 
12600 5.6172678989e+00 5.5193033848e-02 2.1874463853e+00 -3.7887682781e+00 2.1874463853e+00 3.7887682781e+00 
12700 5.6172027417e+00 5.4675734764e-02 2.1861849206e+00 -3.7865833572e+00 2.1861849206e+00 3.7865833572e+00 
12800 5.6171391396e+00 5.4179067783e-02 2.1849345570e+00 -3.7844176640e+00 2.1849345570e+00 3.7844176640e+00 
12900 5.6170768583e+00 5.3701515799e-02 2.1836948416e+00 -3.7822704139e+00 2.1836948416e+00 3.7822704139e+00 
13000 5.6170156831e+00 5.3241591188e-02 2.1824653550e+00 -3.7801408806e+00 2.1824653550e+00 3.7801408806e+00 
13100 5.6169554205e+00 5.2797839005e-02 2.1812457107e+00 -3.7780283947e+00 2.1812457107e+00 3.7780283947e+00 
13200 5.6168958978e+00 5.2368839959e-02 2.1800355546e+00 -3.7759323429e+00 2.1800355546e+00 3.7759323429e+00 
13300 5.6168369643e+00 5.1953213176e-02 2.1788345644e+00 -3.7738521668e+00 2.1788345644e+00 3.7738521668e+00 
13400 5.6167784909e+00 5.1549618731e-02 2.1776424483e+00 -3.7717873613e+00 2.1776424483e+00 3.7717873613e+00 
13500 5.6167203700e+00 5.1156759956e-02 2.1764589449e+00 -3.7697374732e+00 2.1764589449e+00 3.7697374732e+00 
13600 5.6166625152e+00 5.0773385537e-02 2.1752838216e+00 -3.7677020999e+00 2.1752838216e+00 3.7677020999e+00 
13700 5.6166048602e+00 5.0398291373e-02 2.1741168740e+00 -3.7656808874e+00 2.1741168740e+00 3.7656808874e+00 
13800 5.6165473584e+00 5.0030322231e-02 2.1729579250e+00 -3.7636735289e+00 2.1729579250e+00 3.7636735289e+00 
13900 5.6164899818e+00 4.9668373175e-02 2.1718068235e+00 -3.7616797626e+00 2.1718068235e+00 3.7616797626e+00 
14000 5.6164327194e+00 4.9311390788e-02 2.1706634435e+00 -3.7596993702e+00 2.1706634435e+00 3.7596993702e+00 
14100 5.6163755763e+00 4.8958374179e-02 2.1695276827e+00 -3.7577321749e+00 2.1695276827e+00 3.7577321749e+00 
14200 5.6163185721e+00 4.8608375791e-02 2.1683994618e+00 -3.7557780390e+00 2.1683994618e+00 3.7557780390e+00 
14300 5.6162617392e+00 4.8260502007e-02 2.1672787231e+00 -3.7538368625e+00 2.1672787231e+00 3.7538368625e+00 
14400 5.6162051217e+00 4.7913913564e-02 2.1661654291e+00 -3.7519085808e+00 2.1661654291e+00 3.7519085808e+00 
14500 5.6161487732e+00 4.7567825774e-02 2.1650595617e+00 -3.7499931623e+00 2.1650595617e+00 3.7499931623e+00 
14600 5.6160927558e+00 4.7221508574e-02 2.1639611207e+00 -3.7480906067e+00 2.1639611207e+00 3.7480906067e+00 
14700 5.6160371380e+00 4.6874286391e-02 2.1628701229e+00 -3.7462009430e+00 2.1628701229e+00 3.7462009430e+00 
14800 5.6159819933e+00 4.6525537847e-02 2.1617866004e+00 -3.7443242270e+00 2.1617866004e+00 3.7443242270e+00 
14900 5.6159273987e+00 4.6174695301e-02 2.1607105997e+00 -3.7424605392e+00 2.1607105997e+00 3.7424605392e+00 
15000 5.6158734332e+00 4.5821244238e-02 2.1596421807e+00 -3.7406099831e+00 2.1596421807e+00 3.7406099831e+00 
15100 5.6158201763e+00 4.5464722520e-02 2.1585814149e+00 -3.7387726828e+00 2.1585814149e+00 3.7387726828e+00 
15200 5.6157677070e+00 4.5104719488e-02 2.1575283848e+00 -3.7369487812e+00 2.1575283848e+00 3.7369487812e+00 
15300 5.6157161021e+00 4.4740874953e-02 2.1564831824e+00 -3.7351384376e+00 2.1564831824e+00 3.7351384376e+00 
15400 5.6156654355e+00 4.4372878051e-02 2.1554459082e+00 -3.7333418260e+00 2.1554459082e+00 3.7333418260e+00 
15500 5.6156157769e+00 4.4000465996e-02 2.1544166700e+00 -3.7315591332e+00 2.1544166700e+00 3.7315591332e+00 
15600 5.6155671913e+00 4.3623422731e-02 2.1533955818e+00 -3.7297905566e+00 2.1533955818e+00 3.7297905566e+00 
15700 5.6155197379e+00 4.3241577474e-02 2.1523827628e+00 -3.7280363025e+00 2.1523827628e+00 3.7280363025e+00 
15800 5.6154734695e+00 4.2854803191e-02 2.1513783361e+00 -3.7262965845e+00 2.1513783361e+00 3.7262965845e+00 
15900 5.6154284322e+00 4.2463014983e-02 2.1503824282e+00 -3.7245716214e+00 2.1503824282e+00 3.7245716214e+00 
16000 5.6153846649e+00 4.2066168405e-02 2.1493951674e+00 -3.7228616356e+00 2.1493951674e+00 3.7228616356e+00 
16100 5.6153421990e+00 4.1664257726e-02 2.1484166835e+00 -3.7211668516e+00 2.1484166835e+00 3.7211668516e+00 
16200 5.6153010582e+00 4.1257314133e-02 2.1474471061e+00 -3.7194874944e+00 2.1474471061e+00 3.7194874944e+00 
16300 5.6152612586e+00 4.0845403892e-02 2.1464865647e+00 -3.7178237879e+00 2.1464865647e+00 3.7178237879e+00 
16400 5.6152228086e+00 4.0428626470e-02 2.1455351871e+00 -3.7161759535e+00 2.1455351871e+00 3.7161759535e+00 
16500 5.6151857091e+00 4.0007112633e-02 2.1445930990e+00 -3.7145442090e+00 2.1445930990e+00 3.7145442090e+00 
16600 5.6151499539e+00 3.9581022509e-02 2.1436604229e+00 -3.7129287667e+00 2.1436604229e+00 3.7129287667e+00 
16700 5.6151155297e+00 3.9150543654e-02 2.1427372781e+00 -3.7113298330e+00 2.1427372781e+00 3.7113298330e+00 
16800 5.6150824167e+00 3.8715889091e-02 2.1418237793e+00 -3.7097476066e+00 2.1418237793e+00 3.7097476066e+00 
16900 5.6150505892e+00 3.8277295363e-02 2.1409200363e+00 -3.7081822778e+00 2.1409200363e+00 3.7081822778e+00 
17000 5.6150200155e+00 3.7835020583e-02 2.1400261535e+00 -3.7066340274e+00 2.1400261535e+00 3.7066340274e+00 
17100 5.6149906591e+00 3.7389342498e-02 2.1391422294e+00 -3.7051030259e+00 2.1391422294e+00 3.7051030259e+00 
17200 5.6149624789e+00 3.6940556567e-02 2.1382683558e+00 -3.7035894325e+00 2.1382683558e+00 3.7035894325e+00 
17300 5.6149354300e+00 3.6488974066e-02 2.1374046179e+00 -3.7020933946e+00 2.1374046179e+00 3.7020933946e+00 
17400 5.6149094639e+00 3.6034920219e-02 2.1365510934e+00 -3.7006150468e+00 2.1365510934e+00 3.7006150468e+00 
17500 5.6148845297e+00 3.5578732360e-02 2.1357078525e+00 -3.6991545106e+00 2.1357078525e+00 3.6991545106e+00 
17600 5.6148605742e+00 3.5120758135e-02 2.1348749572e+00 -3.6977118937e+00 2.1348749572e+00 3.6977118937e+00 
17700 5.6148375428e+00 3.4661353746e-02 2.1340524617e+00 -3.6962872896e+00 2.1340524617e+00 3.6962872896e+00 
17800 5.6148153798e+00 3.4200882235e-02 2.1332404115e+00 -3.6948807774e+00 2.1332404115e+00 3.6948807774e+00 
17900 5.6147940292e+00 3.3739711825e-02 2.1324388436e+00 -3.6934924212e+00 2.1324388436e+00 3.6934924212e+00 
18000 5.6147734354e+00 3.3278214310e-02 2.1316477863e+00 -3.6921222698e+00 2.1316477863e+00 3.6921222698e+00 
18100 5.6147535430e+00 3.2816763498e-02 2.1308672591e+00 -3.6907703570e+00 2.1308672591e+00 3.6907703570e+00 
18200 5.6147342981e+00 3.2355733718e-02 2.1300972725e+00 -3.6894367010e+00 2.1300972725e+00 3.6894367010e+00 
18300 5.6147156480e+00 3.1895498382e-02 2.1293378280e+00 -3.6881213047e+00 2.1293378280e+00 3.6881213047e+00 
18400 5.6146975422e+00 3.1436428612e-02 2.1285889185e+00 -3.6868241553e+00 2.1285889185e+00 3.6868241553e+00 
18500 5.6146799323e+00 3.0978891935e-02 2.1278505277e+00 -3.6855452249e+00 2.1278505277e+00 3.6855452249e+00 
18600 5.6146627723e+00 3.0523251038e-02 2.1271226306e+00 -3.6842844701e+00 2.1271226306e+00 3.6842844701e+00 
18700 5.6146460192e+00 3.0069862592e-02 2.1264051935e+00 -3.6830418326e+00 2.1264051935e+00 3.6830418326e+00 
18800 5.6146296328e+00 2.9619076148e-02 2.1256981740e+00 -3.6818172390e+00 2.1256981740e+00 3.6818172390e+00 
18900 5.6146135759e+00 2.9171233100e-02 2.1250015216e+00 -3.6806106015e+00 2.1250015216e+00 3.6806106015e+00 
19000 5.6145978149e+00 2.8726665714e-02 2.1243151771e+00 -3.6794218180e+00 2.1243151771e+00 3.6794218180e+00 
19100 5.6145823191e+00 2.8285696229e-02 2.1236390735e+00 -3.6782507722e+00 2.1236390735e+00 3.6782507722e+00 
19200 5.6145670613e+00 2.7848636034e-02 2.1229731360e+00 -3.6770973347e+00 2.1229731360e+00 3.6770973347e+00 
19300 5.6145520175e+00 2.7415784901e-02 2.1223172822e+00 -3.6759613625e+00 2.1223172822e+00 3.6759613625e+00 
19400 5.6145371670e+00 2.6987430302e-02 2.1216714222e+00 -3.6748427003e+00 2.1216714222e+00 3.6748427003e+00 
19500 5.6145224922e+00 2.6563846784e-02 2.1210354595e+00 -3.6737411804e+00 2.1210354595e+00 3.6737411804e+00 
19600 5.6145079785e+00 2.6145295413e-02 2.1204092903e+00 -3.6726566237e+00 2.1204092903e+00 3.6726566237e+00 
19700 5.6144936145e+00 2.5732023293e-02 2.1197928049e+00 -3.6715888396e+00 2.1197928049e+00 3.6715888396e+00 
19800 5.6144793913e+00 2.5324263138e-02 2.1191858872e+00 -3.6705376273e+00 2.1191858872e+00 3.6705376273e+00 
19900 5.6144653025e+00 2.4922232919e-02 2.1185884155e+00 -3.6695027759e+00 2.1185884155e+00 3.6695027759e+00 
20000 5.6144513444e+00 2.4526135569e-02 2.1180002626e+00 -3.6684840652e+00 2.1180002626e+00 3.6684840652e+00 
20100 5.6144375152e+00 2.4136158748e-02 2.1174212962e+00 -3.6674812660e+00 2.1174212962e+00 3.6674812660e+00 
20200 5.6144238153e+00 2.3752474673e-02 2.1168513795e+00 -3.6664941413e+00 2.1168513795e+00 3.6664941413e+00 
20300 5.6144102466e+00 2.3375239997e-02 2.1162903712e+00 -3.6655224464e+00 2.1162903712e+00 3.6655224464e+00 
20400 5.6143968127e+00 2.3004595756e-02 2.1157381260e+00 -3.6645659297e+00 2.1157381260e+00 3.6645659297e+00 
20500 5.6143835185e+00 2.2640667357e-02 2.1151944951e+00 -3.6636243335e+00 2.1151944951e+00 3.6636243335e+00 
20600 5.6143703700e+00 2.2283564626e-02 2.1146593266e+00 -3.6626973943e+00 2.1146593266e+00 3.6626973943e+00 
20700 5.6143573739e+00 2.1933381907e-02 2.1141324654e+00 -3.6617848439e+00 2.1141324654e+00 3.6617848439e+00 
20800 5.6143445377e+00 2.1590198196e-02 2.1136137541e+00 -3.6608864097e+00 2.1136137541e+00 3.6608864097e+00 
20900 5.6143318694e+00 2.1254077336e-02 2.1131030334e+00 -3.6600018154e+00 2.1131030334e+00 3.6600018154e+00 
21000 5.6143193772e+00 2.0925068247e-02 2.1126001418e+00 -3.6591307817e+00 2.1126001418e+00 3.6591307817e+00 
21100 5.6143070694e+00 2.0603205191e-02 2.1121049167e+00 -3.6582730267e+00 2.1121049167e+00 3.6582730267e+00 
21200 5.6142949543e+00 2.0288508086e-02 2.1116171945e+00 -3.6574282670e+00 2.1116171945e+00 3.6574282670e+00 
21300 5.6142830398e+00 1.9980982846e-02 2.1111368106e+00 -3.6565962176e+00 2.1111368106e+00 3.6565962176e+00 
21400 5.6142713337e+00 1.9680621761e-02 2.1106636002e+00 -3.6557765932e+00 2.1106636002e+00 3.6557765932e+00 
21500 5.6142598432e+00 1.9387403900e-02 2.1101973986e+00 -3.6549691083e+00 2.1101973986e+00 3.6549691083e+00 
21600 5.6142485748e+00 1.9101295550e-02 2.1097380410e+00 -3.6541734778e+00 2.1097380410e+00 3.6541734778e+00 
21700 5.6142375345e+00 1.8822250675e-02 2.1092853637e+00 -3.6533894176e+00 2.1092853637e+00 3.6533894176e+00 
21800 5.6142267276e+00 1.8550211400e-02 2.1088392034e+00 -3.6526166453e+00 2.1088392034e+00 3.6526166453e+00 
21900 5.6142161585e+00 1.8285108514e-02 2.1083993983e+00 -3.6518548805e+00 2.1083993983e+00 3.6518548805e+00 
22000 5.6142058307e+00 1.8026861996e-02 2.1079657878e+00 -3.6511038451e+00 2.1079657878e+00 3.6511038451e+00 
22100 5.6141957469e+00 1.7775381548e-02 2.1075382132e+00 -3.6503632642e+00 2.1075382132e+00 3.6503632642e+00 
22200 5.6141859091e+00 1.7530567154e-02 2.1071165177e+00 -3.6496328661e+00 2.1071165177e+00 3.6496328661e+00 
22300 5.6141763181e+00 1.7292309640e-02 2.1067005466e+00 -3.6489123831e+00 2.1067005466e+00 3.6489123831e+00 
22400 5.6141669740e+00 1.7060491245e-02 2.1062901478e+00 -3.6482015515e+00 2.1062901478e+00 3.6482015515e+00 
22500 5.6141578759e+00 1.6834986204e-02 2.1058851717e+00 -3.6475001122e+00 2.1058851717e+00 3.6475001122e+00 
22600 5.6141490224e+00 1.6615661333e-02 2.1054854715e+00 -3.6468078112e+00 2.1054854715e+00 3.6468078112e+00 
22700 5.6141404108e+00 1.6402376610e-02 2.1050909035e+00 -3.6461243995e+00 2.1050909035e+00 3.6461243995e+00 
22800 5.6141320382e+00 1.6194985773e-02 2.1047013272e+00 -3.6454496335e+00 2.1047013272e+00 3.6454496335e+00 
22900 5.6141239005e+00 1.5993336898e-02 2.1043166054e+00 -3.6447832757e+00 2.1043166054e+00 3.6447832757e+00 
23000 5.6141159934e+00 1.5797272990e-02 2.1039366042e+00 -3.6441250944e+00 2.1039366042e+00 3.6441250944e+00 
23100 5.6141083116e+00 1.5606632559e-02 2.1035611936e+00 -3.6434748641e+00 2.1035611936e+00 3.6434748641e+00 
23200 5.6141008496e+00 1.5421250194e-02 2.1031902471e+00 -3.6428323659e+00 2.1031902471e+00 3.6428323659e+00 
23300 5.6140936014e+00 1.5240957131e-02 2.1028236420e+00 -3.6421973874e+00 2.1028236420e+00 3.6421973874e+00 
23400 5.6140865605e+00 1.5065581808e-02 2.1024612598e+00 -3.6415697229e+00 2.1024612598e+00 3.6415697229e+00 
23500 5.6140797202e+00 1.4894950409e-02 2.1021029856e+00 -3.6409491737e+00 2.1021029856e+00 3.6409491737e+00 
23600 5.6140730734e+00 1.4728887403e-02 2.1017487086e+00 -3.6403355481e+00 2.1017487086e+00 3.6403355481e+00 
23700 5.6140666130e+00 1.4567216058e-02 2.1013983223e+00 -3.6397286612e+00 2.1013983223e+00 3.6397286612e+00 
23800 5.6140603317e+00 1.4409758952e-02 2.1010517242e+00 -3.6391283356e+00 2.1010517242e+00 3.6391283356e+00 
23900 5.6140542222e+00 1.4256338462e-02 2.1007088158e+00 -3.6385344008e+00 2.1007088158e+00 3.6385344008e+00 
24000 5.6140482771e+00 1.4106777239e-02 2.1003695028e+00 -3.6379466935e+00 2.1003695028e+00 3.6379466935e+00 
24100 5.6140424891e+00 1.3960898663e-02 2.1000336952e+00 -3.6373650577e+00 2.1000336952e+00 3.6373650577e+00 
24200 5.6140368510e+00 1.3818527286e-02 2.0997013069e+00 -3.6367893444e+00 2.0997013069e+00 3.6367893444e+00 
24300 5.6140313558e+00 1.3679489249e-02 2.0993722562e+00 -3.6362194117e+00 2.0993722562e+00 3.6362194117e+00 
24400 5.6140259967e+00 1.3543612686e-02 2.0990464651e+00 -3.6356551250e+00 2.0990464651e+00 3.6356551250e+00 
24500 5.6140207671e+00 1.3410728101e-02 2.0987238599e+00 -3.6350963564e+00 2.0987238599e+00 3.6350963564e+00 
24600 5.6140156607e+00 1.3280668734e-02 2.0984043708e+00 -3.6345429851e+00 2.0984043708e+00 3.6345429851e+00 
24700 5.6140106714e+00 1.3153270896e-02 2.0980879319e+00 -3.6339948968e+00 2.0980879319e+00 3.6339948968e+00 
24800 5.6140057934e+00 1.3028374293e-02 2.0977744812e+00 -3.6334519843e+00 2.0977744812e+00 3.6334519843e+00 
24900 5.6140010215e+00 1.2905822321e-02 2.0974639604e+00 -3.6329141464e+00 2.0974639604e+00 3.6329141464e+00 
25000 5.6139963504e+00 1.2785462343e-02 2.0971563149e+00 -3.6323812888e+00 2.0971563149e+00 3.6323812888e+00 
25100 5.6139917756e+00 1.2667145944e-02 2.0968514937e+00 -3.6318533231e+00 2.0968514937e+00 3.6318533231e+00 
25200 5.6139872927e+00 1.2550729167e-02 2.0965494494e+00 -3.6313301670e+00 2.0965494494e+00 3.6313301670e+00 
25300 5.6139828977e+00 1.2436072724e-02 2.0962501378e+00 -3.6308117441e+00 2.0962501378e+00 3.6308117441e+00 
25400 5.6139785870e+00 1.2323042186e-02 2.0959535182e+00 -3.6302979838e+00 2.0959535182e+00 3.6302979838e+00 
25500 5.6139743572e+00 1.2211508156e-02 2.0956595528e+00 -3.6297888209e+00 2.0956595528e+00 3.6297888209e+00 
25600 5.6139702055e+00 1.2101346417e-02 2.0953682072e+00 -3.6292841955e+00 2.0953682072e+00 3.6292841955e+00 
25700 5.6139661291e+00 1.1992438060e-02 2.0950794496e+00 -3.6287840527e+00 2.0950794496e+00 3.6287840527e+00 
25800 5.6139621258e+00 1.1884669598e-02 2.0947932513e+00 -3.6282883426e+00 2.0947932513e+00 3.6282883426e+00 
25900 5.6139581936e+00 1.1777933047e-02 2.0945095861e+00 -3.6277970200e+00 2.0945095861e+00 3.6277970200e+00 
26000 5.6139543306e+00 1.1672126005e-02 2.0942284303e+00 -3.6273100439e+00 2.0942284303e+00 3.6273100439e+00 
26100 5.6139505353e+00 1.1567151696e-02 2.0939497628e+00 -3.6268273777e+00 2.0939497628e+00 3.6268273777e+00 
26200 5.6139468065e+00 1.1462919007e-02 2.0936735647e+00 -3.6263489886e+00 2.0936735647e+00 3.6263489886e+00 
26300 5.6139431431e+00 1.1359342502e-02 2.0933998194e+00 -3.6258748477e+00 2.0933998194e+00 3.6258748477e+00 
26400 5.6139395441e+00 1.1256342422e-02 2.0931285120e+00 -3.6254049295e+00 2.0931285120e+00 3.6254049295e+00 
26500 5.6139360088e+00 1.1153844664e-02 2.0928596297e+00 -3.6249392118e+00 2.0928596297e+00 3.6249392118e+00 
26600 5.6139325366e+00 1.1051780749e-02 2.0925931616e+00 -3.6244776755e+00 2.0925931616e+00 3.6244776755e+00 
26700 5.6139291270e+00 1.0950087770e-02 2.0923290981e+00 -3.6240203041e+00 2.0923290981e+00 3.6240203041e+00 
26800 5.6139257797e+00 1.0848708333e-02 2.0920674314e+00 -3.6235670840e+00 2.0920674314e+00 3.6235670840e+00 
26900 5.6139224942e+00 1.0747590478e-02 2.0918081547e+00 -3.6231180037e+00 2.0918081547e+00 3.6231180037e+00 
27000 5.6139192703e+00 1.0646687583e-02 2.0915512628e+00 -3.6226730539e+00 2.0915512628e+00 3.6226730539e+00 
27100 5.6139161078e+00 1.0545958272e-02 2.0912967515e+00 -3.6222322273e+00 2.0912967515e+00 3.6222322273e+00 
27200 5.6139130064e+00 1.0445366291e-02 2.0910446173e+00 -3.6217955181e+00 2.0910446173e+00 3.6217955181e+00 
27300 5.6139099659e+00 1.0344880389e-02 2.0907948580e+00 -3.6213629223e+00 2.0907948580e+00 3.6213629223e+00 
27400 5.6139069861e+00 1.0244474180e-02 2.0905474718e+00 -3.6209344368e+00 2.0905474718e+00 3.6209344368e+00 
27500 5.6139040667e+00 1.0144126001e-02 2.0903024576e+00 -3.6205100598e+00 2.0903024576e+00 3.6205100598e+00 
27600 5.6139012074e+00 1.0043818757e-02 2.0900598150e+00 -3.6200897905e+00 2.0900598150e+00 3.6200897905e+00 
27700 5.6138984079e+00 9.9435397642e-03 2.0898195437e+00 -3.6196736284e+00 2.0898195437e+00 3.6196736284e+00 
27800 5.6138956677e+00 9.8432805785e-03 2.0895816440e+00 -3.6192615740e+00 2.0895816440e+00 3.6192615740e+00 
27900 5.6138929864e+00 9.7430368249e-03 2.0893461161e+00 -3.6188536277e+00 2.0893461161e+00 3.6188536277e+00 
28000 5.6138903634e+00 9.6428080172e-03 2.0891129605e+00 -3.6184497903e+00 2.0891129605e+00 3.6184497903e+00 
28100 5.6138877982e+00 9.5425973743e-03 2.0888821776e+00 -3.6180500626e+00 2.0888821776e+00 3.6180500626e+00 
28200 5.6138852901e+00 9.4424116330e-03 2.0886537678e+00 -3.6176544452e+00 2.0886537678e+00 3.6176544452e+00 
28300 5.6138828383e+00 9.3422608559e-03 2.0884277312e+00 -3.6172629384e+00 2.0884277312e+00 3.6172629384e+00 
28400 5.6138804421e+00 9.2421582382e-03 2.0882040679e+00 -3.6168755422e+00 2.0882040679e+00 3.6168755422e+00 
28500 5.6138781006e+00 9.1421199116e-03 2.0879827774e+00 -3.6164922558e+00 2.0879827774e+00 3.6164922558e+00 
28600 5.6138758127e+00 9.0421647475e-03 2.0877638589e+00 -3.6161130779e+00 2.0877638589e+00 3.6161130779e+00 
28700 5.6138735776e+00 8.9423141584e-03 2.0875473112e+00 -3.6157380063e+00 2.0875473112e+00 3.6157380063e+00 
28800 5.6138713941e+00 8.8425919009e-03 2.0873331326e+00 -3.6153670380e+00 2.0873331326e+00 3.6153670380e+00 
28900 5.6138692612e+00 8.7430238774e-03 2.0871213206e+00 -3.6150001689e+00 2.0871213206e+00 3.6150001689e+00 
29000 5.6138671776e+00 8.6436379401e-03 2.0869118724e+00 -3.6146373939e+00 2.0869118724e+00 3.6146373939e+00 
29100 5.6138651422e+00 8.5444636963e-03 2.0867047842e+00 -3.6142787067e+00 2.0867047842e+00 3.6142787067e+00 
29200 5.6138631538e+00 8.4455323154e-03 2.0865000518e+00 -3.6139240997e+00 2.0865000518e+00 3.6139240997e+00 
29300 5.6138612111e+00 8.3468763392e-03 2.0862976699e+00 -3.6135735640e+00 2.0862976699e+00 3.6135735640e+00 
29400 5.6138593128e+00 8.2485294947e-03 2.0860976327e+00 -3.6132270894e+00 2.0860976327e+00 3.6132270894e+00 
29500 5.6138574576e+00 8.1505265108e-03 2.0858999334e+00 -3.6128846642e+00 2.0858999334e+00 3.6128846642e+00 
29600 5.6138556443e+00 8.0529029387e-03 2.0857045645e+00 -3.6125462754e+00 2.0857045645e+00 3.6125462754e+00 
29700 5.6138538715e+00 7.9556949768e-03 2.0855115176e+00 -3.6122119082e+00 2.0855115176e+00 3.6122119082e+00 
29800 5.6138521380e+00 7.8589393004e-03 2.0853207832e+00 -3.6118815466e+00 2.0853207832e+00 3.6118815466e+00 
29900 5.6138504425e+00 7.7626728961e-03 2.0851323513e+00 -3.6115551729e+00 2.0851323513e+00 3.6115551729e+00 
30000 5.6138487837e+00 7.6669329020e-03 2.0849462107e+00 -3.6112327679e+00 2.0849462107e+00 3.6112327679e+00 
30100 5.6138471604e+00 7.5717564530e-03 2.0847623493e+00 -3.6109143107e+00 2.0847623493e+00 3.6109143107e+00 
30200 5.6138455715e+00 7.4771805325e-03 2.0845807544e+00 -3.6105997790e+00 2.0845807544e+00 3.6105997790e+00 
30300 5.6138440157e+00 7.3832418301e-03 2.0844014120e+00 -3.6102891489e+00 2.0844014120e+00 3.6102891489e+00 
30400 5.6138424920e+00 7.2899766052e-03 2.0842243075e+00 -3.6099823949e+00 2.0842243075e+00 3.6099823949e+00 
30500 5.6138409993e+00 7.1974205579e-03 2.0840494253e+00 -3.6096794901e+00 2.0840494253e+00 3.6096794901e+00 
30600 5.6138395364e+00 7.1056087058e-03 2.0838767489e+00 -3.6093804058e+00 2.0838767489e+00 3.6093804058e+00 
30700 5.6138381026e+00 7.0145752680e-03 2.0837062611e+00 -3.6090851123e+00 2.0837062611e+00 3.6090851123e+00 
30800 5.6138366967e+00 6.9243535560e-03 2.0835379437e+00 -3.6087935780e+00 2.0835379437e+00 3.6087935780e+00 
30900 5.6138353179e+00 6.8349758714e-03 2.0833717777e+00 -3.6085057701e+00 2.0833717777e+00 3.6085057701e+00 
31000 5.6138339655e+00 6.7464734108e-03 2.0832077435e+00 -3.6082216545e+00 2.0832077435e+00 3.6082216545e+00 
31100 5.6138326385e+00 6.6588761777e-03 2.0830458205e+00 -3.6079411956e+00 2.0830458205e+00 3.6079411956e+00 
31200 5.6138313363e+00 6.5722129014e-03 2.0828859874e+00 -3.6076643566e+00 2.0828859874e+00 3.6076643566e+00 
31300 5.6138300581e+00 6.4865109629e-03 2.0827282224e+00 -3.6073910996e+00 2.0827282224e+00 3.6073910996e+00 
31400 5.6138288034e+00 6.4017963285e-03 2.0825725029e+00 -3.6071213854e+00 2.0825725029e+00 3.6071213854e+00 
31500 5.6138275715e+00 6.3180934893e-03 2.0824188055e+00 -3.6068551738e+00 2.0824188055e+00 3.6068551738e+00 
31600 5.6138263620e+00 6.2354254085e-03 2.0822671065e+00 -3.6065924235e+00 2.0822671065e+00 3.6065924235e+00 
31700 5.6138251742e+00 6.1538134753e-03 2.0821173815e+00 -3.6063330921e+00 2.0821173815e+00 3.6063330921e+00 
31800 5.6138240077e+00 6.0732774650e-03 2.0819696055e+00 -3.6060771365e+00 2.0819696055e+00 3.6060771365e+00 
31900 5.6138228621e+00 5.9938355070e-03 2.0818237530e+00 -3.6058245127e+00 2.0818237530e+00 3.6058245127e+00 
32000 5.6138217371e+00 5.9155040574e-03 2.0816797983e+00 -3.6055751758e+00 2.0816797983e+00 3.6055751758e+00 
32100 5.6138206322e+00 5.8382978798e-03 2.0815377151e+00 -3.6053290804e+00 2.0815377151e+00 3.6053290804e+00 
32200 5.6138195471e+00 5.7622300312e-03 2.0813974766e+00 -3.6050861803e+00 2.0813974766e+00 3.6050861803e+00 
32300 5.6138184816e+00 5.6873118538e-03 2.0812590560e+00 -3.6048464288e+00 2.0812590560e+00 3.6048464288e+00 
32400 5.6138174354e+00 5.6135529733e-03 2.0811224260e+00 -3.6046097786e+00 2.0811224260e+00 3.6046097786e+00 
32500 5.6138164081e+00 5.5409613020e-03 2.0809875591e+00 -3.6043761822e+00 2.0809875591e+00 3.6043761822e+00 
32600 5.6138153996e+00 5.4695430480e-03 2.0808544275e+00 -3.6041455916e+00 2.0808544275e+00 3.6041455916e+00 
32700 5.6138144097e+00 5.3993027290e-03 2.0807230035e+00 -3.6039179585e+00 2.0807230035e+00 3.6039179585e+00 
32800 5.6138134380e+00 5.3302431915e-03 2.0805932590e+00 -3.6036932345e+00 2.0805932590e+00 3.6036932345e+00 
32900 5.6138124846e+00 5.2623656342e-03 2.0804651660e+00 -3.6034713709e+00 2.0804651660e+00 3.6034713709e+00 
33000 5.6138115490e+00 5.1956696362e-03 2.0803386964e+00 -3.6032523191e+00 2.0803386964e+00 3.6032523191e+00 
33100 5.6138106312e+00 5.1301531894e-03 2.0802138221e+00 -3.6030360304e+00 2.0802138221e+00 3.6030360304e+00 
33200 5.6138097310e+00 5.0658127350e-03 2.0800905150e+00 -3.6028224563e+00 2.0800905150e+00 3.6028224563e+00 
33300 5.6138088481e+00 5.0026432033e-03 2.0799687471e+00 -3.6026115482e+00 2.0799687471e+00 3.6026115482e+00 
33400 5.6138079824e+00 4.9406380571e-03 2.0798484906e+00 -3.6024032578e+00 2.0798484906e+00 3.6024032578e+00 
33500 5.6138071338e+00 4.8797893390e-03 2.0797297178e+00 -3.6021975372e+00 2.0797297178e+00 3.6021975372e+00 
33600 5.6138063019e+00 4.8200877205e-03 2.0796124010e+00 -3.6019943386e+00 2.0796124010e+00 3.6019943386e+00 
33700 5.6138054867e+00 4.7615225546e-03 2.0794965130e+00 -3.6017936146e+00 2.0794965130e+00 3.6017936146e+00 
33800 5.6138046878e+00 4.7040819307e-03 2.0793820266e+00 -3.6015953185e+00 2.0793820266e+00 3.6015953185e+00 
33900 5.6138039052e+00 4.6477527313e-03 2.0792689152e+00 -3.6013994037e+00 2.0792689152e+00 3.6013994037e+00 
34000 5.6138031385e+00 4.5925206917e-03 2.0791571521e+00 -3.6012058243e+00 2.0791571521e+00 3.6012058243e+00 
34100 5.6138023876e+00 4.5383704595e-03 2.0790467111e+00 -3.6010145350e+00 2.0790467111e+00 3.6010145350e+00 
34200 5.6138016522e+00 4.4852856580e-03 2.0789375666e+00 -3.6008254912e+00 2.0789375666e+00 3.6008254912e+00 
34300 5.6138009322e+00 4.4332489482e-03 2.0788296931e+00 -3.6006386487e+00 2.0788296931e+00 3.6006386487e+00 
34400 5.6138002271e+00 4.3822420940e-03 2.0787230655e+00 -3.6004539644e+00 2.0787230655e+00 3.6004539644e+00 
34500 5.6137995368e+00 4.3322460269e-03 2.0786176594e+00 -3.6002713955e+00 2.0786176594e+00 3.6002713955e+00 
34600 5.6137988611e+00 4.2832409114e-03 2.0785134504e+00 -3.6000909004e+00 2.0785134504e+00 3.6000909004e+00 
34700 5.6137981996e+00 4.2352062107e-03 2.0784104151e+00 -3.5999124380e+00 2.0784104151e+00 3.5999124380e+00 
34800 5.6137975521e+00 4.1881207530e-03 2.0783085303e+00 -3.5997359682e+00 2.0783085303e+00 3.5997359682e+00 
34900 5.6137969183e+00 4.1419627968e-03 2.0782077732e+00 -3.5995614518e+00 2.0782077732e+00 3.5995614518e+00 
35000 5.6137962979e+00 4.0967100967e-03 2.0781081217e+00 -3.5993888504e+00 2.0781081217e+00 3.5993888504e+00 
35100 5.6137956906e+00 4.0523399680e-03 2.0780095542e+00 -3.5992181265e+00 2.0780095542e+00 3.5992181265e+00 
35200 5.6137950962e+00 4.0088293512e-03 2.0779120496e+00 -3.5990492436e+00 2.0779120496e+00 3.5990492436e+00 
35300 5.6137945144e+00 3.9661548751e-03 2.0778155875e+00 -3.5988821662e+00 2.0778155875e+00 3.5988821662e+00 
35400 5.6137939449e+00 3.9242929194e-03 2.0777201477e+00 -3.5987168597e+00 2.0777201477e+00 3.5987168597e+00 
35500 5.6137933873e+00 3.8832196757e-03 2.0776257109e+00 -3.5985532904e+00 2.0776257109e+00 3.5985532904e+00 
35600 5.6137928414e+00 3.8429112074e-03 2.0775322583e+00 -3.5983914258e+00 2.0775322583e+00 3.5983914258e+00 
35700 5.6137923070e+00 3.8033435080e-03 2.0774397716e+00 -3.5982312341e+00 2.0774397716e+00 3.5982312341e+00 
35800 5.6137917836e+00 3.7644925579e-03 2.0773482331e+00 -3.5980726847e+00 2.0773482331e+00 3.5980726847e+00 
35900 5.6137912711e+00 3.7263343795e-03 2.0772576256e+00 -3.5979157480e+00 2.0772576256e+00 3.5979157480e+00 
36000 5.6137907692e+00 3.6888450905e-03 2.0771679327e+00 -3.5977603952e+00 2.0771679327e+00 3.5977603952e+00 
36100 5.6137902776e+00 3.6520009550e-03 2.0770791382e+00 -3.5976065988e+00 2.0770791382e+00 3.5976065988e+00 
36200 5.6137897960e+00 3.6157784329e-03 2.0769912269e+00 -3.5974543319e+00 2.0769912269e+00 3.5974543319e+00 
36300 5.6137893242e+00 3.5801542274e-03 2.0769041839e+00 -3.5973035689e+00 2.0769041839e+00 3.5973035689e+00 
36400 5.6137888619e+00 3.5451053297e-03 2.0768179948e+00 -3.5971542850e+00 2.0768179948e+00 3.5971542850e+00 
36500 5.6137884089e+00 3.5106090620e-03 2.0767326459e+00 -3.5970064565e+00 2.0767326459e+00 3.5970064565e+00 
36600 5.6137879650e+00 3.4766431181e-03 2.0766481241e+00 -3.5968600604e+00 2.0766481241e+00 3.5968600604e+00 
36700 5.6137875298e+00 3.4431856016e-03 2.0765644166e+00 -3.5967150747e+00 2.0765644166e+00 3.5967150747e+00 
36800 5.6137871033e+00 3.4102150617e-03 2.0764815113e+00 -3.5965714786e+00 2.0764815113e+00 3.5965714786e+00 
36900 5.6137866851e+00 3.3777105269e-03 2.0763993966e+00 -3.5964292518e+00 2.0763993966e+00 3.5964292518e+00 
37000 5.6137862751e+00 3.3456515359e-03 2.0763180614e+00 -3.5962883750e+00 2.0763180614e+00 3.5962883750e+00 
37100 5.6137858730e+00 3.3140181663e-03 2.0762374950e+00 -3.5961488299e+00 2.0762374950e+00 3.5961488299e+00 
37200 5.6137854787e+00 3.2827910611e-03 2.0761576872e+00 -3.5960105988e+00 2.0761576872e+00 3.5960105988e+00 
37300 5.6137850920e+00 3.2519514523e-03 2.0760786285e+00 -3.5958736650e+00 2.0760786285e+00 3.5958736650e+00 
37400 5.6137847127e+00 3.2214811822e-03 2.0760003094e+00 -3.5957380124e+00 2.0760003094e+00 3.5957380124e+00 
37500 5.6137843407e+00 3.1913627229e-03 2.0759227212e+00 -3.5956036257e+00 2.0759227212e+00 3.5956036257e+00 
37600 5.6137839758e+00 3.1615791925e-03 2.0758458556e+00 -3.5954704905e+00 2.0758458556e+00 3.5954704905e+00 
37700 5.6137836178e+00 3.1321143699e-03 2.0757697044e+00 -3.5953385929e+00 2.0757697044e+00 3.5953385929e+00 
37800 5.6137832666e+00 3.1029527064e-03 2.0756942603e+00 -3.5952079197e+00 2.0756942603e+00 3.5952079197e+00 
37900 5.6137829220e+00 3.0740793359e-03 2.0756195158e+00 -3.5950784585e+00 2.0756195158e+00 3.5950784585e+00 
38000 5.6137825840e+00 3.0454800822e-03 2.0755454641e+00 -3.5949501973e+00 2.0755454641e+00 3.5949501973e+00 
38100 5.6137822523e+00 3.0171414644e-03 2.0754720988e+00 -3.5948231248e+00 2.0754720988e+00 3.5948231248e+00 
38200 5.6137819270e+00 2.9890507008e-03 2.0753994135e+00 -3.5946972302e+00 2.0753994135e+00 3.5946972302e+00 
38300 5.6137816077e+00 2.9611957093e-03 2.0753274025e+00 -3.5945725035e+00 2.0753274025e+00 3.5945725035e+00 
38400 5.6137812946e+00 2.9335651076e-03 2.0752560600e+00 -3.5944489347e+00 2.0752560600e+00 3.5944489347e+00 
38500 5.6137809873e+00 2.9061482101e-03 2.0751853808e+00 -3.5943265148e+00 2.0751853808e+00 3.5943265148e+00 
38600 5.6137806859e+00 2.8789350234e-03 2.0751153598e+00 -3.5942052348e+00 2.0751153598e+00 3.5942052348e+00 
38700 5.6137803902e+00 2.8519162409e-03 2.0750459921e+00 -3.5940850864e+00 2.0750459921e+00 3.5940850864e+00 
38800 5.6137801001e+00 2.8250832339e-03 2.0749772732e+00 -3.5939660617e+00 2.0749772732e+00 3.5939660617e+00 
38900 5.6137798156e+00 2.7984280432e-03 2.0749091985e+00 -3.5938481529e+00 2.0749091985e+00 3.5938481529e+00 
39000 5.6137795365e+00 2.7719433675e-03 2.0748417639e+00 -3.5937313528e+00 2.0748417639e+00 3.5937313528e+00 
39100 5.6137792627e+00 2.7456225511e-03 2.0747749654e+00 -3.5936156543e+00 2.0747749654e+00 3.5936156543e+00 
39200 5.6137789943e+00 2.7194595705e-03 2.0747087990e+00 -3.5935010507e+00 2.0747087990e+00 3.5935010507e+00 
39300 5.6137787310e+00 2.6934490191e-03 2.0746432610e+00 -3.5933875356e+00 2.0746432610e+00 3.5933875356e+00 
39400 5.6137784727e+00 2.6675860914e-03 2.0745783478e+00 -3.5932751026e+00 2.0745783478e+00 3.5932751026e+00 
39500 5.6137782195e+00 2.6418665653e-03 2.0745140558e+00 -3.5931637457e+00 2.0745140558e+00 3.5931637457e+00 
39600 5.6137779713e+00 2.6162867845e-03 2.0744503818e+00 -3.5930534591e+00 2.0744503818e+00 3.5930534591e+00 
39700 5.6137777278e+00 2.5908436385e-03 2.0743873224e+00 -3.5929442369e+00 2.0743873224e+00 3.5929442369e+00 
39800 5.6137774892e+00 2.5655345437e-03 2.0743248743e+00 -3.5928360737e+00 2.0743248743e+00 3.5928360737e+00 
39900 5.6137772552e+00 2.5403574219e-03 2.0742630344e+00 -3.5927289638e+00 2.0742630344e+00 3.5927289638e+00 
40000 5.6137770258e+00 2.5153106792e-03 2.0742017995e+00 -3.5926229019e+00 2.0742017995e+00 3.5926229019e+00 
40100 5.6137768010e+00 2.4903931843e-03 2.0741411666e+00 -3.5925178826e+00 2.0741411666e+00 3.5925178826e+00 
40200 5.6137765805e+00 2.4656042458e-03 2.0740811325e+00 -3.5924139006e+00 2.0740811325e+00 3.5924139006e+00 
40300 5.6137763645e+00 2.4409435897e-03 2.0740216943e+00 -3.5923109506e+00 2.0740216943e+00 3.5923109506e+00 
40400 5.6137761527e+00 2.4164113360e-03 2.0739628490e+00 -3.5922090274e+00 2.0739628490e+00 3.5922090274e+00 
40500 5.6137759452e+00 2.3920079758e-03 2.0739045933e+00 -3.5921081257e+00 2.0739045933e+00 3.5921081257e+00 
40600 5.6137757417e+00 2.3677343473e-03 2.0738469244e+00 -3.5920082402e+00 2.0738469244e+00 3.5920082402e+00 
40700 5.6137755423e+00 2.3435916125e-03 2.0737898391e+00 -3.5919093656e+00 2.0737898391e+00 3.5919093656e+00 
40800 5.6137753469e+00 2.3195812334e-03 2.0737333343e+00 -3.5918114964e+00 2.0737333343e+00 3.5918114964e+00 
40900 5.6137751554e+00 2.2957049488e-03 2.0736774069e+00 -3.5917146273e+00 2.0736774069e+00 3.5917146273e+00 
41000 5.6137749677e+00 2.2719647505e-03 2.0736220537e+00 -3.5916187527e+00 2.0736220537e+00 3.5916187527e+00 
41100 5.6137747838e+00 2.2483628601e-03 2.0735672714e+00 -3.5915238670e+00 2.0735672714e+00 3.5915238670e+00 
41200 5.6137746035e+00 2.2249017060e-03 2.0735130568e+00 -3.5914299645e+00 2.0735130568e+00 3.5914299645e+00 
41300 5.6137744268e+00 2.2015839008e-03 2.0734594065e+00 -3.5913370395e+00 2.0734594065e+00 3.5913370395e+00 
41400 5.6137742536e+00 2.1784122190e-03 2.0734063171e+00 -3.5912450859e+00 2.0734063171e+00 3.5912450859e+00 
41500 5.6137740839e+00 2.1553895745e-03 2.0733537851e+00 -3.5911540979e+00 2.0733537851e+00 3.5911540979e+00 
41600 5.6137739175e+00 2.1325189999e-03 2.0733018070e+00 -3.5910640691e+00 2.0733018070e+00 3.5910640691e+00 
41700 5.6137737545e+00 2.1098036251e-03 2.0732503791e+00 -3.5909749934e+00 2.0732503791e+00 3.5909749934e+00 
41800 5.6137735947e+00 2.0872466567e-03 2.0731994978e+00 -3.5908868644e+00 2.0731994978e+00 3.5908868644e+00 
41900 5.6137734380e+00 2.0648513586e-03 2.0731491592e+00 -3.5907996754e+00 2.0731491592e+00 3.5907996754e+00 
42000 5.6137732845e+00 2.0426210323e-03 2.0730993595e+00 -3.5907134198e+00 2.0730993595e+00 3.5907134198e+00 
42100 5.6137731339e+00 2.0205589989e-03 2.0730500948e+00 -3.5906280908e+00 2.0730500948e+00 3.5906280908e+00 
42200 5.6137729864e+00 1.9986685807e-03 2.0730013610e+00 -3.5905436815e+00 2.0730013610e+00 3.5905436815e+00 
42300 5.6137728417e+00 1.9769530843e-03 2.0729531541e+00 -3.5904601846e+00 2.0729531541e+00 3.5904601846e+00 
42400 5.6137726999e+00 1.9554157844e-03 2.0729054698e+00 -3.5903775930e+00 2.0729054698e+00 3.5903775930e+00 
42500 5.6137725608e+00 1.9340599077e-03 2.0728583039e+00 -3.5902958993e+00 2.0728583039e+00 3.5902958993e+00 
42600 5.6137724245e+00 1.9128886183e-03 2.0728116521e+00 -3.5902150960e+00 2.0728116521e+00 3.5902150960e+00 
42700 5.6137722909e+00 1.8919050038e-03 2.0727655099e+00 -3.5901351753e+00 2.0727655099e+00 3.5901351753e+00 
42800 5.6137721598e+00 1.8711120618e-03 2.0727198729e+00 -3.5900561297e+00 2.0727198729e+00 3.5900561297e+00 
42900 5.6137720313e+00 1.8505126875e-03 2.0726747364e+00 -3.5899779510e+00 2.0726747364e+00 3.5899779510e+00 
43000 5.6137719053e+00 1.8301096623e-03 2.0726300959e+00 -3.5899006313e+00 2.0726300959e+00 3.5899006313e+00 
43100 5.6137717817e+00 1.8099056428e-03 2.0725859466e+00 -3.5898241625e+00 2.0725859466e+00 3.5898241625e+00 
43200 5.6137716605e+00 1.7899031509e-03 2.0725422837e+00 -3.5897485363e+00 2.0725422837e+00 3.5897485363e+00 
43300 5.6137715417e+00 1.7701045649e-03 2.0724991025e+00 -3.5896737442e+00 2.0724991025e+00 3.5896737442e+00 
43400 5.6137714252e+00 1.7505121111e-03 2.0724563981e+00 -3.5895997780e+00 2.0724563981e+00 3.5895997780e+00 
43500 5.6137713109e+00 1.7311278563e-03 2.0724141655e+00 -3.5895266289e+00 2.0724141655e+00 3.5895266289e+00 
43600 5.6137711988e+00 1.7119537011e-03 2.0723723996e+00 -3.5894542883e+00 2.0723723996e+00 3.5894542883e+00 
43700 5.6137710889e+00 1.6929913745e-03 2.0723310956e+00 -3.5893827476e+00 2.0723310956e+00 3.5893827476e+00 
43800 5.6137709811e+00 1.6742424284e-03 2.0722902482e+00 -3.5893119979e+00 2.0722902482e+00 3.5893119979e+00 
43900 5.6137708754e+00 1.6557082333e-03 2.0722498524e+00 -3.5892420303e+00 2.0722498524e+00 3.5892420303e+00 
44000 5.6137707717e+00 1.6373899754e-03 2.0722099030e+00 -3.5891728359e+00 2.0722099030e+00 3.5891728359e+00 
44100 5.6137706700e+00 1.6192886533e-03 2.0721703948e+00 -3.5891044057e+00 2.0721703948e+00 3.5891044057e+00 
44200 5.6137705703e+00 1.6014050762e-03 2.0721313226e+00 -3.5890367307e+00 2.0721313226e+00 3.5890367307e+00 
44300 5.6137704725e+00 1.5837398624e-03 2.0720926812e+00 -3.5889698019e+00 2.0720926812e+00 3.5889698019e+00 
44400 5.6137703766e+00 1.5662934392e-03 2.0720544654e+00 -3.5889036101e+00 2.0720544654e+00 3.5889036101e+00 
44500 5.6137702826e+00 1.5490660422e-03 2.0720166699e+00 -3.5888381463e+00 2.0720166699e+00 3.5888381463e+00 
44600 5.6137701904e+00 1.5320577165e-03 2.0719792893e+00 -3.5887734014e+00 2.0719792893e+00 3.5887734014e+00 
44700 5.6137700999e+00 1.5152683180e-03 2.0719423186e+00 -3.5887093661e+00 2.0719423186e+00 3.5887093661e+00 
44800 5.6137700112e+00 1.4986975149e-03 2.0719057523e+00 -3.5886460315e+00 2.0719057523e+00 3.5886460315e+00 
44900 5.6137699243e+00 1.4823447904e-03 2.0718695853e+00 -3.5885833884e+00 2.0718695853e+00 3.5885833884e+00 
45000 5.6137698390e+00 1.4662094456e-03 2.0718338123e+00 -3.5885214277e+00 2.0718338123e+00 3.5885214277e+00 
45100 5.6137697554e+00 1.4502906030e-03 2.0717984280e+00 -3.5884601404e+00 2.0717984280e+00 3.5884601404e+00 
45200 5.6137696734e+00 1.4345872103e-03 2.0717634274e+00 -3.5883995175e+00 2.0717634274e+00 3.5883995175e+00 
45300 5.6137695930e+00 1.4190980449e-03 2.0717288051e+00 -3.5883395499e+00 2.0717288051e+00 3.5883395499e+00 
45400 5.6137695142e+00 1.4038217188e-03 2.0716945561e+00 -3.5882802289e+00 2.0716945561e+00 3.5882802289e+00 
45500 5.6137694369e+00 1.3887566835e-03 2.0716606752e+00 -3.5882215454e+00 2.0716606752e+00 3.5882215454e+00 
45600 5.6137693612e+00 1.3739012357e-03 2.0716271573e+00 -3.5881634908e+00 2.0716271573e+00 3.5881634908e+00 
45700 5.6137692869e+00 1.3592535232e-03 2.0715939974e+00 -3.5881060562e+00 2.0715939974e+00 3.5881060562e+00 
45800 5.6137692141e+00 1.3448115510e-03 2.0715611906e+00 -3.5880492330e+00 2.0715611906e+00 3.5880492330e+00 
45900 5.6137691427e+00 1.3305731874e-03 2.0715287318e+00 -3.5879930127e+00 2.0715287318e+00 3.5879930127e+00 
46000 5.6137690728e+00 1.3165361714e-03 2.0714966161e+00 -3.5879373868e+00 2.0714966161e+00 3.5879373868e+00 
46100 5.6137690042e+00 1.3026981189e-03 2.0714648388e+00 -3.5878823468e+00 2.0714648388e+00 3.5878823468e+00 
46200 5.6137689369e+00 1.2890565298e-03 2.0714333950e+00 -3.5878278846e+00 2.0714333950e+00 3.5878278846e+00 
46300 5.6137688710e+00 1.2756087956e-03 2.0714022800e+00 -3.5877739918e+00 2.0714022800e+00 3.5877739918e+00 
46400 5.6137688064e+00 1.2623522062e-03 2.0713714891e+00 -3.5877206604e+00 2.0713714891e+00 3.5877206604e+00 
46500 5.6137687431e+00 1.2492839579e-03 2.0713410177e+00 -3.5876678825e+00 2.0713410177e+00 3.5876678825e+00 
46600 5.6137686810e+00 1.2364011601e-03 2.0713108614e+00 -3.5876156502e+00 2.0713108614e+00 3.5876156502e+00 
46700 5.6137686202e+00 1.2237008436e-03 2.0712810156e+00 -3.5875639558e+00 2.0712810156e+00 3.5875639558e+00 
46800 5.6137685606e+00 1.2111799676e-03 2.0712514760e+00 -3.5875127917e+00 2.0712514760e+00 3.5875127917e+00 
46900 5.6137685021e+00 1.1988354275e-03 2.0712222382e+00 -3.5874621503e+00 2.0712222382e+00 3.5874621503e+00 
47000 5.6137684448e+00 1.1866640624e-03 2.0711932980e+00 -3.5874120244e+00 2.0711932980e+00 3.5874120244e+00 
47100 5.6137683887e+00 1.1746626624e-03 2.0711646512e+00 -3.5873624066e+00 2.0711646512e+00 3.5873624066e+00 
47200 5.6137683336e+00 1.1628279761e-03 2.0711362937e+00 -3.5873132900e+00 2.0711362937e+00 3.5873132900e+00 
47300 5.6137682797e+00 1.1511567179e-03 2.0711082215e+00 -3.5872646676e+00 2.0711082215e+00 3.5872646676e+00 
47400 5.6137682268e+00 1.1396455753e-03 2.0710804307e+00 -3.5872165326e+00 2.0710804307e+00 3.5872165326e+00 
47500 5.6137681750e+00 1.1282912156e-03 2.0710529175e+00 -3.5871688783e+00 2.0710529175e+00 3.5871688783e+00 
47600 5.6137681242e+00 1.1170902932e-03 2.0710256780e+00 -3.5871216981e+00 2.0710256780e+00 3.5871216981e+00 
47700 5.6137680744e+00 1.1060394562e-03 2.0709987086e+00 -3.5870749856e+00 2.0709987086e+00 3.5870749856e+00 
47800 5.6137680256e+00 1.0951353529e-03 2.0709720056e+00 -3.5870287347e+00 2.0709720056e+00 3.5870287347e+00 
47900 5.6137679777e+00 1.0843746383e-03 2.0709455655e+00 -3.5869829392e+00 2.0709455655e+00 3.5869829392e+00 
48000 5.6137679308e+00 1.0737539802e-03 2.0709193849e+00 -3.5869375930e+00 2.0709193849e+00 3.5869375930e+00 
48100 5.6137678849e+00 1.0632700653e-03 2.0708934604e+00 -3.5868926904e+00 2.0708934604e+00 3.5868926904e+00 
48200 5.6137678398e+00 1.0529196046e-03 2.0708677887e+00 -3.5868482257e+00 2.0708677887e+00 3.5868482257e+00 
48300 5.6137677957e+00 1.0426993395e-03 2.0708423665e+00 -3.5868041933e+00 2.0708423665e+00 3.5868041933e+00 
48400 5.6137677524e+00 1.0326060465e-03 2.0708171908e+00 -3.5867605877e+00 2.0708171908e+00 3.5867605877e+00 
48500 5.6137677099e+00 1.0226365422e-03 2.0707922586e+00 -3.5867174037e+00 2.0707922586e+00 3.5867174037e+00 
48600 5.6137676683e+00 1.0127876887e-03 2.0707675667e+00 -3.5866746362e+00 2.0707675667e+00 3.5866746362e+00 
48700 5.6137676275e+00 1.0030563972e-03 2.0707431123e+00 -3.5866322800e+00 2.0707431123e+00 3.5866322800e+00 
48800 5.6137675876e+00 9.9343963288e-04 2.0707188927e+00 -3.5865903303e+00 2.0707188927e+00 3.5865903303e+00 
48900 5.6137675484e+00 9.8393441859e-04 2.0706949049e+00 -3.5865487823e+00 2.0706949049e+00 3.5865487823e+00 
49000 5.6137675100e+00 9.7453783843e-04 2.0706711464e+00 -3.5865076313e+00 2.0706711464e+00 3.5865076313e+00 
49100 5.6137674723e+00 9.6524704130e-04 2.0706476145e+00 -3.5864668729e+00 2.0706476145e+00 3.5864668729e+00 
49200 5.6137674354e+00 9.5605924391e-04 2.0706243067e+00 -3.5864265026e+00 2.0706243067e+00 3.5864265026e+00 
49300 5.6137673992e+00 9.4697173366e-04 2.0706012205e+00 -3.5863865161e+00 2.0706012205e+00 3.5863865161e+00 
49400 5.6137673637e+00 9.3798187116e-04 2.0705783535e+00 -3.5863469093e+00 2.0705783535e+00 3.5863469093e+00 
49500 5.6137673289e+00 9.2908709255e-04 2.0705557033e+00 -3.5863076780e+00 2.0705557033e+00 3.5863076780e+00 
49600 5.6137672948e+00 9.2028491144e-04 2.0705332676e+00 -3.5862688183e+00 2.0705332676e+00 3.5862688183e+00 
49700 5.6137672614e+00 9.1157292074e-04 2.0705110443e+00 -3.5862303263e+00 2.0705110443e+00 3.5862303263e+00 
49800 5.6137672286e+00 9.0294879405e-04 2.0704890311e+00 -3.5861921983e+00 2.0704890311e+00 3.5861921983e+00 
49900 5.6137671965e+00 8.9441028691e-04 2.0704672259e+00 -3.5861544307e+00 2.0704672259e+00 3.5861544307e+00 
50000 5.6137671650e+00 8.8595523773e-04 2.0704456267e+00 -3.5861170198e+00 2.0704456267e+00 3.5861170198e+00 
50100 5.6137671341e+00 8.7758156853e-04 2.0704242315e+00 -3.5860799621e+00 2.0704242315e+00 3.5860799621e+00 
50200 5.6137671038e+00 8.6928728537e-04 2.0704030382e+00 -3.5860432544e+00 2.0704030382e+00 3.5860432544e+00 
50300 5.6137670742e+00 8.6107047860e-04 2.0703820451e+00 -3.5860068931e+00 2.0703820451e+00 3.5860068931e+00 
50400 5.6137670451e+00 8.5292932280e-04 2.0703612501e+00 -3.5859708753e+00 2.0703612501e+00 3.5859708753e+00 
50500 5.6137670166e+00 8.4486207664e-04 2.0703406516e+00 -3.5859351976e+00 2.0703406516e+00 3.5859351976e+00 
50600 5.6137669886e+00 8.3686708235e-04 2.0703202477e+00 -3.5858998570e+00 2.0703202477e+00 3.5858998570e+00 
50700 5.6137669612e+00 8.2894276513e-04 2.0703000367e+00 -3.5858648505e+00 2.0703000367e+00 3.5858648505e+00 
50800 5.6137669344e+00 8.2108763229e-04 2.0702800168e+00 -3.5858301751e+00 2.0702800168e+00 3.5858301751e+00 
50900 5.6137669080e+00 8.1330027221e-04 2.0702601865e+00 -3.5857958280e+00 2.0702601865e+00 3.5857958280e+00 
51000 5.6137668822e+00 8.0557935316e-04 2.0702405441e+00 -3.5857618063e+00 2.0702405441e+00 3.5857618063e+00 
51100 5.6137668569e+00 7.9792362189e-04 2.0702210879e+00 -3.5857281072e+00 2.0702210879e+00 3.5857281072e+00 
51200 5.6137668321e+00 7.9033190213e-04 2.0702018165e+00 -3.5856947281e+00 2.0702018165e+00 3.5856947281e+00 
51300 5.6137668078e+00 7.8280309286e-04 2.0701827283e+00 -3.5856616663e+00 2.0701827283e+00 3.5856616663e+00 
51400 5.6137667840e+00 7.7533616656e-04 2.0701638217e+00 -3.5856289191e+00 2.0701638217e+00 3.5856289191e+00 
51500 5.6137667607e+00 7.6793016717e-04 2.0701450953e+00 -3.5855964840e+00 2.0701450953e+00 3.5855964840e+00 
51600 5.6137667378e+00 7.6058420810e-04 2.0701265476e+00 -3.5855643585e+00 2.0701265476e+00 3.5855643585e+00 
51700 5.6137667154e+00 7.5329747003e-04 2.0701081771e+00 -3.5855325399e+00 2.0701081771e+00 3.5855325399e+00 
51800 5.6137666934e+00 7.4606919858e-04 2.0700899825e+00 -3.5855010259e+00 2.0700899825e+00 3.5855010259e+00 
51900 5.6137666719e+00 7.3889870205e-04 2.0700719623e+00 -3.5854698140e+00 2.0700719623e+00 3.5854698140e+00 
52000 5.6137666507e+00 7.3178534887e-04 2.0700541152e+00 -3.5854389019e+00 2.0700541152e+00 3.5854389019e+00 
52100 5.6137666301e+00 7.2472856517e-04 2.0700364397e+00 -3.5854082870e+00 2.0700364397e+00 3.5854082870e+00 
52200 5.6137666098e+00 7.1772783217e-04 2.0700189345e+00 -3.5853779671e+00 2.0700189345e+00 3.5853779671e+00 
52300 5.6137665899e+00 7.1078268356e-04 2.0700015982e+00 -3.5853479399e+00 2.0700015982e+00 3.5853479399e+00 
52400 5.6137665704e+00 7.0389270286e-04 2.0699844296e+00 -3.5853182030e+00 2.0699844296e+00 3.5853182030e+00 
52500 5.6137665514e+00 6.9705752073e-04 2.0699674273e+00 -3.5852887540e+00 2.0699674273e+00 3.5852887540e+00 
52600 5.6137665327e+00 6.9027681222e-04 2.0699505899e+00 -3.5852595908e+00 2.0699505899e+00 3.5852595908e+00 
52700 5.6137665144e+00 6.8355029409e-04 2.0699339162e+00 -3.5852307111e+00 2.0699339162e+00 3.5852307111e+00 
52800 5.6137664964e+00 6.7687772207e-04 2.0699174048e+00 -3.5852021125e+00 2.0699174048e+00 3.5852021125e+00 
52900 5.6137664788e+00 6.7025888809e-04 2.0699010544e+00 -3.5851737929e+00 2.0699010544e+00 3.5851737929e+00 
53000 5.6137664616e+00 6.6369361763e-04 2.0698848639e+00 -3.5851457500e+00 2.0698848639e+00 3.5851457500e+00 
53100 5.6137664447e+00 6.5718176697e-04 2.0698688317e+00 -3.5851179816e+00 2.0698688317e+00 3.5851179816e+00 
53200 5.6137664281e+00 6.5072322053e-04 2.0698529568e+00 -3.5850904854e+00 2.0698529568e+00 3.5850904854e+00 
53300 5.6137664119e+00 6.4431788826e-04 2.0698372378e+00 -3.5850632592e+00 2.0698372378e+00 3.5850632592e+00 
53400 5.6137663960e+00 6.3796570298e-04 2.0698216733e+00 -3.5850363008e+00 2.0698216733e+00 3.5850363008e+00 
53500 5.6137663805e+00 6.3166661787e-04 2.0698062622e+00 -3.5850096080e+00 2.0698062622e+00 3.5850096080e+00 
53600 5.6137663652e+00 6.2542060397e-04 2.0697910032e+00 -3.5849831785e+00 2.0697910032e+00 3.5849831785e+00 
53700 5.6137663503e+00 6.1922764769e-04 2.0697758949e+00 -3.5849570102e+00 2.0697758949e+00 3.5849570102e+00 
53800 5.6137663356e+00 6.1308774846e-04 2.0697609361e+00 -3.5849311008e+00 2.0697609361e+00 3.5849311008e+00 
53900 5.6137663213e+00 6.0700091639e-04 2.0697461255e+00 -3.5849054481e+00 2.0697461255e+00 3.5849054481e+00 
54000 5.6137663072e+00 6.0096717004e-04 2.0697314619e+00 -3.5848800500e+00 2.0697314619e+00 3.5848800500e+00 
54100 5.6137662934e+00 5.9498653421e-04 2.0697169439e+00 -3.5848549041e+00 2.0697169439e+00 3.5848549041e+00 
54200 5.6137662799e+00 5.8905903790e-04 2.0697025703e+00 -3.5848300083e+00 2.0697025703e+00 3.5848300083e+00 
54300 5.6137662667e+00 5.8318471225e-04 2.0696883398e+00 -3.5848053603e+00 2.0696883398e+00 3.5848053603e+00 
54400 5.6137662538e+00 5.7736358861e-04 2.0696742511e+00 -3.5847809580e+00 2.0696742511e+00 3.5847809580e+00 
54500 5.6137662411e+00 5.7159569673e-04 2.0696603029e+00 -3.5847567991e+00 2.0696603029e+00 3.5847567991e+00 
54600 5.6137662286e+00 5.6588106299e-04 2.0696464940e+00 -3.5847328813e+00 2.0696464940e+00 3.5847328813e+00 
54700 5.6137662164e+00 5.6021970873e-04 2.0696328231e+00 -3.5847092026e+00 2.0696328231e+00 3.5847092026e+00 
54800 5.6137662045e+00 5.5461164872e-04 2.0696192888e+00 -3.5846857605e+00 2.0696192888e+00 3.5846857605e+00 
54900 5.6137661928e+00 5.4905688961e-04 2.0696058899e+00 -3.5846625530e+00 2.0696058899e+00 3.5846625530e+00 
55000 5.6137661813e+00 5.4355542866e-04 2.0695926252e+00 -3.5846395778e+00 2.0695926252e+00 3.5846395778e+00 
55100 5.6137661701e+00 5.3810725235e-04 2.0695794932e+00 -3.5846168326e+00 2.0695794932e+00 3.5846168326e+00 
55200 5.6137661591e+00 5.3271233527e-04 2.0695664929e+00 -3.5845943153e+00 2.0695664929e+00 3.5845943153e+00 
55300 5.6137661483e+00 5.2737063901e-04 2.0695536227e+00 -3.5845720236e+00 2.0695536227e+00 3.5845720236e+00 
55400 5.6137661378e+00 5.2208211113e-04 2.0695408816e+00 -3.5845499552e+00 2.0695408816e+00 3.5845499552e+00 
55500 5.6137661274e+00 5.1684668431e-04 2.0695282681e+00 -3.5845281081e+00 2.0695282681e+00 3.5845281081e+00 
55600 5.6137661173e+00 5.1166427552e-04 2.0695157811e+00 -3.5845064799e+00 2.0695157811e+00 3.5845064799e+00 
55700 5.6137661074e+00 5.0653478531e-04 2.0695034191e+00 -3.5844850684e+00 2.0695034191e+00 3.5844850684e+00 
55800 5.6137660977e+00 5.0145809720e-04 2.0694911811e+00 -3.5844638714e+00 2.0694911811e+00 3.5844638714e+00 
55900 5.6137660881e+00 4.9643407712e-04 2.0694790656e+00 -3.5844428868e+00 2.0694790656e+00 3.5844428868e+00 
56000 5.6137660788e+00 4.9146257303e-04 2.0694670714e+00 -3.5844221123e+00 2.0694670714e+00 3.5844221123e+00 
56100 5.6137660697e+00 4.8654341450e-04 2.0694551973e+00 -3.5844015457e+00 2.0694551973e+00 3.5844015457e+00 
56200 5.6137660607e+00 4.8167641246e-04 2.0694434420e+00 -3.5843811849e+00 2.0694434420e+00 3.5843811849e+00 
56300 5.6137660519e+00 4.7686135905e-04 2.0694318042e+00 -3.5843610276e+00 2.0694318042e+00 3.5843610276e+00 
56400 5.6137660434e+00 4.7209802744e-04 2.0694202826e+00 -3.5843410717e+00 2.0694202826e+00 3.5843410717e+00 
56500 5.6137660349e+00 4.6738617187e-04 2.0694088761e+00 -3.5843213150e+00 2.0694088761e+00 3.5843213150e+00 
56600 5.6137660267e+00 4.6272552764e-04 2.0693975834e+00 -3.5843017554e+00 2.0693975834e+00 3.5843017554e+00 
56700 5.6137660186e+00 4.5811581126e-04 2.0693864032e+00 -3.5842823908e+00 2.0693864032e+00 3.5842823908e+00 
56800 5.6137660107e+00 4.5355672061e-04 2.0693753343e+00 -3.5842632189e+00 2.0693753343e+00 3.5842632189e+00 
56900 5.6137660030e+00 4.4904793517e-04 2.0693643755e+00 -3.5842442378e+00 2.0693643755e+00 3.5842442378e+00 
57000 5.6137659954e+00 4.4458911639e-04 2.0693535256e+00 -3.5842254452e+00 2.0693535256e+00 3.5842254452e+00 
57100 5.6137659879e+00 4.4017990798e-04 2.0693427834e+00 -3.5842068392e+00 2.0693427834e+00 3.5842068392e+00 
57200 5.6137659807e+00 4.3581993638e-04 2.0693321477e+00 -3.5841884175e+00 2.0693321477e+00 3.5841884175e+00 
57300 5.6137659735e+00 4.3150881124e-04 2.0693216172e+00 -3.5841701783e+00 2.0693216172e+00 3.5841701783e+00 
57400 5.6137659666e+00 4.2724612589e-04 2.0693111909e+00 -3.5841521193e+00 2.0693111909e+00 3.5841521193e+00 
57500 5.6137659597e+00 4.2303145797e-04 2.0693008675e+00 -3.5841342387e+00 2.0693008675e+00 3.5841342387e+00 
57600 5.6137659530e+00 4.1886437001e-04 2.0692906459e+00 -3.5841165344e+00 2.0692906459e+00 3.5841165344e+00 
57700 5.6137659465e+00 4.1474441005e-04 2.0692805250e+00 -3.5840990044e+00 2.0692805250e+00 3.5840990044e+00 
57800 5.6137659401e+00 4.1067111238e-04 2.0692705035e+00 -3.5840816467e+00 2.0692705035e+00 3.5840816467e+00 
57900 5.6137659338e+00 4.0664399821e-04 2.0692605804e+00 -3.5840644594e+00 2.0692605804e+00 3.5840644594e+00 
58000 5.6137659276e+00 4.0266257640e-04 2.0692507546e+00 -3.5840474406e+00 2.0692507546e+00 3.5840474406e+00 
58100 5.6137659216e+00 3.9872634428e-04 2.0692410250e+00 -3.5840305883e+00 2.0692410250e+00 3.5840305883e+00 
58200 5.6137659157e+00 3.9483478838e-04 2.0692313904e+00 -3.5840139007e+00 2.0692313904e+00 3.5840139007e+00 
58300 5.6137659099e+00 3.9098738525e-04 2.0692218498e+00 -3.5839973759e+00 2.0692218498e+00 3.5839973759e+00 
58400 5.6137659042e+00 3.8718360230e-04 2.0692124021e+00 -3.5839810120e+00 2.0692124021e+00 3.5839810120e+00 
58500 5.6137658987e+00 3.8342289861e-04 2.0692030463e+00 -3.5839648073e+00 2.0692030463e+00 3.5839648073e+00 
58600 5.6137658933e+00 3.7970472575e-04 2.0691937813e+00 -3.5839487599e+00 2.0691937813e+00 3.5839487599e+00 
58700 5.6137658880e+00 3.7602852867e-04 2.0691846061e+00 -3.5839328680e+00 2.0691846061e+00 3.5839328680e+00 
58800 5.6137658827e+00 3.7239374650e-04 2.0691755197e+00 -3.5839171299e+00 2.0691755197e+00 3.5839171299e+00 
58900 5.6137658777e+00 3.6879981343e-04 2.0691665211e+00 -3.5839015439e+00 2.0691665211e+00 3.5839015439e+00 
59000 5.6137658727e+00 3.6524615953e-04 2.0691576093e+00 -3.5838861082e+00 2.0691576093e+00 3.5838861082e+00 
59100 5.6137658678e+00 3.6173221159e-04 2.0691487834e+00 -3.5838708212e+00 2.0691487834e+00 3.5838708212e+00 
59200 5.6137658630e+00 3.5825739399e-04 2.0691400423e+00 -3.5838556812e+00 2.0691400423e+00 3.5838556812e+00 
59300 5.6137658583e+00 3.5482112943e-04 2.0691313851e+00 -3.5838406866e+00 2.0691313851e+00 3.5838406866e+00 
59400 5.6137658538e+00 3.5142283984e-04 2.0691228110e+00 -3.5838258357e+00 2.0691228110e+00 3.5838258357e+00 
59500 5.6137658493e+00 3.4806194710e-04 2.0691143189e+00 -3.5838111270e+00 2.0691143189e+00 3.5838111270e+00 
59600 5.6137658449e+00 3.4473787385e-04 2.0691059080e+00 -3.5837965590e+00 2.0691059080e+00 3.5837965590e+00 
59700 5.6137658406e+00 3.4145004422e-04 2.0690975774e+00 -3.5837821299e+00 2.0690975774e+00 3.5837821299e+00 
59800 5.6137658364e+00 3.3819788462e-04 2.0690893263e+00 -3.5837678385e+00 2.0690893263e+00 3.5837678385e+00 
59900 5.6137658323e+00 3.3498082436e-04 2.0690811536e+00 -3.5837536831e+00 2.0690811536e+00 3.5837536831e+00 
60000 5.6137658282e+00 3.3179829646e-04 2.0690730587e+00 -3.5837396623e+00 2.0690730587e+00 3.5837396623e+00 
60100 5.6137658243e+00 3.2864973821e-04 2.0690650407e+00 -3.5837257746e+00 2.0690650407e+00 3.5837257746e+00 
60200 5.6137658204e+00 3.2553459188e-04 2.0690570987e+00 -3.5837120187e+00 2.0690570987e+00 3.5837120187e+00 
60300 5.6137658166e+00 3.2245230529e-04 2.0690492320e+00 -3.5836983932e+00 2.0690492320e+00 3.5836983932e+00 
60400 5.6137658129e+00 3.1940233242e-04 2.0690414397e+00 -3.5836848965e+00 2.0690414397e+00 3.5836848965e+00 
60500 5.6137658093e+00 3.1638413397e-04 2.0690337211e+00 -3.5836715275e+00 2.0690337211e+00 3.5836715275e+00 
60600 5.6137658058e+00 3.1339717786e-04 2.0690260754e+00 -3.5836582848e+00 2.0690260754e+00 3.5836582848e+00 
60700 5.6137658023e+00 3.1044093973e-04 2.0690185019e+00 -3.5836451670e+00 2.0690185019e+00 3.5836451670e+00 
60800 5.6137657989e+00 3.0751490344e-04 2.0690109997e+00 -3.5836321730e+00 2.0690109997e+00 3.5836321730e+00 
60900 5.6137657956e+00 3.0461856144e-04 2.0690035683e+00 -3.5836193013e+00 2.0690035683e+00 3.5836193013e+00 
61000 5.6137657923e+00 3.0175141522e-04 2.0689962068e+00 -3.5836065509e+00 2.0689962068e+00 3.5836065509e+00 
61100 5.6137657892e+00 2.9891297569e-04 2.0689889146e+00 -3.5835939204e+00 2.0689889146e+00 3.5835939204e+00 
61200 5.6137657860e+00 2.9610276344e-04 2.0689816910e+00 -3.5835814087e+00 2.0689816910e+00 3.5835814087e+00 
61300 5.6137657830e+00 2.9332030913e-04 2.0689745352e+00 -3.5835690146e+00 2.0689745352e+00 3.5835690146e+00 
61400 5.6137657800e+00 2.9056515370e-04 2.0689674467e+00 -3.5835567368e+00 2.0689674467e+00 3.5835567368e+00 
61500 5.6137657771e+00 2.8783684866e-04 2.0689604247e+00 -3.5835445744e+00 2.0689604247e+00 3.5835445744e+00 
61600 5.6137657742e+00 2.8513495625e-04 2.0689534686e+00 -3.5835325261e+00 2.0689534686e+00 3.5835325261e+00 
61700 5.6137657715e+00 2.8245904965e-04 2.0689465778e+00 -3.5835205909e+00 2.0689465778e+00 3.5835205909e+00 
61800 5.6137657687e+00 2.7980871313e-04 2.0689397517e+00 -3.5835087677e+00 2.0689397517e+00 3.5835087677e+00 
61900 5.6137657660e+00 2.7718354213e-04 2.0689329895e+00 -3.5834970553e+00 2.0689329895e+00 3.5834970553e+00 
62000 5.6137657634e+00 2.7458314338e-04 2.0689262908e+00 -3.5834854529e+00 2.0689262908e+00 3.5834854529e+00 
62100 5.6137657609e+00 2.7200713497e-04 2.0689196550e+00 -3.5834739592e+00 2.0689196550e+00 3.5834739592e+00 
62200 5.6137657584e+00 2.6945514631e-04 2.0689130813e+00 -3.5834625733e+00 2.0689130813e+00 3.5834625733e+00 
62300 5.6137657559e+00 2.6692681822e-04 2.0689065693e+00 -3.5834512942e+00 2.0689065693e+00 3.5834512942e+00 
62400 5.6137657535e+00 2.6442180284e-04 2.0689001184e+00 -3.5834401209e+00 2.0689001184e+00 3.5834401209e+00 
62500 5.6137657512e+00 2.6193976363e-04 2.0688937280e+00 -3.5834290524e+00 2.0688937280e+00 3.5834290524e+00 
62600 5.6137657489e+00 2.5948037524e-04 2.0688873976e+00 -3.5834180878e+00 2.0688873976e+00 3.5834180878e+00 
62700 5.6137657466e+00 2.5704332346e-04 2.0688811266e+00 -3.5834072261e+00 2.0688811266e+00 3.5834072261e+00 
62800 5.6137657444e+00 2.5462830508e-04 2.0688749144e+00 -3.5833964663e+00 2.0688749144e+00 3.5833964663e+00 
62900 5.6137657423e+00 2.5223502775e-04 2.0688687607e+00 -3.5833858077e+00 2.0688687607e+00 3.5833858077e+00 
63000 5.6137657402e+00 2.4986320978e-04 2.0688626647e+00 -3.5833752491e+00 2.0688626647e+00 3.5833752491e+00 
63100 5.6137657381e+00 2.4751258004e-04 2.0688566260e+00 -3.5833647899e+00 2.0688566260e+00 3.5833647899e+00 
63200 5.6137657361e+00 2.4518287769e-04 2.0688506442e+00 -3.5833544290e+00 2.0688506442e+00 3.5833544290e+00 
63300 5.6137657342e+00 2.4287385197e-04 2.0688447186e+00 -3.5833441656e+00 2.0688447186e+00 3.5833441656e+00 
63400 5.6137657322e+00 2.4058526198e-04 2.0688388488e+00 -3.5833339988e+00 2.0688388488e+00 3.5833339988e+00 
63500 5.6137657304e+00 2.3831687645e-04 2.0688330343e+00 -3.5833239278e+00 2.0688330343e+00 3.5833239278e+00 
63600 5.6137657285e+00 2.3606847345e-04 2.0688272746e+00 -3.5833139517e+00 2.0688272746e+00 3.5833139517e+00 
63700 5.6137657267e+00 2.3383984010e-04 2.0688215693e+00 -3.5833040697e+00 2.0688215693e+00 3.5833040697e+00 
63800 5.6137657250e+00 2.3163077234e-04 2.0688159177e+00 -3.5832942810e+00 2.0688159177e+00 3.5832942810e+00 
63900 5.6137657233e+00 2.2944107458e-04 2.0688103196e+00 -3.5832845847e+00 2.0688103196e+00 3.5832845847e+00 
64000 5.6137657216e+00 2.2727055941e-04 2.0688047743e+00 -3.5832749801e+00 2.0688047743e+00 3.5832749801e+00 
64100 5.6137657199e+00 2.2511904732e-04 2.0687992816e+00 -3.5832654663e+00 2.0687992816e+00 3.5832654663e+00 
64200 5.6137657183e+00 2.2298636632e-04 2.0687938407e+00 -3.5832560425e+00 2.0687938407e+00 3.5832560425e+00 
64300 5.6137657168e+00 2.2087235168e-04 2.0687884515e+00 -3.5832467080e+00 2.0687884515e+00 3.5832467080e+00 
64400 5.6137657152e+00 2.1877684555e-04 2.0687831133e+00 -3.5832374620e+00 2.0687831133e+00 3.5832374620e+00 
64500 5.6137657137e+00 2.1669969667e-04 2.0687778257e+00 -3.5832283037e+00 2.0687778257e+00 3.5832283037e+00 
64600 5.6137657123e+00 2.1464075998e-04 2.0687725883e+00 -3.5832192322e+00 2.0687725883e+00 3.5832192322e+00 
64700 5.6137657108e+00 2.1259989635e-04 2.0687674007e+00 -3.5832102470e+00 2.0687674007e+00 3.5832102470e+00 
64800 5.6137657094e+00 2.1057697220e-04 2.0687622623e+00 -3.5832013472e+00 2.0687622623e+00 3.5832013472e+00 
64900 5.6137657080e+00 2.0857185917e-04 2.0687571729e+00 -3.5831925320e+00 2.0687571729e+00 3.5831925320e+00 
65000 5.6137657067e+00 2.0658443381e-04 2.0687521319e+00 -3.5831838007e+00 2.0687521319e+00 3.5831838007e+00 
65100 5.6137657054e+00 2.0461457721e-04 2.0687471389e+00 -3.5831751527e+00 2.0687471389e+00 3.5831751527e+00 
65200 5.6137657041e+00 2.0266217471e-04 2.0687421936e+00 -3.5831665870e+00 2.0687421936e+00 3.5831665870e+00 
65300 5.6137657029e+00 2.0072711555e-04 2.0687372954e+00 -3.5831581031e+00 2.0687372954e+00 3.5831581031e+00 
65400 5.6137657016e+00 1.9880929257e-04 2.0687324439e+00 -3.5831497002e+00 2.0687324439e+00 3.5831497002e+00 
65500 5.6137657005e+00 1.9690860187e-04 2.0687276388e+00 -3.5831413775e+00 2.0687276388e+00 3.5831413775e+00 
65600 5.6137656993e+00 1.9502494253e-04 2.0687228797e+00 -3.5831331344e+00 2.0687228797e+00 3.5831331344e+00 
65700 5.6137656982e+00 1.9315821631e-04 2.0687181660e+00 -3.5831249701e+00 2.0687181660e+00 3.5831249701e+00 
65800 5.6137656970e+00 1.9130832733e-04 2.0687134975e+00 -3.5831168839e+00 2.0687134975e+00 3.5831168839e+00 
65900 5.6137656959e+00 1.8947518181e-04 2.0687088736e+00 -3.5831088752e+00 2.0687088736e+00 3.5831088752e+00 
66000 5.6137656949e+00 1.8765868779e-04 2.0687042941e+00 -3.5831009432e+00 2.0687042941e+00 3.5831009432e+00 
66100 5.6137656938e+00 1.8585875486e-04 2.0686997584e+00 -3.5830930872e+00 2.0686997584e+00 3.5830930872e+00 
66200 5.6137656928e+00 1.8407529388e-04 2.0686952663e+00 -3.5830853065e+00 2.0686952663e+00 3.5830853065e+00 
66300 5.6137656918e+00 1.8230821680e-04 2.0686908172e+00 -3.5830776005e+00 2.0686908172e+00 3.5830776005e+00 
66400 5.6137656909e+00 1.8055743634e-04 2.0686864108e+00 -3.5830699685e+00 2.0686864108e+00 3.5830699685e+00 
66500 5.6137656899e+00 1.7882286581e-04 2.0686820468e+00 -3.5830624097e+00 2.0686820468e+00 3.5830624097e+00 
66600 5.6137656890e+00 1.7710441890e-04 2.0686777246e+00 -3.5830549235e+00 2.0686777246e+00 3.5830549235e+00 
66700 5.6137656881e+00 1.7540200944e-04 2.0686734440e+00 -3.5830475093e+00 2.0686734440e+00 3.5830475093e+00 
66800 5.6137656872e+00 1.7371555124e-04 2.0686692045e+00 -3.5830401663e+00 2.0686692045e+00 3.5830401663e+00 
66900 5.6137656864e+00 1.7204495789e-04 2.0686650058e+00 -3.5830328939e+00 2.0686650058e+00 3.5830328939e+00 
67000 5.6137656855e+00 1.7039014261e-04 2.0686608474e+00 -3.5830256914e+00 2.0686608474e+00 3.5830256914e+00 
67100 5.6137656847e+00 1.6875101804e-04 2.0686567291e+00 -3.5830185582e+00 2.0686567291e+00 3.5830185582e+00 
67200 5.6137656839e+00 1.6712749617e-04 2.0686526503e+00 -3.5830114936e+00 2.0686526503e+00 3.5830114936e+00 
67300 5.6137656831e+00 1.6551948812e-04 2.0686486108e+00 -3.5830044969e+00 2.0686486108e+00 3.5830044969e+00 
67400 5.6137656824e+00 1.6392690408e-04 2.0686446101e+00 -3.5829975675e+00 2.0686446101e+00 3.5829975675e+00 
67500 5.6137656816e+00 1.6234965318e-04 2.0686406479e+00 -3.5829907049e+00 2.0686406479e+00 3.5829907049e+00 
67600 5.6137656809e+00 1.6078764335e-04 2.0686367239e+00 -3.5829839082e+00 2.0686367239e+00 3.5829839082e+00 
67700 5.6137656802e+00 1.5924078129e-04 2.0686328376e+00 -3.5829771769e+00 2.0686328376e+00 3.5829771769e+00 
67800 5.6137656795e+00 1.5770897235e-04 2.0686289886e+00 -3.5829705103e+00 2.0686289886e+00 3.5829705103e+00 
67900 5.6137656788e+00 1.5619212045e-04 2.0686251767e+00 -3.5829639079e+00 2.0686251767e+00 3.5829639079e+00 
68000 5.6137656782e+00 1.5469012808e-04 2.0686214014e+00 -3.5829573689e+00 2.0686214014e+00 3.5829573689e+00 
68100 5.6137656775e+00 1.5320289619e-04 2.0686176625e+00 -3.5829508929e+00 2.0686176625e+00 3.5829508929e+00 
68200 5.6137656769e+00 1.5173032418e-04 2.0686139595e+00 -3.5829444790e+00 2.0686139595e+00 3.5829444790e+00 
68300 5.6137656763e+00 1.5027230987e-04 2.0686102920e+00 -3.5829381268e+00 2.0686102920e+00 3.5829381268e+00 
68400 5.6137656757e+00 1.4882874948e-04 2.0686066598e+00 -3.5829318357e+00 2.0686066598e+00 3.5829318357e+00 
68500 5.6137656751e+00 1.4739953762e-04 2.0686030625e+00 -3.5829256049e+00 2.0686030625e+00 3.5829256049e+00 
68600 5.6137656745e+00 1.4598456730e-04 2.0685994997e+00 -3.5829194340e+00 2.0685994997e+00 3.5829194340e+00 
68700 5.6137656740e+00 1.4458372992e-04 2.0685959711e+00 -3.5829133223e+00 2.0685959711e+00 3.5829133223e+00 
68800 5.6137656734e+00 1.4319691528e-04 2.0685924764e+00 -3.5829072693e+00 2.0685924764e+00 3.5829072693e+00 
68900 5.6137656729e+00 1.4182401165e-04 2.0685890152e+00 -3.5829012743e+00 2.0685890152e+00 3.5829012743e+00 
69000 5.6137656724e+00 1.4046490574e-04 2.0685855872e+00 -3.5828953368e+00 2.0685855872e+00 3.5828953368e+00 
69100 5.6137656719e+00 1.3911948279e-04 2.0685821920e+00 -3.5828894561e+00 2.0685821920e+00 3.5828894561e+00 
69200 5.6137656714e+00 1.3778762658e-04 2.0685788293e+00 -3.5828836318e+00 2.0685788293e+00 3.5828836318e+00 
69300 5.6137656709e+00 1.3646921952e-04 2.0685754988e+00 -3.5828778632e+00 2.0685754988e+00 3.5828778632e+00 
69400 5.6137656705e+00 1.3516414264e-04 2.0685722002e+00 -3.5828721498e+00 2.0685722002e+00 3.5828721498e+00 
69500 5.6137656700e+00 1.3387227574e-04 2.0685689331e+00 -3.5828664911e+00 2.0685689331e+00 3.5828664911e+00 
69600 5.6137656696e+00 1.3259349739e-04 2.0685656972e+00 -3.5828608864e+00 2.0685656972e+00 3.5828608864e+00 
69700 5.6137656691e+00 1.3132768502e-04 2.0685624923e+00 -3.5828553352e+00 2.0685624923e+00 3.5828553352e+00 
69800 5.6137656687e+00 1.3007471502e-04 2.0685593179e+00 -3.5828498371e+00 2.0685593179e+00 3.5828498371e+00 
69900 5.6137656683e+00 1.2883446279e-04 2.0685561738e+00 -3.5828443913e+00 2.0685561738e+00 3.5828443913e+00 
70000 5.6137656679e+00 1.2760680284e-04 2.0685530597e+00 -3.5828389975e+00 2.0685530597e+00 3.5828389975e+00 
70100 5.6137656675e+00 1.2639160888e-04 2.0685499752e+00 -3.5828336551e+00 2.0685499752e+00 3.5828336551e+00 
70200 5.6137656671e+00 1.2518875388e-04 2.0685469202e+00 -3.5828283636e+00 2.0685469202e+00 3.5828283636e+00 
70300 5.6137656668e+00 1.2399811020e-04 2.0685438942e+00 -3.5828231224e+00 2.0685438942e+00 3.5828231224e+00 
70400 5.6137656664e+00 1.2281954967e-04 2.0685408969e+00 -3.5828179310e+00 2.0685408969e+00 3.5828179310e+00 
70500 5.6137656661e+00 1.2165294367e-04 2.0685379282e+00 -3.5828127890e+00 2.0685379282e+00 3.5828127890e+00 
70600 5.6137656657e+00 1.2049816324e-04 2.0685349876e+00 -3.5828076958e+00 2.0685349876e+00 3.5828076958e+00 
70700 5.6137656654e+00 1.1935507917e-04 2.0685320750e+00 -3.5828026509e+00 2.0685320750e+00 3.5828026509e+00 
70800 5.6137656651e+00 1.1822356211e-04 2.0685291900e+00 -3.5827976540e+00 2.0685291900e+00 3.5827976540e+00 
70900 5.6137656648e+00 1.1710348263e-04 2.0685263323e+00 -3.5827927043e+00 2.0685263323e+00 3.5827927043e+00 
71000 5.6137656645e+00 1.1599471137e-04 2.0685235017e+00 -3.5827878016e+00 2.0685235017e+00 3.5827878016e+00 
71100 5.6137656642e+00 1.1489711911e-04 2.0685206979e+00 -3.5827829452e+00 2.0685206979e+00 3.5827829452e+00 
71200 5.6137656639e+00 1.1381057684e-04 2.0685179206e+00 -3.5827781349e+00 2.0685179206e+00 3.5827781349e+00 
71300 5.6137656636e+00 1.1273495589e-04 2.0685151696e+00 -3.5827733700e+00 2.0685151696e+00 3.5827733700e+00 
71400 5.6137656633e+00 1.1167012801e-04 2.0685124446e+00 -3.5827686501e+00 2.0685124446e+00 3.5827686501e+00 
71500 5.6137656630e+00 1.1061596547e-04 2.0685097453e+00 -3.5827639748e+00 2.0685097453e+00 3.5827639748e+00 
71600 5.6137656628e+00 1.0957234112e-04 2.0685070715e+00 -3.5827593436e+00 2.0685070715e+00 3.5827593436e+00 
71700 5.6137656625e+00 1.0853912851e-04 2.0685044229e+00 -3.5827547561e+00 2.0685044229e+00 3.5827547561e+00 
71800 5.6137656623e+00 1.0751620194e-04 2.0685017993e+00 -3.5827502119e+00 2.0685017993e+00 3.5827502119e+00 
71900 5.6137656621e+00 1.0650343660e-04 2.0684992004e+00 -3.5827457105e+00 2.0684992004e+00 3.5827457105e+00 
72000 5.6137656618e+00 1.0550070857e-04 2.0684966260e+00 -3.5827412515e+00 2.0684966260e+00 3.5827412515e+00 
72100 5.6137656616e+00 1.0450789497e-04 2.0684940758e+00 -3.5827368344e+00 2.0684940758e+00 3.5827368344e+00 
72200 5.6137656614e+00 1.0352487396e-04 2.0684915496e+00 -3.5827324590e+00 2.0684915496e+00 3.5827324590e+00 
72300 5.6137656612e+00 1.0255152490e-04 2.0684890472e+00 -3.5827281246e+00 2.0684890472e+00 3.5827281246e+00 
72400 5.6137656610e+00 1.0158772832e-04 2.0684865683e+00 -3.5827238311e+00 2.0684865683e+00 3.5827238311e+00 
72500 5.6137656608e+00 1.0063336605e-04 2.0684841127e+00 -3.5827195778e+00 2.0684841127e+00 3.5827195778e+00 
72600 5.6137656606e+00 9.9688321255e-05 2.0684816802e+00 -3.5827153645e+00 2.0684816802e+00 3.5827153645e+00 
72700 5.6137656604e+00 9.8752478498e-05 2.0684792705e+00 -3.5827111908e+00 2.0684792705e+00 3.5827111908e+00 
72800 5.6137656602e+00 9.7825723780e-05 2.0684768834e+00 -3.5827070563e+00 2.0684768834e+00 3.5827070563e+00 
72900 5.6137656600e+00 9.6907944603e-05 2.0684745187e+00 -3.5827029605e+00 2.0684745187e+00 3.5827029605e+00 
73000 5.6137656598e+00 9.5999030003e-05 2.0684721762e+00 -3.5826989032e+00 2.0684721762e+00 3.5826989032e+00 
73100 5.6137656597e+00 9.5098870601e-05 2.0684698557e+00 -3.5826948839e+00 2.0684698557e+00 3.5826948839e+00 
73200 5.6137656595e+00 9.4207358634e-05 2.0684675569e+00 -3.5826909023e+00 2.0684675569e+00 3.5826909023e+00 
73300 5.6137656594e+00 9.3324387983e-05 2.0684652797e+00 -3.5826869581e+00 2.0684652797e+00 3.5826869581e+00 
73400 5.6137656592e+00 9.2449854219e-05 2.0684630238e+00 -3.5826830508e+00 2.0684630238e+00 3.5826830508e+00 
73500 5.6137656591e+00 9.1583654609e-05 2.0684607890e+00 -3.5826791801e+00 2.0684607890e+00 3.5826791801e+00 
73600 5.6137656589e+00 9.0725688155e-05 2.0684585752e+00 -3.5826753456e+00 2.0684585752e+00 3.5826753456e+00 
73700 5.6137656588e+00 8.9875855602e-05 2.0684563822e+00 -3.5826715471e+00 2.0684563822e+00 3.5826715471e+00 
73800 5.6137656586e+00 8.9034059455e-05 2.0684542096e+00 -3.5826677842e+00 2.0684542096e+00 3.5826677842e+00 
73900 5.6137656585e+00 8.8200203991e-05 2.0684520574e+00 -3.5826640565e+00 2.0684520574e+00 3.5826640565e+00 
74000 5.6137656584e+00 8.7374195266e-05 2.0684499254e+00 -3.5826603637e+00 2.0684499254e+00 3.5826603637e+00 
74100 5.6137656583e+00 8.6555941118e-05 2.0684478133e+00 -3.5826567055e+00 2.0684478133e+00 3.5826567055e+00 
74200 5.6137656581e+00 8.5745351171e-05 2.0684457210e+00 -3.5826530815e+00 2.0684457210e+00 3.5826530815e+00 
74300 5.6137656580e+00 8.4942336826e-05 2.0684436483e+00 -3.5826494915e+00 2.0684436483e+00 3.5826494915e+00 
74400 5.6137656579e+00 8.4146811267e-05 2.0684415950e+00 -3.5826459351e+00 2.0684415950e+00 3.5826459351e+00 
74500 5.6137656578e+00 8.3358689439e-05 2.0684395610e+00 -3.5826424120e+00 2.0684395610e+00 3.5826424120e+00 
74600 5.6137656577e+00 8.2577888041e-05 2.0684375460e+00 -3.5826389219e+00 2.0684375460e+00 3.5826389219e+00 
74700 5.6137656576e+00 8.1804325518e-05 2.0684355498e+00 -3.5826354645e+00 2.0684355498e+00 3.5826354645e+00 
74800 5.6137656575e+00 8.1037922035e-05 2.0684335724e+00 -3.5826320394e+00 2.0684335724e+00 3.5826320394e+00 
74900 5.6137656574e+00 8.0278599464e-05 2.0684316135e+00 -3.5826286465e+00 2.0684316135e+00 3.5826286465e+00 
75000 5.6137656573e+00 7.9526281354e-05 2.0684296729e+00 -3.5826252853e+00 2.0684296729e+00 3.5826252853e+00 
75100 5.6137656572e+00 7.8780892914e-05 2.0684277505e+00 -3.5826219557e+00 2.0684277505e+00 3.5826219557e+00 
75200 5.6137656572e+00 7.8042360983e-05 2.0684258461e+00 -3.5826186572e+00 2.0684258461e+00 3.5826186572e+00 
75300 5.6137656571e+00 7.7310614001e-05 2.0684239596e+00 -3.5826153897e+00 2.0684239596e+00 3.5826153897e+00 
75400 5.6137656570e+00 7.6585581982e-05 2.0684220908e+00 -3.5826121528e+00 2.0684220908e+00 3.5826121528e+00 
75500 5.6137656569e+00 7.5867196472e-05 2.0684202395e+00 -3.5826089462e+00 2.0684202395e+00 3.5826089462e+00 
75600 5.6137656569e+00 7.5155390531e-05 2.0684184056e+00 -3.5826057697e+00 2.0684184056e+00 3.5826057697e+00 
75700 5.6137656568e+00 7.4450098681e-05 2.0684165888e+00 -3.5826026231e+00 2.0684165888e+00 3.5826026231e+00 
75800 5.6137656567e+00 7.3751256878e-05 2.0684147891e+00 -3.5825995059e+00 2.0684147891e+00 3.5825995059e+00 
75900 5.6137656567e+00 7.3058802475e-05 2.0684130063e+00 -3.5825964180e+00 2.0684130063e+00 3.5825964180e+00 
76000 5.6137656566e+00 7.2372674175e-05 2.0684112403e+00 -3.5825933591e+00 2.0684112403e+00 3.5825933591e+00 
76100 5.6137656565e+00 7.1692812003e-05 2.0684094908e+00 -3.5825903289e+00 2.0684094908e+00 3.5825903289e+00 
76200 5.6137656565e+00 7.1019157251e-05 2.0684077578e+00 -3.5825873272e+00 2.0684077578e+00 3.5825873272e+00 
76300 5.6137656564e+00 7.0351652450e-05 2.0684060410e+00 -3.5825843537e+00 2.0684060410e+00 3.5825843537e+00 
76400 5.6137656565e+00 7.0441108749e-05 2.0684060410e+00 -3.5825843537e+00 2.0684060410e+00 3.5825843537e+00 
76500 5.6137656566e+00 7.0534385095e-05 2.0684060410e+00 -3.5825843537e+00 2.0684060410e+00 3.5825843537e+00 
76600 5.6137656566e+00 7.0631573083e-05 2.0684060410e+00 -3.5825843537e+00 2.0684060410e+00 3.5825843537e+00 
76700 5.6137656567e+00 7.0732767587e-05 2.0684060410e+00 -3.5825843537e+00 2.0684060410e+00 3.5825843537e+00 
76800 5.6137656566e+00 7.0083133751e-05 2.0684043312e+00 -3.5825813922e+00 2.0684043312e+00 3.5825813922e+00 
76900 5.6137656567e+00 7.0187758877e-05 2.0684043312e+00 -3.5825813922e+00 2.0684043312e+00 3.5825813922e+00 
77000 5.6137656568e+00 7.0296540665e-05 2.0684043312e+00 -3.5825813922e+00 2.0684043312e+00 3.5825813922e+00 
77100 5.6137656568e+00 7.0409558314e-05 2.0684043312e+00 -3.5825813922e+00 2.0684043312e+00 3.5825813922e+00 
77200 5.6137656569e+00 7.0526885989e-05 2.0684043312e+00 -3.5825813922e+00 2.0684043312e+00 3.5825813922e+00 
77300 5.6137656570e+00 7.0648591095e-05 2.0684043312e+00 -3.5825813922e+00 2.0684043312e+00 3.5825813922e+00 
77400 5.6137656570e+00 7.0774732807e-05 2.0684043312e+00 -3.5825813922e+00 2.0684043312e+00 3.5825813922e+00 
77500 5.6137656570e+00 7.0149988100e-05 2.0684026203e+00 -3.5825784289e+00 2.0684026203e+00 3.5825784289e+00 
77600 5.6137656570e+00 7.0280272143e-05 2.0684026203e+00 -3.5825784289e+00 2.0684026203e+00 3.5825784289e+00 
77700 5.6137656571e+00 7.0414982015e-05 2.0684026203e+00 -3.5825784289e+00 2.0684026203e+00 3.5825784289e+00 
77800 5.6137656572e+00 7.0554129863e-05 2.0684026203e+00 -3.5825784289e+00 2.0684026203e+00 3.5825784289e+00 
77900 5.6137656572e+00 7.0697718060e-05 2.0684026203e+00 -3.5825784289e+00 2.0684026203e+00 3.5825784289e+00 
78000 5.6137656573e+00 7.0845738538e-05 2.0684026203e+00 -3.5825784289e+00 2.0684026203e+00 3.5825784289e+00 
78100 5.6137656573e+00 7.0242044946e-05 2.0684009077e+00 -3.5825754626e+00 2.0684009077e+00 3.5825754626e+00 
78200 5.6137656573e+00 7.0393986989e-05 2.0684009077e+00 -3.5825754626e+00 2.0684009077e+00 3.5825754626e+00 
78300 5.6137656574e+00 7.0550142359e-05 2.0684009077e+00 -3.5825754626e+00 2.0684009077e+00 3.5825754626e+00 
78400 5.6137656575e+00 7.0710453755e-05 2.0684009077e+00 -3.5825754626e+00 2.0684009077e+00 3.5825754626e+00 
78500 5.6137656575e+00 7.0874854946e-05 2.0684009077e+00 -3.5825754626e+00 2.0684009077e+00 3.5825754626e+00 
78600 5.6137656575e+00 7.0286834129e-05 2.0683991945e+00 -3.5825724952e+00 2.0683991945e+00 3.5825724952e+00 
78700 5.6137656576e+00 7.0454302756e-05 2.0683991945e+00 -3.5825724952e+00 2.0683991945e+00 3.5825724952e+00 
78800 5.6137656576e+00 7.0625479524e-05 2.0683991945e+00 -3.5825724952e+00 2.0683991945e+00 3.5825724952e+00 
78900 5.6137656577e+00 7.0800257627e-05 2.0683991945e+00 -3.5825724952e+00 2.0683991945e+00 3.5825724952e+00 
79000 5.6137656577e+00 7.0222884246e-05 2.0683974830e+00 -3.5825695308e+00 2.0683974830e+00 3.5825695308e+00 
79100 5.6137656577e+00 7.0399647803e-05 2.0683974830e+00 -3.5825695308e+00 2.0683974830e+00 3.5825695308e+00 
79200 5.6137656578e+00 7.0579526973e-05 2.0683974830e+00 -3.5825695308e+00 2.0683974830e+00 3.5825695308e+00 
79300 5.6137656579e+00 7.0762386130e-05 2.0683974830e+00 -3.5825695308e+00 2.0683974830e+00 3.5825695308e+00 
79400 5.6137656578e+00 7.0192851000e-05 2.0683957724e+00 -3.5825665680e+00 2.0683957724e+00 3.5825665680e+00 
79500 5.6137656579e+00 7.0376380838e-05 2.0683957724e+00 -3.5825665680e+00 2.0683957724e+00 3.5825665680e+00 
79600 5.6137656580e+00 7.0562336294e-05 2.0683957724e+00 -3.5825665680e+00 2.0683957724e+00 3.5825665680e+00 
79700 5.6137656580e+00 7.0750564675e-05 2.0683957724e+00 -3.5825665680e+00 2.0683957724e+00 3.5825665680e+00 
79800 5.6137656580e+00 7.0185803597e-05 2.0683940622e+00 -3.5825636057e+00 2.0683940622e+00 3.5825636057e+00 
79900 5.6137656581e+00 7.0373249440e-05 2.0683940622e+00 -3.5825636057e+00 2.0683940622e+00 3.5825636057e+00 
80000 5.6137656581e+00 7.0562379588e-05 2.0683940622e+00 -3.5825636057e+00 2.0683940622e+00 3.5825636057e+00 
80100 5.6137656582e+00 7.0753035375e-05 2.0683940622e+00 -3.5825636057e+00 2.0683940622e+00 3.5825636057e+00 
80200 5.6137656582e+00 7.0189924408e-05 2.0683923518e+00 -3.5825606433e+00 2.0683923518e+00 3.5825606433e+00 
80300 5.6137656582e+00 7.0378295311e-05 2.0683923518e+00 -3.5825606433e+00 2.0683923518e+00 3.5825606433e+00 
80400 5.6137656583e+00 7.0567600679e-05 2.0683923518e+00 -3.5825606433e+00 2.0683923518e+00 3.5825606433e+00 
80500 5.6137656584e+00 7.0757685831e-05 2.0683923518e+00 -3.5825606433e+00 2.0683923518e+00 3.5825606433e+00 
80600 5.6137656583e+00 7.0193214528e-05 2.0683906414e+00 -3.5825576807e+00 2.0683906414e+00 3.5825576807e+00 
80700 5.6137656584e+00 7.0379543659e-05 2.0683906414e+00 -3.5825576807e+00 2.0683906414e+00 3.5825576807e+00 
80800 5.6137656585e+00 7.0566086584e-05 2.0683906414e+00 -3.5825576807e+00 2.0683906414e+00 3.5825576807e+00 
80900 5.6137656585e+00 7.0752701089e-05 2.0683906414e+00 -3.5825576807e+00 2.0683906414e+00 3.5825576807e+00 
81000 5.6137656585e+00 7.0184117844e-05 2.0683889310e+00 -3.5825547184e+00 2.0683889310e+00 3.5825547184e+00 
81100 5.6137656585e+00 7.0365604955e-05 2.0683889310e+00 -3.5825547184e+00 2.0683889310e+00 3.5825547184e+00 
81200 5.6137656586e+00 7.0546645790e-05 2.0683889310e+00 -3.5825547184e+00 2.0683889310e+00 3.5825547184e+00 
81300 5.6137656587e+00 7.0727117386e-05 2.0683889310e+00 -3.5825547184e+00 2.0683889310e+00 3.5825547184e+00 
81400 5.6137656586e+00 7.0152043395e-05 2.0683872213e+00 -3.5825517571e+00 2.0683872213e+00 3.5825517571e+00 
81500 5.6137656587e+00 7.0326170971e-05 2.0683872213e+00 -3.5825517571e+00 2.0683872213e+00 3.5825517571e+00 
81600 5.6137656587e+00 7.0499277285e-05 2.0683872213e+00 -3.5825517571e+00 2.0683872213e+00 3.5825517571e+00 
81700 5.6137656588e+00 7.0671263603e-05 2.0683872213e+00 -3.5825517571e+00 2.0683872213e+00 3.5825517571e+00 
81800 5.6137656589e+00 7.0842039862e-05 2.0683872213e+00 -3.5825517571e+00 2.0683872213e+00 3.5825517571e+00 
81900 5.6137656588e+00 7.0255435920e-05 2.0683855088e+00 -3.5825487909e+00 2.0683855088e+00 3.5825487909e+00 
82000 5.6137656589e+00 7.0418678489e-05 2.0683855088e+00 -3.5825487909e+00 2.0683855088e+00 3.5825487909e+00 
82100 5.6137656590e+00 7.0580359158e-05 2.0683855088e+00 -3.5825487909e+00 2.0683855088e+00 3.5825487909e+00 
82200 5.6137656590e+00 7.0740413013e-05 2.0683855088e+00 -3.5825487909e+00 2.0683855088e+00 3.5825487909e+00 
82300 5.6137656590e+00 7.0143779560e-05 2.0683837988e+00 -3.5825458291e+00 2.0683837988e+00 3.5825458291e+00 
82400 5.6137656590e+00 7.0295551479e-05 2.0683837988e+00 -3.5825458291e+00 2.0683837988e+00 3.5825458291e+00 
82500 5.6137656591e+00 7.0445424319e-05 2.0683837988e+00 -3.5825458291e+00 2.0683837988e+00 3.5825458291e+00 
82600 5.6137656591e+00 7.0593360547e-05 2.0683837988e+00 -3.5825458291e+00 2.0683837988e+00 3.5825458291e+00 
82700 5.6137656592e+00 7.0739331647e-05 2.0683837988e+00 -3.5825458291e+00 2.0683837988e+00 3.5825458291e+00 
82800 5.6137656591e+00 7.0128323916e-05 2.0683820888e+00 -3.5825428672e+00 2.0683820888e+00 3.5825428672e+00 
82900 5.6137656592e+00 7.0265443404e-05 2.0683820888e+00 -3.5825428672e+00 2.0683820888e+00 3.5825428672e+00 
83000 5.6137656593e+00 7.0400431151e-05 2.0683820888e+00 -3.5825428672e+00 2.0683820888e+00 3.5825428672e+00 
83100 5.6137656593e+00 7.0533283505e-05 2.0683820888e+00 -3.5825428672e+00 2.0683820888e+00 3.5825428672e+00 
83200 5.6137656594e+00 7.0664005095e-05 2.0683820888e+00 -3.5825428672e+00 2.0683820888e+00 3.5825428672e+00 
83300 5.6137656594e+00 7.0792607966e-05 2.0683820888e+00 -3.5825428672e+00 2.0683820888e+00 3.5825428672e+00 
83400 5.6137656594e+00 7.0163548482e-05 2.0683803775e+00 -3.5825399032e+00 2.0683803775e+00 3.5825399032e+00 
83500 5.6137656594e+00 7.0283104208e-05 2.0683803775e+00 -3.5825399032e+00 2.0683803775e+00 3.5825399032e+00 
83600 5.6137656595e+00 7.0400486732e-05 2.0683803775e+00 -3.5825399032e+00 2.0683803775e+00 3.5825399032e+00 
83700 5.6137656595e+00 7.0515726699e-05 2.0683803775e+00 -3.5825399032e+00 2.0683803775e+00 3.5825399032e+00 
83800 5.6137656596e+00 7.0628861507e-05 2.0683803775e+00 -3.5825399032e+00 2.0683803775e+00 3.5825399032e+00 
83900 5.6137656597e+00 7.0739934438e-05 2.0683803775e+00 -3.5825399032e+00 2.0683803775e+00 3.5825399032e+00 
84000 5.6137656596e+00 7.0093993448e-05 2.0683786674e+00 -3.5825369413e+00 2.0683786674e+00 3.5825369413e+00 
84100 5.6137656597e+00 7.0196224200e-05 2.0683786674e+00 -3.5825369413e+00 2.0683786674e+00 3.5825369413e+00 
84200 5.6137656597e+00 7.0296423352e-05 2.0683786674e+00 -3.5825369413e+00 2.0683786674e+00 3.5825369413e+00 
84300 5.6137656598e+00 7.0394646777e-05 2.0683786674e+00 -3.5825369413e+00 2.0683786674e+00 3.5825369413e+00 
84400 5.6137656598e+00 7.0490955610e-05 2.0683786674e+00 -3.5825369413e+00 2.0683786674e+00 3.5825369413e+00 
84500 5.6137656599e+00 7.0585415407e-05 2.0683786674e+00 -3.5825369413e+00 2.0683786674e+00 3.5825369413e+00 
84600 5.6137656599e+00 7.0678095354e-05 2.0683786674e+00 -3.5825369413e+00 2.0683786674e+00 3.5825369413e+00 
84700 5.6137656600e+00 7.0769067546e-05 2.0683786674e+00 -3.5825369413e+00 2.0683786674e+00 3.5825369413e+00 
84800 5.6137656599e+00 7.0103095263e-05 2.0683769567e+00 -3.5825339782e+00 2.0683769567e+00 3.5825339782e+00 
84900 5.6137656600e+00 7.0186006642e-05 2.0683769567e+00 -3.5825339782e+00 2.0683769567e+00 3.5825339782e+00 
85000 5.6137656600e+00 7.0267310321e-05 2.0683769567e+00 -3.5825339782e+00 2.0683769567e+00 3.5825339782e+00 
85100 5.6137656601e+00 7.0347080304e-05 2.0683769567e+00 -3.5825339782e+00 2.0683769567e+00 3.5825339782e+00 
85200 5.6137656601e+00 7.0425393472e-05 2.0683769567e+00 -3.5825339782e+00 2.0683769567e+00 3.5825339782e+00 
85300 5.6137656602e+00 7.0502328841e-05 2.0683769567e+00 -3.5825339782e+00 2.0683769567e+00 3.5825339782e+00 
85400 5.6137656602e+00 7.0577966885e-05 2.0683769567e+00 -3.5825339782e+00 2.0683769567e+00 3.5825339782e+00 
85500 5.6137656602e+00 7.0652388907e-05 2.0683769567e+00 -3.5825339782e+00 2.0683769567e+00 3.5825339782e+00 
85600 5.6137656603e+00 7.0725676476e-05 2.0683769567e+00 -3.5825339782e+00 2.0683769567e+00 3.5825339782e+00 
85700 5.6137656602e+00 7.0043063470e-05 2.0683752470e+00 -3.5825310169e+00 2.0683752470e+00 3.5825310169e+00 
85800 5.6137656603e+00 7.0109458316e-05 2.0683752470e+00 -3.5825310169e+00 2.0683752470e+00 3.5825310169e+00 
85900 5.6137656603e+00 7.0174832813e-05 2.0683752470e+00 -3.5825310169e+00 2.0683752470e+00 3.5825310169e+00 
86000 5.6137656604e+00 7.0239261265e-05 2.0683752470e+00 -3.5825310169e+00 2.0683752470e+00 3.5825310169e+00 
86100 5.6137656604e+00 7.0302818894e-05 2.0683752470e+00 -3.5825310169e+00 2.0683752470e+00 3.5825310169e+00 
86200 5.6137656605e+00 7.0365581218e-05 2.0683752470e+00 -3.5825310169e+00 2.0683752470e+00 3.5825310169e+00 
86300 5.6137656605e+00 7.0427623497e-05 2.0683752470e+00 -3.5825310169e+00 2.0683752470e+00 3.5825310169e+00 
86400 5.6137656605e+00 7.0489020226e-05 2.0683752470e+00 -3.5825310169e+00 2.0683752470e+00 3.5825310169e+00 
86500 5.6137656606e+00 7.0549844676e-05 2.0683752470e+00 -3.5825310169e+00 2.0683752470e+00 3.5825310169e+00 
86600 5.6137656606e+00 7.0610168493e-05 2.0683752470e+00 -3.5825310169e+00 2.0683752470e+00 3.5825310169e+00 
86700 5.6137656607e+00 7.0670061334e-05 2.0683752470e+00 -3.5825310169e+00 2.0683752470e+00 3.5825310169e+00 
86800 5.6137656607e+00 7.0729590540e-05 2.0683752470e+00 -3.5825310169e+00 2.0683752470e+00 3.5825310169e+00 
86900 5.6137656606e+00 7.0033932836e-05 2.0683735372e+00 -3.5825280555e+00 2.0683735372e+00 3.5825280555e+00 
87000 5.6137656607e+00 7.0088058834e-05 2.0683735372e+00 -3.5825280555e+00 2.0683735372e+00 3.5825280555e+00 
87100 5.6137656607e+00 7.0141879493e-05 2.0683735372e+00 -3.5825280555e+00 2.0683735372e+00 3.5825280555e+00 
87200 5.6137656608e+00 7.0195446854e-05 2.0683735372e+00 -3.5825280555e+00 2.0683735372e+00 3.5825280555e+00 
87300 5.6137656608e+00 7.0248812371e-05 2.0683735372e+00 -3.5825280555e+00 2.0683735372e+00 3.5825280555e+00 
87400 5.6137656609e+00 7.0302026491e-05 2.0683735372e+00 -3.5825280555e+00 2.0683735372e+00 3.5825280555e+00 
87500 5.6137656609e+00 7.0355138264e-05 2.0683735372e+00 -3.5825280555e+00 2.0683735372e+00 3.5825280555e+00 
87600 5.6137656609e+00 7.0408195009e-05 2.0683735372e+00 -3.5825280555e+00 2.0683735372e+00 3.5825280555e+00 
87700 5.6137656610e+00 7.0461242021e-05 2.0683735372e+00 -3.5825280555e+00 2.0683735372e+00 3.5825280555e+00 
87800 5.6137656610e+00 7.0514322315e-05 2.0683735372e+00 -3.5825280555e+00 2.0683735372e+00 3.5825280555e+00 
87900 5.6137656610e+00 7.0567476414e-05 2.0683735372e+00 -3.5825280555e+00 2.0683735372e+00 3.5825280555e+00 
88000 5.6137656611e+00 7.0620742160e-05 2.0683735372e+00 -3.5825280555e+00 2.0683735372e+00 3.5825280555e+00 
88100 5.6137656611e+00 7.0674154569e-05 2.0683735372e+00 -3.5825280555e+00 2.0683735372e+00 3.5825280555e+00 
88200 5.6137656612e+00 7.0727745703e-05 2.0683735372e+00 -3.5825280555e+00 2.0683735372e+00 3.5825280555e+00 
88300 5.6137656611e+00 7.0026677401e-05 2.0683718275e+00 -3.5825250941e+00 2.0683718275e+00 3.5825250941e+00 
88400 5.6137656611e+00 7.0075842619e-05 2.0683718275e+00 -3.5825250941e+00 2.0683718275e+00 3.5825250941e+00 
88500 5.6137656612e+00 7.0125137005e-05 2.0683718275e+00 -3.5825250941e+00 2.0683718275e+00 3.5825250941e+00 
88600 5.6137656612e+00 7.0174576520e-05 2.0683718275e+00 -3.5825250941e+00 2.0683718275e+00 3.5825250941e+00 
88700 5.6137656612e+00 7.0186465342e-05 2.0683718275e+00 -3.5825250941e+00 2.0683718275e+00 3.5825250941e+00 
88700 5.6137656612e+00 7.0186465342e-05 2.0683718275e+00 -3.5825250941e+00 2.0683718275e+00 3.5825250941e+00 
