# step Hamiltonian StressXX CellTensor1 CellTensor2 CellTensor3 CellTensor4 
0 5.0796877220e+00 5.9643348894e-02 1.6387017056e+00 -2.8383146126e+00 1.6387017056e+00 2.8383146126e+00 
100 5.0809044359e+00 5.8635990551e-02 1.6387017056e+00 -2.8383146126e+00 1.6387017056e+00 2.8383146126e+00 
200 5.0816286648e+00 5.5704842251e-02 1.6369129326e+00 -2.8352163668e+00 1.6369129326e+00 2.8352163668e+00 
300 5.0820210221e+00 5.2828635978e-02 1.6352117064e+00 -2.8322697566e+00 1.6352117064e+00 2.8322697566e+00 
400 5.0821052151e+00 5.0013949940e-02 1.6335966272e+00 -2.8294723573e+00 1.6335966272e+00 2.8294723573e+00 
500 5.0819062338e+00 4.7267307144e-02 1.6320660740e+00 -2.8268213614e+00 1.6320660740e+00 2.8268213614e+00 
600 5.0814498141e+00 4.4595045351e-02 1.6306182064e+00 -2.8243135812e+00 1.6306182064e+00 2.8243135812e+00 
700 5.0807619711e+00 4.2003206376e-02 1.6292509701e+00 -2.8219454585e+00 1.6292509701e+00 2.8219454585e+00 
800 5.0798685992e+00 3.9497444320e-02 1.6279621060e+00 -2.8197130803e+00 1.6279621060e+00 2.8197130803e+00 
900 5.0787951334e+00 3.7082951856e-02 1.6267491620e+00 -2.8176121998e+00 1.6267491620e+00 2.8176121998e+00 
1000 5.0775662687e+00 3.4764403430e-02 1.6256095082e+00 -2.8156382614e+00 1.6256095082e+00 2.8156382614e+00 
1100 5.0762057313e+00 3.2545913955e-02 1.6245403526e+00 -2.8137864296e+00 1.6245403526e+00 2.8137864296e+00 
1200 5.0747360980e+00 3.0431011483e-02 1.6235387595e+00 -2.8120516195e+00 1.6235387595e+00 2.8120516195e+00 
1300 5.0731786572e+00 2.8422622248e-02 1.6226016682e+00 -2.8104285297e+00 1.6226016682e+00 2.8104285297e+00 
1400 5.0715533091e+00 2.6523066481e-02 1.6217259122e+00 -2.8089116758e+00 1.6217259122e+00 2.8089116758e+00 
1500 5.0698784980e+00 2.4734063426e-02 1.6209082390e+00 -2.8074954243e+00 1.6209082390e+00 2.8074954243e+00 
1600 5.0681711747e+00 2.3056744073e-02 1.6201453296e+00 -2.8061740265e+00 1.6201453296e+00 2.8061740265e+00 
1700 5.0664467830e+00 2.1491670225e-02 1.6194338176e+00 -2.8049416516e+00 1.6194338176e+00 2.8049416516e+00 
1800 5.0647192681e+00 2.0038858629e-02 1.6187703079e+00 -2.8037924190e+00 1.6187703079e+00 2.8037924190e+00 
1900 5.0630011026e+00 1.8697809044e-02 1.6181513942e+00 -2.8027204291e+00 1.6181513942e+00 2.8027204291e+00 
2000 5.0613033273e+00 1.7467535229e-02 1.6175736765e+00 -2.8017197926e+00 1.6175736765e+00 2.8017197926e+00 
2100 5.0596356035e+00 1.6346597996e-02 1.6170337764e+00 -2.8007846582e+00 1.6170337764e+00 2.8007846582e+00 
2200 5.0580062755e+00 1.5333139554e-02 1.6165283526e+00 -2.7999092386e+00 1.6165283526e+00 2.7999092386e+00 
2300 5.0564224397e+00 1.4424918537e-02 1.6160541144e+00 -2.7990878339e+00 1.6160541144e+00 2.7990878339e+00 
2400 5.0548900194e+00 1.3619345178e-02 1.6156078344e+00 -2.7983148542e+00 1.6156078344e+00 2.7983148542e+00 
2500 5.0534138425e+00 1.2913516199e-02 1.6151863598e+00 -2.7975848388e+00 1.6151863598e+00 2.7975848388e+00 
2600 5.0519977220e+00 1.2304249076e-02 1.6147866231e+00 -2.7968924747e+00 1.6147866231e+00 2.7968924747e+00 
2700 5.0506445371e+00 1.1788115422e-02 1.6144056513e+00 -2.7962326120e+00 1.6144056513e+00 2.7962326120e+00 
2800 5.0493563137e+00 1.1361473254e-02 1.6140405735e+00 -2.7956002789e+00 1.6140405735e+00 2.7956002789e+00 
2900 5.0481343047e+00 1.1020498025e-02 1.6136886289e+00 -2.7949906928e+00 1.6136886289e+00 2.7949906928e+00 
3000 5.0469790670e+00 1.0761212295e-02 1.6133471717e+00 -2.7943992717e+00 1.6133471717e+00 2.7943992717e+00 
3100 5.0458905378e+00 1.0579513971e-02 1.6130136774e+00 -2.7938216426e+00 1.6130136774e+00 2.7938216426e+00 
3200 5.0448681061e+00 1.0471203084e-02 1.6126857461e+00 -2.7932536489e+00 1.6126857461e+00 2.7932536489e+00 
3300 5.0439106826e+00 1.0432007084e-02 1.6123611059e+00 -2.7926913556e+00 1.6123611059e+00 2.7926913556e+00 
3400 5.0430167644e+00 1.0457604644e-02 1.6120376158e+00 -2.7921310542e+00 1.6120376158e+00 2.7921310542e+00 
3500 5.0421844974e+00 1.0543647997e-02 1.6117132668e+00 -2.7915692654e+00 1.6117132668e+00 2.7915692654e+00 
3600 5.0414117333e+00 1.0685783825e-02 1.6113861835e+00 -2.7910027404e+00 1.6113861835e+00 2.7910027404e+00 
3700 5.0406960835e+00 1.0879672729e-02 1.6110546237e+00 -2.7904284620e+00 1.6110546237e+00 2.7904284620e+00 
3800 5.0400349688e+00 1.1121007311e-02 1.6107169786e+00 -2.7898436436e+00 1.6107169786e+00 2.7898436436e+00 
3900 5.0394256647e+00 1.1405528916e-02 1.6103717718e+00 -2.7892457279e+00 1.6103717718e+00 2.7892457279e+00 
4000 5.0388653430e+00 1.1729043052e-02 1.6100176576e+00 -2.7886323841e+00 1.6100176576e+00 2.7886323841e+00 
4100 5.0383511093e+00 1.2087433543e-02 1.6096534193e+00 -2.7880015049e+00 1.6096534193e+00 2.7880015049e+00 
4200 5.0378800372e+00 1.2476675441e-02 1.6092779670e+00 -2.7873512023e+00 1.6092779670e+00 2.7873512023e+00 
4300 5.0374491978e+00 1.2892846739e-02 1.6088903343e+00 -2.7866798028e+00 1.6088903343e+00 2.7866798028e+00 
4400 5.0370556873e+00 1.3332138914e-02 1.6084896758e+00 -2.7859858420e+00 1.6084896758e+00 2.7859858420e+00 
4500 5.0366966492e+00 1.3790866343e-02 1.6080752633e+00 -2.7852680584e+00 1.6080752633e+00 2.7852680584e+00 
4600 5.0363692955e+00 1.4265474613e-02 1.6076464819e+00 -2.7845253873e+00 1.6076464819e+00 2.7845253873e+00 
4700 5.0360709232e+00 1.4752547777e-02 1.6072028266e+00 -2.7837569537e+00 1.6072028266e+00 2.7837569537e+00 
4800 5.0357989288e+00 1.5248814570e-02 1.6067438974e+00 -2.7829620651e+00 1.6067438974e+00 2.7829620651e+00 
4900 5.0355508203e+00 1.5751153632e-02 1.6062693954e+00 -2.7821402035e+00 1.6062693954e+00 2.7821402035e+00 
5000 5.0353242262e+00 1.6256597765e-02 1.6057791180e+00 -2.7812910181e+00 1.6057791180e+00 2.7812910181e+00 
5100 5.0351169031e+00 1.6762337271e-02 1.6052729543e+00 -2.7804143168e+00 1.6052729543e+00 2.7804143168e+00 
5200 5.0349267403e+00 1.7265722391e-02 1.6047508802e+00 -2.7795100580e+00 1.6047508802e+00 2.7795100580e+00 
5300 5.0347517633e+00 1.7764264894e-02 1.6042129538e+00 -2.7785783421e+00 1.6042129538e+00 2.7785783421e+00 
5400 5.0345901358e+00 1.8255638862e-02 1.6036593102e+00 -2.7776194034e+00 1.6036593102e+00 2.7776194034e+00 
5500 5.0344401589e+00 1.8737680692e-02 1.6030901570e+00 -2.7766336010e+00 1.6030901570e+00 2.7766336010e+00 
5600 5.0343002709e+00 1.9208388382e-02 1.6025057687e+00 -2.7756214108e+00 1.6025057687e+00 2.7756214108e+00 
5700 5.0341690444e+00 1.9665920120e-02 1.6019064825e+00 -2.7745834167e+00 1.6019064825e+00 2.7745834167e+00 
5800 5.0340451830e+00 2.0108592252e-02 1.6012926932e+00 -2.7735203023e+00 1.6012926932e+00 2.7735203023e+00 
5900 5.0339275175e+00 2.0534876644e-02 1.6006648480e+00 -2.7724328426e+00 1.6006648480e+00 2.7724328426e+00 
6000 5.0338150006e+00 2.0943397511e-02 1.6000234425e+00 -2.7713218957e+00 1.6000234425e+00 2.7713218957e+00 
6100 5.0337067019e+00 2.1332927747e-02 1.5993690156e+00 -2.7701883950e+00 1.5993690156e+00 2.7701883950e+00 
6200 5.0336018014e+00 2.1702384806e-02 1.5987021449e+00 -2.7690333412e+00 1.5987021449e+00 2.7690333412e+00 
6300 5.0334995838e+00 2.2050826197e-02 1.5980234429e+00 -2.7678577947e+00 1.5980234429e+00 2.7678577947e+00 
6400 5.0333994320e+00 2.2377444617e-02 1.5973335519e+00 -2.7666628685e+00 1.5973335519e+00 2.7666628685e+00 
6500 5.0333008198e+00 2.2681562791e-02 1.5966331406e+00 -2.7654497206e+00 1.5966331406e+00 2.7654497206e+00 
6600 5.0332033061e+00 2.2962628054e-02 1.5959228998e+00 -2.7642195475e+00 1.5959228998e+00 2.7642195475e+00 
6700 5.0331065274e+00 2.3220206729e-02 1.5952035386e+00 -2.7629735772e+00 1.5952035386e+00 2.7629735772e+00 
6800 5.0330101917e+00 2.3453978335e-02 1.5944757806e+00 -2.7617130635e+00 1.5944757806e+00 2.7617130635e+00 
6900 5.0329140716e+00 2.3663729672e-02 1.5937403611e+00 -2.7604392794e+00 1.5937403611e+00 2.7604392794e+00 
7000 5.0328179982e+00 2.3849348828e-02 1.5929980227e+00 -2.7591535117e+00 1.5929980227e+00 2.7591535117e+00 
7100 5.0327218548e+00 2.4010819134e-02 1.5922495133e+00 -2.7578570554e+00 1.5922495133e+00 2.7578570554e+00 
7200 5.0326255710e+00 2.4148213116e-02 1.5914955824e+00 -2.7565512087e+00 1.5914955824e+00 2.7565512087e+00 
7300 5.0325291173e+00 2.4261686463e-02 1.5907369785e+00 -2.7552372683e+00 1.5907369785e+00 2.7552372683e+00 
7400 5.0324324995e+00 2.4351472055e-02 1.5899744468e+00 -2.7539165246e+00 1.5899744468e+00 2.7539165246e+00 
7500 5.0323357538e+00 2.4417874063e-02 1.5892087265e+00 -2.7525902581e+00 1.5892087265e+00 2.7525902581e+00 
7600 5.0322389422e+00 2.4461262161e-02 1.5884405484e+00 -2.7512597346e+00 1.5884405484e+00 2.7512597346e+00 
7700 5.0321421480e+00 2.4482065865e-02 1.5876706334e+00 -2.7499262027e+00 1.5876706334e+00 2.7499262027e+00 
7800 5.0320454717e+00 2.4480769015e-02 1.5868996900e+00 -2.7485908896e+00 1.5868996900e+00 2.7485908896e+00 
7900 5.0319490276e+00 2.4457904424e-02 1.5861284130e+00 -2.7472549986e+00 1.5861284130e+00 2.7472549986e+00 
8000 5.0318529401e+00 2.4414048704e-02 1.5853574816e+00 -2.7459197064e+00 1.5853574816e+00 2.7459197064e+00 
8100 5.0317573409e+00 2.4349817286e-02 1.5845875584e+00 -2.7445861602e+00 1.5845875584e+00 2.7445861602e+00 
8200 5.0316623660e+00 2.4265859635e-02 1.5838192875e+00 -2.7432554760e+00 1.5838192875e+00 2.7432554760e+00 
8300 5.0315681533e+00 2.4162854679e-02 1.5830532941e+00 -2.7419287365e+00 1.5830532941e+00 2.7419287365e+00 
8400 5.0314748409e+00 2.4041506448e-02 1.5822901830e+00 -2.7406069893e+00 1.5822901830e+00 2.7406069893e+00 
8500 5.0313825642e+00 2.3902539934e-02 1.5815305378e+00 -2.7392912452e+00 1.5815305378e+00 2.7392912452e+00 
8600 5.0312914554e+00 2.3746697171e-02 1.5807749206e+00 -2.7379824778e+00 1.5807749206e+00 2.7379824778e+00 
8700 5.0312016413e+00 2.3574733539e-02 1.5800238707e+00 -2.7366816212e+00 1.5800238707e+00 2.7366816212e+00 
8800 5.0311132424e+00 2.3387414281e-02 1.5792779048e+00 -2.7353895705e+00 1.5792779048e+00 2.7353895705e+00 
8900 5.0310263720e+00 2.3185511249e-02 1.5785375163e+00 -2.7341071799e+00 1.5785375163e+00 2.7341071799e+00 
9000 5.0309411351e+00 2.2969799860e-02 1.5778031748e+00 -2.7328352630e+00 1.5778031748e+00 2.7328352630e+00 
9100 5.0308576285e+00 2.2741056266e-02 1.5770753263e+00 -2.7315745925e+00 1.5770753263e+00 2.7315745925e+00 
9200 5.0307759395e+00 2.2500054733e-02 1.5763543930e+00 -2.7303258994e+00 1.5763543930e+00 2.7303258994e+00 
9300 5.0306961461e+00 2.2247565221e-02 1.5756407731e+00 -2.7290898735e+00 1.5756407731e+00 2.7290898735e+00 
9400 5.0306183169e+00 2.1984351159e-02 1.5749348412e+00 -2.7278671635e+00 1.5749348412e+00 2.7278671635e+00 
9500 5.0305425108e+00 2.1711167410e-02 1.5742369480e+00 -2.7266583770e+00 1.5742369480e+00 2.7266583770e+00 
9600 5.0304687772e+00 2.1428758422e-02 1.5735474208e+00 -2.7254640810e+00 1.5735474208e+00 2.7254640810e+00 
9700 5.0303971561e+00 2.1137856550e-02 1.5728665639e+00 -2.7242848022e+00 1.5728665639e+00 2.7242848022e+00 
9800 5.0303276784e+00 2.0839180548e-02 1.5721946585e+00 -2.7231210280e+00 1.5721946585e+00 2.7231210280e+00 
9900 5.0302603661e+00 2.0533434220e-02 1.5715319634e+00 -2.7219732063e+00 1.5715319634e+00 2.7219732063e+00 
10000 5.0301952327e+00 2.0221305224e-02 1.5708787151e+00 -2.7208417471e+00 1.5708787151e+00 2.7208417471e+00 
10100 5.0301322836e+00 1.9903464022e-02 1.5702351287e+00 -2.7197270227e+00 1.5702351287e+00 2.7197270227e+00 
10200 5.0300715166e+00 1.9580562963e-02 1.5696013980e+00 -2.7186293689e+00 1.5696013980e+00 2.7186293689e+00 
10300 5.0300129222e+00 1.9253235500e-02 1.5689776961e+00 -2.7175490856e+00 1.5689776961e+00 2.7175490856e+00 
10400 5.0299564844e+00 1.8922095521e-02 1.5683641762e+00 -2.7164864380e+00 1.5683641762e+00 2.7164864380e+00 
10500 5.0299021806e+00 1.8587736805e-02 1.5677609719e+00 -2.7154416574e+00 1.5677609719e+00 2.7154416574e+00 
10600 5.0298499829e+00 1.8250732570e-02 1.5671681977e+00 -2.7144149424e+00 1.5671681977e+00 2.7144149424e+00 
10700 5.0297998579e+00 1.7911635135e-02 1.5665859500e+00 -2.7134064598e+00 1.5665859500e+00 2.7134064598e+00 
10800 5.0297517678e+00 1.7570975663e-02 1.5660143074e+00 -2.7124163458e+00 1.5660143074e+00 2.7124163458e+00 
10900 5.0297056704e+00 1.7229263995e-02 1.5654533315e+00 -2.7114447070e+00 1.5654533315e+00 2.7114447070e+00 
11000 5.0296615200e+00 1.6886988565e-02 1.5649030674e+00 -2.7104916217e+00 1.5649030674e+00 2.7104916217e+00 
11100 5.0296192674e+00 1.6544616382e-02 1.5643635446e+00 -2.7095571407e+00 1.5643635446e+00 2.7095571407e+00 
11200 5.0295788611e+00 1.6202593082e-02 1.5638347774e+00 -2.7086412890e+00 1.5638347774e+00 2.7086412890e+00 
11300 5.0295402469e+00 1.5861343045e-02 1.5633167655e+00 -2.7077440662e+00 1.5633167655e+00 2.7077440662e+00 
11400 5.0295033689e+00 1.5521269561e-02 1.5628094952e+00 -2.7068654482e+00 1.5628094952e+00 2.7068654482e+00 
11500 5.0294681697e+00 1.5182755054e-02 1.5623129392e+00 -2.7060053880e+00 1.5623129392e+00 2.7060053880e+00 
11600 5.0294345910e+00 1.4846161342e-02 1.5618270581e+00 -2.7051638172e+00 1.5618270581e+00 2.7051638172e+00 
11700 5.0294025734e+00 1.4511829951e-02 1.5613518003e+00 -2.7043406467e+00 1.5613518003e+00 2.7043406467e+00 
11800 5.0293720573e+00 1.4180082454e-02 1.5608871033e+00 -2.7035357679e+00 1.5608871033e+00 2.7035357679e+00 
11900 5.0293429831e+00 1.3851220850e-02 1.5604328938e+00 -2.7027490539e+00 1.5604328938e+00 2.7027490539e+00 
12000 5.0293152912e+00 1.3525527971e-02 1.5599890887e+00 -2.7019803608e+00 1.5599890887e+00 2.7019803608e+00 
12100 5.0292889225e+00 1.3203267908e-02 1.5595555952e+00 -2.7012295281e+00 1.5595555952e+00 2.7012295281e+00 
12200 5.0292638185e+00 1.2884686469e-02 1.5591323121e+00 -2.7004963803e+00 1.5591323121e+00 2.7004963803e+00 
12300 5.0292399218e+00 1.2570011650e-02 1.5587191298e+00 -2.6997807276e+00 1.5587191298e+00 2.6997807276e+00 
12400 5.0292171757e+00 1.2259454117e-02 1.5583159312e+00 -2.6990823670e+00 1.5583159312e+00 2.6990823670e+00 
12500 5.0291955251e+00 1.1953207713e-02 1.5579225918e+00 -2.6984010833e+00 1.5579225918e+00 2.6984010833e+00 
12600 5.0291749161e+00 1.1651449963e-02 1.5575389811e+00 -2.6977366500e+00 1.5575389811e+00 2.6977366500e+00 
12700 5.0291552962e+00 1.1354342598e-02 1.5571649621e+00 -2.6970888301e+00 1.5571649621e+00 2.6970888301e+00 
12800 5.0291366146e+00 1.1062032075e-02 1.5568003925e+00 -2.6964573771e+00 1.5568003925e+00 2.6964573771e+00 
12900 5.0291188222e+00 1.0774650109e-02 1.5564451250e+00 -2.6958420357e+00 1.5564451250e+00 2.6958420357e+00 
13000 5.0291018716e+00 1.0492314203e-02 1.5560990078e+00 -2.6952425431e+00 1.5560990078e+00 2.6952425431e+00 
13100 5.0290857172e+00 1.0215128180e-02 1.5557618848e+00 -2.6946586289e+00 1.5557618848e+00 2.6946586289e+00 
13200 5.0290703153e+00 9.9431827137e-03 1.5554335965e+00 -2.6940900169e+00 1.5554335965e+00 2.6940900169e+00 
13300 5.0290556239e+00 9.6765558541e-03 1.5551139800e+00 -2.6935364250e+00 1.5551139800e+00 2.6935364250e+00 
13400 5.0290416032e+00 9.4153135548e-03 1.5548028699e+00 -2.6929975665e+00 1.5548028699e+00 2.6929975665e+00 
13500 5.0290282149e+00 9.1595101918e-03 1.5545000982e+00 -2.6924731504e+00 1.5545000982e+00 2.6924731504e+00 
13600 5.0290154227e+00 8.9091890765e-03 1.5542054948e+00 -2.6919628824e+00 1.5542054948e+00 2.6919628824e+00 
13700 5.0290031923e+00 8.6643829638e-03 1.5539188880e+00 -2.6914664649e+00 1.5539188880e+00 2.6914664649e+00 
13800 5.0289914910e+00 8.4251145506e-03 1.5536401050e+00 -2.6909835986e+00 1.5536401050e+00 2.6909835986e+00 
13900 5.0289802879e+00 8.1913969676e-03 1.5533689718e+00 -2.6905139820e+00 1.5533689718e+00 2.6905139820e+00 
14000 5.0289695540e+00 7.9632342615e-03 1.5531053137e+00 -2.6900573129e+00 1.5531053137e+00 2.6900573129e+00 
14100 5.0289592619e+00 7.7406218676e-03 1.5528489559e+00 -2.6896132880e+00 1.5528489559e+00 2.6896132880e+00 
14200 5.0289493857e+00 7.5235470724e-03 1.5525997232e+00 -2.6891816043e+00 1.5525997232e+00 2.6891816043e+00 
14300 5.0289399014e+00 7.3119894666e-03 1.5523574408e+00 -2.6887619589e+00 1.5523574408e+00 2.6887619589e+00 
14400 5.0289307863e+00 7.1059213863e-03 1.5521219343e+00 -2.6883540497e+00 1.5521219343e+00 2.6883540497e+00 
14500 5.0289220192e+00 6.9053083436e-03 1.5518930300e+00 -2.6879575759e+00 1.5518930300e+00 2.6879575759e+00 
14600 5.0289135803e+00 6.7101094462e-03 1.5516705552e+00 -2.6875722382e+00 1.5516705552e+00 2.6875722382e+00 
14700 5.0289054511e+00 6.5202778048e-03 1.5514543381e+00 -2.6871977392e+00 1.5514543381e+00 2.6871977392e+00 
14800 5.0288976146e+00 6.3357609297e-03 1.5512442085e+00 -2.6868337840e+00 1.5512442085e+00 2.6868337840e+00 
14900 5.0288900546e+00 6.1565011151e-03 1.5510399975e+00 -2.6864800802e+00 1.5510399975e+00 2.6864800802e+00 
15000 5.0288827566e+00 5.9824358115e-03 1.5508415381e+00 -2.6861363384e+00 1.5508415381e+00 2.6861363384e+00 
15100 5.0288757066e+00 5.8134979866e-03 1.5506486650e+00 -2.6858022725e+00 1.5506486650e+00 2.6858022725e+00 
15200 5.0288688919e+00 5.6496164744e-03 1.5504612150e+00 -2.6854775996e+00 1.5504612150e+00 2.6854775996e+00 
15300 5.0288623009e+00 5.4907163118e-03 1.5502790271e+00 -2.6851620409e+00 1.5502790271e+00 2.6851620409e+00 
15400 5.0288559226e+00 5.3367190641e-03 1.5501019425e+00 -2.6848553213e+00 1.5501019425e+00 2.6848553213e+00 
15500 5.0288497470e+00 5.1875431385e-03 1.5499298048e+00 -2.6845571700e+00 1.5499298048e+00 2.6845571700e+00 
15600 5.0288437648e+00 5.0431040858e-03 1.5497624601e+00 -2.6842673205e+00 1.5497624601e+00 2.6842673205e+00 
15700 5.0288379675e+00 4.9033148911e-03 1.5495997572e+00 -2.6839855109e+00 1.5495997572e+00 2.6839855109e+00 
15800 5.0288323471e+00 4.7680862522e-03 1.5494415476e+00 -2.6837114838e+00 1.5494415476e+00 2.6837114838e+00 
15900 5.0288268965e+00 4.6373268478e-03 1.5492876855e+00 -2.6834449868e+00 1.5492876855e+00 2.6834449868e+00 
16000 5.0288216089e+00 4.5109435938e-03 1.5491380279e+00 -2.6831857723e+00 1.5491380279e+00 2.6831857723e+00 
16100 5.0288164781e+00 4.3888418892e-03 1.5489924349e+00 -2.6829335979e+00 1.5489924349e+00 2.6829335979e+00 
16200 5.0288114984e+00 4.2709258507e-03 1.5488507695e+00 -2.6826882261e+00 1.5488507695e+00 2.6826882261e+00 
16300 5.0288066645e+00 4.1570985372e-03 1.5487128975e+00 -2.6824494248e+00 1.5487128975e+00 2.6824494248e+00 
16400 5.0288019717e+00 4.0472621640e-03 1.5485786880e+00 -2.6822169672e+00 1.5485786880e+00 2.6822169672e+00 
16500 5.0287974152e+00 3.9413183063e-03 1.5484480132e+00 -2.6819906317e+00 1.5484480132e+00 2.6819906317e+00 
16600 5.0287929910e+00 3.8391680932e-03 1.5483207482e+00 -2.6817702023e+00 1.5483207482e+00 2.6817702023e+00 
16700 5.0287886951e+00 3.7407123921e-03 1.5481967714e+00 -2.6815554682e+00 1.5481967714e+00 2.6815554682e+00 
16800 5.0287845240e+00 3.6458519829e-03 1.5480759643e+00 -2.6813462241e+00 1.5480759643e+00 2.6813462241e+00 
16900 5.0287804741e+00 3.5544877237e-03 1.5479582115e+00 -2.6811422703e+00 1.5479582115e+00 2.6811422703e+00 
17000 5.0287765422e+00 3.4665207072e-03 1.5478434008e+00 -2.6809434123e+00 1.5478434008e+00 2.6809434123e+00 
17100 5.0287727255e+00 3.3818524078e-03 1.5477314231e+00 -2.6807494612e+00 1.5477314231e+00 2.6807494612e+00 
17200 5.0287690209e+00 3.3003848210e-03 1.5476221724e+00 -2.6805602336e+00 1.5476221724e+00 2.6805602336e+00 
17300 5.0287654258e+00 3.2220205934e-03 1.5475155461e+00 -2.6803755513e+00 1.5475155461e+00 2.6803755513e+00 
17400 5.0287619377e+00 3.1466631455e-03 1.5474114442e+00 -2.6801952416e+00 1.5474114442e+00 2.6801952416e+00 
17500 5.0287585540e+00 3.0742167863e-03 1.5473097703e+00 -2.6800191372e+00 1.5473097703e+00 2.6800191372e+00 
17600 5.0287552723e+00 3.0045868200e-03 1.5472104306e+00 -2.6798470759e+00 1.5472104306e+00 2.6798470759e+00 
17700 5.0287520905e+00 2.9376796455e-03 1.5471133347e+00 -2.6796789009e+00 1.5471133347e+00 2.6796789009e+00 
17800 5.0287490062e+00 2.8734028486e-03 1.5470183950e+00 -2.6795144605e+00 1.5470183950e+00 2.6795144605e+00 
17900 5.0287460174e+00 2.8116652878e-03 1.5469255269e+00 -2.6793536081e+00 1.5469255269e+00 2.6793536081e+00 
18000 5.0287431219e+00 2.7523771723e-03 1.5468346487e+00 -2.6791962024e+00 1.5468346487e+00 2.6791962024e+00 
18100 5.0287403176e+00 2.6954501348e-03 1.5467456815e+00 -2.6790421067e+00 1.5467456815e+00 2.6790421067e+00 
18200 5.0287376025e+00 2.6407972968e-03 1.5466585493e+00 -2.6788911894e+00 1.5466585493e+00 2.6788911894e+00 
18300 5.0287349748e+00 2.5883333290e-03 1.5465731791e+00 -2.6787433238e+00 1.5465731791e+00 2.6787433238e+00 
18400 5.0287324323e+00 2.5379745050e-03 1.5464895002e+00 -2.6785983877e+00 1.5464895002e+00 2.6785983877e+00 
18500 5.0287299732e+00 2.4896387500e-03 1.5464074449e+00 -2.6784562638e+00 1.5464074449e+00 2.6784562638e+00 
18600 5.0287275956e+00 2.4432456838e-03 1.5463269481e+00 -2.6783168393e+00 1.5463269481e+00 2.6783168393e+00 
18700 5.0287252976e+00 2.3987166587e-03 1.5462479472e+00 -2.6781800057e+00 1.5462479472e+00 2.6781800057e+00 
18800 5.0287230773e+00 2.3559747929e-03 1.5461703822e+00 -2.6780456590e+00 1.5461703822e+00 2.6780456590e+00 
18900 5.0287209329e+00 2.3149449983e-03 1.5460941954e+00 -2.6779136996e+00 1.5460941954e+00 2.6779136996e+00 
19000 5.0287188624e+00 2.2755540047e-03 1.5460193317e+00 -2.6777840319e+00 1.5460193317e+00 2.6777840319e+00 
19100 5.0287168642e+00 2.2377303790e-03 1.5459457383e+00 -2.6776565644e+00 1.5459457383e+00 2.6776565644e+00 
19200 5.0287149363e+00 2.2014045407e-03 1.5458733647e+00 -2.6775312097e+00 1.5458733647e+00 2.6775312097e+00 
19300 5.0287130769e+00 2.1665087732e-03 1.5458021626e+00 -2.6774078841e+00 1.5458021626e+00 2.6774078841e+00 
19400 5.0287112844e+00 2.1329772316e-03 1.5457320860e+00 -2.6772865078e+00 1.5457320860e+00 2.6772865078e+00 
19500 5.0287095568e+00 2.1007459468e-03 1.5456630908e+00 -2.6771670046e+00 1.5456630908e+00 2.6771670046e+00 
19600 5.0287078925e+00 2.0697528262e-03 1.5455951352e+00 -2.6770493020e+00 1.5455951352e+00 2.6770493020e+00 
19700 5.0287062898e+00 2.0399376513e-03 1.5455281791e+00 -2.6769333308e+00 1.5455281791e+00 2.6769333308e+00 
19800 5.0287047467e+00 2.0112420724e-03 1.5454621848e+00 -2.6768190252e+00 1.5454621848e+00 2.6768190252e+00 
19900 5.0287032618e+00 1.9836096000e-03 1.5453971159e+00 -2.6767063227e+00 1.5453971159e+00 2.6767063227e+00 
20000 5.0287018332e+00 1.9569855944e-03 1.5453329384e+00 -2.6765951639e+00 1.5453329384e+00 2.6765951639e+00 
20100 5.0287004594e+00 1.9313172517e-03 1.5452696196e+00 -2.6764854926e+00 1.5452696196e+00 2.6764854926e+00 
20200 5.0286991386e+00 1.9065535883e-03 1.5452071288e+00 -2.6763772552e+00 1.5452071288e+00 2.6763772552e+00 
20300 5.0286978693e+00 1.8826454226e-03 1.5451454367e+00 -2.6762704014e+00 1.5451454367e+00 2.6762704014e+00 
20400 5.0286966498e+00 1.8595453554e-03 1.5450845158e+00 -2.6761648833e+00 1.5450845158e+00 2.6761648833e+00 
20500 5.0286954786e+00 1.8372077473e-03 1.5450243400e+00 -2.6760606558e+00 1.5450243400e+00 2.6760606558e+00 
20600 5.0286943541e+00 1.8155886955e-03 1.5449648848e+00 -2.6759576763e+00 1.5449648848e+00 2.6759576763e+00 
20700 5.0286932749e+00 1.7946460081e-03 1.5449061269e+00 -2.6758559047e+00 1.5449061269e+00 2.6758559047e+00 
20800 5.0286922393e+00 1.7743391771e-03 1.5448480446e+00 -2.6757553031e+00 1.5448480446e+00 2.6757553031e+00 
20900 5.0286912461e+00 1.7546293504e-03 1.5447906173e+00 -2.6756558362e+00 1.5447906173e+00 2.6756558362e+00 
21000 5.0286902936e+00 1.7354793023e-03 1.5447338258e+00 -2.6755574705e+00 1.5447338258e+00 2.6755574705e+00 
21100 5.0286893805e+00 1.7168534025e-03 1.5446776521e+00 -2.6754601747e+00 1.5446776521e+00 2.6754601747e+00 
21200 5.0286885055e+00 1.6987175846e-03 1.5446220792e+00 -2.6753639197e+00 1.5446220792e+00 2.6753639197e+00 
21300 5.0286876673e+00 1.6810393136e-03 1.5445670914e+00 -2.6752686781e+00 1.5445670914e+00 2.6752686781e+00 
21400 5.0286868644e+00 1.6637875522e-03 1.5445126739e+00 -2.6751744242e+00 1.5445126739e+00 2.6751744242e+00 
21500 5.0286860956e+00 1.6469327270e-03 1.5444588130e+00 -2.6750811343e+00 1.5444588130e+00 2.6750811343e+00 
21600 5.0286853597e+00 1.6304466935e-03 1.5444054958e+00 -2.6749887863e+00 1.5444054958e+00 2.6749887863e+00 
21700 5.0286846555e+00 1.6143027009e-03 1.5443527106e+00 -2.6748973595e+00 1.5443527106e+00 2.6748973595e+00 
21800 5.0286839818e+00 1.5984753564e-03 1.5443004462e+00 -2.6748068349e+00 1.5443004462e+00 2.6748068349e+00 
21900 5.0286833375e+00 1.5829405894e-03 1.5442486924e+00 -2.6747171948e+00 1.5442486924e+00 2.6747171948e+00 
22000 5.0286827214e+00 1.5676756147e-03 1.5441974399e+00 -2.6746284229e+00 1.5441974399e+00 2.6746284229e+00 
22100 5.0286821325e+00 1.5526588965e-03 1.5441466800e+00 -2.6745405041e+00 1.5441466800e+00 2.6745405041e+00 
22200 5.0286815697e+00 1.5378701114e-03 1.5440964046e+00 -2.6744534246e+00 1.5440964046e+00 2.6744534246e+00 
22300 5.0286810321e+00 1.5232901121e-03 1.5440466065e+00 -2.6743671718e+00 1.5440466065e+00 2.6743671718e+00 
22400 5.0286805185e+00 1.5089008902e-03 1.5439972789e+00 -2.6742817339e+00 1.5439972789e+00 2.6742817339e+00 
22500 5.0286800282e+00 1.4946855404e-03 1.5439484157e+00 -2.6741971003e+00 1.5439484157e+00 2.6741971003e+00 
22600 5.0286795602e+00 1.4806282235e-03 1.5439000113e+00 -2.6741132615e+00 1.5439000113e+00 2.6741132615e+00 
22700 5.0286791135e+00 1.4667141301e-03 1.5438520607e+00 -2.6740302085e+00 1.5438520607e+00 2.6740302085e+00 
22800 5.0286786874e+00 1.4529294452e-03 1.5438045592e+00 -2.6739479334e+00 1.5438045592e+00 2.6739479334e+00 
22900 5.0286782810e+00 1.4392613119e-03 1.5437575026e+00 -2.6738664291e+00 1.5437575026e+00 2.6738664291e+00 
23000 5.0286778935e+00 1.4256977963e-03 1.5437108873e+00 -2.6737856890e+00 1.5437108873e+00 2.6737856890e+00 
23100 5.0286775242e+00 1.4122278527e-03 1.5436647099e+00 -2.6737057075e+00 1.5436647099e+00 2.6737057075e+00 
23200 5.0286771723e+00 1.3988412886e-03 1.5436189675e+00 -2.6736264792e+00 1.5436189675e+00 2.6736264792e+00 
23300 5.0286768371e+00 1.3855287309e-03 1.5435736572e+00 -2.6735479996e+00 1.5435736572e+00 2.6735479996e+00 
23400 5.0286765179e+00 1.3722815925e-03 1.5435287769e+00 -2.6734702645e+00 1.5435287769e+00 2.6734702645e+00 
23500 5.0286762141e+00 1.3590920387e-03 1.5434843244e+00 -2.6733932705e+00 1.5434843244e+00 2.6733932705e+00 
23600 5.0286759251e+00 1.3459529552e-03 1.5434402978e+00 -2.6733170143e+00 1.5434402978e+00 2.6733170143e+00 
23700 5.0286756501e+00 1.3328579156e-03 1.5433966957e+00 -2.6732414931e+00 1.5433966957e+00 2.6732414931e+00 
23800 5.0286753887e+00 1.3198011507e-03 1.5433535165e+00 -2.6731667046e+00 1.5433535165e+00 2.6731667046e+00 
23900 5.0286751403e+00 1.3067775171e-03 1.5433107591e+00 -2.6730926467e+00 1.5433107591e+00 2.6730926467e+00 
24000 5.0286749043e+00 1.2937824678e-03 1.5432684225e+00 -2.6730193175e+00 1.5432684225e+00 2.6730193175e+00 
24100 5.0286746802e+00 1.2808120221e-03 1.5432265057e+00 -2.6729467155e+00 1.5432265057e+00 2.6729467155e+00 
24200 5.0286744676e+00 1.2678627374e-03 1.5431850081e+00 -2.6728748394e+00 1.5431850081e+00 2.6728748394e+00 
24300 5.0286742659e+00 1.2549316809e-03 1.5431439288e+00 -2.6728036881e+00 1.5431439288e+00 2.6728036881e+00 
24400 5.0286740747e+00 1.2420164020e-03 1.5431032675e+00 -2.6727332606e+00 1.5431032675e+00 2.6727332606e+00 
24500 5.0286738935e+00 1.2291149063e-03 1.5430630235e+00 -2.6726635560e+00 1.5430630235e+00 2.6726635560e+00 
24600 5.0286737219e+00 1.2162256289e-03 1.5430231966e+00 -2.6725945738e+00 1.5430231966e+00 2.6725945738e+00 
24700 5.0286735596e+00 1.2033474097e-03 1.5429837863e+00 -2.6725263131e+00 1.5429837863e+00 2.6725263131e+00 
24800 5.0286734061e+00 1.1904794685e-03 1.5429447923e+00 -2.6724587735e+00 1.5429447923e+00 2.6724587735e+00 
24900 5.0286732611e+00 1.1776213818e-03 1.5429062143e+00 -2.6723919544e+00 1.5429062143e+00 2.6723919544e+00 
25000 5.0286731242e+00 1.1647730590e-03 1.5428680520e+00 -2.6723258554e+00 1.5428680520e+00 2.6723258554e+00 
25100 5.0286729951e+00 1.1519347208e-03 1.5428303051e+00 -2.6722604760e+00 1.5428303051e+00 2.6722604760e+00 
25200 5.0286728734e+00 1.1391068770e-03 1.5427929734e+00 -2.6721958155e+00 1.5427929734e+00 2.6721958155e+00 
25300 5.0286727588e+00 1.1262903061e-03 1.5427560565e+00 -2.6721318736e+00 1.5427560565e+00 2.6721318736e+00 
25400 5.0286726511e+00 1.1134860349e-03 1.5427195541e+00 -2.6720686496e+00 1.5427195541e+00 2.6720686496e+00 
25500 5.0286725498e+00 1.1006953190e-03 1.5426834659e+00 -2.6720061429e+00 1.5426834659e+00 2.6720061429e+00 
25600 5.0286724549e+00 1.0879196243e-03 1.5426477913e+00 -2.6719443527e+00 1.5426477913e+00 2.6719443527e+00 
25700 5.0286723659e+00 1.0751606089e-03 1.5426125300e+00 -2.6718832784e+00 1.5426125300e+00 2.6718832784e+00 
25800 5.0286722827e+00 1.0624201058e-03 1.5425776814e+00 -2.6718229189e+00 1.5425776814e+00 2.6718229189e+00 
25900 5.0286722050e+00 1.0497001060e-03 1.5425432450e+00 -2.6717632733e+00 1.5425432450e+00 2.6717632733e+00 
26000 5.0286721325e+00 1.0370027428e-03 1.5425092202e+00 -2.6717043405e+00 1.5425092202e+00 2.6717043405e+00 
26100 5.0286720651e+00 1.0243302767e-03 1.5424756062e+00 -2.6716461193e+00 1.5424756062e+00 2.6716461193e+00 
26200 5.0286720025e+00 1.0116850801e-03 1.5424424022e+00 -2.6715886083e+00 1.5424424022e+00 2.6715886083e+00 
26300 5.0286719445e+00 9.9906962402e-04 1.5424096074e+00 -2.6715318061e+00 1.5424096074e+00 2.6715318061e+00 
26400 5.0286718909e+00 9.8648646438e-04 1.5423772209e+00 -2.6714757110e+00 1.5423772209e+00 2.6714757110e+00 
26500 5.0286718416e+00 9.7393822933e-04 1.5423452415e+00 -2.6714203212e+00 1.5423452415e+00 2.6714203212e+00 
26600 5.0286717962e+00 9.6142760712e-04 1.5423136684e+00 -2.6713656348e+00 1.5423136684e+00 2.6713656348e+00 
26700 5.0286717548e+00 9.4895733465e-04 1.5422825001e+00 -2.6713116498e+00 1.5422825001e+00 2.6713116498e+00 
26800 5.0286717170e+00 9.3653018644e-04 1.5422517355e+00 -2.6712583640e+00 1.5422517355e+00 2.6712583640e+00 
26900 5.0286716828e+00 9.2414896436e-04 1.5422213732e+00 -2.6712057749e+00 1.5422213732e+00 2.6712057749e+00 
27000 5.0286716520e+00 9.1181648776e-04 1.5421914117e+00 -2.6711538800e+00 1.5421914117e+00 2.6711538800e+00 
27100 5.0286716244e+00 8.9953558422e-04 1.5421618494e+00 -2.6711026766e+00 1.5421618494e+00 2.6711026766e+00 
27200 5.0286715998e+00 8.8730908087e-04 1.5421326847e+00 -2.6710521620e+00 1.5421326847e+00 2.6710521620e+00 
27300 5.0286715782e+00 8.7513979610e-04 1.5421039159e+00 -2.6710023329e+00 1.5421039159e+00 2.6710023329e+00 
27400 5.0286715595e+00 8.6303053190e-04 1.5420755411e+00 -2.6709531864e+00 1.5420755411e+00 2.6709531864e+00 
27500 5.0286715434e+00 8.5098406663e-04 1.5420475585e+00 -2.6709047190e+00 1.5420475585e+00 2.6709047190e+00 
27600 5.0286715298e+00 8.3900314826e-04 1.5420199659e+00 -2.6708569272e+00 1.5420199659e+00 2.6708569272e+00 
27700 5.0286715187e+00 8.2709048805e-04 1.5419927613e+00 -2.6708098075e+00 1.5419927613e+00 2.6708098075e+00 
27800 5.0286715100e+00 8.1524875477e-04 1.5419659425e+00 -2.6707633559e+00 1.5419659425e+00 2.6707633559e+00 
27900 5.0286715034e+00 8.0348056919e-04 1.5419395072e+00 -2.6707175686e+00 1.5419395072e+00 2.6707175686e+00 
28000 5.0286714990e+00 7.9178849915e-04 1.5419134530e+00 -2.6706724415e+00 1.5419134530e+00 2.6706724415e+00 
28100 5.0286714965e+00 7.8017505492e-04 1.5418877776e+00 -2.6706279704e+00 1.5418877776e+00 2.6706279704e+00 
28200 5.0286714960e+00 7.6864268498e-04 1.5418624783e+00 -2.6705841507e+00 1.5418624783e+00 2.6705841507e+00 
28300 5.0286714973e+00 7.5719377220e-04 1.5418375526e+00 -2.6705409781e+00 1.5418375526e+00 2.6705409781e+00 
28400 5.0286715003e+00 7.4583063032e-04 1.5418129978e+00 -2.6704984479e+00 1.5418129978e+00 2.6704984479e+00 
28500 5.0286715050e+00 7.3455550082e-04 1.5417888110e+00 -2.6704565552e+00 1.5417888110e+00 2.6704565552e+00 
28600 5.0286715112e+00 7.2337055011e-04 1.5417649895e+00 -2.6704152952e+00 1.5417649895e+00 2.6704152952e+00 
28700 5.0286715189e+00 7.1227786703e-04 1.5417415304e+00 -2.6703746628e+00 1.5417415304e+00 2.6703746628e+00 
28800 5.0286715280e+00 7.0127946068e-04 1.5417184307e+00 -2.6703346529e+00 1.5417184307e+00 2.6703346529e+00 
28900 5.0286715384e+00 6.9037725846e-04 1.5416956873e+00 -2.6702952603e+00 1.5416956873e+00 2.6702952603e+00 
29000 5.0286715500e+00 6.7957310454e-04 1.5416732972e+00 -2.6702564794e+00 1.5416732972e+00 2.6702564794e+00 
29100 5.0286715629e+00 6.6886875840e-04 1.5416512571e+00 -2.6702183049e+00 1.5416512571e+00 2.6702183049e+00 
29200 5.0286715768e+00 6.5826589381e-04 1.5416295639e+00 -2.6701807312e+00 1.5416295639e+00 2.6701807312e+00 
29300 5.0286715918e+00 6.4776609791e-04 1.5416082143e+00 -2.6701437525e+00 1.5416082143e+00 2.6701437525e+00 
29400 5.0286716078e+00 6.3737087061e-04 1.5415872049e+00 -2.6701073632e+00 1.5415872049e+00 2.6701073632e+00 
29500 5.0286716247e+00 6.2708162414e-04 1.5415665324e+00 -2.6700715574e+00 1.5415665324e+00 2.6700715574e+00 
29600 5.0286716425e+00 6.1689968287e-04 1.5415461933e+00 -2.6700363291e+00 1.5415461933e+00 2.6700363291e+00 
29700 5.0286716611e+00 6.0682628327e-04 1.5415261843e+00 -2.6700016723e+00 1.5415261843e+00 2.6700016723e+00 
29800 5.0286716805e+00 5.9686257408e-04 1.5415065017e+00 -2.6699675811e+00 1.5415065017e+00 2.6699675811e+00 
29900 5.0286717005e+00 5.8700961664e-04 1.5414871420e+00 -2.6699340491e+00 1.5414871420e+00 2.6699340491e+00 
30000 5.0286717213e+00 5.7726838543e-04 1.5414681017e+00 -2.6699010703e+00 1.5414681017e+00 2.6699010703e+00 
30100 5.0286717426e+00 5.6763976868e-04 1.5414493771e+00 -2.6698686384e+00 1.5414493771e+00 2.6698686384e+00 
30200 5.0286717646e+00 5.5812456917e-04 1.5414309646e+00 -2.6698367470e+00 1.5414309646e+00 2.6698367470e+00 
30300 5.0286717870e+00 5.4872350518e-04 1.5414128605e+00 -2.6698053898e+00 1.5414128605e+00 2.6698053898e+00 
30400 5.0286718100e+00 5.3943721157e-04 1.5413950612e+00 -2.6697745605e+00 1.5413950612e+00 2.6697745605e+00 
30500 5.0286718334e+00 5.3026624087e-04 1.5413775629e+00 -2.6697442525e+00 1.5413775629e+00 2.6697442525e+00 
30600 5.0286718572e+00 5.2121106465e-04 1.5413603618e+00 -2.6697144595e+00 1.5413603618e+00 2.6697144595e+00 
30700 5.0286718813e+00 5.1227207484e-04 1.5413434544e+00 -2.6696851749e+00 1.5413434544e+00 2.6696851749e+00 
30800 5.0286719059e+00 5.0344958520e-04 1.5413268367e+00 -2.6696563922e+00 1.5413268367e+00 2.6696563922e+00 
30900 5.0286719307e+00 4.9474383291e-04 1.5413105050e+00 -2.6696281049e+00 1.5413105050e+00 2.6696281049e+00 
31000 5.0286719558e+00 4.8615498016e-04 1.5412944556e+00 -2.6696003065e+00 1.5412944556e+00 2.6696003065e+00 
31100 5.0286719812e+00 4.7768311584e-04 1.5412786846e+00 -2.6695729904e+00 1.5412786846e+00 2.6695729904e+00 
31200 5.0286720067e+00 4.6932825733e-04 1.5412631883e+00 -2.6695461500e+00 1.5412631883e+00 2.6695461500e+00 
31300 5.0286720325e+00 4.6109035228e-04 1.5412479629e+00 -2.6695197788e+00 1.5412479629e+00 2.6695197788e+00 
31400 5.0286720584e+00 4.5296928050e-04 1.5412330046e+00 -2.6694938702e+00 1.5412330046e+00 2.6694938702e+00 
31500 5.0286720845e+00 4.4496485582e-04 1.5412183096e+00 -2.6694684177e+00 1.5412183096e+00 2.6694684177e+00 
31600 5.0286721106e+00 4.3707682808e-04 1.5412038741e+00 -2.6694434148e+00 1.5412038741e+00 2.6694434148e+00 
31700 5.0286721369e+00 4.2930488504e-04 1.5411896944e+00 -2.6694188548e+00 1.5411896944e+00 2.6694188548e+00 
31800 5.0286721632e+00 4.2164865444e-04 1.5411757667e+00 -2.6693947314e+00 1.5411757667e+00 2.6693947314e+00 
31900 5.0286721896e+00 4.1410770596e-04 1.5411620873e+00 -2.6693710379e+00 1.5411620873e+00 2.6693710379e+00 
32000 5.0286722160e+00 4.0668155329e-04 1.5411486524e+00 -2.6693477680e+00 1.5411486524e+00 2.6693477680e+00 
32100 5.0286722424e+00 3.9936965617e-04 1.5411354583e+00 -2.6693249151e+00 1.5411354583e+00 2.6693249151e+00 
32200 5.0286722688e+00 3.9217142240e-04 1.5411225013e+00 -2.6693024730e+00 1.5411225013e+00 2.6693024730e+00 
32300 5.0286722951e+00 3.8508620995e-04 1.5411097778e+00 -2.6692804352e+00 1.5411097778e+00 2.6692804352e+00 
32400 5.0286723215e+00 3.7811332897e-04 1.5410972840e+00 -2.6692587953e+00 1.5410972840e+00 2.6692587953e+00 
32500 5.0286723477e+00 3.7125204386e-04 1.5410850164e+00 -2.6692375471e+00 1.5410850164e+00 2.6692375471e+00 
32600 5.0286723739e+00 3.6450157529e-04 1.5410729712e+00 -2.6692166843e+00 1.5410729712e+00 2.6692166843e+00 
32700 5.0286724000e+00 3.5786110225e-04 1.5410611450e+00 -2.6691962007e+00 1.5410611450e+00 2.6691962007e+00 
32800 5.0286724260e+00 3.5132976404e-04 1.5410495342e+00 -2.6691760901e+00 1.5410495342e+00 2.6691760901e+00 
32900 5.0286724519e+00 3.4490666226e-04 1.5410381351e+00 -2.6691563465e+00 1.5410381351e+00 2.6691563465e+00 
33000 5.0286724777e+00 3.3859086282e-04 1.5410269444e+00 -2.6691369636e+00 1.5410269444e+00 2.6691369636e+00 
33100 5.0286725034e+00 3.3238139785e-04 1.5410159586e+00 -2.6691179355e+00 1.5410159586e+00 2.6691179355e+00 
33200 5.0286725289e+00 3.2627726765e-04 1.5410051741e+00 -2.6690992562e+00 1.5410051741e+00 2.6690992562e+00 
33300 5.0286725542e+00 3.2027744257e-04 1.5409945876e+00 -2.6690809199e+00 1.5409945876e+00 2.6690809199e+00 
33400 5.0286725794e+00 3.1438086491e-04 1.5409841957e+00 -2.6690629206e+00 1.5409841957e+00 2.6690629206e+00 
33500 5.0286726044e+00 3.0858645071e-04 1.5409739950e+00 -2.6690452526e+00 1.5409739950e+00 2.6690452526e+00 
33600 5.0286726292e+00 3.0289309161e-04 1.5409639823e+00 -2.6690279101e+00 1.5409639823e+00 2.6690279101e+00 
33700 5.0286726539e+00 2.9729965658e-04 1.5409541543e+00 -2.6690108874e+00 1.5409541543e+00 2.6690108874e+00 
33800 5.0286726784e+00 2.9180499364e-04 1.5409445077e+00 -2.6689941790e+00 1.5409445077e+00 2.6689941790e+00 
33900 5.0286727026e+00 2.8640793164e-04 1.5409350393e+00 -2.6689777793e+00 1.5409350393e+00 2.6689777793e+00 
34000 5.0286727267e+00 2.8110728180e-04 1.5409257460e+00 -2.6689616828e+00 1.5409257460e+00 2.6689616828e+00 
34100 5.0286727505e+00 2.7590183942e-04 1.5409166247e+00 -2.6689458842e+00 1.5409166247e+00 2.6689458842e+00 
34200 5.0286727742e+00 2.7079038544e-04 1.5409076722e+00 -2.6689303780e+00 1.5409076722e+00 2.6689303780e+00 
34300 5.0286727976e+00 2.6577168795e-04 1.5408988854e+00 -2.6689151589e+00 1.5408988854e+00 2.6689151589e+00 
34400 5.0286728208e+00 2.6084450371e-04 1.5408902615e+00 -2.6689002219e+00 1.5408902615e+00 2.6689002219e+00 
34500 5.0286728437e+00 2.5600757958e-04 1.5408817975e+00 -2.6688855617e+00 1.5408817975e+00 2.6688855617e+00 
34600 5.0286728665e+00 2.5125965399e-04 1.5408734903e+00 -2.6688711732e+00 1.5408734903e+00 2.6688711732e+00 
34700 5.0286728890e+00 2.4659945823e-04 1.5408653371e+00 -2.6688570516e+00 1.5408653371e+00 2.6688570516e+00 
34800 5.0286729112e+00 2.4202571783e-04 1.5408573352e+00 -2.6688431917e+00 1.5408573352e+00 2.6688431917e+00 
34900 5.0286729333e+00 2.3753715382e-04 1.5408494816e+00 -2.6688295889e+00 1.5408494816e+00 2.6688295889e+00 
35000 5.0286729551e+00 2.3313248400e-04 1.5408417736e+00 -2.6688162383e+00 1.5408417736e+00 2.6688162383e+00 
35100 5.0286729766e+00 2.2881042408e-04 1.5408342085e+00 -2.6688031351e+00 1.5408342085e+00 2.6688031351e+00 
35200 5.0286729979e+00 2.2456968887e-04 1.5408267836e+00 -2.6687902749e+00 1.5408267836e+00 2.6687902749e+00 
35300 5.0286730190e+00 2.2040899339e-04 1.5408194963e+00 -2.6687776529e+00 1.5408194963e+00 2.6687776529e+00 
35400 5.0286730398e+00 2.1632705392e-04 1.5408123440e+00 -2.6687652647e+00 1.5408123440e+00 2.6687652647e+00 
35500 5.0286730604e+00 2.1232258903e-04 1.5408053241e+00 -2.6687531059e+00 1.5408053241e+00 2.6687531059e+00 
35600 5.0286730807e+00 2.0839432058e-04 1.5407984341e+00 -2.6687411721e+00 1.5407984341e+00 2.6687411721e+00 
35700 5.0286731007e+00 2.0454097461e-04 1.5407916716e+00 -2.6687294590e+00 1.5407916716e+00 2.6687294590e+00 
35800 5.0286731206e+00 2.0076128229e-04 1.5407850340e+00 -2.6687179625e+00 1.5407850340e+00 2.6687179625e+00 
35900 5.0286731401e+00 1.9705398073e-04 1.5407785191e+00 -2.6687066784e+00 1.5407785191e+00 2.6687066784e+00 
36000 5.0286731595e+00 1.9341781385e-04 1.5407721245e+00 -2.6686956026e+00 1.5407721245e+00 2.6686956026e+00 
36100 5.0286731786e+00 1.8985153311e-04 1.5407658479e+00 -2.6686847311e+00 1.5407658479e+00 2.6686847311e+00 
36200 5.0286731974e+00 1.8635389825e-04 1.5407596869e+00 -2.6686740600e+00 1.5407596869e+00 2.6686740600e+00 
36300 5.0286732160e+00 1.8292367801e-04 1.5407536395e+00 -2.6686635855e+00 1.5407536395e+00 2.6686635855e+00 
36400 5.0286732343e+00 1.7955965079e-04 1.5407477033e+00 -2.6686533037e+00 1.5407477033e+00 2.6686533037e+00 
36500 5.0286732524e+00 1.7626060525e-04 1.5407418763e+00 -2.6686432110e+00 1.5407418763e+00 2.6686432110e+00 
36600 5.0286732703e+00 1.7302534090e-04 1.5407361563e+00 -2.6686333037e+00 1.5407361563e+00 2.6686333037e+00 
36700 5.0286732879e+00 1.6985266868e-04 1.5407305413e+00 -2.6686235782e+00 1.5407305413e+00 2.6686235782e+00 
36800 5.0286733052e+00 1.6674141144e-04 1.5407250292e+00 -2.6686140310e+00 1.5407250292e+00 2.6686140310e+00 
36900 5.0286733223e+00 1.6369040444e-04 1.5407196181e+00 -2.6686046587e+00 1.5407196181e+00 2.6686046587e+00 
37000 5.0286733392e+00 1.6069849580e-04 1.5407143059e+00 -2.6685954578e+00 1.5407143059e+00 2.6685954578e+00 
37100 5.0286733559e+00 1.5776454688e-04 1.5407090909e+00 -2.6685864250e+00 1.5407090909e+00 2.6685864250e+00 
37200 5.0286733723e+00 1.5488743275e-04 1.5407039710e+00 -2.6685775572e+00 1.5407039710e+00 2.6685775572e+00 
37300 5.0286733884e+00 1.5206604243e-04 1.5406989445e+00 -2.6685688510e+00 1.5406989445e+00 2.6685688510e+00 
37400 5.0286734044e+00 1.4929927929e-04 1.5406940095e+00 -2.6685603034e+00 1.5406940095e+00 2.6685603034e+00 
37500 5.0286734201e+00 1.4658606135e-04 1.5406891643e+00 -2.6685519113e+00 1.5406891643e+00 2.6685519113e+00 
37600 5.0286734356e+00 1.4392532148e-04 1.5406844072e+00 -2.6685436716e+00 1.5406844072e+00 2.6685436716e+00 
37700 5.0286734508e+00 1.4131600771e-04 1.5406797363e+00 -2.6685355815e+00 1.5406797363e+00 2.6685355815e+00 
37800 5.0286734659e+00 1.3875708339e-04 1.5406751502e+00 -2.6685276381e+00 1.5406751502e+00 2.6685276381e+00 
37900 5.0286734807e+00 1.3624752741e-04 1.5406706471e+00 -2.6685198384e+00 1.5406706471e+00 2.6685198384e+00 
38000 5.0286734952e+00 1.3378633436e-04 1.5406662254e+00 -2.6685121798e+00 1.5406662254e+00 2.6685121798e+00 
38100 5.0286735096e+00 1.3137251465e-04 1.5406618835e+00 -2.6685046596e+00 1.5406618835e+00 2.6685046596e+00 
38200 5.0286735237e+00 1.2900509462e-04 1.5406576200e+00 -2.6684972749e+00 1.5406576200e+00 2.6684972749e+00 
38300 5.0286735377e+00 1.2668311668e-04 1.5406534333e+00 -2.6684900234e+00 1.5406534333e+00 2.6684900234e+00 
38400 5.0286735514e+00 1.2440563934e-04 1.5406493220e+00 -2.6684829023e+00 1.5406493220e+00 2.6684829023e+00 
38500 5.0286735649e+00 1.2217173726e-04 1.5406452846e+00 -2.6684759093e+00 1.5406452846e+00 2.6684759093e+00 
38600 5.0286735782e+00 1.1998050132e-04 1.5406413196e+00 -2.6684690418e+00 1.5406413196e+00 2.6684690418e+00 
38700 5.0286735913e+00 1.1783103859e-04 1.5406374258e+00 -2.6684622974e+00 1.5406374258e+00 2.6684622974e+00 
38800 5.0286736041e+00 1.1572247237e-04 1.5406336017e+00 -2.6684556739e+00 1.5406336017e+00 2.6684556739e+00 
38900 5.0286736168e+00 1.1365394213e-04 1.5406298460e+00 -2.6684491689e+00 1.5406298460e+00 2.6684491689e+00 
39000 5.0286736293e+00 1.1162460348e-04 1.5406261574e+00 -2.6684427801e+00 1.5406261574e+00 2.6684427801e+00 
39100 5.0286736416e+00 1.0963362816e-04 1.5406225347e+00 -2.6684365054e+00 1.5406225347e+00 2.6684365054e+00 
39200 5.0286736537e+00 1.0768020391e-04 1.5406189766e+00 -2.6684303426e+00 1.5406189766e+00 2.6684303426e+00 
39300 5.0286736656e+00 1.0576353443e-04 1.5406154819e+00 -2.6684242896e+00 1.5406154819e+00 2.6684242896e+00 
39400 5.0286736773e+00 1.0388283929e-04 1.5406120494e+00 -2.6684183443e+00 1.5406120494e+00 2.6684183443e+00 
39500 5.0286736888e+00 1.0203735377e-04 1.5406086779e+00 -2.6684125048e+00 1.5406086779e+00 2.6684125048e+00 
39600 5.0286737001e+00 1.0022632883e-04 1.5406053664e+00 -2.6684067689e+00 1.5406053664e+00 2.6684067689e+00 
39700 5.0286737113e+00 9.8449030887e-05 1.5406021135e+00 -2.6684011349e+00 1.5406021135e+00 2.6684011349e+00 
39800 5.0286737222e+00 9.6704741739e-05 1.5405989184e+00 -2.6683956007e+00 1.5405989184e+00 2.6683956007e+00 
39900 5.0286737330e+00 9.4992758396e-05 1.5405957798e+00 -2.6683901646e+00 1.5405957798e+00 2.6683901646e+00 
40000 5.0286737436e+00 9.3312392913e-05 1.5405926969e+00 -2.6683848247e+00 1.5405926969e+00 2.6683848247e+00 
40100 5.0286737541e+00 9.1662972234e-05 1.5405896684e+00 -2.6683795793e+00 1.5405896684e+00 2.6683795793e+00 
40200 5.0286737644e+00 9.0043838012e-05 1.5405866935e+00 -2.6683744265e+00 1.5405866935e+00 2.6683744265e+00 
40300 5.0286737745e+00 8.8454346431e-05 1.5405837711e+00 -2.6683693648e+00 1.5405837711e+00 2.6683693648e+00 
40400 5.0286737844e+00 8.6893868007e-05 1.5405809003e+00 -2.6683643924e+00 1.5405809003e+00 2.6683643924e+00 
40500 5.0286737941e+00 8.5361787407e-05 1.5405780801e+00 -2.6683595078e+00 1.5405780801e+00 2.6683595078e+00 
40600 5.0286738037e+00 8.3857503237e-05 1.5405753097e+00 -2.6683547092e+00 1.5405753097e+00 2.6683547092e+00 
40700 5.0286738132e+00 8.2380427838e-05 1.5405725880e+00 -2.6683499952e+00 1.5405725880e+00 2.6683499952e+00 
40800 5.0286738225e+00 8.0929987082e-05 1.5405699143e+00 -2.6683453642e+00 1.5405699143e+00 2.6683453642e+00 
40900 5.0286738316e+00 7.9505620150e-05 1.5405672877e+00 -2.6683408148e+00 1.5405672877e+00 2.6683408148e+00 
41000 5.0286738406e+00 7.8106779318e-05 1.5405647073e+00 -2.6683363454e+00 1.5405647073e+00 2.6683363454e+00 
41100 5.0286738494e+00 7.6732929734e-05 1.5405621723e+00 -2.6683319547e+00 1.5405621723e+00 2.6683319547e+00 
41200 5.0286738581e+00 7.5383549193e-05 1.5405596819e+00 -2.6683276411e+00 1.5405596819e+00 2.6683276411e+00 
41300 5.0286738666e+00 7.4058127914e-05 1.5405572353e+00 -2.6683234034e+00 1.5405572353e+00 2.6683234034e+00 
41400 5.0286738750e+00 7.2756168306e-05 1.5405548316e+00 -2.6683192403e+00 1.5405548316e+00 2.6683192403e+00 
41500 5.0286738832e+00 7.1477184744e-05 1.5405524703e+00 -2.6683151503e+00 1.5405524703e+00 2.6683151503e+00 
41600 5.0286738913e+00 7.0220703332e-05 1.5405501504e+00 -2.6683111322e+00 1.5405501504e+00 2.6683111322e+00 
41700 5.0286738995e+00 7.0924875078e-05 1.5405501504e+00 -2.6683111322e+00 1.5405501504e+00 2.6683111322e+00 
41800 5.0286739073e+00 6.9672746890e-05 1.5405478485e+00 -2.6683071451e+00 1.5405478485e+00 2.6683071451e+00 
41900 5.0286739152e+00 7.0365725423e-05 1.5405478485e+00 -2.6683071451e+00 1.5405478485e+00 2.6683071451e+00 
42000 5.0286739230e+00 7.1060049213e-05 1.5405478485e+00 -2.6683071451e+00 1.5405478485e+00 2.6683071451e+00 
42100 5.0286739304e+00 6.9793658696e-05 1.5405455422e+00 -2.6683031504e+00 1.5405455422e+00 2.6683031504e+00 
42200 5.0286739379e+00 7.0475361917e-05 1.5405455422e+00 -2.6683031504e+00 1.5405455422e+00 2.6683031504e+00 
42300 5.0286739452e+00 7.1157712823e-05 1.5405455422e+00 -2.6683031504e+00 1.5405455422e+00 2.6683031504e+00 
42400 5.0286739523e+00 6.9875974960e-05 1.5405432327e+00 -2.6682991503e+00 1.5405432327e+00 2.6682991503e+00 
42500 5.0286739594e+00 7.0544304180e-05 1.5405432327e+00 -2.6682991503e+00 1.5405432327e+00 2.6682991503e+00 
42600 5.0286739663e+00 7.1212601469e-05 1.5405432327e+00 -2.6682991503e+00 1.5405432327e+00 2.6682991503e+00 
42700 5.0286739730e+00 6.9914637878e-05 1.5405409214e+00 -2.6682951470e+00 1.5405409214e+00 2.6682951470e+00 
42800 5.0286739797e+00 7.0567572449e-05 1.5405409214e+00 -2.6682951470e+00 1.5405409214e+00 2.6682951470e+00 
42900 5.0286739863e+00 7.1219827995e-05 1.5405409214e+00 -2.6682951470e+00 1.5405409214e+00 2.6682951470e+00 
43000 5.0286739926e+00 6.9905001342e-05 1.5405386099e+00 -2.6682911433e+00 1.5405386099e+00 2.6682911433e+00 
43100 5.0286739990e+00 7.0540639976e-05 1.5405386099e+00 -2.6682911433e+00 1.5405386099e+00 2.6682911433e+00 
43200 5.0286740053e+00 7.1174996293e-05 1.5405386099e+00 -2.6682911433e+00 1.5405386099e+00 2.6682911433e+00 
43300 5.0286740113e+00 6.9842931621e-05 1.5405362998e+00 -2.6682871422e+00 1.5405362998e+00 2.6682871422e+00 
43400 5.0286740173e+00 7.0459524156e-05 1.5405362998e+00 -2.6682871422e+00 1.5405362998e+00 2.6682871422e+00 
43500 5.0286740233e+00 7.1074283277e-05 1.5405362998e+00 -2.6682871422e+00 1.5405362998e+00 2.6682871422e+00 
43600 5.0286740289e+00 6.9724878300e-05 1.5405339930e+00 -2.6682831467e+00 1.5405339930e+00 2.6682831467e+00 
43700 5.0286740346e+00 7.0320849071e-05 1.5405339930e+00 -2.6682831467e+00 1.5405339930e+00 2.6682831467e+00 
43800 5.0286740403e+00 7.0914493402e-05 1.5405339930e+00 -2.6682831467e+00 1.5405339930e+00 2.6682831467e+00 
43900 5.0286740456e+00 6.9547919657e-05 1.5405316914e+00 -2.6682791602e+00 1.5405316914e+00 2.6682791602e+00 
44000 5.0286740511e+00 7.0121883550e-05 1.5405316914e+00 -2.6682791602e+00 1.5405316914e+00 2.6682791602e+00 
44100 5.0286740564e+00 7.0693089776e-05 1.5405316914e+00 -2.6682791602e+00 1.5405316914e+00 2.6682791602e+00 
44200 5.0286740617e+00 7.1261342564e-05 1.5405316914e+00 -2.6682791602e+00 1.5405316914e+00 2.6682791602e+00 
44300 5.0286740666e+00 6.9859209967e-05 1.5405293785e+00 -2.6682751541e+00 1.5405293785e+00 2.6682751541e+00 
44400 5.0286740717e+00 7.0406531441e-05 1.5405293785e+00 -2.6682751541e+00 1.5405293785e+00 2.6682751541e+00 
44500 5.0286740766e+00 7.0950543819e-05 1.5405293785e+00 -2.6682751541e+00 1.5405293785e+00 2.6682751541e+00 
44600 5.0286740813e+00 6.9532422414e-05 1.5405270757e+00 -2.6682711656e+00 1.5405270757e+00 2.6682711656e+00 
44700 5.0286740861e+00 7.0054923301e-05 1.5405270757e+00 -2.6682711656e+00 1.5405270757e+00 2.6682711656e+00 
44800 5.0286740908e+00 7.0573826413e-05 1.5405270757e+00 -2.6682711656e+00 1.5405270757e+00 2.6682711656e+00 
44900 5.0286740954e+00 7.1088984067e-05 1.5405270757e+00 -2.6682711656e+00 1.5405270757e+00 2.6682711656e+00 
45000 5.0286740998e+00 6.9637782380e-05 1.5405247684e+00 -2.6682671692e+00 1.5405247684e+00 2.6682671692e+00 
45100 5.0286741042e+00 7.0130604172e-05 1.5405247684e+00 -2.6682671692e+00 1.5405247684e+00 2.6682671692e+00 
45200 5.0286741086e+00 7.0619468752e-05 1.5405247684e+00 -2.6682671692e+00 1.5405247684e+00 2.6682671692e+00 
45300 5.0286741129e+00 7.1104253941e-05 1.5405247684e+00 -2.6682671692e+00 1.5405247684e+00 2.6682671692e+00 
45400 5.0286741169e+00 6.9621955144e-05 1.5405224606e+00 -2.6682631720e+00 1.5405224606e+00 2.6682631720e+00 
45500 5.0286741211e+00 7.0083809601e-05 1.5405224606e+00 -2.6682631720e+00 1.5405224606e+00 2.6682631720e+00 
45600 5.0286741251e+00 7.0541448680e-05 1.5405224606e+00 -2.6682631720e+00 1.5405224606e+00 2.6682631720e+00 
45700 5.0286741291e+00 7.0994775024e-05 1.5405224606e+00 -2.6682631720e+00 1.5405224606e+00 2.6682631720e+00 
45800 5.0286741329e+00 6.9483834742e-05 1.5405201564e+00 -2.6682591809e+00 1.5405201564e+00 2.6682591809e+00 
45900 5.0286741367e+00 6.9913859246e-05 1.5405201564e+00 -2.6682591809e+00 1.5405201564e+00 2.6682591809e+00 
46000 5.0286741405e+00 7.0339507366e-05 1.5405201564e+00 -2.6682591809e+00 1.5405201564e+00 2.6682591809e+00 
46100 5.0286741442e+00 7.0760705235e-05 1.5405201564e+00 -2.6682591809e+00 1.5405201564e+00 2.6682591809e+00 
46200 5.0286741477e+00 6.9223986292e-05 1.5405178597e+00 -2.6682552030e+00 1.5405178597e+00 2.6682552030e+00 
46300 5.0286741512e+00 6.9621723652e-05 1.5405178597e+00 -2.6682552030e+00 1.5405178597e+00 2.6682552030e+00 
46400 5.0286741548e+00 7.0015014352e-05 1.5405178597e+00 -2.6682552030e+00 1.5405178597e+00 2.6682552030e+00 
46500 5.0286741582e+00 7.0403806210e-05 1.5405178597e+00 -2.6682552030e+00 1.5405178597e+00 2.6682552030e+00 
46600 5.0286741616e+00 7.0788048914e-05 1.5405178597e+00 -2.6682552030e+00 1.5405178597e+00 2.6682552030e+00 
46700 5.0286741647e+00 6.9213547725e-05 1.5405155622e+00 -2.6682512236e+00 1.5405155622e+00 2.6682512236e+00 
46800 5.0286741680e+00 6.9574195865e-05 1.5405155622e+00 -2.6682512236e+00 1.5405155622e+00 2.6682512236e+00 
46900 5.0286741712e+00 6.9930366929e-05 1.5405155622e+00 -2.6682512236e+00 1.5405155622e+00 2.6682512236e+00 
47000 5.0286741744e+00 7.0282030696e-05 1.5405155622e+00 -2.6682512236e+00 1.5405155622e+00 2.6682512236e+00 
47100 5.0286741775e+00 7.0629158347e-05 1.5405155622e+00 -2.6682512236e+00 1.5405155622e+00 2.6682512236e+00 
47200 5.0286741805e+00 7.0971722581e-05 1.5405155622e+00 -2.6682512236e+00 1.5405155622e+00 2.6682512236e+00 
47300 5.0286741833e+00 6.9350484348e-05 1.5405132587e+00 -2.6682472338e+00 1.5405132587e+00 2.6682472338e+00 
47400 5.0286741862e+00 6.9669455850e-05 1.5405132587e+00 -2.6682472338e+00 1.5405132587e+00 2.6682472338e+00 
47500 5.0286741891e+00 6.9984003187e-05 1.5405132587e+00 -2.6682472338e+00 1.5405132587e+00 2.6682472338e+00 
47600 5.0286741919e+00 7.0294117482e-05 1.5405132587e+00 -2.6682472338e+00 1.5405132587e+00 2.6682472338e+00 
47700 5.0286741947e+00 7.0599790770e-05 1.5405132587e+00 -2.6682472338e+00 1.5405132587e+00 2.6682472338e+00 
47800 5.0286741974e+00 7.0901016096e-05 1.5405132587e+00 -2.6682472338e+00 1.5405132587e+00 2.6682472338e+00 
47900 5.0286741999e+00 6.9240527550e-05 1.5405109575e+00 -2.6682432480e+00 1.5405109575e+00 2.6682432480e+00 
48000 5.0286742025e+00 6.9518464450e-05 1.5405109575e+00 -2.6682432480e+00 1.5405109575e+00 2.6682432480e+00 
48100 5.0286742051e+00 6.9792150238e-05 1.5405109575e+00 -2.6682432480e+00 1.5405109575e+00 2.6682432480e+00 
48200 5.0286742076e+00 7.0061594175e-05 1.5405109575e+00 -2.6682432480e+00 1.5405109575e+00 2.6682432480e+00 
48300 5.0286742101e+00 7.0326805861e-05 1.5405109575e+00 -2.6682432480e+00 1.5405109575e+00 2.6682432480e+00 
48400 5.0286742125e+00 7.0587795317e-05 1.5405109575e+00 -2.6682432480e+00 1.5405109575e+00 2.6682432480e+00 
48500 5.0286742149e+00 7.0844573068e-05 1.5405109575e+00 -2.6682432480e+00 1.5405109575e+00 2.6682432480e+00 
48600 5.0286742171e+00 6.9141449106e-05 1.5405086581e+00 -2.6682392653e+00 1.5405086581e+00 2.6682392653e+00 
48700 5.0286742194e+00 6.9375472911e-05 1.5405086581e+00 -2.6682392653e+00 1.5405086581e+00 2.6682392653e+00 
48800 5.0286742216e+00 6.9605530952e-05 1.5405086581e+00 -2.6682392653e+00 1.5405086581e+00 2.6682392653e+00 
48900 5.0286742239e+00 6.9831647811e-05 1.5405086581e+00 -2.6682392653e+00 1.5405086581e+00 2.6682392653e+00 
49000 5.0286742261e+00 7.0053847848e-05 1.5405086581e+00 -2.6682392653e+00 1.5405086581e+00 2.6682392653e+00 
49100 5.0286742282e+00 7.0272155285e-05 1.5405086581e+00 -2.6682392653e+00 1.5405086581e+00 2.6682392653e+00 
49200 5.0286742303e+00 7.0486594277e-05 1.5405086581e+00 -2.6682392653e+00 1.5405086581e+00 2.6682392653e+00 
49300 5.0286742324e+00 7.0697188979e-05 1.5405086581e+00 -2.6682392653e+00 1.5405086581e+00 2.6682392653e+00 
49400 5.0286742344e+00 7.0903963612e-05 1.5405086581e+00 -2.6682392653e+00 1.5405086581e+00 2.6682392653e+00 
49500 5.0286742362e+00 6.9149602313e-05 1.5405063568e+00 -2.6682352793e+00 1.5405063568e+00 2.6682352793e+00 
49600 5.0286742381e+00 6.9334433725e-05 1.5405063568e+00 -2.6682352793e+00 1.5405063568e+00 2.6682352793e+00 
49700 5.0286742401e+00 6.9515729506e-05 1.5405063568e+00 -2.6682352793e+00 1.5405063568e+00 2.6682352793e+00 
49800 5.0286742420e+00 6.9693526071e-05 1.5405063568e+00 -2.6682352793e+00 1.5405063568e+00 2.6682352793e+00 
49900 5.0286742438e+00 6.9867859124e-05 1.5405063568e+00 -2.6682352793e+00 1.5405063568e+00 2.6682352793e+00 
50000 5.0286742456e+00 7.0038763729e-05 1.5405063568e+00 -2.6682352793e+00 1.5405063568e+00 2.6682352793e+00 
50100 5.0286742474e+00 7.0206274381e-05 1.5405063568e+00 -2.6682352793e+00 1.5405063568e+00 2.6682352793e+00 
50200 5.0286742492e+00 7.0370425076e-05 1.5405063568e+00 -2.6682352793e+00 1.5405063568e+00 2.6682352793e+00 
50300 5.0286742509e+00 7.0531249364e-05 1.5405063568e+00 -2.6682352793e+00 1.5405063568e+00 2.6682352793e+00 
50400 5.0286742526e+00 7.0688780410e-05 1.5405063568e+00 -2.6682352793e+00 1.5405063568e+00 2.6682352793e+00 
50500 5.0286742542e+00 7.0843051043e-05 1.5405063568e+00 -2.6682352793e+00 1.5405063568e+00 2.6682352793e+00 
50600 5.0286742557e+00 6.9038433969e-05 1.5405040574e+00 -2.6682312967e+00 1.5405040574e+00 2.6682312967e+00 
50700 5.0286742573e+00 6.9171917516e-05 1.5405040574e+00 -2.6682312967e+00 1.5405040574e+00 2.6682312967e+00 
50800 5.0286742588e+00 6.9302448249e-05 1.5405040574e+00 -2.6682312967e+00 1.5405040574e+00 2.6682312967e+00 
50900 5.0286742604e+00 6.9430069514e-05 1.5405040574e+00 -2.6682312967e+00 1.5405040574e+00 2.6682312967e+00 
51000 5.0286742619e+00 6.9554823516e-05 1.5405040574e+00 -2.6682312967e+00 1.5405040574e+00 2.6682312967e+00 
51100 5.0286742634e+00 6.9676751390e-05 1.5405040574e+00 -2.6682312967e+00 1.5405040574e+00 2.6682312967e+00 
51200 5.0286742649e+00 6.9795893274e-05 1.5405040574e+00 -2.6682312967e+00 1.5405040574e+00 2.6682312967e+00 
51300 5.0286742663e+00 6.9912288368e-05 1.5405040574e+00 -2.6682312967e+00 1.5405040574e+00 2.6682312967e+00 
51400 5.0286742677e+00 7.0025975001e-05 1.5405040574e+00 -2.6682312967e+00 1.5405040574e+00 2.6682312967e+00 
51500 5.0286742691e+00 7.0136990683e-05 1.5405040574e+00 -2.6682312967e+00 1.5405040574e+00 2.6682312967e+00 
51600 5.0286742705e+00 7.0245372162e-05 1.5405040574e+00 -2.6682312967e+00 1.5405040574e+00 2.6682312967e+00 
51700 5.0286742718e+00 7.0351155479e-05 1.5405040574e+00 -2.6682312967e+00 1.5405040574e+00 2.6682312967e+00 
51800 5.0286742731e+00 7.0454376006e-05 1.5405040574e+00 -2.6682312967e+00 1.5405040574e+00 2.6682312967e+00 
51900 5.0286742744e+00 7.0555068504e-05 1.5405040574e+00 -2.6682312967e+00 1.5405040574e+00 2.6682312967e+00 
52000 5.0286742757e+00 7.0653267154e-05 1.5405040574e+00 -2.6682312967e+00 1.5405040574e+00 2.6682312967e+00 
52100 5.0286742769e+00 7.0749005605e-05 1.5405040574e+00 -2.6682312967e+00 1.5405040574e+00 2.6682312967e+00 
52200 5.0286742779e+00 6.8889250373e-05 1.5405017611e+00 -2.6682273194e+00 1.5405017611e+00 2.6682273194e+00 
52300 5.0286742791e+00 6.8965823199e-05 1.5405017611e+00 -2.6682273194e+00 1.5405017611e+00 2.6682273194e+00 
52400 5.0286742803e+00 6.9040244270e-05 1.5405017611e+00 -2.6682273194e+00 1.5405017611e+00 2.6682273194e+00 
52500 5.0286742815e+00 6.9112556834e-05 1.5405017611e+00 -2.6682273194e+00 1.5405017611e+00 2.6682273194e+00 
52600 5.0286742826e+00 6.9182802760e-05 1.5405017611e+00 -2.6682273194e+00 1.5405017611e+00 2.6682273194e+00 
52700 5.0286742837e+00 6.9251022601e-05 1.5405017611e+00 -2.6682273194e+00 1.5405017611e+00 2.6682273194e+00 
52800 5.0286742848e+00 6.9317255659e-05 1.5405017611e+00 -2.6682273194e+00 1.5405017611e+00 2.6682273194e+00 
52900 5.0286742859e+00 6.9381540051e-05 1.5405017611e+00 -2.6682273194e+00 1.5405017611e+00 2.6682273194e+00 
53000 5.0286742869e+00 6.9443912762e-05 1.5405017611e+00 -2.6682273194e+00 1.5405017611e+00 2.6682273194e+00 
53100 5.0286742880e+00 6.9504409705e-05 1.5405017611e+00 -2.6682273194e+00 1.5405017611e+00 2.6682273194e+00 
53200 5.0286742890e+00 6.9563065775e-05 1.5405017611e+00 -2.6682273194e+00 1.5405017611e+00 2.6682273194e+00 
53300 5.0286742900e+00 6.9619914898e-05 1.5405017611e+00 -2.6682273194e+00 1.5405017611e+00 2.6682273194e+00 
53400 5.0286742910e+00 6.9674990083e-05 1.5405017611e+00 -2.6682273194e+00 1.5405017611e+00 2.6682273194e+00 
53500 5.0286742920e+00 6.9728323466e-05 1.5405017611e+00 -2.6682273194e+00 1.5405017611e+00 2.6682273194e+00 
53600 5.0286742929e+00 6.9779946356e-05 1.5405017611e+00 -2.6682273194e+00 1.5405017611e+00 2.6682273194e+00 
53700 5.0286742938e+00 6.9829889278e-05 1.5405017611e+00 -2.6682273194e+00 1.5405017611e+00 2.6682273194e+00 
53800 5.0286742948e+00 6.9878182012e-05 1.5405017611e+00 -2.6682273194e+00 1.5405017611e+00 2.6682273194e+00 
53900 5.0286742957e+00 6.9924853631e-05 1.5405017611e+00 -2.6682273194e+00 1.5405017611e+00 2.6682273194e+00 
54000 5.0286742965e+00 6.9969932541e-05 1.5405017611e+00 -2.6682273194e+00 1.5405017611e+00 2.6682273194e+00 
54100 5.0286742974e+00 7.0013446509e-05 1.5405017611e+00 -2.6682273194e+00 1.5405017611e+00 2.6682273194e+00 
54200 5.0286742983e+00 7.0055422702e-05 1.5405017611e+00 -2.6682273194e+00 1.5405017611e+00 2.6682273194e+00 
54300 5.0286742991e+00 7.0095887715e-05 1.5405017611e+00 -2.6682273194e+00 1.5405017611e+00 2.6682273194e+00 
54400 5.0286742999e+00 7.0134867600e-05 1.5405017611e+00 -2.6682273194e+00 1.5405017611e+00 2.6682273194e+00 
54500 5.0286743007e+00 7.0172387895e-05 1.5405017611e+00 -2.6682273194e+00 1.5405017611e+00 2.6682273194e+00 
54600 5.0286743015e+00 7.0208473648e-05 1.5405017611e+00 -2.6682273194e+00 1.5405017611e+00 2.6682273194e+00 
54700 5.0286743023e+00 7.0243149448e-05 1.5405017611e+00 -2.6682273194e+00 1.5405017611e+00 2.6682273194e+00 
54800 5.0286743031e+00 7.0276439438e-05 1.5405017611e+00 -2.6682273194e+00 1.5405017611e+00 2.6682273194e+00 
54900 5.0286743038e+00 7.0308367347e-05 1.5405017611e+00 -2.6682273194e+00 1.5405017611e+00 2.6682273194e+00 
55000 5.0286743046e+00 7.0338956502e-05 1.5405017611e+00 -2.6682273194e+00 1.5405017611e+00 2.6682273194e+00 
55100 5.0286743053e+00 7.0368229856e-05 1.5405017611e+00 -2.6682273194e+00 1.5405017611e+00 2.6682273194e+00 
55200 5.0286743060e+00 7.0396209997e-05 1.5405017611e+00 -2.6682273194e+00 1.5405017611e+00 2.6682273194e+00 
55300 5.0286743067e+00 7.0422919174e-05 1.5405017611e+00 -2.6682273194e+00 1.5405017611e+00 2.6682273194e+00 
55400 5.0286743074e+00 7.0448379306e-05 1.5405017611e+00 -2.6682273194e+00 1.5405017611e+00 2.6682273194e+00 
55500 5.0286743081e+00 7.0472612001e-05 1.5405017611e+00 -2.6682273194e+00 1.5405017611e+00 2.6682273194e+00 
55600 5.0286743088e+00 7.0495638568e-05 1.5405017611e+00 -2.6682273194e+00 1.5405017611e+00 2.6682273194e+00 
55700 5.0286743094e+00 7.0517480029e-05 1.5405017611e+00 -2.6682273194e+00 1.5405017611e+00 2.6682273194e+00 
55800 5.0286743101e+00 7.0538157134e-05 1.5405017611e+00 -2.6682273194e+00 1.5405017611e+00 2.6682273194e+00 
55900 5.0286743107e+00 7.0557690371e-05 1.5405017611e+00 -2.6682273194e+00 1.5405017611e+00 2.6682273194e+00 
56000 5.0286743113e+00 7.0576099975e-05 1.5405017611e+00 -2.6682273194e+00 1.5405017611e+00 2.6682273194e+00 
56100 5.0286743119e+00 7.0593405939e-05 1.5405017611e+00 -2.6682273194e+00 1.5405017611e+00 2.6682273194e+00 
56200 5.0286743126e+00 7.0609628022e-05 1.5405017611e+00 -2.6682273194e+00 1.5405017611e+00 2.6682273194e+00 
56300 5.0286743131e+00 7.0624785759e-05 1.5405017611e+00 -2.6682273194e+00 1.5405017611e+00 2.6682273194e+00 
56400 5.0286743137e+00 7.0638898464e-05 1.5405017611e+00 -2.6682273194e+00 1.5405017611e+00 2.6682273194e+00 
56500 5.0286743143e+00 7.0651985243e-05 1.5405017611e+00 -2.6682273194e+00 1.5405017611e+00 2.6682273194e+00 
56600 5.0286743149e+00 7.0664064998e-05 1.5405017611e+00 -2.6682273194e+00 1.5405017611e+00 2.6682273194e+00 
56700 5.0286743154e+00 7.0675156426e-05 1.5405017611e+00 -2.6682273194e+00 1.5405017611e+00 2.6682273194e+00 
56800 5.0286743160e+00 7.0685278039e-05 1.5405017611e+00 -2.6682273194e+00 1.5405017611e+00 2.6682273194e+00 
56900 5.0286743165e+00 7.0694448153e-05 1.5405017611e+00 -2.6682273194e+00 1.5405017611e+00 2.6682273194e+00 
57000 5.0286743170e+00 7.0702684902e-05 1.5405017611e+00 -2.6682273194e+00 1.5405017611e+00 2.6682273194e+00 
57100 5.0286743175e+00 7.0710006237e-05 1.5405017611e+00 -2.6682273194e+00 1.5405017611e+00 2.6682273194e+00 
57200 5.0286743180e+00 7.0716429934e-05 1.5405017611e+00 -2.6682273194e+00 1.5405017611e+00 2.6682273194e+00 
57300 5.0286743183e+00 6.8769793235e-05 1.5404994659e+00 -2.6682233440e+00 1.5404994659e+00 2.6682233440e+00 
57400 5.0286743188e+00 6.8760137547e-05 1.5404994659e+00 -2.6682233440e+00 1.5404994659e+00 2.6682233440e+00 
57500 5.0286743193e+00 6.8749846701e-05 1.5404994659e+00 -2.6682233440e+00 1.5404994659e+00 2.6682233440e+00 
57600 5.0286743198e+00 6.8738949182e-05 1.5404994659e+00 -2.6682233440e+00 1.5404994659e+00 2.6682233440e+00 
57700 5.0286743202e+00 6.8727472300e-05 1.5404994659e+00 -2.6682233440e+00 1.5404994659e+00 2.6682233440e+00 
57800 5.0286743207e+00 6.8715442239e-05 1.5404994659e+00 -2.6682233440e+00 1.5404994659e+00 2.6682233440e+00 
57900 5.0286743211e+00 6.8702884091e-05 1.5404994659e+00 -2.6682233440e+00 1.5404994659e+00 2.6682233440e+00 
58000 5.0286743216e+00 6.8689821902e-05 1.5404994659e+00 -2.6682233440e+00 1.5404994659e+00 2.6682233440e+00 
58100 5.0286743220e+00 6.8676278710e-05 1.5404994659e+00 -2.6682233440e+00 1.5404994659e+00 2.6682233440e+00 
58200 5.0286743224e+00 6.8662276584e-05 1.5404994659e+00 -2.6682233440e+00 1.5404994659e+00 2.6682233440e+00 
58300 5.0286743229e+00 6.8647836660e-05 1.5404994659e+00 -2.6682233440e+00 1.5404994659e+00 2.6682233440e+00 
58400 5.0286743233e+00 6.8632979181e-05 1.5404994659e+00 -2.6682233440e+00 1.5404994659e+00 2.6682233440e+00 
58500 5.0286743237e+00 6.8617723527e-05 1.5404994659e+00 -2.6682233440e+00 1.5404994659e+00 2.6682233440e+00 
58600 5.0286743241e+00 6.8602088257e-05 1.5404994659e+00 -2.6682233440e+00 1.5404994659e+00 2.6682233440e+00 
58700 5.0286743245e+00 6.8586091133e-05 1.5404994659e+00 -2.6682233440e+00 1.5404994659e+00 2.6682233440e+00 
58800 5.0286743249e+00 6.8569749161e-05 1.5404994659e+00 -2.6682233440e+00 1.5404994659e+00 2.6682233440e+00 
58900 5.0286743252e+00 6.8553078615e-05 1.5404994659e+00 -2.6682233440e+00 1.5404994659e+00 2.6682233440e+00 
59000 5.0286743256e+00 6.8536095071e-05 1.5404994659e+00 -2.6682233440e+00 1.5404994659e+00 2.6682233440e+00 
59100 5.0286743260e+00 6.8518813438e-05 1.5404994659e+00 -2.6682233440e+00 1.5404994659e+00 2.6682233440e+00 
59200 5.0286743263e+00 6.8501247983e-05 1.5404994659e+00 -2.6682233440e+00 1.5404994659e+00 2.6682233440e+00 
59300 5.0286743267e+00 6.8483412359e-05 1.5404994659e+00 -2.6682233440e+00 1.5404994659e+00 2.6682233440e+00 
59400 5.0286743270e+00 6.8465319632e-05 1.5404994659e+00 -2.6682233440e+00 1.5404994659e+00 2.6682233440e+00 
59500 5.0286743274e+00 6.8446982308e-05 1.5404994659e+00 -2.6682233440e+00 1.5404994659e+00 2.6682233440e+00 
59600 5.0286743277e+00 6.8428412353e-05 1.5404994659e+00 -2.6682233440e+00 1.5404994659e+00 2.6682233440e+00 
59700 5.0286743281e+00 6.8409621224e-05 1.5404994659e+00 -2.6682233440e+00 1.5404994659e+00 2.6682233440e+00 
59800 5.0286743284e+00 6.8390619886e-05 1.5404994659e+00 -2.6682233440e+00 1.5404994659e+00 2.6682233440e+00 
59900 5.0286743287e+00 6.8371418835e-05 1.5404994659e+00 -2.6682233440e+00 1.5404994659e+00 2.6682233440e+00 
60000 5.0286743290e+00 6.8352028123e-05 1.5404994659e+00 -2.6682233440e+00 1.5404994659e+00 2.6682233440e+00 
60100 5.0286743293e+00 6.8332457375e-05 1.5404994659e+00 -2.6682233440e+00 1.5404994659e+00 2.6682233440e+00 
60200 5.0286743296e+00 6.8312715808e-05 1.5404994659e+00 -2.6682233440e+00 1.5404994659e+00 2.6682233440e+00 
60300 5.0286743299e+00 6.8292812253e-05 1.5404994659e+00 -2.6682233440e+00 1.5404994659e+00 2.6682233440e+00 
60400 5.0286743302e+00 6.8272755173e-05 1.5404994659e+00 -2.6682233440e+00 1.5404994659e+00 2.6682233440e+00 
60500 5.0286743305e+00 6.8252552676e-05 1.5404994659e+00 -2.6682233440e+00 1.5404994659e+00 2.6682233440e+00 
60600 5.0286743308e+00 6.8232212538e-05 1.5404994659e+00 -2.6682233440e+00 1.5404994659e+00 2.6682233440e+00 
60700 5.0286743311e+00 6.8211742217e-05 1.5404994659e+00 -2.6682233440e+00 1.5404994659e+00 2.6682233440e+00 
60800 5.0286743314e+00 6.8191148864e-05 1.5404994659e+00 -2.6682233440e+00 1.5404994659e+00 2.6682233440e+00 
60900 5.0286743316e+00 6.8170439347e-05 1.5404994659e+00 -2.6682233440e+00 1.5404994659e+00 2.6682233440e+00 
61000 5.0286743319e+00 6.8149620254e-05 1.5404994659e+00 -2.6682233440e+00 1.5404994659e+00 2.6682233440e+00 
61100 5.0286743322e+00 6.8128697917e-05 1.5404994659e+00 -2.6682233440e+00 1.5404994659e+00 2.6682233440e+00 
61200 5.0286743324e+00 6.8107678420e-05 1.5404994659e+00 -2.6682233440e+00 1.5404994659e+00 2.6682233440e+00 
61300 5.0286743327e+00 6.8086567609e-05 1.5404994659e+00 -2.6682233440e+00 1.5404994659e+00 2.6682233440e+00 
61400 5.0286743329e+00 6.8065371107e-05 1.5404994659e+00 -2.6682233440e+00 1.5404994659e+00 2.6682233440e+00 
61500 5.0286743332e+00 6.8044094330e-05 1.5404994659e+00 -2.6682233440e+00 1.5404994659e+00 2.6682233440e+00 
61600 5.0286743334e+00 6.8022742487e-05 1.5404994659e+00 -2.6682233440e+00 1.5404994659e+00 2.6682233440e+00 
61700 5.0286743337e+00 6.8001320601e-05 1.5404994659e+00 -2.6682233440e+00 1.5404994659e+00 2.6682233440e+00 
61800 5.0286743339e+00 6.7979833510e-05 1.5404994659e+00 -2.6682233440e+00 1.5404994659e+00 2.6682233440e+00 
61900 5.0286743341e+00 6.7958285881e-05 1.5404994659e+00 -2.6682233440e+00 1.5404994659e+00 2.6682233440e+00 
62000 5.0286743343e+00 6.7936682224e-05 1.5404994659e+00 -2.6682233440e+00 1.5404994659e+00 2.6682233440e+00 
62100 5.0286743346e+00 6.7915026887e-05 1.5404994659e+00 -2.6682233440e+00 1.5404994659e+00 2.6682233440e+00 
62200 5.0286743348e+00 6.7893324077e-05 1.5404994659e+00 -2.6682233440e+00 1.5404994659e+00 2.6682233440e+00 
62300 5.0286743350e+00 6.7871577860e-05 1.5404994659e+00 -2.6682233440e+00 1.5404994659e+00 2.6682233440e+00 
62400 5.0286743352e+00 6.7849792174e-05 1.5404994659e+00 -2.6682233440e+00 1.5404994659e+00 2.6682233440e+00 
62500 5.0286743354e+00 6.7827970828e-05 1.5404994659e+00 -2.6682233440e+00 1.5404994659e+00 2.6682233440e+00 
62600 5.0286743356e+00 6.7806117518e-05 1.5404994659e+00 -2.6682233440e+00 1.5404994659e+00 2.6682233440e+00 
62700 5.0286743358e+00 6.7784235826e-05 1.5404994659e+00 -2.6682233440e+00 1.5404994659e+00 2.6682233440e+00 
62800 5.0286743360e+00 6.7762329226e-05 1.5404994659e+00 -2.6682233440e+00 1.5404994659e+00 2.6682233440e+00 
62900 5.0286743362e+00 6.7740401097e-05 1.5404994659e+00 -2.6682233440e+00 1.5404994659e+00 2.6682233440e+00 
63000 5.0286743364e+00 6.7718454719e-05 1.5404994659e+00 -2.6682233440e+00 1.5404994659e+00 2.6682233440e+00 
63100 5.0286743366e+00 6.7696493284e-05 1.5404994659e+00 -2.6682233440e+00 1.5404994659e+00 2.6682233440e+00 
63200 5.0286743368e+00 6.7674519896e-05 1.5404994659e+00 -2.6682233440e+00 1.5404994659e+00 2.6682233440e+00 
63300 5.0286743370e+00 6.7652537579e-05 1.5404994659e+00 -2.6682233440e+00 1.5404994659e+00 2.6682233440e+00 
63400 5.0286743372e+00 6.7630549283e-05 1.5404994659e+00 -2.6682233440e+00 1.5404994659e+00 2.6682233440e+00 
63500 5.0286743374e+00 6.7608557880e-05 1.5404994659e+00 -2.6682233440e+00 1.5404994659e+00 2.6682233440e+00 
63600 5.0286743375e+00 6.7586566175e-05 1.5404994659e+00 -2.6682233440e+00 1.5404994659e+00 2.6682233440e+00 
63700 5.0286743377e+00 6.7564576906e-05 1.5404994659e+00 -2.6682233440e+00 1.5404994659e+00 2.6682233440e+00 
63800 5.0286743379e+00 6.7542592748e-05 1.5404994659e+00 -2.6682233440e+00 1.5404994659e+00 2.6682233440e+00 
63900 5.0286743380e+00 6.7520616317e-05 1.5404994659e+00 -2.6682233440e+00 1.5404994659e+00 2.6682233440e+00 
64000 5.0286743382e+00 6.7498650169e-05 1.5404994659e+00 -2.6682233440e+00 1.5404994659e+00 2.6682233440e+00 
64100 5.0286743384e+00 6.7476696810e-05 1.5404994659e+00 -2.6682233440e+00 1.5404994659e+00 2.6682233440e+00 
64200 5.0286743385e+00 6.7454758688e-05 1.5404994659e+00 -2.6682233440e+00 1.5404994659e+00 2.6682233440e+00 
64300 5.0286743387e+00 6.7432838204e-05 1.5404994659e+00 -2.6682233440e+00 1.5404994659e+00 2.6682233440e+00 
64400 5.0286743388e+00 6.7410937712e-05 1.5404994659e+00 -2.6682233440e+00 1.5404994659e+00 2.6682233440e+00 
64500 5.0286743390e+00 6.7389059517e-05 1.5404994659e+00 -2.6682233440e+00 1.5404994659e+00 2.6682233440e+00 
64600 5.0286743391e+00 6.7367205882e-05 1.5404994659e+00 -2.6682233440e+00 1.5404994659e+00 2.6682233440e+00 
64700 5.0286743393e+00 6.7345379025e-05 1.5404994659e+00 -2.6682233440e+00 1.5404994659e+00 2.6682233440e+00 
64800 5.0286743394e+00 6.7323581126e-05 1.5404994659e+00 -2.6682233440e+00 1.5404994659e+00 2.6682233440e+00 
64900 5.0286743396e+00 6.7301814323e-05 1.5404994659e+00 -2.6682233440e+00 1.5404994659e+00 2.6682233440e+00 
65000 5.0286743397e+00 6.7280080715e-05 1.5404994659e+00 -2.6682233440e+00 1.5404994659e+00 2.6682233440e+00 
65100 5.0286743399e+00 6.7258382367e-05 1.5404994659e+00 -2.6682233440e+00 1.5404994659e+00 2.6682233440e+00 
65200 5.0286743400e+00 6.7236721303e-05 1.5404994659e+00 -2.6682233440e+00 1.5404994659e+00 2.6682233440e+00 
65300 5.0286743401e+00 6.7215099514e-05 1.5404994659e+00 -2.6682233440e+00 1.5404994659e+00 2.6682233440e+00 
65400 5.0286743403e+00 6.7193518960e-05 1.5404994659e+00 -2.6682233440e+00 1.5404994659e+00 2.6682233440e+00 
65500 5.0286743404e+00 6.7171981561e-05 1.5404994659e+00 -2.6682233440e+00 1.5404994659e+00 2.6682233440e+00 
65600 5.0286743405e+00 6.7150489211e-05 1.5404994659e+00 -2.6682233440e+00 1.5404994659e+00 2.6682233440e+00 
65700 5.0286743406e+00 6.7129043764e-05 1.5404994659e+00 -2.6682233440e+00 1.5404994659e+00 2.6682233440e+00 
65800 5.0286743408e+00 6.7107647052e-05 1.5404994659e+00 -2.6682233440e+00 1.5404994659e+00 2.6682233440e+00 
65900 5.0286743409e+00 6.7086300866e-05 1.5404994659e+00 -2.6682233440e+00 1.5404994659e+00 2.6682233440e+00 
66000 5.0286743410e+00 6.7065006974e-05 1.5404994659e+00 -2.6682233440e+00 1.5404994659e+00 2.6682233440e+00 
66100 5.0286743411e+00 6.7043767111e-05 1.5404994659e+00 -2.6682233440e+00 1.5404994659e+00 2.6682233440e+00 
66200 5.0286743412e+00 6.7022582981e-05 1.5404994659e+00 -2.6682233440e+00 1.5404994659e+00 2.6682233440e+00 
66300 5.0286743414e+00 6.7001456262e-05 1.5404994659e+00 -2.6682233440e+00 1.5404994659e+00 2.6682233440e+00 
66400 5.0286743415e+00 6.6980388600e-05 1.5404994659e+00 -2.6682233440e+00 1.5404994659e+00 2.6682233440e+00 
66500 5.0286743416e+00 6.6959381613e-05 1.5404994659e+00 -2.6682233440e+00 1.5404994659e+00 2.6682233440e+00 
66600 5.0286743417e+00 6.6938436889e-05 1.5404994659e+00 -2.6682233440e+00 1.5404994659e+00 2.6682233440e+00 
66700 5.0286743418e+00 6.6917555991e-05 1.5404994659e+00 -2.6682233440e+00 1.5404994659e+00 2.6682233440e+00 
66800 5.0286743419e+00 6.6896740450e-05 1.5404994659e+00 -2.6682233440e+00 1.5404994659e+00 2.6682233440e+00 
66900 5.0286743420e+00 6.6875991771e-05 1.5404994659e+00 -2.6682233440e+00 1.5404994659e+00 2.6682233440e+00 
67000 5.0286743421e+00 6.6855311429e-05 1.5404994659e+00 -2.6682233440e+00 1.5404994659e+00 2.6682233440e+00 
67100 5.0286743422e+00 6.6834700875e-05 1.5404994659e+00 -2.6682233440e+00 1.5404994659e+00 2.6682233440e+00 
67200 5.0286743423e+00 6.6814161527e-05 1.5404994659e+00 -2.6682233440e+00 1.5404994659e+00 2.6682233440e+00 
67300 5.0286743424e+00 6.6793694777e-05 1.5404994659e+00 -2.6682233440e+00 1.5404994659e+00 2.6682233440e+00 
67400 5.0286743425e+00 6.6773301991e-05 1.5404994659e+00 -2.6682233440e+00 1.5404994659e+00 2.6682233440e+00 
67500 5.0286743426e+00 6.6752984504e-05 1.5404994659e+00 -2.6682233440e+00 1.5404994659e+00 2.6682233440e+00 
67600 5.0286743427e+00 6.6732743628e-05 1.5404994659e+00 -2.6682233440e+00 1.5404994659e+00 2.6682233440e+00 
67700 5.0286743428e+00 6.6712580642e-05 1.5404994659e+00 -2.6682233440e+00 1.5404994659e+00 2.6682233440e+00 
67800 5.0286743429e+00 6.6692496799e-05 1.5404994659e+00 -2.6682233440e+00 1.5404994659e+00 2.6682233440e+00 
67900 5.0286743430e+00 6.6672493326e-05 1.5404994659e+00 -2.6682233440e+00 1.5404994659e+00 2.6682233440e+00 
68000 5.0286743431e+00 6.6652571420e-05 1.5404994659e+00 -2.6682233440e+00 1.5404994659e+00 2.6682233440e+00 
68100 5.0286743431e+00 6.6632732252e-05 1.5404994659e+00 -2.6682233440e+00 1.5404994659e+00 2.6682233440e+00 
68200 5.0286743432e+00 6.6612976964e-05 1.5404994659e+00 -2.6682233440e+00 1.5404994659e+00 2.6682233440e+00 
68300 5.0286743433e+00 6.6593306671e-05 1.5404994659e+00 -2.6682233440e+00 1.5404994659e+00 2.6682233440e+00 
68400 5.0286743434e+00 6.6573722460e-05 1.5404994659e+00 -2.6682233440e+00 1.5404994659e+00 2.6682233440e+00 
68500 5.0286743435e+00 6.6554225390e-05 1.5404994659e+00 -2.6682233440e+00 1.5404994659e+00 2.6682233440e+00 
68600 5.0286743436e+00 6.6534816493e-05 1.5404994659e+00 -2.6682233440e+00 1.5404994659e+00 2.6682233440e+00 
68700 5.0286743436e+00 6.6515496773e-05 1.5404994659e+00 -2.6682233440e+00 1.5404994659e+00 2.6682233440e+00 
68800 5.0286743437e+00 6.6496267207e-05 1.5404994659e+00 -2.6682233440e+00 1.5404994659e+00 2.6682233440e+00 
68900 5.0286743438e+00 6.6477128742e-05 1.5404994659e+00 -2.6682233440e+00 1.5404994659e+00 2.6682233440e+00 
69000 5.0286743439e+00 6.6458082300e-05 1.5404994659e+00 -2.6682233440e+00 1.5404994659e+00 2.6682233440e+00 
69100 5.0286743439e+00 6.6439128776e-05 1.5404994659e+00 -2.6682233440e+00 1.5404994659e+00 2.6682233440e+00 
69200 5.0286743440e+00 6.6420269034e-05 1.5404994659e+00 -2.6682233440e+00 1.5404994659e+00 2.6682233440e+00 
69300 5.0286743441e+00 6.6401503914e-05 1.5404994659e+00 -2.6682233440e+00 1.5404994659e+00 2.6682233440e+00 
69400 5.0286743442e+00 6.6382834226e-05 1.5404994659e+00 -2.6682233440e+00 1.5404994659e+00 2.6682233440e+00 
69500 5.0286743442e+00 6.6364260756e-05 1.5404994659e+00 -2.6682233440e+00 1.5404994659e+00 2.6682233440e+00 
69600 5.0286743443e+00 6.6345784260e-05 1.5404994659e+00 -2.6682233440e+00 1.5404994659e+00 2.6682233440e+00 
69700 5.0286743444e+00 6.6327405468e-05 1.5404994659e+00 -2.6682233440e+00 1.5404994659e+00 2.6682233440e+00 
69800 5.0286743444e+00 6.6309125083e-05 1.5404994659e+00 -2.6682233440e+00 1.5404994659e+00 2.6682233440e+00 
69900 5.0286743445e+00 6.6290943781e-05 1.5404994659e+00 -2.6682233440e+00 1.5404994659e+00 2.6682233440e+00 
70000 5.0286743446e+00 6.6272862212e-05 1.5404994659e+00 -2.6682233440e+00 1.5404994659e+00 2.6682233440e+00 
70100 5.0286743446e+00 6.6254880999e-05 1.5404994659e+00 -2.6682233440e+00 1.5404994659e+00 2.6682233440e+00 
70200 5.0286743447e+00 6.6237000737e-05 1.5404994659e+00 -2.6682233440e+00 1.5404994659e+00 2.6682233440e+00 
70300 5.0286743448e+00 6.6219221999e-05 1.5404994659e+00 -2.6682233440e+00 1.5404994659e+00 2.6682233440e+00 
70400 5.0286743448e+00 6.6201545326e-05 1.5404994659e+00 -2.6682233440e+00 1.5404994659e+00 2.6682233440e+00 
70500 5.0286743449e+00 6.6183971239e-05 1.5404994659e+00 -2.6682233440e+00 1.5404994659e+00 2.6682233440e+00 
70600 5.0286743449e+00 6.6166500229e-05 1.5404994659e+00 -2.6682233440e+00 1.5404994659e+00 2.6682233440e+00 
70700 5.0286743450e+00 6.6149132763e-05 1.5404994659e+00 -2.6682233440e+00 1.5404994659e+00 2.6682233440e+00 
70800 5.0286743451e+00 6.6131869283e-05 1.5404994659e+00 -2.6682233440e+00 1.5404994659e+00 2.6682233440e+00 
70900 5.0286743451e+00 6.6114710205e-05 1.5404994659e+00 -2.6682233440e+00 1.5404994659e+00 2.6682233440e+00 
71000 5.0286743452e+00 6.6097655921e-05 1.5404994659e+00 -2.6682233440e+00 1.5404994659e+00 2.6682233440e+00 
71100 5.0286743452e+00 6.6080706800e-05 1.5404994659e+00 -2.6682233440e+00 1.5404994659e+00 2.6682233440e+00 
71200 5.0286743453e+00 6.6063863183e-05 1.5404994659e+00 -2.6682233440e+00 1.5404994659e+00 2.6682233440e+00 
71300 5.0286743453e+00 6.6047125389e-05 1.5404994659e+00 -2.6682233440e+00 1.5404994659e+00 2.6682233440e+00 
71400 5.0286743454e+00 6.6030493711e-05 1.5404994659e+00 -2.6682233440e+00 1.5404994659e+00 2.6682233440e+00 
71500 5.0286743454e+00 6.6013968423e-05 1.5404994659e+00 -2.6682233440e+00 1.5404994659e+00 2.6682233440e+00 
71600 5.0286743455e+00 6.5997549771e-05 1.5404994659e+00 -2.6682233440e+00 1.5404994659e+00 2.6682233440e+00 
71700 5.0286743455e+00 6.5981237981e-05 1.5404994659e+00 -2.6682233440e+00 1.5404994659e+00 2.6682233440e+00 
71800 5.0286743456e+00 6.5965033253e-05 1.5404994659e+00 -2.6682233440e+00 1.5404994659e+00 2.6682233440e+00 
71900 5.0286743456e+00 6.5955683639e-05 1.5404994659e+00 -2.6682233440e+00 1.5404994659e+00 2.6682233440e+00 
71900 5.0286743456e+00 6.5955683639e-05 1.5404994659e+00 -2.6682233440e+00 1.5404994659e+00 2.6682233440e+00 
