# step Hamiltonian StressXX CellTensor1 CellTensor2 CellTensor3 CellTensor4 
0 7.1129784749e+00 3.0262267207e-02 1.4739512762e+00 -2.5529584983e+00 1.4739512762e+00 2.5529584983e+00 
100 7.1056402488e+00 3.0956592161e-02 1.4739512762e+00 -2.5529584983e+00 1.4739512762e+00 2.5529584983e+00 
200 7.0984696379e+00 3.1227542739e-02 1.4729012784e+00 -2.5511398487e+00 1.4729012784e+00 2.5511398487e+00 
300 7.0914971715e+00 3.1442169830e-02 1.4718413365e+00 -2.5493039755e+00 1.4718413365e+00 2.5493039755e+00 
400 7.0847112160e+00 3.1601359198e-02 1.4707733422e+00 -2.5474541551e+00 1.4707733422e+00 2.5474541551e+00 
500 7.0781008393e+00 3.1705782970e-02 1.4696991621e+00 -2.5455936205e+00 1.4696991621e+00 2.5455936205e+00 
600 7.0716557979e+00 3.1755947499e-02 1.4686206454e+00 -2.5437255748e+00 1.4686206454e+00 2.5437255748e+00 
700 7.0653665199e+00 3.1752234378e-02 1.4675396294e+00 -2.5418532002e+00 1.4675396294e+00 2.5418532002e+00 
800 7.0592240846e+00 3.1694935772e-02 1.4664579437e+00 -2.5399796657e+00 1.4664579437e+00 2.5399796657e+00 
900 7.0532202004e+00 3.1584284976e-02 1.4653774136e+00 -2.5381081326e+00 1.4653774136e+00 2.5381081326e+00 
1000 7.0473471796e+00 3.1420482939e-02 1.4642998615e+00 -2.5362417576e+00 1.4642998615e+00 2.5362417576e+00 
1100 7.0415979135e+00 3.1203721311e-02 1.4632271084e+00 -2.5343836948e+00 1.4632271084e+00 2.5343836948e+00 
1200 7.0359658454e+00 3.0934202474e-02 1.4621609742e+00 -2.5325370962e+00 1.4621609742e+00 2.5325370962e+00 
1300 7.0304449438e+00 3.0612156918e-02 1.4611032771e+00 -2.5307051110e+00 1.4611032771e+00 2.5307051110e+00 
1400 7.0250296749e+00 3.0237858233e-02 1.4600558324e+00 -2.5288908837e+00 1.4600558324e+00 2.5288908837e+00 
1500 7.0197149753e+00 2.9811635961e-02 1.4590204514e+00 -2.5270975512e+00 1.4590204514e+00 2.5270975512e+00 
1600 7.0144962243e+00 2.9333886472e-02 1.4579989389e+00 -2.5253282395e+00 1.4579989389e+00 2.5253282395e+00 
1700 7.0093692168e+00 2.8805082023e-02 1.4569930907e+00 -2.5235860594e+00 1.4569930907e+00 2.5235860594e+00 
1800 7.0043301360e+00 2.8225778131e-02 1.4560046913e+00 -2.5218741014e+00 1.4560046913e+00 2.5218741014e+00 
1900 6.9993755272e+00 2.7596619338e-02 1.4550355102e+00 -2.5201954305e+00 1.4550355102e+00 2.5201954305e+00 
2000 6.9945022709e+00 2.6918343502e-02 1.4540872990e+00 -2.5185530805e+00 1.4540872990e+00 2.5185530805e+00 
2100 6.9897075573e+00 2.6191784662e-02 1.4531617876e+00 -2.5169500478e+00 1.4531617876e+00 2.5169500478e+00 
2200 6.9849888614e+00 2.5417874581e-02 1.4522606810e+00 -2.5153892853e+00 1.4522606810e+00 2.5153892853e+00 
2300 6.9803439176e+00 2.4597643047e-02 1.4513856549e+00 -2.5138736956e+00 1.4513856549e+00 2.5138736956e+00 
2400 6.9757706968e+00 2.3732216993e-02 1.4505383526e+00 -2.5124061249e+00 1.4505383526e+00 2.5124061249e+00 
2500 6.9712673822e+00 2.2822818546e-02 1.4497203809e+00 -2.5109893565e+00 1.4497203809e+00 2.5109893565e+00 
2600 6.9668323477e+00 2.1870762062e-02 1.4489333066e+00 -2.5096261039e+00 1.4489333066e+00 2.5096261039e+00 
2700 6.9624641361e+00 2.0877450255e-02 1.4481786528e+00 -2.5083190050e+00 1.4481786528e+00 2.5083190050e+00 
2800 6.9581614383e+00 1.9844369499e-02 1.4474578951e+00 -2.5070706161e+00 1.4474578951e+00 2.5070706161e+00 
2900 6.9539230737e+00 1.8773084400e-02 1.4467724588e+00 -2.5058834057e+00 1.4467724588e+00 2.5058834057e+00 
3000 6.9497479716e+00 1.7665231733e-02 1.4461237155e+00 -2.5047597492e+00 1.4461237155e+00 2.5047597492e+00 
3100 6.9456351536e+00 1.6522513839e-02 1.4455129798e+00 -2.5037019240e+00 1.4455129798e+00 2.5037019240e+00 
3200 6.9415837164e+00 1.5346691582e-02 1.4449415071e+00 -2.5027121042e+00 1.4449415071e+00 2.5027121042e+00 
3300 6.9375928171e+00 1.4139576964e-02 1.4444104907e+00 -2.5017923569e+00 1.4444104907e+00 2.5017923569e+00 
3400 6.9336616582e+00 1.2903025487e-02 1.4439210600e+00 -2.5009446380e+00 1.4439210600e+00 2.5009446380e+00 
3500 6.9297894743e+00 1.1638928367e-02 1.4434742779e+00 -2.5001707888e+00 1.4434742779e+00 2.5001707888e+00 
3600 6.9259755204e+00 1.0349204679e-02 1.4430711399e+00 -2.4994725333e+00 1.4430711399e+00 2.4994725333e+00 
3700 6.9222190602e+00 9.0357935287e-03 1.4427125722e+00 -2.4988514757e+00 1.4427125722e+00 2.4988514757e+00 
3800 6.9185193570e+00 7.7006463279e-03 1.4423994306e+00 -2.4983090985e+00 1.4423994306e+00 2.4983090985e+00 
3900 6.9148756641e+00 6.3457192460e-03 1.4421325000e+00 -2.4978467613e+00 1.4421325000e+00 2.4978467613e+00 
4000 6.9112872180e+00 4.9729659136e-03 1.4419124940e+00 -2.4974656996e+00 1.4419124940e+00 2.4974656996e+00 
4100 6.9077532313e+00 3.5843304343e-03 1.4417400540e+00 -2.4971670248e+00 1.4417400540e+00 2.4971670248e+00 
4200 6.9042728874e+00 2.1817407617e-03 1.4416157501e+00 -2.4969517241e+00 1.4416157501e+00 2.4969517241e+00 
4300 6.9008453363e+00 7.6710248786e-04 1.4415400808e+00 -2.4968206610e+00 1.4415400808e+00 2.4968206610e+00 
4400 6.8974696905e+00 -6.5770691868e-04 1.4415134738e+00 -2.4967745764e+00 1.4415134738e+00 2.4967745764e+00 
4500 6.8941450235e+00 -2.0908433933e-03 1.4415362869e+00 -2.4968140899e+00 1.4415362869e+00 2.4968140899e+00 
4600 6.8908703672e+00 -3.5305010516e-03 1.4416088089e+00 -2.4969397016e+00 1.4416088089e+00 2.4969397016e+00 
4700 6.8876447120e+00 -4.9749164462e-03 1.4417312607e+00 -2.4971517943e+00 1.4417312607e+00 2.4971517943e+00 
4800 6.8844670061e+00 -6.4223722947e-03 1.4419037968e+00 -2.4974506357e+00 1.4419037968e+00 2.4974506357e+00 
4900 6.8813361572e+00 -7.8712006786e-03 1.4421265072e+00 -2.4978363814e+00 1.4421265072e+00 2.4978363814e+00 
5000 6.8782510331e+00 -9.3197857161e-03 1.4423994183e+00 -2.4983090774e+00 1.4423994183e+00 2.4983090774e+00 
5100 6.8752104643e+00 -1.0766565722e-02 1.4427224958e+00 -2.4988686639e+00 1.4427224958e+00 2.4988686639e+00 
5200 6.8722132468e+00 -1.2210034866e-02 1.4430956455e+00 -2.4995149781e+00 1.4430956455e+00 2.4995149781e+00 
5300 6.8692581449e+00 -1.3648744357e-02 1.4435187162e+00 -2.5002477582e+00 1.4435187162e+00 2.5002477582e+00 
5400 6.8663438950e+00 -1.5081303169e-02 1.4439915015e+00 -2.5010666464e+00 1.4439915015e+00 2.5010666464e+00 
5500 6.8634692095e+00 -1.6506378344e-02 1.4445137419e+00 -2.5019711932e+00 1.4445137419e+00 2.5019711932e+00 
5600 6.8606327812e+00 -1.7922694895e-02 1.4450851267e+00 -2.5029608608e+00 1.4450851267e+00 2.5029608608e+00 
5700 6.8578332880e+00 -1.9329035349e-02 1.4457052970e+00 -2.5040350272e+00 1.4457052970e+00 2.5040350272e+00 
5800 6.8550693971e+00 -2.0724238959e-02 1.4463738470e+00 -2.5051929897e+00 1.4463738470e+00 2.5051929897e+00 
5900 6.8523397707e+00 -2.2107200622e-02 1.4470903266e+00 -2.5064339688e+00 1.4470903266e+00 2.5064339688e+00 
6000 6.8496430704e+00 -2.3476869534e-02 1.4478542438e+00 -2.5077571123e+00 1.4478542438e+00 2.5077571123e+00 
6100 6.8469779624e+00 -2.4832247624e-02 1.4486650665e+00 -2.5091614983e+00 1.4486650665e+00 2.5091614983e+00 
6200 6.8443431226e+00 -2.6172387799e-02 1.4495222244e+00 -2.5106461393e+00 1.4495222244e+00 2.5106461393e+00 
6300 6.8417372417e+00 -2.7496392031e-02 1.4504251116e+00 -2.5122099859e+00 1.4504251116e+00 2.5122099859e+00 
6400 6.8391590297e+00 -2.8803409323e-02 1.4513730884e+00 -2.5138519298e+00 1.4513730884e+00 2.5138519298e+00 
6500 6.8366072213e+00 -3.0092633579e-02 1.4523654827e+00 -2.5155708072e+00 1.4523654827e+00 2.5155708072e+00 
6600 6.8340805798e+00 -3.1363301422e-02 1.4534015927e+00 -2.5173654024e+00 1.4534015927e+00 2.5173654024e+00 
6700 6.8315779022e+00 -3.2614689966e-02 1.4544806881e+00 -2.5192344505e+00 1.4544806881e+00 2.5192344505e+00 
6800 6.8290980230e+00 -3.3846114586e-02 1.4556020119e+00 -2.5211766403e+00 1.4556020119e+00 2.5211766403e+00 
6900 6.8266398180e+00 -3.5056926704e-02 1.4567647823e+00 -2.5231906176e+00 1.4567647823e+00 2.5231906176e+00 
7000 6.8242022086e+00 -3.6246511607e-02 1.4579681937e+00 -2.5252749874e+00 1.4579681937e+00 2.5252749874e+00 
7100 6.8217841646e+00 -3.7414286322e-02 1.4592114190e+00 -2.5274283167e+00 1.4592114190e+00 2.5274283167e+00 
7200 6.8193847075e+00 -3.8559697567e-02 1.4604936102e+00 -2.5296491369e+00 1.4604936102e+00 2.5296491369e+00 
7300 6.8170029135e+00 -3.9682219784e-02 1.4618139001e+00 -2.5319359462e+00 1.4618139001e+00 2.5319359462e+00 
7400 6.8146379157e+00 -4.0781353273e-02 1.4631714038e+00 -2.5342872116e+00 1.4631714038e+00 2.5342872116e+00 
7500 6.8122889061e+00 -4.1856622441e-02 1.4645652194e+00 -2.5367013709e+00 1.4645652194e+00 2.5367013709e+00 
7600 6.8099551379e+00 -4.2907574163e-02 1.4659944293e+00 -2.5391768351e+00 1.4659944293e+00 2.5391768351e+00 
7700 6.8076359264e+00 -4.3933776272e-02 1.4674581015e+00 -2.5417119897e+00 1.4674581015e+00 2.5417119897e+00 
7800 6.8053306504e+00 -4.4934816179e-02 1.4689552903e+00 -2.5443051969e+00 1.4689552903e+00 2.5443051969e+00 
7900 6.8030387532e+00 -4.5910299626e-02 1.4704850375e+00 -2.5469547968e+00 1.4704850375e+00 2.5469547968e+00 
8000 6.8007597425e+00 -4.6859849575e-02 1.4720463732e+00 -2.5496591094e+00 1.4720463732e+00 2.5496591094e+00 
8100 6.7984931909e+00 -4.7783105232e-02 1.4736383164e+00 -2.5524164360e+00 1.4736383164e+00 2.5524164360e+00 
8200 6.7962387357e+00 -4.8679721203e-02 1.4752598763e+00 -2.5552250602e+00 1.4752598763e+00 2.5552250602e+00 
8300 6.7939960784e+00 -4.9549366788e-02 1.4769100529e+00 -2.5580832498e+00 1.4769100529e+00 2.5580832498e+00 
8400 6.7917649839e+00 -5.0391725399e-02 1.4785878374e+00 -2.5609892578e+00 1.4785878374e+00 2.5609892578e+00 
8500 6.7895452791e+00 -5.1206494103e-02 1.4802922134e+00 -2.5639413237e+00 1.4802922134e+00 2.5639413237e+00 
8600 6.7873368524e+00 -5.1993383289e-02 1.4820221575e+00 -2.5669376747e+00 1.4820221575e+00 2.5669376747e+00 
8700 6.7851396512e+00 -5.2752116449e-02 1.4837766396e+00 -2.5699765269e+00 1.4837766396e+00 2.5699765269e+00 
8800 6.7829536806e+00 -5.3482430062e-02 1.4855546241e+00 -2.5730560863e+00 1.4855546241e+00 2.5730560863e+00 
8900 6.7807790014e+00 -5.4184073587e-02 1.4873550701e+00 -2.5761745503e+00 1.4873550701e+00 2.5761745503e+00 
9000 6.7786157275e+00 -5.4856809547e-02 1.4891769323e+00 -2.5793301082e+00 1.4891769323e+00 2.5793301082e+00 
9100 6.7764640238e+00 -5.5500413703e-02 1.4910191615e+00 -2.5825209427e+00 1.4910191615e+00 2.5825209427e+00 
9200 6.7743241034e+00 -5.6114675307e-02 1.4928807051e+00 -2.5857452309e+00 1.4928807051e+00 2.5857452309e+00 
9300 6.7721962249e+00 -5.6699397427e-02 1.4947605082e+00 -2.5890011453e+00 1.4947605082e+00 2.5890011453e+00 
9400 6.7700806896e+00 -5.7254397343e-02 1.4966575135e+00 -2.5922868549e+00 1.4966575135e+00 2.5922868549e+00 
9500 6.7679778383e+00 -5.7779506991e-02 1.4985706625e+00 -2.5956005262e+00 1.4985706625e+00 2.5956005262e+00 
9600 6.7658880484e+00 -5.8274573467e-02 1.5004988959e+00 -2.5989403244e+00 1.5004988959e+00 2.5989403244e+00 
9700 6.7638117308e+00 -5.8739459567e-02 1.5024411541e+00 -2.6023044143e+00 1.5024411541e+00 2.6023044143e+00 
9800 6.7617493261e+00 -5.9174044365e-02 1.5043963781e+00 -2.6056909617e+00 1.5043963781e+00 2.6056909617e+00 
9900 6.7597013020e+00 -5.9578223821e-02 1.5063635100e+00 -2.6090981340e+00 1.5063635100e+00 2.6090981340e+00 
10000 6.7576681495e+00 -5.9951911404e-02 1.5083414935e+00 -2.6125241018e+00 1.5083414935e+00 2.6125241018e+00 
10100 6.7556503797e+00 -6.0295038739e-02 1.5103292747e+00 -2.6159670400e+00 1.5103292747e+00 2.6159670400e+00 
10200 6.7536485206e+00 -6.0607556252e-02 1.5123258030e+00 -2.6194251284e+00 1.5123258030e+00 2.6194251284e+00 
10300 6.7516631135e+00 -6.0889433824e-02 1.5143300313e+00 -2.6228965536e+00 1.5143300313e+00 2.6228965536e+00 
10400 6.7496947100e+00 -6.1140661439e-02 1.5163409169e+00 -2.6263795096e+00 1.5163409169e+00 2.6263795096e+00 
10500 6.7477438683e+00 -6.1361249820e-02 1.5183574222e+00 -2.6298721994e+00 1.5183574222e+00 2.6298721994e+00 
10600 6.7458111506e+00 -6.1551231055e-02 1.5203785156e+00 -2.6333728357e+00 1.5203785156e+00 2.6333728357e+00 
10700 6.7438971195e+00 -6.1710659197e-02 1.5224031716e+00 -2.6368796429e+00 1.5224031716e+00 2.6368796429e+00 
10800 6.7420023351e+00 -6.1839610844e-02 1.5244303723e+00 -2.6403908574e+00 1.5244303723e+00 2.6403908574e+00 
10900 6.7401273522e+00 -6.1938185686e-02 1.5264591073e+00 -2.6439047295e+00 1.5264591073e+00 2.6439047295e+00 
11000 6.7382727171e+00 -6.2006507027e-02 1.5284883751e+00 -2.6474195245e+00 1.5284883751e+00 2.6474195245e+00 
11100 6.7364389653e+00 -6.2044722255e-02 1.5305171836e+00 -2.6509335238e+00 1.5305171836e+00 2.6509335238e+00 
11200 6.7346266185e+00 -6.2053003289e-02 1.5325445505e+00 -2.6544450264e+00 1.5325445505e+00 2.6544450264e+00 
11300 6.7328361823e+00 -6.2031546969e-02 1.5345695046e+00 -2.6579523498e+00 1.5345695046e+00 2.6579523498e+00 
11400 6.7310681437e+00 -6.1980575409e-02 1.5365910861e+00 -2.6614538316e+00 1.5365910861e+00 2.6614538316e+00 
11500 6.7293229693e+00 -6.1900336290e-02 1.5386083475e+00 -2.6649478308e+00 1.5386083475e+00 2.6649478308e+00 
11600 6.7276011025e+00 -6.1791103117e-02 1.5406203542e+00 -2.6684327286e+00 1.5406203542e+00 2.6684327286e+00 
11700 6.7259029625e+00 -6.1653175404e-02 1.5426261855e+00 -2.6719069304e+00 1.5426261855e+00 2.6719069304e+00 
11800 6.7242289416e+00 -6.1486878824e-02 1.5446249351e+00 -2.6753688662e+00 1.5446249351e+00 2.6753688662e+00 
11900 6.7225794044e+00 -6.1292565281e-02 1.5466157118e+00 -2.6788169926e+00 1.5466157118e+00 2.6788169926e+00 
12000 6.7209546859e+00 -6.1070612944e-02 1.5485976403e+00 -2.6822497935e+00 1.5485976403e+00 2.6822497935e+00 
12100 6.7193550905e+00 -6.0821426206e-02 1.5505698620e+00 -2.6856657817e+00 1.5505698620e+00 2.6856657817e+00 
12200 6.7177808906e+00 -6.0545435593e-02 1.5525315354e+00 -2.6890634996e+00 1.5525315354e+00 2.6890634996e+00 
12300 6.7162323260e+00 -6.0243097605e-02 1.5544818369e+00 -2.6924415210e+00 1.5544818369e+00 2.6924415210e+00 
12400 6.7147096030e+00 -5.9914894506e-02 1.5564199618e+00 -2.6957984517e+00 1.5564199618e+00 2.6957984517e+00 
12500 6.7132128938e+00 -5.9561334040e-02 1.5583451243e+00 -2.6991329311e+00 1.5583451243e+00 2.6991329311e+00 
12600 6.7117423359e+00 -5.9182949093e-02 1.5602565588e+00 -2.7024436327e+00 1.5602565588e+00 2.7024436327e+00 
12700 6.7102980322e+00 -5.8780297297e-02 1.5621535201e+00 -2.7057292660e+00 1.5621535201e+00 2.7057292660e+00 
12800 6.7088800506e+00 -5.8353960566e-02 1.5640352840e+00 -2.7089885767e+00 1.5640352840e+00 2.7089885767e+00 
12900 6.7074884242e+00 -5.7904544572e-02 1.5659011481e+00 -2.7122203482e+00 1.5659011481e+00 2.7122203482e+00 
13000 6.7061231514e+00 -5.7432678169e-02 1.5677504323e+00 -2.7154234024e+00 1.5677504323e+00 2.7154234024e+00 
13100 6.7047841963e+00 -5.6939012753e-02 1.5695824793e+00 -2.7185966009e+00 1.5695824793e+00 2.7185966009e+00 
13200 6.7034714893e+00 -5.6424221558e-02 1.5713966550e+00 -2.7217388453e+00 1.5713966550e+00 2.7217388453e+00 
13300 6.7021849274e+00 -5.5888998912e-02 1.5731923491e+00 -2.7248490787e+00 1.5731923491e+00 2.7248490787e+00 
13400 6.7009243753e+00 -5.5334059416e-02 1.5749689756e+00 -2.7279262860e+00 1.5749689756e+00 2.7279262860e+00 
13500 6.6996896663e+00 -5.4760137094e-02 1.5767259732e+00 -2.7309694952e+00 1.5767259732e+00 2.7309694952e+00 
13600 6.6984806030e+00 -5.4167984464e-02 1.5784628057e+00 -2.7339777773e+00 1.5784628057e+00 2.7339777773e+00 
13700 6.6972969586e+00 -5.3558371585e-02 1.5801789623e+00 -2.7369502477e+00 1.5801789623e+00 2.7369502477e+00 
13800 6.6961384783e+00 -5.2932085033e-02 1.5818739581e+00 -2.7398860666e+00 1.5818739581e+00 2.7398860666e+00 
13900 6.6950048803e+00 -5.2289926847e-02 1.5835473343e+00 -2.7427844392e+00 1.5835473343e+00 2.7427844392e+00 
14000 6.6938958574e+00 -5.1632713422e-02 1.5851986586e+00 -2.7456446168e+00 1.5851986586e+00 2.7456446168e+00 
14100 6.6928110784e+00 -5.0961274364e-02 1.5868275253e+00 -2.7484658967e+00 1.5868275253e+00 2.7484658967e+00 
14200 6.6917501899e+00 -5.0276451300e-02 1.5884335556e+00 -2.7512476227e+00 1.5884335556e+00 2.7512476227e+00 
14300 6.6907128174e+00 -4.9579096664e-02 1.5900163977e+00 -2.7539891857e+00 1.5900163977e+00 2.7539891857e+00 
14400 6.6896985675e+00 -4.8870072432e-02 1.5915757273e+00 -2.7566900237e+00 1.5915757273e+00 2.7566900237e+00 
14500 6.6887070294e+00 -4.8150248842e-02 1.5931112471e+00 -2.7593496221e+00 1.5931112471e+00 2.7593496221e+00 
14600 6.6877377766e+00 -4.7420503074e-02 1.5946226875e+00 -2.7619675136e+00 1.5946226875e+00 2.7619675136e+00 
14700 6.6867903688e+00 -4.6681717914e-02 1.5961098062e+00 -2.7645432788e+00 1.5961098062e+00 2.7645432788e+00 
14800 6.6858643534e+00 -4.5934780387e-02 1.5975723885e+00 -2.7670765457e+00 1.5975723885e+00 2.7670765457e+00 
14900 6.6849592679e+00 -4.5180580382e-02 1.5990102471e+00 -2.7695669899e+00 1.5990102471e+00 2.7695669899e+00 
15000 6.6840746410e+00 -4.4420009255e-02 1.6004232221e+00 -2.7720143342e+00 1.6004232221e+00 2.7720143342e+00 
15100 6.6832099948e+00 -4.3653958423e-02 1.6018111806e+00 -2.7744183490e+00 1.6018111806e+00 2.7744183490e+00 
15200 6.6823648465e+00 -4.2883317949e-02 1.6031740174e+00 -2.7767788515e+00 1.6031740174e+00 2.7767788515e+00 
15300 6.6815387101e+00 -4.2108975125e-02 1.6045116537e+00 -2.7790957055e+00 1.6045116537e+00 2.7790957055e+00 
15400 6.6807310979e+00 -4.1331813051e-02 1.6058240377e+00 -2.7813688214e+00 1.6058240377e+00 2.7813688214e+00 
15500 6.6799415228e+00 -4.0552709225e-02 1.6071111442e+00 -2.7835981551e+00 1.6071111442e+00 2.7835981551e+00 
15600 6.6791694989e+00 -3.9772534129e-02 1.6083729739e+00 -2.7857837083e+00 1.6083729739e+00 2.7857837083e+00 
15700 6.6784145441e+00 -3.8992149833e-02 1.6096095535e+00 -2.7879255271e+00 1.6096095535e+00 2.7879255271e+00 
15800 6.6776761807e+00 -3.8212408616e-02 1.6108209354e+00 -2.7900237020e+00 1.6108209354e+00 2.7900237020e+00 
15900 6.6769539374e+00 -3.7434151598e-02 1.6120071968e+00 -2.7920783671e+00 1.6120071968e+00 2.7920783671e+00 
16000 6.6762473503e+00 -3.6658207397e-02 1.6131684398e+00 -2.7940896990e+00 1.6131684398e+00 2.7940896990e+00 
16100 6.6755559645e+00 -3.5885390819e-02 1.6143047907e+00 -2.7960579164e+00 1.6143047907e+00 2.7960579164e+00 
16200 6.6748793346e+00 -3.5116501566e-02 1.6154163995e+00 -2.7979832792e+00 1.6154163995e+00 2.7979832792e+00 
16300 6.6742170267e+00 -3.4352322982e-02 1.6165034392e+00 -2.7998660873e+00 1.6165034392e+00 2.7998660873e+00 
16400 6.6735686184e+00 -3.3593620840e-02 1.6175661058e+00 -2.8017066798e+00 1.6175661058e+00 2.8017066798e+00 
16500 6.6729337004e+00 -3.2841142163e-02 1.6186046171e+00 -2.8035054341e+00 1.6186046171e+00 2.8035054341e+00 
16600 6.6723118769e+00 -3.2095614087e-02 1.6196192123e+00 -2.8052627646e+00 1.6196192123e+00 2.8052627646e+00 
16700 6.6717027667e+00 -3.1357742777e-02 1.6206101515e+00 -2.8069791217e+00 1.6206101515e+00 2.8069791217e+00 
16800 6.6711060029e+00 -3.0628212383e-02 1.6215777149e+00 -2.8086549907e+00 1.6215777149e+00 2.8086549907e+00 
16900 6.6705212346e+00 -2.9907684058e-02 1.6225222020e+00 -2.8102908903e+00 1.6225222020e+00 2.8102908903e+00 
17000 6.6699481260e+00 -2.9196795018e-02 1.6234439310e+00 -2.8118873717e+00 1.6234439310e+00 2.8118873717e+00 
17100 6.6693863577e+00 -2.8496157667e-02 1.6243432379e+00 -2.8134450170e+00 1.6243432379e+00 2.8134450170e+00 
17200 6.6688356263e+00 -2.7806358782e-02 1.6252204762e+00 -2.8149644383e+00 1.6252204762e+00 2.8149644383e+00 
17300 6.6682956446e+00 -2.7127958748e-02 1.6260760154e+00 -2.8164462757e+00 1.6260760154e+00 2.8164462757e+00 
17400 6.6677661416e+00 -2.6461490868e-02 1.6269102408e+00 -2.8178911964e+00 1.6269102408e+00 2.8178911964e+00 
17500 6.6672468624e+00 -2.5807460728e-02 1.6277235522e+00 -2.8192998931e+00 1.6277235522e+00 2.8192998931e+00 
17600 6.6667375680e+00 -2.5166345628e-02 1.6285163636e+00 -2.8206730827e+00 1.6285163636e+00 2.8206730827e+00 
17700 6.6662380349e+00 -2.4538594084e-02 1.6292891017e+00 -2.8220115044e+00 1.6292891017e+00 2.8220115044e+00 
17800 6.6657480549e+00 -2.3924625392e-02 1.6300422058e+00 -2.8233159188e+00 1.6300422058e+00 2.8233159188e+00 
17900 6.6652674345e+00 -2.3324829256e-02 1.6307761260e+00 -2.8245871060e+00 1.6307761260e+00 2.8245871060e+00 
18000 6.6647959945e+00 -2.2739565497e-02 1.6314913233e+00 -2.8258258641e+00 1.6314913233e+00 2.8258258641e+00 
18100 6.6643335694e+00 -2.2169163810e-02 1.6321882680e+00 -2.8270330076e+00 1.6321882680e+00 2.8270330076e+00 
18200 6.6638800067e+00 -2.1613923608e-02 1.6328674390e+00 -2.8282093664e+00 1.6328674390e+00 2.8282093664e+00 
18300 6.6634351664e+00 -2.1074113920e-02 1.6335293232e+00 -2.8293557835e+00 1.6335293232e+00 2.8293557835e+00 
18400 6.6629989199e+00 -2.0549973359e-02 1.6341744142e+00 -2.8304731138e+00 1.6341744142e+00 2.8304731138e+00 
18500 6.6625711498e+00 -2.0041710159e-02 1.6348032115e+00 -2.8315622228e+00 1.6348032115e+00 2.8315622228e+00 
18600 6.6621517485e+00 -1.9549502274e-02 1.6354162199e+00 -2.8326239845e+00 1.6354162199e+00 2.8326239845e+00 
18700 6.6617406178e+00 -1.9073497539e-02 1.6360139483e+00 -2.8336592803e+00 1.6360139483e+00 2.8336592803e+00 
18800 6.6613376677e+00 -1.8613813901e-02 1.6365969088e+00 -2.8346689975e+00 1.6365969088e+00 2.8346689975e+00 
18900 6.6609428159e+00 -1.8170539697e-02 1.6371656160e+00 -2.8356540274e+00 1.6371656160e+00 2.8356540274e+00 
19000 6.6605559868e+00 -1.7743734008e-02 1.6377205863e+00 -2.8366152642e+00 1.6377205863e+00 2.8366152642e+00 
19100 6.6601771105e+00 -1.7333427055e-02 1.6382623366e+00 -2.8375536032e+00 1.6382623366e+00 2.8375536032e+00 
19200 6.6598061220e+00 -1.6939620661e-02 1.6387913838e+00 -2.8384699397e+00 1.6387913838e+00 2.8384699397e+00 
19300 6.6594429605e+00 -1.6562288762e-02 1.6393082437e+00 -2.8393651673e+00 1.6393082437e+00 2.8393651673e+00 
19400 6.6590875683e+00 -1.6201377966e-02 1.6398134305e+00 -2.8402401766e+00 1.6398134305e+00 2.8402401766e+00 
19500 6.6587398903e+00 -1.5856808167e-02 1.6403074559e+00 -2.8410958537e+00 1.6403074559e+00 2.8410958537e+00 
19600 6.6583998729e+00 -1.5528473202e-02 1.6407908283e+00 -2.8419330793e+00 1.6407908283e+00 2.8419330793e+00 
19700 6.6580674636e+00 -1.5216241549e-02 1.6412640519e+00 -2.8427527266e+00 1.6412640519e+00 2.8427527266e+00 
19800 6.6577426097e+00 -1.4919957069e-02 1.6417276263e+00 -2.8435556609e+00 1.6417276263e+00 2.8435556609e+00 
19900 6.6574252583e+00 -1.4639439791e-02 1.6421820453e+00 -2.8443427377e+00 1.6421820453e+00 2.8443427377e+00 
20000 6.6571153552e+00 -1.4374486719e-02 1.6426277968e+00 -2.8451148020e+00 1.6426277968e+00 2.8451148020e+00 
20100 6.6568128445e+00 -1.4124872687e-02 1.6430653617e+00 -2.8458726866e+00 1.6430653617e+00 2.8458726866e+00 
20200 6.6565176680e+00 -1.3890351236e-02 1.6434952134e+00 -2.8466172115e+00 1.6434952134e+00 2.8466172115e+00 
20300 6.6562297646e+00 -1.3670655520e-02 1.6439178171e+00 -2.8473491828e+00 1.6439178171e+00 2.8473491828e+00 
20400 6.6559490701e+00 -1.3465499232e-02 1.6443336297e+00 -2.8480693912e+00 1.6443336297e+00 2.8480693912e+00 
20500 6.6556755165e+00 -1.3274577563e-02 1.6447430982e+00 -2.8487786115e+00 1.6447430982e+00 2.8487786115e+00 
20600 6.6554090320e+00 -1.3097568167e-02 1.6451466603e+00 -2.8494776016e+00 1.6451466603e+00 2.8494776016e+00 
20700 6.6551495403e+00 -1.2934132150e-02 1.6455447433e+00 -2.8501671014e+00 1.6455447433e+00 2.8501671014e+00 
20800 6.6548969609e+00 -1.2783915071e-02 1.6459377635e+00 -2.8508478324e+00 1.6459377635e+00 2.8508478324e+00 
20900 6.6546512083e+00 -1.2646547948e-02 1.6463261262e+00 -2.8515204964e+00 1.6463261262e+00 2.8515204964e+00 
21000 6.6544121925e+00 -1.2521648283e-02 1.6467102250e+00 -2.8521857751e+00 1.6467102250e+00 2.8521857751e+00 
21100 6.6541798184e+00 -1.2408821080e-02 1.6470904416e+00 -2.8528443295e+00 1.6470904416e+00 2.8528443295e+00 
21200 6.6539539861e+00 -1.2307659876e-02 1.6474671451e+00 -2.8534967991e+00 1.6474671451e+00 2.8534967991e+00 
21300 6.6537345908e+00 -1.2217747763e-02 1.6478406920e+00 -2.8541438013e+00 1.6478406920e+00 2.8541438013e+00 
21400 6.6535215229e+00 -1.2138658418e-02 1.6482114258e+00 -2.8547859311e+00 1.6482114258e+00 2.8547859311e+00 
21500 6.6533146682e+00 -1.2069957120e-02 1.6485796768e+00 -2.8554237606e+00 1.6485796768e+00 2.8554237606e+00 
21600 6.6531139078e+00 -1.2011201765e-02 1.6489457618e+00 -2.8560578383e+00 1.6489457618e+00 2.8560578383e+00 
21700 6.6529191187e+00 -1.1961943870e-02 1.6493099837e+00 -2.8566886892e+00 1.6493099837e+00 2.8566886892e+00 
21800 6.6527301735e+00 -1.1921729571e-02 1.6496726318e+00 -2.8573168141e+00 1.6496726318e+00 2.8573168141e+00 
21900 6.6525469412e+00 -1.1890100600e-02 1.6500339812e+00 -2.8579426896e+00 1.6500339812e+00 2.8579426896e+00 
22000 6.6523692872e+00 -1.1866595255e-02 1.6503942929e+00 -2.8585667679e+00 1.6503942929e+00 2.8585667679e+00 
22100 6.6521970736e+00 -1.1850749352e-02 1.6507538139e+00 -2.8591894764e+00 1.6507538139e+00 2.8591894764e+00 
22200 6.6520301598e+00 -1.1842097157e-02 1.6511127765e+00 -2.8598112179e+00 1.6511127765e+00 2.8598112179e+00 
22300 6.6518684026e+00 -1.1840172299e-02 1.6514713991e+00 -2.8604323704e+00 1.6514713991e+00 2.8604323704e+00 
22400 6.6517116565e+00 -1.1844508667e-02 1.6518298855e+00 -2.8610532871e+00 1.6518298855e+00 2.8610532871e+00 
22500 6.6515597745e+00 -1.1854641279e-02 1.6521884253e+00 -2.8616742963e+00 1.6521884253e+00 2.8616742963e+00 
22600 6.6514126082e+00 -1.1870107128e-02 1.6525471940e+00 -2.8622957020e+00 1.6525471940e+00 2.8622957020e+00 
22700 6.6512700081e+00 -1.1890446012e-02 1.6529063528e+00 -2.8629177832e+00 1.6529063528e+00 2.8629177832e+00 
22800 6.6511318245e+00 -1.1915201328e-02 1.6532660489e+00 -2.8635407950e+00 1.6532660489e+00 2.8635407950e+00 
22900 6.6509979072e+00 -1.1943920846e-02 1.6536264154e+00 -2.8641649681e+00 1.6536264154e+00 2.8641649681e+00 
23000 6.6508681065e+00 -1.1976157456e-02 1.6539875718e+00 -2.8647905094e+00 1.6539875718e+00 2.8647905094e+00 
23100 6.6507422734e+00 -1.2011469882e-02 1.6543496239e+00 -2.8654176021e+00 1.6543496239e+00 2.8654176021e+00 
23200 6.6506202598e+00 -1.2049423376e-02 1.6547126641e+00 -2.8660464062e+00 1.6547126641e+00 2.8660464062e+00 
23300 6.6505019194e+00 -1.2089590378e-02 1.6550767716e+00 -2.8666770588e+00 1.6550767716e+00 2.8666770588e+00 
23400 6.6503871073e+00 -1.2131551144e-02 1.6554420125e+00 -2.8673096746e+00 1.6554420125e+00 2.8673096746e+00 
23500 6.6502756810e+00 -1.2174894351e-02 1.6558084403e+00 -2.8679443461e+00 1.6558084403e+00 2.8679443461e+00 
23600 6.6501675005e+00 -1.2219217669e-02 1.6561760959e+00 -2.8685811443e+00 1.6561760959e+00 2.8685811443e+00 
23700 6.6500624286e+00 -1.2264128301e-02 1.6565450081e+00 -2.8692201190e+00 1.6565450081e+00 2.8692201190e+00 
23800 6.6499603310e+00 -1.2309243495e-02 1.6569151937e+00 -2.8698612994e+00 1.6569151937e+00 2.8698612994e+00 
23900 6.6498610770e+00 -1.2354191021e-02 1.6572866582e+00 -2.8705046948e+00 1.6572866582e+00 2.8705046948e+00 
24000 6.6497645394e+00 -1.2398609629e-02 1.6576593956e+00 -2.8711502949e+00 1.6576593956e+00 2.8711502949e+00 
24100 6.6496705949e+00 -1.2442149460e-02 1.6580333891e+00 -2.8717980706e+00 1.6580333891e+00 2.8717980706e+00 
24200 6.6495791241e+00 -1.2484472438e-02 1.6584086113e+00 -2.8724479745e+00 1.6584086113e+00 2.8724479745e+00 
24300 6.6494900119e+00 -1.2525252630e-02 1.6587850247e+00 -2.8730999416e+00 1.6587850247e+00 2.8730999416e+00 
24400 6.6494031475e+00 -1.2564176572e-02 1.6591625820e+00 -2.8737538900e+00 1.6591625820e+00 2.8737538900e+00 
24500 6.6493184247e+00 -1.2600943568e-02 1.6595412264e+00 -2.8744097215e+00 1.6595412264e+00 2.8744097215e+00 
24600 6.6492357415e+00 -1.2635265956e-02 1.6599208923e+00 -2.8750673221e+00 1.6599208923e+00 2.8750673221e+00 
24700 6.6491550008e+00 -1.2666869352e-02 1.6603015053e+00 -2.8757265631e+00 1.6603015053e+00 2.8757265631e+00 
24800 6.6490761101e+00 -1.2695492852e-02 1.6606829828e+00 -2.8763873015e+00 1.6606829828e+00 2.8763873015e+00 
24900 6.6489989817e+00 -1.2720889217e-02 1.6610652346e+00 -2.8770493810e+00 1.6610652346e+00 2.8770493810e+00 
25000 6.6489235323e+00 -1.2742825024e-02 1.6614481629e+00 -2.8777126323e+00 1.6614481629e+00 2.8777126323e+00 
25100 6.6488496835e+00 -1.2761080791e-02 1.6618316631e+00 -2.8783768742e+00 1.6618316631e+00 2.8783768742e+00 
25200 6.6487773613e+00 -1.2775451070e-02 1.6622156242e+00 -2.8790419142e+00 1.6622156242e+00 2.8790419142e+00 
25300 6.6487064966e+00 -1.2785744515e-02 1.6625999288e+00 -2.8797075493e+00 1.6625999288e+00 2.8797075493e+00 
25400 6.6486370243e+00 -1.2791783932e-02 1.6629844542e+00 -2.8803735668e+00 1.6629844542e+00 2.8803735668e+00 
25500 6.6485688841e+00 -1.2793406283e-02 1.6633690722e+00 -2.8810397448e+00 1.6633690722e+00 2.8810397448e+00 
25600 6.6485020195e+00 -1.2790462685e-02 1.6637536501e+00 -2.8817058533e+00 1.6637536501e+00 2.8817058533e+00 
25700 6.6484363785e+00 -1.2782818372e-02 1.6641380506e+00 -2.8823716545e+00 1.6641380506e+00 2.8823716545e+00 
25800 6.6483719128e+00 -1.2770352636e-02 1.6645221326e+00 -2.8830369041e+00 1.6645221326e+00 2.8830369041e+00 
25900 6.6483085781e+00 -1.2752958739e-02 1.6649057515e+00 -2.8837013515e+00 1.6649057515e+00 2.8837013515e+00 
26000 6.6482463336e+00 -1.2730543815e-02 1.6652887596e+00 -2.8843647410e+00 1.6652887596e+00 2.8843647410e+00 
26100 6.6481851419e+00 -1.2703028731e-02 1.6656710066e+00 -2.8850268121e+00 1.6656710066e+00 2.8850268121e+00 
26200 6.6481249690e+00 -1.2670347942e-02 1.6660523398e+00 -2.8856873006e+00 1.6660523398e+00 2.8856873006e+00 
26300 6.6480657840e+00 -1.2632449316e-02 1.6664326048e+00 -2.8863459390e+00 1.6664326048e+00 2.8863459390e+00 
26400 6.6480075588e+00 -1.2589293939e-02 1.6668116459e+00 -2.8870024574e+00 1.6668116459e+00 2.8870024574e+00 
26500 6.6479502680e+00 -1.2540855904e-02 1.6671893061e+00 -2.8876565841e+00 1.6671893061e+00 2.8876565841e+00 
26600 6.6478938889e+00 -1.2487122076e-02 1.6675654280e+00 -2.8883080463e+00 1.6675654280e+00 2.8883080463e+00 
26700 6.6478384007e+00 -1.2428091843e-02 1.6679398538e+00 -2.8889565707e+00 1.6679398538e+00 2.8889565707e+00 
26800 6.6477837851e+00 -1.2363776846e-02 1.6683124258e+00 -2.8896018844e+00 1.6683124258e+00 2.8896018844e+00 
26900 6.6477300255e+00 -1.2294200696e-02 1.6686829869e+00 -2.8902437151e+00 1.6686829869e+00 2.8902437151e+00 
27000 6.6476771070e+00 -1.2219398665e-02 1.6690513808e+00 -2.8908817920e+00 1.6690513808e+00 2.8908817920e+00 
27100 6.6476250163e+00 -1.2139417380e-02 1.6694174524e+00 -2.8915158466e+00 1.6694174524e+00 2.8915158466e+00 
27200 6.6475737415e+00 -1.2054314482e-02 1.6697810480e+00 -2.8921456127e+00 1.6697810480e+00 2.8921456127e+00 
27300 6.6475232718e+00 -1.1964158286e-02 1.6701420160e+00 -2.8927708275e+00 1.6701420160e+00 2.8927708275e+00 
27400 6.6474735973e+00 -1.1869027420e-02 1.6705002066e+00 -2.8933912320e+00 1.6705002066e+00 2.8933912320e+00 
27500 6.6474247091e+00 -1.1769010458e-02 1.6708554729e+00 -2.8940065712e+00 1.6708554729e+00 2.8940065712e+00 
27600 6.6473765990e+00 -1.1664205539e-02 1.6712076705e+00 -2.8946165953e+00 1.6712076705e+00 2.8946165953e+00 
27700 6.6473292593e+00 -1.1554719970e-02 1.6715566580e+00 -2.8952210593e+00 1.6715566580e+00 2.8952210593e+00 
27800 6.6472826825e+00 -1.1440669835e-02 1.6719022974e+00 -2.8958197244e+00 1.6719022974e+00 2.8958197244e+00 
27900 6.6472368617e+00 -1.1322179578e-02 1.6722444544e+00 -2.8964123576e+00 1.6722444544e+00 2.8964123576e+00 
28000 6.6471917901e+00 -1.1199381588e-02 1.6725829982e+00 -2.8969987328e+00 1.6725829982e+00 2.8969987328e+00 
28100 6.6471474609e+00 -1.1072415777e-02 1.6729178024e+00 -2.8975786306e+00 1.6729178024e+00 2.8975786306e+00 
28200 6.6471038672e+00 -1.0941429152e-02 1.6732487445e+00 -2.8981518392e+00 1.6732487445e+00 2.8981518392e+00 
28300 6.6470610021e+00 -1.0806575375e-02 1.6735757068e+00 -2.8987181546e+00 1.6735757068e+00 2.8987181546e+00 
28400 6.6470188584e+00 -1.0668014330e-02 1.6738985761e+00 -2.8992773805e+00 1.6738985761e+00 2.8992773805e+00 
28500 6.6469774289e+00 -1.0525911679e-02 1.6742172439e+00 -2.8998293294e+00 1.6742172439e+00 2.8998293294e+00 
28600 6.6469367058e+00 -1.0380438417e-02 1.6745316070e+00 -2.9003738222e+00 1.6745316070e+00 2.9003738222e+00 
28700 6.6468966811e+00 -1.0231770427e-02 1.6748415671e+00 -2.9009106888e+00 1.6748415671e+00 2.9009106888e+00 
28800 6.6468573463e+00 -1.0080088036e-02 1.6751470312e+00 -2.9014397682e+00 1.6751470312e+00 2.9014397682e+00 
28900 6.6468186925e+00 -9.9255755645e-03 1.6754479120e+00 -2.9019609090e+00 1.6754479120e+00 2.9019609090e+00 
29000 6.6467807106e+00 -9.7684208834e-03 1.6757441273e+00 -2.9024739690e+00 1.6757441273e+00 2.9024739690e+00 
29100 6.6467433907e+00 -9.6088149714e-03 1.6760356009e+00 -2.9029788161e+00 1.6760356009e+00 2.9029788161e+00 
29200 6.6467067226e+00 -9.4469514733e-03 1.6763222622e+00 -2.9034753279e+00 1.6763222622e+00 2.9034753279e+00 
29300 6.6466706957e+00 -9.2830262626e-03 1.6766040462e+00 -2.9039633922e+00 1.6766040462e+00 2.9039633922e+00 
29400 6.6466352990e+00 -9.1172370087e-03 1.6768808939e+00 -2.9044429066e+00 1.6768808939e+00 2.9044429066e+00 
29500 6.6466005208e+00 -8.9497827487e-03 1.6771527523e+00 -2.9049137791e+00 1.6771527523e+00 2.9049137791e+00 
29600 6.6465663494e+00 -8.7808634646e-03 1.6774195742e+00 -2.9053759281e+00 1.6774195742e+00 2.9053759281e+00 
29700 6.6465327724e+00 -8.6106796678e-03 1.6776813182e+00 -2.9058292821e+00 1.6776813182e+00 2.9058292821e+00 
29800 6.6464997773e+00 -8.4394319893e-03 1.6779379492e+00 -2.9062737800e+00 1.6779379492e+00 2.9062737800e+00 
29900 6.6464673511e+00 -8.2673207795e-03 1.6781894377e+00 -2.9067093709e+00 1.6781894377e+00 2.9067093709e+00 
30000 6.6464354806e+00 -8.0945457144e-03 1.6784357604e+00 -2.9071360143e+00 1.6784357604e+00 2.9071360143e+00 
30100 6.6464041525e+00 -7.9213054125e-03 1.6786768998e+00 -2.9075536800e+00 1.6786768998e+00 2.9075536800e+00 
30200 6.6463733532e+00 -7.7477970603e-03 1.6789128443e+00 -2.9079623478e+00 1.6789128443e+00 2.9079623478e+00 
30300 6.6463430689e+00 -7.5742160487e-03 1.6791435881e+00 -2.9083620078e+00 1.6791435881e+00 2.9083620078e+00 
30400 6.6463132859e+00 -7.4007556190e-03 1.6793691312e+00 -2.9087526599e+00 1.6793691312e+00 2.9087526599e+00 
30500 6.6462839903e+00 -7.2276065218e-03 1.6795894794e+00 -2.9091343141e+00 1.6795894794e+00 2.9091343141e+00 
30600 6.6462551683e+00 -7.0549566860e-03 1.6798046439e+00 -2.9095069900e+00 1.6798046439e+00 2.9095069900e+00 
30700 6.6462268061e+00 -6.8829909005e-03 1.6800146416e+00 -2.9098707167e+00 1.6800146416e+00 2.9098707167e+00 
30800 6.6461988900e+00 -6.7118905091e-03 1.6802194949e+00 -2.9102255330e+00 1.6802194949e+00 2.9102255330e+00 
30900 6.6461714065e+00 -6.5418331173e-03 1.6804192314e+00 -2.9105714868e+00 1.6804192314e+00 2.9105714868e+00 
31000 6.6461443421e+00 -6.3729923125e-03 1.6806138840e+00 -2.9109086350e+00 1.6806138840e+00 2.9109086350e+00 
31100 6.6461176839e+00 -6.2055373989e-03 1.6808034907e+00 -2.9112370434e+00 1.6808034907e+00 2.9112370434e+00 
31200 6.6460914189e+00 -6.0396331444e-03 1.6809880944e+00 -2.9115567864e+00 1.6809880944e+00 2.9115567864e+00 
31300 6.6460655346e+00 -5.8754395432e-03 1.6811677429e+00 -2.9118679468e+00 1.6811677429e+00 2.9118679468e+00 
31400 6.6460400188e+00 -5.7131115918e-03 1.6813424887e+00 -2.9121706154e+00 1.6813424887e+00 2.9121706154e+00 
31500 6.6460148596e+00 -5.5527990794e-03 1.6815123889e+00 -2.9124648912e+00 1.6815123889e+00 2.9124648912e+00 
31600 6.6459900457e+00 -5.3946463939e-03 1.6816775049e+00 -2.9127508804e+00 1.6816775049e+00 2.9127508804e+00 
31700 6.6459655658e+00 -5.2387923410e-03 1.6818379022e+00 -2.9130286967e+00 1.6818379022e+00 2.9130286967e+00 
31800 6.6459414096e+00 -5.0853699796e-03 1.6819936507e+00 -2.9132984610e+00 1.6819936507e+00 2.9132984610e+00 
31900 6.6459175669e+00 -4.9345064707e-03 1.6821448238e+00 -2.9135603006e+00 1.6821448238e+00 2.9135603006e+00 
32000 6.6458940281e+00 -4.7863229424e-03 1.6822914990e+00 -2.9138143494e+00 1.6822914990e+00 2.9138143494e+00 
32100 6.6458707840e+00 -4.6409343685e-03 1.6824337571e+00 -2.9140607476e+00 1.6824337571e+00 2.9140607476e+00 
32200 6.6458478260e+00 -4.4984494625e-03 1.6825716822e+00 -2.9142996410e+00 1.6825716822e+00 2.9142996410e+00 
32300 6.6458251460e+00 -4.3589705859e-03 1.6827053618e+00 -2.9145311808e+00 1.6827053618e+00 2.9145311808e+00 
32400 6.6458027363e+00 -4.2225936714e-03 1.6828348861e+00 -2.9147555235e+00 1.6828348861e+00 2.9147555235e+00 
32500 6.6457805899e+00 -4.0894081599e-03 1.6829603484e+00 -2.9149728306e+00 1.6829603484e+00 2.9149728306e+00 
32600 6.6457587001e+00 -3.9594969524e-03 1.6830818444e+00 -2.9151832677e+00 1.6830818444e+00 2.9151832677e+00 
32700 6.6457370609e+00 -3.8329363748e-03 1.6831994721e+00 -2.9153870050e+00 1.6831994721e+00 2.9153870050e+00 
32800 6.6457156665e+00 -3.7097961579e-03 1.6833133321e+00 -2.9155842162e+00 1.6833133321e+00 2.9155842162e+00 
32900 6.6456945119e+00 -3.5901394292e-03 1.6834235265e+00 -2.9157750786e+00 1.6834235265e+00 2.9157750786e+00 
33000 6.6456735924e+00 -3.4740227198e-03 1.6835301597e+00 -2.9159597728e+00 1.6835301597e+00 2.9159597728e+00 
33100 6.6456529037e+00 -3.3614959822e-03 1.6836333375e+00 -2.9161384819e+00 1.6836333375e+00 2.9161384819e+00 
33200 6.6456324419e+00 -3.2526026223e-03 1.6837331671e+00 -2.9163113919e+00 1.6837331671e+00 2.9163113919e+00 
33300 6.6456122037e+00 -3.1473795429e-03 1.6838297571e+00 -2.9164786906e+00 1.6838297571e+00 2.9164786906e+00 
33400 6.6455921859e+00 -3.0458571989e-03 1.6839232169e+00 -2.9166405677e+00 1.6839232169e+00 2.9166405677e+00 
33500 6.6455723860e+00 -2.9480596648e-03 1.6840136570e+00 -2.9167972146e+00 1.6840136570e+00 2.9167972146e+00 
33600 6.6455528015e+00 -2.8540047121e-03 1.6841011885e+00 -2.9169488236e+00 1.6841011885e+00 2.9169488236e+00 
33700 6.6455334304e+00 -2.7637038989e-03 1.6841859230e+00 -2.9170955881e+00 1.6841859230e+00 2.9170955881e+00 
33800 6.6455142709e+00 -2.6771626681e-03 1.6842679723e+00 -2.9172377017e+00 1.6842679723e+00 2.9172377017e+00 
33900 6.6454953215e+00 -2.5943804567e-03 1.6843474485e+00 -2.9173753584e+00 1.6843474485e+00 2.9173753584e+00 
34000 6.6454765808e+00 -2.5153508139e-03 1.6844244635e+00 -2.9175087523e+00 1.6844244635e+00 2.9175087523e+00 
34100 6.6454580479e+00 -2.4400615282e-03 1.6844991291e+00 -2.9176380768e+00 1.6844991291e+00 2.9176380768e+00 
34200 6.6454397216e+00 -2.3684947633e-03 1.6845715565e+00 -2.9177635248e+00 1.6845715565e+00 2.9177635248e+00 
34300 6.6454216013e+00 -2.3006272010e-03 1.6846418566e+00 -2.9178852882e+00 1.6846418566e+00 2.9178852882e+00 
34400 6.6454036863e+00 -2.2364301930e-03 1.6847101394e+00 -2.9180035575e+00 1.6847101394e+00 2.9180035575e+00 
34500 6.6453859760e+00 -2.1758699185e-03 1.6847765142e+00 -2.9181185220e+00 1.6847765142e+00 2.9181185220e+00 
34600 6.6453684698e+00 -2.1189075491e-03 1.6848410891e+00 -2.9182303689e+00 1.6848410891e+00 2.9182303689e+00 
34700 6.6453511674e+00 -2.0654994191e-03 1.6849039710e+00 -2.9183392836e+00 1.6849039710e+00 2.9183392836e+00 
34800 6.6453340681e+00 -2.0155972024e-03 1.6849652656e+00 -2.9184454491e+00 1.6849652656e+00 2.9184454491e+00 
34900 6.6453171716e+00 -1.9691480930e-03 1.6850250772e+00 -2.9185490458e+00 1.6850250772e+00 2.9185490458e+00 
35000 6.6453004774e+00 -1.9260949917e-03 1.6850835084e+00 -2.9186502515e+00 1.6850835084e+00 2.9186502515e+00 
35100 6.6452839848e+00 -1.8863766953e-03 1.6851406600e+00 -2.9187492411e+00 1.6851406600e+00 2.9187492411e+00 
35200 6.6452676935e+00 -1.8499280910e-03 1.6851966312e+00 -2.9188461860e+00 1.6851966312e+00 2.9188461860e+00 
35300 6.6452516026e+00 -1.8166803527e-03 1.6852515191e+00 -2.9189412547e+00 1.6852515191e+00 2.9189412547e+00 
35400 6.6452357114e+00 -1.7865611408e-03 1.6853054188e+00 -2.9190346116e+00 1.6853054188e+00 2.9190346116e+00 
35500 6.6452200190e+00 -1.7594948037e-03 1.6853584232e+00 -2.9191264179e+00 1.6853584232e+00 2.9191264179e+00 
35600 6.6452045245e+00 -1.7354025813e-03 1.6854106229e+00 -2.9192168304e+00 1.6854106229e+00 2.9192168304e+00 
35700 6.6451892268e+00 -1.7142028103e-03 1.6854621062e+00 -2.9193060022e+00 1.6854621062e+00 2.9193060022e+00 
35800 6.6451741246e+00 -1.6958111293e-03 1.6855129591e+00 -2.9193940819e+00 1.6855129591e+00 2.9193940819e+00 
35900 6.6451592165e+00 -1.6801406853e-03 1.6855632648e+00 -2.9194812140e+00 1.6855632648e+00 2.9194812140e+00 
36000 6.6451445011e+00 -1.6671023403e-03 1.6856131042e+00 -2.9195675384e+00 1.6856131042e+00 2.9195675384e+00 
36100 6.6451299766e+00 -1.6566048767e-03 1.6856625554e+00 -2.9196531903e+00 1.6856625554e+00 2.9196531903e+00 
36200 6.6451156413e+00 -1.6485552028e-03 1.6857116937e+00 -2.9197383004e+00 1.6857116937e+00 2.9197383004e+00 
36300 6.6451014932e+00 -1.6428585571e-03 1.6857605918e+00 -2.9198229944e+00 1.6857605918e+00 2.9198229944e+00 
36400 6.6450875301e+00 -1.6394187104e-03 1.6858093196e+00 -2.9199073934e+00 1.6858093196e+00 2.9199073934e+00 
36500 6.6450737499e+00 -1.6381381670e-03 1.6858579439e+00 -2.9199916132e+00 1.6858579439e+00 2.9199916132e+00 
36600 6.6450601502e+00 -1.6389183632e-03 1.6859065288e+00 -2.9200757647e+00 1.6859065288e+00 2.9200757647e+00 
36700 6.6450467283e+00 -1.6416598635e-03 1.6859551355e+00 -2.9201599540e+00 1.6859551355e+00 2.9201599540e+00 
36800 6.6450334817e+00 -1.6462625535e-03 1.6860038221e+00 -2.9202442816e+00 1.6860038221e+00 2.9202442816e+00 
36900 6.6450204076e+00 -1.6526258306e-03 1.6860526438e+00 -2.9203288432e+00 1.6860526438e+00 2.9203288432e+00 
37000 6.6450075032e+00 -1.6606487907e-03 1.6861016527e+00 -2.9204137292e+00 1.6861016527e+00 2.9204137292e+00 
37100 6.6449947653e+00 -1.6702304110e-03 1.6861508982e+00 -2.9204990249e+00 1.6861508982e+00 2.9204990249e+00 
37200 6.6449821910e+00 -1.6812697294e-03 1.6862004263e+00 -2.9205848101e+00 1.6862004263e+00 2.9205848101e+00 
37300 6.6449697771e+00 -1.6936660195e-03 1.6862502804e+00 -2.9206711599e+00 1.6862502804e+00 2.9206711599e+00 
37400 6.6449575204e+00 -1.7073189616e-03 1.6863005005e+00 -2.9207581437e+00 1.6863005005e+00 2.9207581437e+00 
37500 6.6449454175e+00 -1.7221288080e-03 1.6863511240e+00 -2.9208458261e+00 1.6863511240e+00 2.9208458261e+00 
37600 6.6449334650e+00 -1.7379965450e-03 1.6864021850e+00 -2.9209342665e+00 1.6864021850e+00 2.9209342665e+00 
37700 6.6449216598e+00 -1.7548240487e-03 1.6864537150e+00 -2.9210235190e+00 1.6864537150e+00 2.9210235190e+00 
37800 6.6449099982e+00 -1.7725142363e-03 1.6865057423e+00 -2.9211136329e+00 1.6865057423e+00 2.9211136329e+00 
37900 6.6448984769e+00 -1.7909712118e-03 1.6865582925e+00 -2.9212046525e+00 1.6865582925e+00 2.9212046525e+00 
38000 6.6448870924e+00 -1.8101004066e-03 1.6866113882e+00 -2.9212966170e+00 1.6866113882e+00 2.9212966170e+00 
38100 6.6448758414e+00 -1.8298087139e-03 1.6866650494e+00 -2.9213895608e+00 1.6866650494e+00 2.9213895608e+00 
38200 6.6448647204e+00 -1.8500046183e-03 1.6867192930e+00 -2.9214835137e+00 1.6867192930e+00 2.9214835137e+00 
38300 6.6448537261e+00 -1.8705983187e-03 1.6867741337e+00 -2.9215785004e+00 1.6867741337e+00 2.9215785004e+00 
38400 6.6448428551e+00 -1.8915018461e-03 1.6868295830e+00 -2.9216745414e+00 1.6868295830e+00 2.9216745414e+00 
38500 6.6448321042e+00 -1.9126291748e-03 1.6868856500e+00 -2.9217716524e+00 1.6868856500e+00 2.9217716524e+00 
38600 6.6448214701e+00 -1.9338963283e-03 1.6869423415e+00 -2.9218698449e+00 1.6869423415e+00 2.9218698449e+00 
38700 6.6448109497e+00 -1.9552214782e-03 1.6869996614e+00 -2.9219691259e+00 1.6869996614e+00 2.9219691259e+00 
38800 6.6448005399e+00 -1.9765250384e-03 1.6870576114e+00 -2.9220694982e+00 1.6870576114e+00 2.9220694982e+00 
38900 6.6447902378e+00 -1.9977297516e-03 1.6871161908e+00 -2.9221709607e+00 1.6871161908e+00 2.9221709607e+00 
39000 6.6447800404e+00 -2.0187607708e-03 1.6871753966e+00 -2.9222735082e+00 1.6871753966e+00 2.9222735082e+00 
39100 6.6447699450e+00 -2.0395457343e-03 1.6872352236e+00 -2.9223771316e+00 1.6872352236e+00 2.9223771316e+00 
39200 6.6447599489e+00 -2.0600148347e-03 1.6872956644e+00 -2.9224818182e+00 1.6872956644e+00 2.9224818182e+00 
39300 6.6447500495e+00 -2.0801008815e-03 1.6873567097e+00 -2.9225875516e+00 1.6873567097e+00 2.9225875516e+00 
39400 6.6447402443e+00 -2.0997393579e-03 1.6874183479e+00 -2.9226943122e+00 1.6874183479e+00 2.9226943122e+00 
39500 6.6447305311e+00 -2.1188684718e-03 1.6874805658e+00 -2.9228020767e+00 1.6874805658e+00 2.9228020767e+00 
39600 6.6447209075e+00 -2.1374292000e-03 1.6875433482e+00 -2.9229108190e+00 1.6875433482e+00 2.9229108190e+00 
39700 6.6447113716e+00 -2.1553653276e-03 1.6876066782e+00 -2.9230205098e+00 1.6876066782e+00 2.9230205098e+00 
39800 6.6447019213e+00 -2.1726234805e-03 1.6876705372e+00 -2.9231311169e+00 1.6876705372e+00 2.9231311169e+00 
39900 6.6446925547e+00 -2.1891531531e-03 1.6877349052e+00 -2.9232426054e+00 1.6877349052e+00 2.9232426054e+00 
40000 6.6446832701e+00 -2.2049067292e-03 1.6877997603e+00 -2.9233549379e+00 1.6877997603e+00 2.9233549379e+00 
40100 6.6446740660e+00 -2.2198394983e-03 1.6878650797e+00 -2.9234680744e+00 1.6878650797e+00 2.9234680744e+00 
40200 6.6446649409e+00 -2.2339096659e-03 1.6879308389e+00 -2.9235819727e+00 1.6879308389e+00 2.9235819727e+00 
40300 6.6446558933e+00 -2.2470783586e-03 1.6879970124e+00 -2.9236965885e+00 1.6879970124e+00 2.9236965885e+00 
40400 6.6446469220e+00 -2.2593096236e-03 1.6880635733e+00 -2.9238118754e+00 1.6880635733e+00 2.9238118754e+00 
40500 6.6446380259e+00 -2.2705704233e-03 1.6881304939e+00 -2.9239277853e+00 1.6881304939e+00 2.9239277853e+00 
40600 6.6446292040e+00 -2.2808306250e-03 1.6881977454e+00 -2.9240442683e+00 1.6881977454e+00 2.9240442683e+00 
40700 6.6446204553e+00 -2.2900629851e-03 1.6882652981e+00 -2.9241612730e+00 1.6882652981e+00 2.9241612730e+00 
40800 6.6446117790e+00 -2.2982431294e-03 1.6883331215e+00 -2.9242787466e+00 1.6883331215e+00 2.9242787466e+00 
40900 6.6446031744e+00 -2.3053495278e-03 1.6884011845e+00 -2.9243966350e+00 1.6884011845e+00 2.9243966350e+00 
41000 6.6445946408e+00 -2.3113634655e-03 1.6884694551e+00 -2.9245148833e+00 1.6884694551e+00 2.9245148833e+00 
41100 6.6445861778e+00 -2.3162690086e-03 1.6885379011e+00 -2.9246334352e+00 1.6885379011e+00 2.9246334352e+00 
41200 6.6445777847e+00 -2.3200529672e-03 1.6886064896e+00 -2.9247522339e+00 1.6886064896e+00 2.9247522339e+00 
41300 6.6445694612e+00 -2.3227048527e-03 1.6886751873e+00 -2.9248712219e+00 1.6886751873e+00 2.9248712219e+00 
41400 6.6445612070e+00 -2.3242168325e-03 1.6887439608e+00 -2.9249903410e+00 1.6887439608e+00 2.9249903410e+00 
41500 6.6445530218e+00 -2.3245836805e-03 1.6888127762e+00 -2.9251095328e+00 1.6888127762e+00 2.9251095328e+00 
41600 6.6445449054e+00 -2.3238027239e-03 1.6888815997e+00 -2.9252287386e+00 1.6888815997e+00 2.9252287386e+00 
41700 6.6445368576e+00 -2.3218737873e-03 1.6889503972e+00 -2.9253478995e+00 1.6889503972e+00 2.9253478995e+00 
41800 6.6445288783e+00 -2.3187991325e-03 1.6890191349e+00 -2.9254669565e+00 1.6890191349e+00 2.9254669565e+00 
41900 6.6445209674e+00 -2.3145833966e-03 1.6890877787e+00 -2.9255858511e+00 1.6890877787e+00 2.9255858511e+00 
42000 6.6445131248e+00 -2.3092335260e-03 1.6891562949e+00 -2.9257045248e+00 1.6891562949e+00 2.9257045248e+00 
42100 6.6445053505e+00 -2.3027587089e-03 1.6892246500e+00 -2.9258229193e+00 1.6892246500e+00 2.9258229193e+00 
42200 6.6444976444e+00 -2.2951703041e-03 1.6892928107e+00 -2.9259409771e+00 1.6892928107e+00 2.9259409771e+00 
42300 6.6444900067e+00 -2.2864817683e-03 1.6893607441e+00 -2.9260586410e+00 1.6893607441e+00 2.9260586410e+00 
42400 6.6444824372e+00 -2.2767085813e-03 1.6894284175e+00 -2.9261758549e+00 1.6894284175e+00 2.9261758549e+00 
42500 6.6444749360e+00 -2.2658681687e-03 1.6894957990e+00 -2.9262925630e+00 1.6894957990e+00 2.9262925630e+00 
42600 6.6444675031e+00 -2.2539798233e-03 1.6895628569e+00 -2.9264087108e+00 1.6895628569e+00 2.9264087108e+00 
42700 6.6444601385e+00 -2.2410646242e-03 1.6896295604e+00 -2.9265242446e+00 1.6896295604e+00 2.9265242446e+00 
42800 6.6444528422e+00 -2.2271453556e-03 1.6896958791e+00 -2.9266391119e+00 1.6896958791e+00 2.9266391119e+00 
42900 6.6444456141e+00 -2.2122464234e-03 1.6897617833e+00 -2.9267532613e+00 1.6897617833e+00 2.9267532613e+00 
43000 6.6444384543e+00 -2.1963937709e-03 1.6898272440e+00 -2.9268666426e+00 1.6898272440e+00 2.9268666426e+00 
43100 6.6444313627e+00 -2.1796147940e-03 1.6898922331e+00 -2.9269792071e+00 1.6898922331e+00 2.9269792071e+00 
43200 6.6444243392e+00 -2.1619382548e-03 1.6899567233e+00 -2.9270909073e+00 1.6899567233e+00 2.9270909073e+00 
43300 6.6444173837e+00 -2.1433941961e-03 1.6900206880e+00 -2.9272016974e+00 1.6900206880e+00 2.9272016974e+00 
43400 6.6444104961e+00 -2.1240138536e-03 1.6900841016e+00 -2.9273115331e+00 1.6900841016e+00 2.9273115331e+00 
43500 6.6444036763e+00 -2.1038295695e-03 1.6901469395e+00 -2.9274203715e+00 1.6901469395e+00 2.9274203715e+00 
43600 6.6443969240e+00 -2.0828747053e-03 1.6902091780e+00 -2.9275281717e+00 1.6902091780e+00 2.9275281717e+00 
43700 6.6443902390e+00 -2.0611835543e-03 1.6902707943e+00 -2.9276348942e+00 1.6902707943e+00 2.9276348942e+00 
43800 6.6443836211e+00 -2.0387912555e-03 1.6903317666e+00 -2.9277405014e+00 1.6903317666e+00 2.9277405014e+00 
43900 6.6443770701e+00 -2.0157337064e-03 1.6903920744e+00 -2.9278449576e+00 1.6903920744e+00 2.9278449576e+00 
44000 6.6443705855e+00 -1.9920474776e-03 1.6904516980e+00 -2.9279482287e+00 1.6904516980e+00 2.9279482287e+00 
44100 6.6443641671e+00 -1.9677697276e-03 1.6905106189e+00 -2.9280502827e+00 1.6905106189e+00 2.9280502827e+00 
44200 6.6443578146e+00 -1.9429381178e-03 1.6905688197e+00 -2.9281510894e+00 1.6905688197e+00 2.9281510894e+00 
44300 6.6443515274e+00 -1.9175907299e-03 1.6906262841e+00 -2.9282506206e+00 1.6906262841e+00 2.9282506206e+00 
44400 6.6443453052e+00 -1.8917659829e-03 1.6906829968e+00 -2.9283488500e+00 1.6906829968e+00 2.9283488500e+00 
44500 6.6443391475e+00 -1.8655025520e-03 1.6907389439e+00 -2.9284457532e+00 1.6907389439e+00 2.9284457532e+00 
44600 6.6443330538e+00 -1.8388392890e-03 1.6907941125e+00 -2.9285413080e+00 1.6907941125e+00 2.9285413080e+00 
44700 6.6443270236e+00 -1.8118151439e-03 1.6908484908e+00 -2.9286354939e+00 1.6908484908e+00 2.9286354939e+00 
44800 6.6443210564e+00 -1.7844690879e-03 1.6909020681e+00 -2.9287282926e+00 1.6909020681e+00 2.9287282926e+00 
44900 6.6443151517e+00 -1.7568400381e-03 1.6909548352e+00 -2.9288196879e+00 1.6909548352e+00 2.9288196879e+00 
45000 6.6443093088e+00 -1.7289667847e-03 1.6910067836e+00 -2.9289096652e+00 1.6910067836e+00 2.9289096652e+00 
45100 6.6443035271e+00 -1.7008879189e-03 1.6910579063e+00 -2.9289982122e+00 1.6910579063e+00 2.9289982122e+00 
45200 6.6442978060e+00 -1.6726417638e-03 1.6911081972e+00 -2.9290853186e+00 1.6911081972e+00 2.9290853186e+00 
45300 6.6442921450e+00 -1.6442663064e-03 1.6911576514e+00 -2.9291709759e+00 1.6911576514e+00 2.9291709759e+00 
45400 6.6442865432e+00 -1.6157991328e-03 1.6912062653e+00 -2.9292551776e+00 1.6912062653e+00 2.9292551776e+00 
45500 6.6442810002e+00 -1.5872773645e-03 1.6912540361e+00 -2.9293379191e+00 1.6912540361e+00 2.9293379191e+00 
45600 6.6442755153e+00 -1.5587375978e-03 1.6913009624e+00 -2.9294191978e+00 1.6913009624e+00 2.9294191978e+00 
45700 6.6442700877e+00 -1.5302158453e-03 1.6913470436e+00 -2.9294990128e+00 1.6913470436e+00 2.9294990128e+00 
45800 6.6442647168e+00 -1.5017474793e-03 1.6913922804e+00 -2.9295773653e+00 1.6913922804e+00 2.9295773653e+00 
45900 6.6442594019e+00 -1.4733671787e-03 1.6914366745e+00 -2.9296542580e+00 1.6914366745e+00 2.9296542580e+00 
46000 6.6442541424e+00 -1.4451088773e-03 1.6914802284e+00 -2.9297296955e+00 1.6914802284e+00 2.9297296955e+00 
46100 6.6442489375e+00 -1.4170057153e-03 1.6915229458e+00 -2.9298036844e+00 1.6915229458e+00 2.9298036844e+00 
46200 6.6442437867e+00 -1.3890899929e-03 1.6915648315e+00 -2.9298762325e+00 1.6915648315e+00 2.9298762325e+00 
46300 6.6442386892e+00 -1.3613931273e-03 1.6916058910e+00 -2.9299473496e+00 1.6916058910e+00 2.9299473496e+00 
46400 6.6442336444e+00 -1.3339456114e-03 1.6916461308e+00 -2.9300170470e+00 1.6916461308e+00 2.9300170470e+00 
46500 6.6442286516e+00 -1.3067769756e-03 1.6916855584e+00 -2.9300853376e+00 1.6916855584e+00 2.9300853376e+00 
46600 6.6442237102e+00 -1.2799157524e-03 1.6917241821e+00 -2.9301522358e+00 1.6917241821e+00 2.9301522358e+00 
46700 6.6442188196e+00 -1.2533894433e-03 1.6917620110e+00 -2.9302177573e+00 1.6917620110e+00 2.9302177573e+00 
46800 6.6442139791e+00 -1.2272244886e-03 1.6917990550e+00 -2.9302819195e+00 1.6917990550e+00 2.9302819195e+00 
46900 6.6442091881e+00 -1.2014462399e-03 1.6918353249e+00 -2.9303447408e+00 1.6918353249e+00 2.9303447408e+00 
47000 6.6442044461e+00 -1.1760789350e-03 1.6918708322e+00 -2.9304062413e+00 1.6918708322e+00 2.9304062413e+00 
47100 6.6441997524e+00 -1.1511456759e-03 1.6919055891e+00 -2.9304664420e+00 1.6919055891e+00 2.9304664420e+00 
47200 6.6441951066e+00 -1.1266684088e-03 1.6919396084e+00 -2.9305253652e+00 1.6919396084e+00 2.9305253652e+00 
47300 6.6441905080e+00 -1.1026679077e-03 1.6919729037e+00 -2.9305830343e+00 1.6919729037e+00 2.9305830343e+00 
47400 6.6441859561e+00 -1.0791637591e-03 1.6920054891e+00 -2.9306394738e+00 1.6920054891e+00 2.9306394738e+00 
47500 6.6441814505e+00 -1.0561743509e-03 1.6920373793e+00 -2.9306947092e+00 1.6920373793e+00 2.9306947092e+00 
47600 6.6441769906e+00 -1.0337168628e-03 1.6920685895e+00 -2.9307487669e+00 1.6920685895e+00 2.9307487669e+00 
47700 6.6441725759e+00 -1.0118072593e-03 1.6920991356e+00 -2.9308016742e+00 1.6920991356e+00 2.9308016742e+00 
47800 6.6441682059e+00 -9.9046028539e-04 1.6921290336e+00 -2.9308534592e+00 1.6921290336e+00 2.9308534592e+00 
47900 6.6441638804e+00 -9.6968946456e-04 1.6921583004e+00 -2.9309041508e+00 1.6921583004e+00 2.9309041508e+00 
48000 6.6441595987e+00 -9.4950709905e-04 1.6921869529e+00 -2.9309537784e+00 1.6921869529e+00 2.9309537784e+00 
48100 6.6441553604e+00 -9.2992427255e-04 1.6922150086e+00 -2.9310023723e+00 1.6922150086e+00 2.9310023723e+00 
48200 6.6441511653e+00 -9.1095085497e-04 1.6922424852e+00 -2.9310499632e+00 1.6922424852e+00 2.9310499632e+00 
48300 6.6441470128e+00 -8.9259550954e-04 1.6922694008e+00 -2.9310965823e+00 1.6922694008e+00 2.9310965823e+00 
48400 6.6441429027e+00 -8.7486570193e-04 1.6922957736e+00 -2.9311422613e+00 1.6922957736e+00 2.9311422613e+00 
48500 6.6441388345e+00 -8.5776771145e-04 1.6923216222e+00 -2.9311870323e+00 1.6923216222e+00 2.9311870323e+00 
48600 6.6441348080e+00 -8.4130664423e-04 1.6923469652e+00 -2.9312309277e+00 1.6923469652e+00 2.9312309277e+00 
48700 6.6441308227e+00 -8.2548644833e-04 1.6923718214e+00 -2.9312739800e+00 1.6923718214e+00 2.9312739800e+00 
48800 6.6441268784e+00 -8.1030993069e-04 1.6923962099e+00 -2.9313162221e+00 1.6923962099e+00 2.9313162221e+00 
48900 6.6441229747e+00 -7.9577877577e-04 1.6924201497e+00 -2.9313576871e+00 1.6924201497e+00 2.9313576871e+00 
49000 6.6441191113e+00 -7.8189356605e-04 1.6924436599e+00 -2.9313984078e+00 1.6924436599e+00 2.9313984078e+00 
49100 6.6441152880e+00 -7.6865380397e-04 1.6924667595e+00 -2.9314384175e+00 1.6924667595e+00 2.9314384175e+00 
49200 6.6441115045e+00 -7.5605793552e-04 1.6924894676e+00 -2.9314777491e+00 1.6924894676e+00 2.9314777491e+00 
49300 6.6441077605e+00 -7.4410337521e-04 1.6925118033e+00 -2.9315164358e+00 1.6925118033e+00 2.9315164358e+00 
49400 6.6441040556e+00 -7.3278653251e-04 1.6925337856e+00 -2.9315545102e+00 1.6925337856e+00 2.9315545102e+00 
49500 6.6441003897e+00 -7.2210283950e-04 1.6925554333e+00 -2.9315920050e+00 1.6925554333e+00 2.9315920050e+00 
49600 6.6440967625e+00 -7.1204677980e-04 1.6925767650e+00 -2.9316289527e+00 1.6925767650e+00 2.9316289527e+00 
49700 6.6440931736e+00 -7.0261191853e-04 1.6925977995e+00 -2.9316653855e+00 1.6925977995e+00 2.9316653855e+00 
49800 6.6440896230e+00 -6.9379093349e-04 1.6926185549e+00 -2.9317013350e+00 1.6926185549e+00 2.9317013350e+00 
49900 6.6440861102e+00 -6.8557564711e-04 1.6926390496e+00 -2.9317368328e+00 1.6926390496e+00 2.9317368328e+00 
50000 6.6440826350e+00 -6.7795705945e-04 1.6926593013e+00 -2.9317719098e+00 1.6926593013e+00 2.9317719098e+00 
50100 6.6440791973e+00 -6.7092538191e-04 1.6926793277e+00 -2.9318065966e+00 1.6926793277e+00 2.9318065966e+00 
50200 6.6440757966e+00 -6.6447007164e-04 1.6926991462e+00 -2.9318409232e+00 1.6926991462e+00 2.9318409232e+00 
50300 6.6440724329e+00 -6.5857986669e-04 1.6927187738e+00 -2.9318749191e+00 1.6927187738e+00 2.9318749191e+00 
50400 6.6440691057e+00 -6.5324282164e-04 1.6927382271e+00 -2.9319086133e+00 1.6927382271e+00 2.9319086133e+00 
50500 6.6440658149e+00 -6.4844634368e-04 1.6927575226e+00 -2.9319420341e+00 1.6927575226e+00 2.9319420341e+00 
50600 6.6440625602e+00 -6.4417722921e-04 1.6927766762e+00 -2.9319752091e+00 1.6927766762e+00 2.9319752091e+00 
50700 6.6440593413e+00 -6.4042170059e-04 1.6927957035e+00 -2.9320081653e+00 1.6927957035e+00 2.9320081653e+00 
50800 6.6440561580e+00 -6.3716544332e-04 1.6928146196e+00 -2.9320409290e+00 1.6928146196e+00 2.9320409290e+00 
50900 6.6440530100e+00 -6.3439364321e-04 1.6928334394e+00 -2.9320735257e+00 1.6928334394e+00 2.9320735257e+00 
51000 6.6440498970e+00 -6.3209102379e-04 1.6928521770e+00 -2.9321059803e+00 1.6928521770e+00 2.9321059803e+00 
51100 6.6440468187e+00 -6.3024188365e-04 1.6928708465e+00 -2.9321383167e+00 1.6928708465e+00 2.9321383167e+00 
51200 6.6440437749e+00 -6.2883013377e-04 1.6928894611e+00 -2.9321705582e+00 1.6928894611e+00 2.9321705582e+00 
51300 6.6440407652e+00 -6.2783933474e-04 1.6929080338e+00 -2.9322027271e+00 1.6929080338e+00 2.9322027271e+00 
51400 6.6440377894e+00 -6.2725273375e-04 1.6929265771e+00 -2.9322348450e+00 1.6929265771e+00 2.9322348450e+00 
51500 6.6440348473e+00 -6.2705330140e-04 1.6929451028e+00 -2.9322669325e+00 1.6929451028e+00 2.9322669325e+00 
51600 6.6440319384e+00 -6.2722376812e-04 1.6929636224e+00 -2.9322990094e+00 1.6929636224e+00 2.9322990094e+00 
51700 6.6440290625e+00 -6.2774666028e-04 1.6929821469e+00 -2.9323310947e+00 1.6929821469e+00 2.9323310947e+00 
51800 6.6440262192e+00 -6.2860433587e-04 1.6930006866e+00 -2.9323632064e+00 1.6930006866e+00 2.9323632064e+00 
51900 6.6440234084e+00 -6.2977901961e-04 1.6930192514e+00 -2.9323953617e+00 1.6930192514e+00 2.9323953617e+00 
52000 6.6440206296e+00 -6.3125283758e-04 1.6930378507e+00 -2.9324275766e+00 1.6930378507e+00 2.9324275766e+00 
52100 6.6440178826e+00 -6.3300785132e-04 1.6930564934e+00 -2.9324598666e+00 1.6930564934e+00 2.9324598666e+00 
52200 6.6440151670e+00 -6.3502609111e-04 1.6930751877e+00 -2.9324922461e+00 1.6930751877e+00 2.9324922461e+00 
52300 6.6440124826e+00 -6.3728958873e-04 1.6930939413e+00 -2.9325247284e+00 1.6930939413e+00 2.9325247284e+00 
52400 6.6440098289e+00 -6.3978040939e-04 1.6931127616e+00 -2.9325573261e+00 1.6931127616e+00 2.9325573261e+00 
52500 6.6440072058e+00 -6.4248068291e-04 1.6931316553e+00 -2.9325900508e+00 1.6931316553e+00 2.9325900508e+00 
52600 6.6440046127e+00 -6.4537263407e-04 1.6931506285e+00 -2.9326229133e+00 1.6931506285e+00 2.9326229133e+00 
52700 6.6440020495e+00 -6.4843861211e-04 1.6931696868e+00 -2.9326559234e+00 1.6931696868e+00 2.9326559234e+00 
52800 6.6439995159e+00 -6.5166111931e-04 1.6931888355e+00 -2.9326890899e+00 1.6931888355e+00 2.9326890899e+00 
52900 6.6439970114e+00 -6.5502283874e-04 1.6932080792e+00 -2.9327224209e+00 1.6932080792e+00 2.9327224209e+00 
53000 6.6439945357e+00 -6.5850666093e-04 1.6932274219e+00 -2.9327559234e+00 1.6932274219e+00 2.9327559234e+00 
53100 6.6439920886e+00 -6.6209570961e-04 1.6932468672e+00 -2.9327896038e+00 1.6932468672e+00 2.9327896038e+00 
53200 6.6439896698e+00 -6.6577336651e-04 1.6932664183e+00 -2.9328234673e+00 1.6932664183e+00 2.9328234673e+00 
53300 6.6439872788e+00 -6.6952329498e-04 1.6932860778e+00 -2.9328575185e+00 1.6932860778e+00 2.9328575185e+00 
53400 6.6439849153e+00 -6.7332946276e-04 1.6933058478e+00 -2.9328917611e+00 1.6933058478e+00 2.9328917611e+00 
53500 6.6439825792e+00 -6.7717616348e-04 1.6933257299e+00 -2.9329261980e+00 1.6933257299e+00 2.9329261980e+00 
53600 6.6439802700e+00 -6.8104803720e-04 1.6933457254e+00 -2.9329608312e+00 1.6933457254e+00 2.9329608312e+00 
53700 6.6439779874e+00 -6.8493008986e-04 1.6933658350e+00 -2.9329956620e+00 1.6933658350e+00 2.9329956620e+00 
53800 6.6439757311e+00 -6.8880771156e-04 1.6933860589e+00 -2.9330306909e+00 1.6933860589e+00 2.9330306909e+00 
53900 6.6439735008e+00 -6.9266669373e-04 1.6934063972e+00 -2.9330659177e+00 1.6934063972e+00 2.9330659177e+00 
54000 6.6439712963e+00 -6.9649324526e-04 1.6934268491e+00 -2.9331013415e+00 1.6934268491e+00 2.9331013415e+00 
54100 6.6439691172e+00 -7.0027400742e-04 1.6934474137e+00 -2.9331369605e+00 1.6934474137e+00 2.9331369605e+00 
54200 6.6439669631e+00 -7.0399606770e-04 1.6934680897e+00 -2.9331727724e+00 1.6934680897e+00 2.9331727724e+00 
54300 6.6439648339e+00 -7.0764697248e-04 1.6934888754e+00 -2.9332087743e+00 1.6934888754e+00 2.9332087743e+00 
54400 6.6439627293e+00 -7.1121473866e-04 1.6935097686e+00 -2.9332449624e+00 1.6935097686e+00 2.9332449624e+00 
54500 6.6439606489e+00 -7.1468786404e-04 1.6935307669e+00 -2.9332813325e+00 1.6935307669e+00 2.9332813325e+00 
54600 6.6439585925e+00 -7.1805533676e-04 1.6935518675e+00 -2.9333178798e+00 1.6935518675e+00 2.9333178798e+00 
54700 6.6439565598e+00 -7.2130664348e-04 1.6935730672e+00 -2.9333545988e+00 1.6935730672e+00 2.9333545988e+00 
54800 6.6439545505e+00 -7.2443177654e-04 1.6935943627e+00 -2.9333914836e+00 1.6935943627e+00 2.9333914836e+00 
54900 6.6439525644e+00 -7.2742124004e-04 1.6936157501e+00 -2.9334285277e+00 1.6936157501e+00 2.9334285277e+00 
55000 6.6439506012e+00 -7.3026605484e-04 1.6936372256e+00 -2.9334657243e+00 1.6936372256e+00 2.9334657243e+00 
55100 6.6439486607e+00 -7.3295776250e-04 1.6936587847e+00 -2.9335030658e+00 1.6936587847e+00 2.9335030658e+00 
55200 6.6439467426e+00 -7.3548842818e-04 1.6936804231e+00 -2.9335405445e+00 1.6936804231e+00 2.9335405445e+00 
55300 6.6439448467e+00 -7.3785064256e-04 1.6937021358e+00 -2.9335781522e+00 1.6937021358e+00 2.9335781522e+00 
55400 6.6439429727e+00 -7.4003752273e-04 1.6937239181e+00 -2.9336158801e+00 1.6937239181e+00 2.9336158801e+00 
55500 6.6439411204e+00 -7.4204271208e-04 1.6937457646e+00 -2.9336537193e+00 1.6937457646e+00 2.9336537193e+00 
55600 6.6439392896e+00 -7.4386037931e-04 1.6937676700e+00 -2.9336916607e+00 1.6937676700e+00 2.9336916607e+00 
55700 6.6439374800e+00 -7.4548521644e-04 1.6937896288e+00 -2.9337296944e+00 1.6937896288e+00 2.9337296944e+00 
55800 6.6439356914e+00 -7.4691243592e-04 1.6938116353e+00 -2.9337678107e+00 1.6938116353e+00 2.9337678107e+00 
55900 6.6439339236e+00 -7.4813776693e-04 1.6938336836e+00 -2.9338059996e+00 1.6938336836e+00 2.9338059996e+00 
56000 6.6439321764e+00 -7.4915745072e-04 1.6938557678e+00 -2.9338442505e+00 1.6938557678e+00 2.9338442505e+00 
56100 6.6439304496e+00 -7.4996823524e-04 1.6938778818e+00 -2.9338825531e+00 1.6938778818e+00 2.9338825531e+00 
56200 6.6439287429e+00 -7.5056736886e-04 1.6939000195e+00 -2.9339208967e+00 1.6939000195e+00 2.9339208967e+00 
56300 6.6439270563e+00 -7.5095259342e-04 1.6939221745e+00 -2.9339592704e+00 1.6939221745e+00 2.9339592704e+00 
56400 6.6439253894e+00 -7.5112213646e-04 1.6939443407e+00 -2.9339976632e+00 1.6939443407e+00 2.9339976632e+00 
56500 6.6439237420e+00 -7.5107470282e-04 1.6939665115e+00 -2.9340360643e+00 1.6939665115e+00 2.9340360643e+00 
56600 6.6439221141e+00 -7.5080946553e-04 1.6939886807e+00 -2.9340744624e+00 1.6939886807e+00 2.9340744624e+00 
56700 6.6439205053e+00 -7.5032605605e-04 1.6940108417e+00 -2.9341128464e+00 1.6940108417e+00 2.9341128464e+00 
56800 6.6439189156e+00 -7.4962455388e-04 1.6940329882e+00 -2.9341512053e+00 1.6940329882e+00 2.9341512053e+00 
56900 6.6439173446e+00 -7.4870547569e-04 1.6940551137e+00 -2.9341895277e+00 1.6940551137e+00 2.9341895277e+00 
57000 6.6439157923e+00 -7.4756976376e-04 1.6940772118e+00 -2.9342278027e+00 1.6940772118e+00 2.9342278027e+00 
57100 6.6439142585e+00 -7.4621877404e-04 1.6940992760e+00 -2.9342660192e+00 1.6940992760e+00 2.9342660192e+00 
57200 6.6439127429e+00 -7.4465426368e-04 1.6941213001e+00 -2.9343041660e+00 1.6941213001e+00 2.9343041660e+00 
57300 6.6439112455e+00 -7.4287837807e-04 1.6941432778e+00 -2.9343422324e+00 1.6941432778e+00 2.9343422324e+00 
57400 6.6439097659e+00 -7.4089363757e-04 1.6941652027e+00 -2.9343802075e+00 1.6941652027e+00 2.9343802075e+00 
57500 6.6439083041e+00 -7.3870292376e-04 1.6941870688e+00 -2.9344180807e+00 1.6941870688e+00 2.9344180807e+00 
57600 6.6439068599e+00 -7.3630946545e-04 1.6942088700e+00 -2.9344558414e+00 1.6942088700e+00 2.9344558414e+00 
57700 6.6439054331e+00 -7.3371682426e-04 1.6942306002e+00 -2.9344934793e+00 1.6942306002e+00 2.9344934793e+00 
57800 6.6439040236e+00 -7.3092888006e-04 1.6942522536e+00 -2.9345309841e+00 1.6942522536e+00 2.9345309841e+00 
57900 6.6439026311e+00 -7.2794981606e-04 1.6942738245e+00 -2.9345683460e+00 1.6942738245e+00 2.9345683460e+00 
58000 6.6439012555e+00 -7.2478410371e-04 1.6942953072e+00 -2.9346055551e+00 1.6942953072e+00 2.9346055551e+00 
58100 6.6438998967e+00 -7.2143648749e-04 1.6943166962e+00 -2.9346426020e+00 1.6943166962e+00 2.9346426020e+00 
58200 6.6438985544e+00 -7.1791196946e-04 1.6943379862e+00 -2.9346794772e+00 1.6943379862e+00 2.9346794772e+00 
58300 6.6438972285e+00 -7.1421579375e-04 1.6943591718e+00 -2.9347161719e+00 1.6943591718e+00 2.9347161719e+00 
58400 6.6438959189e+00 -7.1035343096e-04 1.6943802481e+00 -2.9347526771e+00 1.6943802481e+00 2.9347526771e+00 
58500 6.6438946253e+00 -7.0633056248e-04 1.6944012102e+00 -2.9347889845e+00 1.6944012102e+00 2.9347889845e+00 
58600 6.6438933477e+00 -7.0215306486e-04 1.6944220533e+00 -2.9348250859e+00 1.6944220533e+00 2.9348250859e+00 
58700 6.6438920858e+00 -6.9782699404e-04 1.6944427729e+00 -2.9348609732e+00 1.6944427729e+00 2.9348609732e+00 
58800 6.6438908395e+00 -6.9335856981e-04 1.6944633646e+00 -2.9348966391e+00 1.6944633646e+00 2.9348966391e+00 
58900 6.6438896086e+00 -6.8875416014e-04 1.6944838242e+00 -2.9349320761e+00 1.6944838242e+00 2.9349320761e+00 
59000 6.6438883929e+00 -6.8402026576e-04 1.6945041476e+00 -2.9349672774e+00 1.6945041476e+00 2.9349672774e+00 
59100 6.6438871924e+00 -6.7916350473e-04 1.6945243312e+00 -2.9350022363e+00 1.6945243312e+00 2.9350022363e+00 
59200 6.6438860067e+00 -6.7419059723e-04 1.6945443712e+00 -2.9350369465e+00 1.6945443712e+00 2.9350369465e+00 
59300 6.6438848359e+00 -6.6910835049e-04 1.6945642642e+00 -2.9350714022e+00 1.6945642642e+00 2.9350714022e+00 
59400 6.6438836796e+00 -6.6392364390e-04 1.6945840070e+00 -2.9351055978e+00 1.6945840070e+00 2.9351055978e+00 
59500 6.6438825378e+00 -6.5864341435e-04 1.6946035966e+00 -2.9351395280e+00 1.6946035966e+00 2.9351395280e+00 
59600 6.6438814103e+00 -6.5327464180e-04 1.6946230302e+00 -2.9351731880e+00 1.6946230302e+00 2.9351731880e+00 
59700 6.6438802969e+00 -6.4782433508e-04 1.6946423052e+00 -2.9352065732e+00 1.6946423052e+00 2.9352065732e+00 
59800 6.6438791975e+00 -6.4229951802e-04 1.6946614191e+00 -2.9352396795e+00 1.6946614191e+00 2.9352396795e+00 
59900 6.6438781119e+00 -6.3670721582e-04 1.6946803698e+00 -2.9352725031e+00 1.6946803698e+00 2.9352725031e+00 
60000 6.6438770400e+00 -6.3105444177e-04 1.6946991553e+00 -2.9353050405e+00 1.6946991553e+00 2.9353050405e+00 
60100 6.6438759815e+00 -6.2534818429e-04 1.6947177738e+00 -2.9353372888e+00 1.6947177738e+00 2.9353372888e+00 
60200 6.6438749364e+00 -6.1959539431e-04 1.6947362238e+00 -2.9353692450e+00 1.6947362238e+00 2.9353692450e+00 
60300 6.6438739044e+00 -6.1380297299e-04 1.6947545038e+00 -2.9354009069e+00 1.6947545038e+00 2.9354009069e+00 
60400 6.6438728855e+00 -6.0797775991e-04 1.6947726127e+00 -2.9354322725e+00 1.6947726127e+00 2.9354322725e+00 
60500 6.6438718795e+00 -6.0212652151e-04 1.6947905496e+00 -2.9354633401e+00 1.6947905496e+00 2.9354633401e+00 
60600 6.6438708861e+00 -5.9625594005e-04 1.6948083137e+00 -2.9354941084e+00 1.6948083137e+00 2.9354941084e+00 
60700 6.6438699054e+00 -5.9037260292e-04 1.6948259044e+00 -2.9355245764e+00 1.6948259044e+00 2.9355245764e+00 
60800 6.6438689371e+00 -5.8448299243e-04 1.6948433213e+00 -2.9355547434e+00 1.6948433213e+00 2.9355547434e+00 
60900 6.6438679810e+00 -5.7859347591e-04 1.6948605643e+00 -2.9355846092e+00 1.6948605643e+00 2.9355846092e+00 
61000 6.6438670371e+00 -5.7271029644e-04 1.6948776334e+00 -2.9356141737e+00 1.6948776334e+00 2.9356141737e+00 
61100 6.6438661051e+00 -5.6683956384e-04 1.6948945288e+00 -2.9356434373e+00 1.6948945288e+00 2.9356434373e+00 
61200 6.6438651850e+00 -5.6098724624e-04 1.6949112508e+00 -2.9356724007e+00 1.6949112508e+00 2.9356724007e+00 
61300 6.6438642765e+00 -5.5515916208e-04 1.6949278000e+00 -2.9357010647e+00 1.6949278000e+00 2.9357010647e+00 
61400 6.6438633796e+00 -5.4936097250e-04 1.6949441771e+00 -2.9357294307e+00 1.6949441771e+00 2.9357294307e+00 
61500 6.6438624941e+00 -5.4359817433e-04 1.6949603830e+00 -2.9357575001e+00 1.6949603830e+00 2.9357575001e+00 
61600 6.6438616199e+00 -5.3787609343e-04 1.6949764187e+00 -2.9357852748e+00 1.6949764187e+00 2.9357852748e+00 
61700 6.6438607568e+00 -5.3219987857e-04 1.6949922855e+00 -2.9358127569e+00 1.6949922855e+00 2.9358127569e+00 
61800 6.6438599046e+00 -5.2657449576e-04 1.6950079847e+00 -2.9358399488e+00 1.6950079847e+00 2.9358399488e+00 
61900 6.6438590634e+00 -5.2100472304e-04 1.6950235178e+00 -2.9358668529e+00 1.6950235178e+00 2.9358668529e+00 
62000 6.6438582328e+00 -5.1549514576e-04 1.6950388865e+00 -2.9358934723e+00 1.6950388865e+00 2.9358934723e+00 
62100 6.6438574129e+00 -5.1005015232e-04 1.6950540925e+00 -2.9359198099e+00 1.6950540925e+00 2.9359198099e+00 
62200 6.6438566034e+00 -5.0467393037e-04 1.6950691378e+00 -2.9359458690e+00 1.6950691378e+00 2.9359458690e+00 
62300 6.6438558043e+00 -4.9937046350e-04 1.6950840244e+00 -2.9359716533e+00 1.6950840244e+00 2.9359716533e+00 
62400 6.6438550153e+00 -4.9414352832e-04 1.6950987543e+00 -2.9359971664e+00 1.6950987543e+00 2.9359971664e+00 
62500 6.6438542365e+00 -4.8899669207e-04 1.6951133300e+00 -2.9360224122e+00 1.6951133300e+00 2.9360224122e+00 
62600 6.6438534676e+00 -4.8393331063e-04 1.6951277538e+00 -2.9360473948e+00 1.6951277538e+00 2.9360473948e+00 
62700 6.6438527086e+00 -4.7895652698e-04 1.6951420280e+00 -2.9360721186e+00 1.6951420280e+00 2.9360721186e+00 
62800 6.6438519592e+00 -4.7406927011e-04 1.6951561554e+00 -2.9360965879e+00 1.6951561554e+00 2.9360965879e+00 
62900 6.6438512195e+00 -4.6927425430e-04 1.6951701384e+00 -2.9361208073e+00 1.6951701384e+00 2.9361208073e+00 
63000 6.6438504893e+00 -4.6457397891e-04 1.6951839800e+00 -2.9361447815e+00 1.6951839800e+00 2.9361447815e+00 
63100 6.6438497685e+00 -4.5997072847e-04 1.6951976827e+00 -2.9361685154e+00 1.6951976827e+00 2.9361685154e+00 
63200 6.6438490569e+00 -4.5546657325e-04 1.6952112496e+00 -2.9361920139e+00 1.6952112496e+00 2.9361920139e+00 
63300 6.6438483545e+00 -4.5106337016e-04 1.6952246836e+00 -2.9362152822e+00 1.6952246836e+00 2.9362152822e+00 
63400 6.6438476611e+00 -4.4676276409e-04 1.6952379875e+00 -2.9362383253e+00 1.6952379875e+00 2.9362383253e+00 
63500 6.6438469767e+00 -4.4256618955e-04 1.6952511645e+00 -2.9362611486e+00 1.6952511645e+00 2.9362611486e+00 
63600 6.6438463011e+00 -4.3847487267e-04 1.6952642177e+00 -2.9362837573e+00 1.6952642177e+00 2.9362837573e+00 
63700 6.6438456342e+00 -4.3448983364e-04 1.6952771500e+00 -2.9363061568e+00 1.6952771500e+00 2.9363061568e+00 
63800 6.6438449760e+00 -4.3061188931e-04 1.6952899648e+00 -2.9363283525e+00 1.6952899648e+00 2.9363283525e+00 
63900 6.6438443262e+00 -4.2684165630e-04 1.6953026650e+00 -2.9363503500e+00 1.6953026650e+00 2.9363503500e+00 
64000 6.6438436849e+00 -4.2317955422e-04 1.6953152540e+00 -2.9363721548e+00 1.6953152540e+00 2.9363721548e+00 
64100 6.6438430520e+00 -4.1962580936e-04 1.6953277349e+00 -2.9363937723e+00 1.6953277349e+00 2.9363937723e+00 
64200 6.6438424272e+00 -4.1618045851e-04 1.6953401108e+00 -2.9364152081e+00 1.6953401108e+00 2.9364152081e+00 
64300 6.6438418106e+00 -4.1284335316e-04 1.6953523851e+00 -2.9364364677e+00 1.6953523851e+00 2.9364364677e+00 
64400 6.6438412020e+00 -4.0961416389e-04 1.6953645608e+00 -2.9364575567e+00 1.6953645608e+00 2.9364575567e+00 
64500 6.6438406013e+00 -4.0649238499e-04 1.6953766413e+00 -2.9364784807e+00 1.6953766413e+00 2.9364784807e+00 
64600 6.6438400085e+00 -4.0347733932e-04 1.6953886295e+00 -2.9364992450e+00 1.6953886295e+00 2.9364992450e+00 
64700 6.6438394235e+00 -4.0056818341e-04 1.6954005288e+00 -2.9365198551e+00 1.6954005288e+00 2.9365198551e+00 
64800 6.6438388461e+00 -3.9776391271e-04 1.6954123422e+00 -2.9365403165e+00 1.6954123422e+00 2.9365403165e+00 
64900 6.6438382763e+00 -3.9506336701e-04 1.6954240728e+00 -2.9365606345e+00 1.6954240728e+00 2.9365606345e+00 
65000 6.6438377140e+00 -3.9246523609e-04 1.6954357237e+00 -2.9365808144e+00 1.6954357237e+00 2.9365808144e+00 
65100 6.6438371591e+00 -3.8996806545e-04 1.6954472979e+00 -2.9366008615e+00 1.6954472979e+00 2.9366008615e+00 
65200 6.6438366115e+00 -3.8757026223e-04 1.6954587984e+00 -2.9366207809e+00 1.6954587984e+00 2.9366207809e+00 
65300 6.6438360711e+00 -3.8527010123e-04 1.6954702280e+00 -2.9366405777e+00 1.6954702280e+00 2.9366405777e+00 
65400 6.6438355378e+00 -3.8306573102e-04 1.6954815898e+00 -2.9366602568e+00 1.6954815898e+00 2.9366602568e+00 
65500 6.6438350116e+00 -3.8095518020e-04 1.6954928865e+00 -2.9366798232e+00 1.6954928865e+00 2.9366798232e+00 
65600 6.6438344924e+00 -3.7893636368e-04 1.6955041208e+00 -2.9366992817e+00 1.6955041208e+00 2.9366992817e+00 
65700 6.6438339801e+00 -3.7700708911e-04 1.6955152956e+00 -2.9367186369e+00 1.6955152956e+00 2.9367186369e+00 
65800 6.6438334746e+00 -3.7516506325e-04 1.6955264134e+00 -2.9367378935e+00 1.6955264134e+00 2.9367378935e+00 
65900 6.6438329758e+00 -3.7340789847e-04 1.6955374768e+00 -2.9367570559e+00 1.6955374768e+00 2.9367570559e+00 
66000 6.6438324836e+00 -3.7173311927e-04 1.6955484883e+00 -2.9367761284e+00 1.6955484883e+00 2.9367761284e+00 
66100 6.6438319981e+00 -3.7013816878e-04 1.6955594503e+00 -2.9367951152e+00 1.6955594503e+00 2.9367951152e+00 
66200 6.6438315190e+00 -3.6862041529e-04 1.6955703652e+00 -2.9368140204e+00 1.6955703652e+00 2.9368140204e+00 
66300 6.6438310463e+00 -3.6717715876e-04 1.6955812353e+00 -2.9368328480e+00 1.6955812353e+00 2.9368328480e+00 
66400 6.6438305799e+00 -3.6580563732e-04 1.6955920628e+00 -2.9368516017e+00 1.6955920628e+00 2.9368516017e+00 
66500 6.6438301199e+00 -3.6450303373e-04 1.6956028498e+00 -2.9368702853e+00 1.6956028498e+00 2.9368702853e+00 
66600 6.6438296659e+00 -3.6326648179e-04 1.6956135983e+00 -2.9368889022e+00 1.6956135983e+00 2.9368889022e+00 
66700 6.6438292181e+00 -3.6209307272e-04 1.6956243103e+00 -2.9369074559e+00 1.6956243103e+00 2.9369074559e+00 
66800 6.6438287764e+00 -3.6097986145e-04 1.6956349875e+00 -2.9369259495e+00 1.6956349875e+00 2.9369259495e+00 
66900 6.6438283405e+00 -3.5992387283e-04 1.6956456319e+00 -2.9369443861e+00 1.6956456319e+00 2.9369443861e+00 
67000 6.6438279106e+00 -3.5892210779e-04 1.6956562451e+00 -2.9369627687e+00 1.6956562451e+00 2.9369627687e+00 
67100 6.6438274865e+00 -3.5797154940e-04 1.6956668287e+00 -2.9369811000e+00 1.6956668287e+00 2.9369811000e+00 
67200 6.6438270681e+00 -3.5706916875e-04 1.6956773842e+00 -2.9369993827e+00 1.6956773842e+00 2.9369993827e+00 
67300 6.6438266553e+00 -3.5621193086e-04 1.6956879130e+00 -2.9370176191e+00 1.6956879130e+00 2.9370176191e+00 
67400 6.6438262482e+00 -3.5539680031e-04 1.6956984165e+00 -2.9370358117e+00 1.6956984165e+00 2.9370358117e+00 
67500 6.6438258466e+00 -3.5462074690e-04 1.6957088959e+00 -2.9370539625e+00 1.6957088959e+00 2.9370539625e+00 
67600 6.6438254504e+00 -3.5388075103e-04 1.6957193523e+00 -2.9370720736e+00 1.6957193523e+00 2.9370720736e+00 
67700 6.6438250597e+00 -3.5317380903e-04 1.6957297868e+00 -2.9370901467e+00 1.6957297868e+00 2.9370901467e+00 
67800 6.6438246742e+00 -3.5249693831e-04 1.6957402005e+00 -2.9371081837e+00 1.6957402005e+00 2.9371081837e+00 
67900 6.6438242940e+00 -3.5184718239e-04 1.6957505941e+00 -2.9371261859e+00 1.6957505941e+00 2.9371261859e+00 
68000 6.6438239190e+00 -3.5122161567e-04 1.6957609685e+00 -2.9371441549e+00 1.6957609685e+00 2.9371441549e+00 
68100 6.6438235490e+00 -3.5061734818e-04 1.6957713244e+00 -2.9371620918e+00 1.6957713244e+00 2.9371620918e+00 
68200 6.6438231842e+00 -3.5003152999e-04 1.6957816624e+00 -2.9371799977e+00 1.6957816624e+00 2.9371799977e+00 
68300 6.6438228243e+00 -3.4946135564e-04 1.6957919830e+00 -2.9371978737e+00 1.6957919830e+00 2.9371978737e+00 
68400 6.6438224693e+00 -3.4890406821e-04 1.6958022868e+00 -2.9372157204e+00 1.6958022868e+00 2.9372157204e+00 
68500 6.6438221192e+00 -3.4835696329e-04 1.6958125741e+00 -2.9372335385e+00 1.6958125741e+00 2.9372335385e+00 
68600 6.6438217739e+00 -3.4781739279e-04 1.6958228452e+00 -2.9372513285e+00 1.6958228452e+00 2.9372513285e+00 
68700 6.6438214334e+00 -3.4728276850e-04 1.6958331003e+00 -2.9372690910e+00 1.6958331003e+00 2.9372690910e+00 
68800 6.6438210975e+00 -3.4675056549e-04 1.6958433397e+00 -2.9372868260e+00 1.6958433397e+00 2.9372868260e+00 
68900 6.6438207662e+00 -3.4621832531e-04 1.6958535632e+00 -2.9373045337e+00 1.6958535632e+00 2.9373045337e+00 
69000 6.6438204394e+00 -3.4568365902e-04 1.6958637710e+00 -2.9373222141e+00 1.6958637710e+00 2.9373222141e+00 
69100 6.6438201172e+00 -3.4514424995e-04 1.6958739630e+00 -2.9373398671e+00 1.6958739630e+00 2.9373398671e+00 
69200 6.6438197994e+00 -3.4459785638e-04 1.6958841390e+00 -2.9373574925e+00 1.6958841390e+00 2.9373574925e+00 
69300 6.6438194859e+00 -3.4404231390e-04 1.6958942988e+00 -2.9373750898e+00 1.6958942988e+00 2.9373750898e+00 
69400 6.6438191768e+00 -3.4347553766e-04 1.6959044422e+00 -2.9373926587e+00 1.6959044422e+00 2.9373926587e+00 
69500 6.6438188719e+00 -3.4289552439e-04 1.6959145689e+00 -2.9374101986e+00 1.6959145689e+00 2.9374101986e+00 
69600 6.6438185713e+00 -3.4230035422e-04 1.6959246783e+00 -2.9374277087e+00 1.6959246783e+00 2.9374277087e+00 
69700 6.6438182748e+00 -3.4168819234e-04 1.6959347702e+00 -2.9374451883e+00 1.6959347702e+00 2.9374451883e+00 
69800 6.6438179824e+00 -3.4105729036e-04 1.6959448439e+00 -2.9374626365e+00 1.6959448439e+00 2.9374626365e+00 
69900 6.6438176940e+00 -3.4040598768e-04 1.6959548990e+00 -2.9374800525e+00 1.6959548990e+00 2.9374800525e+00 
70000 6.6438174097e+00 -3.3973271242e-04 1.6959649349e+00 -2.9374974350e+00 1.6959649349e+00 2.9374974350e+00 
70100 6.6438171292e+00 -3.3903598238e-04 1.6959749508e+00 -2.9375147831e+00 1.6959749508e+00 2.9375147831e+00 
70200 6.6438168527e+00 -3.3831440570e-04 1.6959849461e+00 -2.9375320955e+00 1.6959849461e+00 2.9375320955e+00 
70300 6.6438165800e+00 -3.3756668133e-04 1.6959949201e+00 -2.9375493710e+00 1.6959949201e+00 2.9375493710e+00 
70400 6.6438163111e+00 -3.3679159939e-04 1.6960048720e+00 -2.9375666082e+00 1.6960048720e+00 2.9375666082e+00 
70500 6.6438160459e+00 -3.3598804132e-04 1.6960148010e+00 -2.9375838057e+00 1.6960148010e+00 2.9375838057e+00 
70600 6.6438157844e+00 -3.3515497984e-04 1.6960247062e+00 -2.9376009620e+00 1.6960247062e+00 2.9376009620e+00 
70700 6.6438155265e+00 -3.3429147875e-04 1.6960345868e+00 -2.9376180757e+00 1.6960345868e+00 2.9376180757e+00 
70800 6.6438152723e+00 -3.3339669261e-04 1.6960444419e+00 -2.9376351453e+00 1.6960444419e+00 2.9376351453e+00 
70900 6.6438150215e+00 -3.3246986620e-04 1.6960542706e+00 -2.9376521690e+00 1.6960542706e+00 2.9376521690e+00 
71000 6.6438147743e+00 -3.3151033387e-04 1.6960640719e+00 -2.9376691453e+00 1.6960640719e+00 2.9376691453e+00 
71100 6.6438145306e+00 -3.3051751868e-04 1.6960738448e+00 -2.9376860726e+00 1.6960738448e+00 2.9376860726e+00 
71200 6.6438142902e+00 -3.2949093152e-04 1.6960835884e+00 -2.9377029490e+00 1.6960835884e+00 2.9377029490e+00 
71300 6.6438140532e+00 -3.2843016990e-04 1.6960933017e+00 -2.9377197729e+00 1.6960933017e+00 2.9377197729e+00 
71400 6.6438138196e+00 -3.2733491681e-04 1.6961029837e+00 -2.9377365426e+00 1.6961029837e+00 2.9377365426e+00 
71500 6.6438135892e+00 -3.2620493929e-04 1.6961126333e+00 -2.9377532562e+00 1.6961126333e+00 2.9377532562e+00 
71600 6.6438133621e+00 -3.2504008697e-04 1.6961222496e+00 -2.9377699121e+00 1.6961222496e+00 2.9377699121e+00 
71700 6.6438131381e+00 -3.2384029043e-04 1.6961318314e+00 -2.9377865084e+00 1.6961318314e+00 2.9377865084e+00 
71800 6.6438129173e+00 -3.2260555953e-04 1.6961413779e+00 -2.9378030433e+00 1.6961413779e+00 2.9378030433e+00 
71900 6.6438126996e+00 -3.2133598151e-04 1.6961508879e+00 -2.9378195151e+00 1.6961508879e+00 2.9378195151e+00 
72000 6.6438124850e+00 -3.2003171911e-04 1.6961603604e+00 -2.9378359220e+00 1.6961603604e+00 2.9378359220e+00 
72100 6.6438122734e+00 -3.1869300854e-04 1.6961697944e+00 -2.9378522622e+00 1.6961697944e+00 2.9378522622e+00 
72200 6.6438120648e+00 -3.1732015734e-04 1.6961791889e+00 -2.9378685339e+00 1.6961791889e+00 2.9378685339e+00 
72300 6.6438118592e+00 -3.1591354218e-04 1.6961885429e+00 -2.9378847355e+00 1.6961885429e+00 2.9378847355e+00 
72400 6.6438116565e+00 -3.1447360662e-04 1.6961978553e+00 -2.9379008651e+00 1.6961978553e+00 2.9379008651e+00 
72500 6.6438114566e+00 -3.1300085871e-04 1.6962071253e+00 -2.9379169212e+00 1.6962071253e+00 2.9379169212e+00 
72600 6.6438112596e+00 -3.1149586861e-04 1.6962163518e+00 -2.9379329020e+00 1.6962163518e+00 2.9379329020e+00 
72700 6.6438110654e+00 -3.0995926610e-04 1.6962255339e+00 -2.9379488058e+00 1.6962255339e+00 2.9379488058e+00 
72800 6.6438108740e+00 -3.0839173806e-04 1.6962346706e+00 -2.9379646311e+00 1.6962346706e+00 2.9379646311e+00 
72900 6.6438106853e+00 -3.0679402586e-04 1.6962437611e+00 -2.9379803763e+00 1.6962437611e+00 2.9379803763e+00 
73000 6.6438104993e+00 -3.0516692278e-04 1.6962528045e+00 -2.9379960398e+00 1.6962528045e+00 2.9379960398e+00 
73100 6.6438103159e+00 -3.0351127134e-04 1.6962617998e+00 -2.9380116202e+00 1.6962617998e+00 2.9380116202e+00 
73200 6.6438101352e+00 -3.0182796061e-04 1.6962707463e+00 -2.9380271160e+00 1.6962707463e+00 2.9380271160e+00 
73300 6.6438099571e+00 -3.0011792348e-04 1.6962796431e+00 -2.9380425257e+00 1.6962796431e+00 2.9380425257e+00 
73400 6.6438097815e+00 -2.9838213395e-04 1.6962884895e+00 -2.9380578480e+00 1.6962884895e+00 2.9380578480e+00 
73500 6.6438096084e+00 -2.9662160437e-04 1.6962972846e+00 -2.9380730817e+00 1.6962972846e+00 2.9380730817e+00 
73600 6.6438094379e+00 -2.9483738272e-04 1.6963060278e+00 -2.9380882254e+00 1.6963060278e+00 2.9380882254e+00 
73700 6.6438092698e+00 -2.9303054979e-04 1.6963147184e+00 -2.9381032779e+00 1.6963147184e+00 2.9381032779e+00 
73800 6.6438091041e+00 -2.9120221645e-04 1.6963233557e+00 -2.9381182381e+00 1.6963233557e+00 2.9381182381e+00 
73900 6.6438089408e+00 -2.8935352091e-04 1.6963319390e+00 -2.9381331049e+00 1.6963319390e+00 2.9381331049e+00 
74000 6.6438087798e+00 -2.8748562598e-04 1.6963404678e+00 -2.9381478772e+00 1.6963404678e+00 2.9381478772e+00 
74100 6.6438086212e+00 -2.8559971632e-04 1.6963489415e+00 -2.9381625541e+00 1.6963489415e+00 2.9381625541e+00 
74200 6.6438084649e+00 -2.8369699578e-04 1.6963573596e+00 -2.9381771347e+00 1.6963573596e+00 2.9381771347e+00 
74300 6.6438083109e+00 -2.8177868467e-04 1.6963657216e+00 -2.9381916180e+00 1.6963657216e+00 2.9381916180e+00 
74400 6.6438081590e+00 -2.7984601716e-04 1.6963740269e+00 -2.9382060033e+00 1.6963740269e+00 2.9382060033e+00 
74500 6.6438080094e+00 -2.7790023864e-04 1.6963822753e+00 -2.9382202899e+00 1.6963822753e+00 2.9382202899e+00 
74600 6.6438078620e+00 -2.7594260315e-04 1.6963904663e+00 -2.9382344771e+00 1.6963904663e+00 2.9382344771e+00 
74700 6.6438077167e+00 -2.7397437088e-04 1.6963985995e+00 -2.9382485643e+00 1.6963985995e+00 2.9382485643e+00 
74800 6.6438075736e+00 -2.7199680560e-04 1.6964066747e+00 -2.9382625509e+00 1.6964066747e+00 2.9382625509e+00 
74900 6.6438074325e+00 -2.7001117231e-04 1.6964146916e+00 -2.9382764365e+00 1.6964146916e+00 2.9382764365e+00 
75000 6.6438072935e+00 -2.6801873482e-04 1.6964226499e+00 -2.9382902207e+00 1.6964226499e+00 2.9382902207e+00 
75100 6.6438071565e+00 -2.6602075339e-04 1.6964305494e+00 -2.9383039031e+00 1.6964305494e+00 2.9383039031e+00 
75200 6.6438070215e+00 -2.6401848251e-04 1.6964383900e+00 -2.9383174834e+00 1.6964383900e+00 2.9383174834e+00 
75300 6.6438068885e+00 -2.6201316867e-04 1.6964461716e+00 -2.9383309614e+00 1.6964461716e+00 2.9383309614e+00 
75400 6.6438067575e+00 -2.6000604818e-04 1.6964538940e+00 -2.9383443371e+00 1.6964538940e+00 2.9383443371e+00 
75500 6.6438066283e+00 -2.5799834515e-04 1.6964615572e+00 -2.9383576102e+00 1.6964615572e+00 2.9383576102e+00 
75600 6.6438065011e+00 -2.5599126946e-04 1.6964691612e+00 -2.9383707807e+00 1.6964691612e+00 2.9383707807e+00 
75700 6.6438063757e+00 -2.5398601478e-04 1.6964767061e+00 -2.9383838487e+00 1.6964767061e+00 2.9383838487e+00 
75800 6.6438062522e+00 -2.5198375678e-04 1.6964841918e+00 -2.9383968144e+00 1.6964841918e+00 2.9383968144e+00 
75900 6.6438061305e+00 -2.4998565128e-04 1.6964916184e+00 -2.9384096777e+00 1.6964916184e+00 2.9384096777e+00 
76000 6.6438060106e+00 -2.4799283254e-04 1.6964989861e+00 -2.9384224390e+00 1.6964989861e+00 2.9384224390e+00 
76100 6.6438058925e+00 -2.4600641169e-04 1.6965062951e+00 -2.9384350985e+00 1.6965062951e+00 2.9384350985e+00 
76200 6.6438057761e+00 -2.4402747507e-04 1.6965135455e+00 -2.9384476565e+00 1.6965135455e+00 2.9384476565e+00 
76300 6.6438056615e+00 -2.4205708285e-04 1.6965207375e+00 -2.9384601135e+00 1.6965207375e+00 2.9384601135e+00 
76400 6.6438055485e+00 -2.4009626758e-04 1.6965278715e+00 -2.9384724698e+00 1.6965278715e+00 2.9384724698e+00 
76500 6.6438054372e+00 -2.3814603289e-04 1.6965349476e+00 -2.9384847260e+00 1.6965349476e+00 2.9384847260e+00 
76600 6.6438053276e+00 -2.3620735228e-04 1.6965419662e+00 -2.9384968826e+00 1.6965419662e+00 2.9384968826e+00 
76700 6.6438052196e+00 -2.3428116793e-04 1.6965489276e+00 -2.9385089401e+00 1.6965489276e+00 2.9385089401e+00 
76800 6.6438051132e+00 -2.3236838969e-04 1.6965558323e+00 -2.9385208993e+00 1.6965558323e+00 2.9385208993e+00 
76900 6.6438050083e+00 -2.3046989406e-04 1.6965626805e+00 -2.9385327608e+00 1.6965626805e+00 2.9385327608e+00 
77000 6.6438049051e+00 -2.2858652330e-04 1.6965694728e+00 -2.9385445254e+00 1.6965694728e+00 2.9385445254e+00 
77100 6.6438048034e+00 -2.2671908464e-04 1.6965762095e+00 -2.9385561938e+00 1.6965762095e+00 2.9385561938e+00 
77200 6.6438047032e+00 -2.2486834950e-04 1.6965828912e+00 -2.9385677667e+00 1.6965828912e+00 2.9385677667e+00 
77300 6.6438046045e+00 -2.2303505289e-04 1.6965895183e+00 -2.9385792452e+00 1.6965895183e+00 2.9385792452e+00 
77400 6.6438045072e+00 -2.2121989283e-04 1.6965960913e+00 -2.9385906301e+00 1.6965960913e+00 2.9385906301e+00 
77500 6.6438044114e+00 -2.1942352983e-04 1.6966026108e+00 -2.9386019222e+00 1.6966026108e+00 2.9386019222e+00 
77600 6.6438043171e+00 -2.1764658653e-04 1.6966090774e+00 -2.9386131226e+00 1.6966090774e+00 2.9386131226e+00 
77700 6.6438042242e+00 -2.1588964733e-04 1.6966154916e+00 -2.9386242323e+00 1.6966154916e+00 2.9386242323e+00 
77800 6.6438041326e+00 -2.1415325818e-04 1.6966218539e+00 -2.9386352522e+00 1.6966218539e+00 2.9386352522e+00 
77900 6.6438040425e+00 -2.1243792635e-04 1.6966281651e+00 -2.9386461835e+00 1.6966281651e+00 2.9386461835e+00 
78000 6.6438039537e+00 -2.1074412037e-04 1.6966344257e+00 -2.9386570272e+00 1.6966344257e+00 2.9386570272e+00 
78100 6.6438038662e+00 -2.0907227001e-04 1.6966406364e+00 -2.9386677843e+00 1.6966406364e+00 2.9386677843e+00 
78200 6.6438037800e+00 -2.0742276631e-04 1.6966467977e+00 -2.9386784561e+00 1.6966467977e+00 2.9386784561e+00 
78300 6.6438036952e+00 -2.0579596165e-04 1.6966529104e+00 -2.9386890437e+00 1.6966529104e+00 2.9386890437e+00 
78400 6.6438036116e+00 -2.0419217004e-04 1.6966589752e+00 -2.9386995482e+00 1.6966589752e+00 2.9386995482e+00 
78500 6.6438035293e+00 -2.0261166723e-04 1.6966649927e+00 -2.9387099708e+00 1.6966649927e+00 2.9387099708e+00 
78600 6.6438034482e+00 -2.0105469117e-04 1.6966709636e+00 -2.9387203126e+00 1.6966709636e+00 2.9387203126e+00 
78700 6.6438033684e+00 -1.9952144227e-04 1.6966768886e+00 -2.9387305750e+00 1.6966768886e+00 2.9387305750e+00 
78800 6.6438032898e+00 -1.9801208390e-04 1.6966827683e+00 -2.9387407591e+00 1.6966827683e+00 2.9387407591e+00 
78900 6.6438032123e+00 -1.9652674285e-04 1.6966886036e+00 -2.9387508661e+00 1.6966886036e+00 2.9387508661e+00 
79000 6.6438031361e+00 -1.9506550990e-04 1.6966943951e+00 -2.9387608972e+00 1.6966943951e+00 2.9387608972e+00 
79100 6.6438030610e+00 -1.9362844043e-04 1.6967001435e+00 -2.9387708537e+00 1.6967001435e+00 2.9387708537e+00 
79200 6.6438029870e+00 -1.9221555506e-04 1.6967058495e+00 -2.9387807369e+00 1.6967058495e+00 2.9387807369e+00 
79300 6.6438029142e+00 -1.9082684034e-04 1.6967115139e+00 -2.9387905479e+00 1.6967115139e+00 2.9387905479e+00 
79400 6.6438028425e+00 -1.8946224955e-04 1.6967171373e+00 -2.9388002879e+00 1.6967171373e+00 2.9388002879e+00 
79500 6.6438027719e+00 -1.8812170343e-04 1.6967227205e+00 -2.9388099583e+00 1.6967227205e+00 2.9388099583e+00 
79600 6.6438027023e+00 -1.8680509108e-04 1.6967282642e+00 -2.9388195603e+00 1.6967282642e+00 2.9388195603e+00 
79700 6.6438026339e+00 -1.8551227081e-04 1.6967337691e+00 -2.9388290950e+00 1.6967337691e+00 2.9388290950e+00 
79800 6.6438025664e+00 -1.8424307101e-04 1.6967392358e+00 -2.9388385637e+00 1.6967392358e+00 2.9388385637e+00 
79900 6.6438025001e+00 -1.8299729117e-04 1.6967446652e+00 -2.9388479675e+00 1.6967446652e+00 2.9388479675e+00 
80000 6.6438024347e+00 -1.8177470282e-04 1.6967500578e+00 -2.9388573078e+00 1.6967500578e+00 2.9388573078e+00 
80100 6.6438023703e+00 -1.8057505053e-04 1.6967554143e+00 -2.9388665856e+00 1.6967554143e+00 2.9388665856e+00 
80200 6.6438023070e+00 -1.7939805296e-04 1.6967607355e+00 -2.9388758022e+00 1.6967607355e+00 2.9388758022e+00 
80300 6.6438022446e+00 -1.7824340393e-04 1.6967660220e+00 -2.9388849587e+00 1.6967660220e+00 2.9388849587e+00 
80400 6.6438021832e+00 -1.7711077346e-04 1.6967712745e+00 -2.9388940562e+00 1.6967712745e+00 2.9388940562e+00 
80500 6.6438021227e+00 -1.7599980890e-04 1.6967764935e+00 -2.9389030958e+00 1.6967764935e+00 2.9389030958e+00 
80600 6.6438020632e+00 -1.7491013606e-04 1.6967816798e+00 -2.9389120788e+00 1.6967816798e+00 2.9389120788e+00 
80700 6.6438020046e+00 -1.7384136029e-04 1.6967868340e+00 -2.9389210061e+00 1.6967868340e+00 2.9389210061e+00 
80800 6.6438019469e+00 -1.7279306768e-04 1.6967919567e+00 -2.9389298788e+00 1.6967919567e+00 2.9389298788e+00 
80900 6.6438018901e+00 -1.7176482617e-04 1.6967970484e+00 -2.9389386980e+00 1.6967970484e+00 2.9389386980e+00 
81000 6.6438018341e+00 -1.7075618672e-04 1.6968021099e+00 -2.9389474647e+00 1.6968021099e+00 2.9389474647e+00 
81100 6.6438017791e+00 -1.6976668448e-04 1.6968071416e+00 -2.9389561798e+00 1.6968071416e+00 2.9389561798e+00 
81200 6.6438017249e+00 -1.6879583998e-04 1.6968121441e+00 -2.9389648445e+00 1.6968121441e+00 2.9389648445e+00 
81300 6.6438016716e+00 -1.6784316024e-04 1.6968171180e+00 -2.9389734596e+00 1.6968171180e+00 2.9389734596e+00 
81400 6.6438016191e+00 -1.6690813998e-04 1.6968220638e+00 -2.9389820260e+00 1.6968220638e+00 2.9389820260e+00 
81500 6.6438015674e+00 -1.6599026277e-04 1.6968269821e+00 -2.9389905447e+00 1.6968269821e+00 2.9389905447e+00 
81600 6.6438015165e+00 -1.6508900220e-04 1.6968318733e+00 -2.9389990165e+00 1.6968318733e+00 2.9389990165e+00 
81700 6.6438014664e+00 -1.6420382299e-04 1.6968367379e+00 -2.9390074422e+00 1.6968367379e+00 2.9390074422e+00 
81800 6.6438014172e+00 -1.6333418218e-04 1.6968415765e+00 -2.9390158228e+00 1.6968415765e+00 2.9390158228e+00 
81900 6.6438013686e+00 -1.6247953021e-04 1.6968463893e+00 -2.9390241590e+00 1.6968463893e+00 2.9390241590e+00 
82000 6.6438013209e+00 -1.6163931207e-04 1.6968511770e+00 -2.9390324515e+00 1.6968511770e+00 2.9390324515e+00 
82100 6.6438012739e+00 -1.6081296837e-04 1.6968559400e+00 -2.9390407011e+00 1.6968559400e+00 2.9390407011e+00 
82200 6.6438012277e+00 -1.5999993646e-04 1.6968606785e+00 -2.9390489086e+00 1.6968606785e+00 2.9390489086e+00 
82300 6.6438011822e+00 -1.5919965145e-04 1.6968653931e+00 -2.9390570745e+00 1.6968653931e+00 2.9390570745e+00 
82400 6.6438011374e+00 -1.5841154727e-04 1.6968700841e+00 -2.9390651995e+00 1.6968700841e+00 2.9390651995e+00 
82500 6.6438010933e+00 -1.5763505770e-04 1.6968747519e+00 -2.9390732843e+00 1.6968747519e+00 2.9390732843e+00 
82600 6.6438010499e+00 -1.5686961739e-04 1.6968793967e+00 -2.9390813295e+00 1.6968793967e+00 2.9390813295e+00 
82700 6.6438010072e+00 -1.5611466277e-04 1.6968840190e+00 -2.9390893355e+00 1.6968840190e+00 2.9390893355e+00 
82800 6.6438009652e+00 -1.5536963308e-04 1.6968886191e+00 -2.9390973030e+00 1.6968886191e+00 2.9390973030e+00 
82900 6.6438009239e+00 -1.5463397121e-04 1.6968931971e+00 -2.9391052325e+00 1.6968931971e+00 2.9391052325e+00 
83000 6.6438008832e+00 -1.5390712469e-04 1.6968977535e+00 -2.9391131244e+00 1.6968977535e+00 2.9391131244e+00 
83100 6.6438008432e+00 -1.5318854647e-04 1.6969022885e+00 -2.9391209791e+00 1.6969022885e+00 2.9391209791e+00 
83200 6.6438008038e+00 -1.5247769582e-04 1.6969068023e+00 -2.9391287972e+00 1.6969068023e+00 2.9391287972e+00 
83300 6.6438007651e+00 -1.5177403910e-04 1.6969112951e+00 -2.9391365790e+00 1.6969112951e+00 2.9391365790e+00 
83400 6.6438007269e+00 -1.5107705054e-04 1.6969157671e+00 -2.9391443249e+00 1.6969157671e+00 2.9391443249e+00 
83500 6.6438006894e+00 -1.5038621302e-04 1.6969202187e+00 -2.9391520351e+00 1.6969202187e+00 2.9391520351e+00 
83600 6.6438006525e+00 -1.4970101875e-04 1.6969246498e+00 -2.9391597101e+00 1.6969246498e+00 2.9391597101e+00 
83700 6.6438006162e+00 -1.4902096992e-04 1.6969290608e+00 -2.9391673501e+00 1.6969290608e+00 2.9391673501e+00 
83800 6.6438005805e+00 -1.4834557943e-04 1.6969334517e+00 -2.9391749554e+00 1.6969334517e+00 2.9391749554e+00 
83900 6.6438005453e+00 -1.4767437143e-04 1.6969378227e+00 -2.9391825262e+00 1.6969378227e+00 2.9391825262e+00 
84000 6.6438005107e+00 -1.4700688190e-04 1.6969421739e+00 -2.9391900627e+00 1.6969421739e+00 2.9391900627e+00 
84100 6.6438004767e+00 -1.4634265923e-04 1.6969465054e+00 -2.9391975651e+00 1.6969465054e+00 2.9391975651e+00 
84200 6.6438004432e+00 -1.4568126469e-04 1.6969508173e+00 -2.9392050336e+00 1.6969508173e+00 2.9392050336e+00 
84300 6.6438004103e+00 -1.4502227295e-04 1.6969551098e+00 -2.9392124683e+00 1.6969551098e+00 2.9392124683e+00 
84400 6.6438003779e+00 -1.4436527244e-04 1.6969593828e+00 -2.9392198694e+00 1.6969593828e+00 2.9392198694e+00 
84500 6.6438003460e+00 -1.4370986584e-04 1.6969636364e+00 -2.9392272369e+00 1.6969636364e+00 2.9392272369e+00 
84600 6.6438003147e+00 -1.4305567037e-04 1.6969678708e+00 -2.9392345710e+00 1.6969678708e+00 2.9392345710e+00 
84700 6.6438002839e+00 -1.4240231817e-04 1.6969720858e+00 -2.9392418717e+00 1.6969720858e+00 2.9392418717e+00 
84800 6.6438002535e+00 -1.4174945659e-04 1.6969762816e+00 -2.9392491390e+00 1.6969762816e+00 2.9392491390e+00 
84900 6.6438002237e+00 -1.4109674843e-04 1.6969804581e+00 -2.9392563729e+00 1.6969804581e+00 2.9392563729e+00 
85000 6.6438001944e+00 -1.4044387221e-04 1.6969846154e+00 -2.9392635736e+00 1.6969846154e+00 2.9392635736e+00 
85100 6.6438001655e+00 -1.3979052231e-04 1.6969887535e+00 -2.9392707409e+00 1.6969887535e+00 2.9392707409e+00 
85200 6.6438001371e+00 -1.3913640918e-04 1.6969928722e+00 -2.9392778748e+00 1.6969928722e+00 2.9392778748e+00 
85300 6.6438001092e+00 -1.3848125943e-04 1.6969969717e+00 -2.9392849753e+00 1.6969969717e+00 2.9392849753e+00 
85400 6.6438000818e+00 -1.3782481598e-04 1.6970010519e+00 -2.9392920424e+00 1.6970010519e+00 2.9392920424e+00 
85500 6.6438000548e+00 -1.3716683805e-04 1.6970051128e+00 -2.9392990760e+00 1.6970051128e+00 2.9392990760e+00 
85600 6.6438000282e+00 -1.3650710125e-04 1.6970091542e+00 -2.9393060760e+00 1.6970091542e+00 2.9393060760e+00 
85700 6.6438000021e+00 -1.3584539756e-04 1.6970131762e+00 -2.9393130423e+00 1.6970131762e+00 2.9393130423e+00 
85800 6.6437999764e+00 -1.3518153531e-04 1.6970171787e+00 -2.9393199748e+00 1.6970171787e+00 2.9393199748e+00 
85900 6.6437999511e+00 -1.3451533913e-04 1.6970211616e+00 -2.9393268734e+00 1.6970211616e+00 2.9393268734e+00 
86000 6.6437999263e+00 -1.3384664983e-04 1.6970251249e+00 -2.9393337380e+00 1.6970251249e+00 2.9393337380e+00 
86100 6.6437999019e+00 -1.3317532432e-04 1.6970290685e+00 -2.9393405685e+00 1.6970290685e+00 2.9393405685e+00 
86200 6.6437998779e+00 -1.3250123547e-04 1.6970329922e+00 -2.9393473647e+00 1.6970329922e+00 2.9393473647e+00 
86300 6.6437998543e+00 -1.3182427192e-04 1.6970368961e+00 -2.9393541264e+00 1.6970368961e+00 2.9393541264e+00 
86400 6.6437998310e+00 -1.3114433792e-04 1.6970407801e+00 -2.9393608536e+00 1.6970407801e+00 2.9393608536e+00 
86500 6.6437998082e+00 -1.3046135309e-04 1.6970446440e+00 -2.9393675461e+00 1.6970446440e+00 2.9393675461e+00 
86600 6.6437997858e+00 -1.2977525220e-04 1.6970484878e+00 -2.9393742038e+00 1.6970484878e+00 2.9393742038e+00 
86700 6.6437997637e+00 -1.2908598487e-04 1.6970523114e+00 -2.9393808264e+00 1.6970523114e+00 2.9393808264e+00 
86800 6.6437997420e+00 -1.2839351537e-04 1.6970561146e+00 -2.9393874138e+00 1.6970561146e+00 2.9393874138e+00 
86900 6.6437997207e+00 -1.2769782223e-04 1.6970598974e+00 -2.9393939658e+00 1.6970598974e+00 2.9393939658e+00 
87000 6.6437996997e+00 -1.2699889796e-04 1.6970636598e+00 -2.9394004824e+00 1.6970636598e+00 2.9394004824e+00 
87100 6.6437996791e+00 -1.2629674872e-04 1.6970674015e+00 -2.9394069632e+00 1.6970674015e+00 2.9394069632e+00 
87200 6.6437996588e+00 -1.2559139395e-04 1.6970711225e+00 -2.9394134082e+00 1.6970711225e+00 2.9394134082e+00 
87300 6.6437996389e+00 -1.2488286598e-04 1.6970748228e+00 -2.9394198173e+00 1.6970748228e+00 2.9394198173e+00 
87400 6.6437996193e+00 -1.2417120969e-04 1.6970785021e+00 -2.9394261901e+00 1.6970785021e+00 2.9394261901e+00 
87500 6.6437996001e+00 -1.2345648206e-04 1.6970821605e+00 -2.9394325266e+00 1.6970821605e+00 2.9394325266e+00 
87600 6.6437995812e+00 -1.2273875175e-04 1.6970857978e+00 -2.9394388266e+00 1.6970857978e+00 2.9394388266e+00 
87700 6.6437995626e+00 -1.2201809876e-04 1.6970894140e+00 -2.9394450900e+00 1.6970894140e+00 2.9394450900e+00 
87800 6.6437995443e+00 -1.2129461386e-04 1.6970930089e+00 -2.9394513166e+00 1.6970930089e+00 2.9394513166e+00 
87900 6.6437995263e+00 -1.2056839827e-04 1.6970965825e+00 -2.9394575062e+00 1.6970965825e+00 2.9394575062e+00 
88000 6.6437995087e+00 -1.1983956311e-04 1.6971001347e+00 -2.9394636588e+00 1.6971001347e+00 2.9394636588e+00 
88100 6.6437994913e+00 -1.1910822899e-04 1.6971036654e+00 -2.9394697742e+00 1.6971036654e+00 2.9394697742e+00 
88200 6.6437994743e+00 -1.1837452553e-04 1.6971071746e+00 -2.9394758523e+00 1.6971071746e+00 2.9394758523e+00 
88300 6.6437994575e+00 -1.1763859085e-04 1.6971106621e+00 -2.9394818928e+00 1.6971106621e+00 2.9394818928e+00 
88400 6.6437994411e+00 -1.1690057114e-04 1.6971141280e+00 -2.9394878959e+00 1.6971141280e+00 2.9394878959e+00 
88500 6.6437994249e+00 -1.1616062013e-04 1.6971175721e+00 -2.9394938612e+00 1.6971175721e+00 2.9394938612e+00 
88600 6.6437994090e+00 -1.1541889865e-04 1.6971209944e+00 -2.9394997888e+00 1.6971209944e+00 2.9394997888e+00 
88700 6.6437993934e+00 -1.1467557409e-04 1.6971243948e+00 -2.9395056785e+00 1.6971243948e+00 2.9395056785e+00 
88800 6.6437993780e+00 -1.1393081995e-04 1.6971277733e+00 -2.9395115303e+00 1.6971277733e+00 2.9395115303e+00 
88900 6.6437993629e+00 -1.1318481533e-04 1.6971311299e+00 -2.9395173441e+00 1.6971311299e+00 2.9395173441e+00 
89000 6.6437993481e+00 -1.1243774445e-04 1.6971344645e+00 -2.9395231198e+00 1.6971344645e+00 2.9395231198e+00 
89100 6.6437993336e+00 -1.1168979615e-04 1.6971377771e+00 -2.9395288573e+00 1.6971377771e+00 2.9395288573e+00 
89200 6.6437993193e+00 -1.1094116342e-04 1.6971410676e+00 -2.9395345567e+00 1.6971410676e+00 2.9395345567e+00 
89300 6.6437993052e+00 -1.1019204292e-04 1.6971443361e+00 -2.9395402179e+00 1.6971443361e+00 2.9395402179e+00 
89400 6.6437992914e+00 -1.0944263448e-04 1.6971475825e+00 -2.9395458408e+00 1.6971475825e+00 2.9395458408e+00 
89500 6.6437992779e+00 -1.0869314067e-04 1.6971508068e+00 -2.9395514255e+00 1.6971508068e+00 2.9395514255e+00 
89600 6.6437992645e+00 -1.0794376629e-04 1.6971540090e+00 -2.9395569719e+00 1.6971540090e+00 2.9395569719e+00 
89700 6.6437992515e+00 -1.0719471794e-04 1.6971571892e+00 -2.9395624800e+00 1.6971571892e+00 2.9395624800e+00 
89800 6.6437992386e+00 -1.0644620356e-04 1.6971603472e+00 -2.9395679500e+00 1.6971603472e+00 2.9395679500e+00 
89900 6.6437992260e+00 -1.0569843200e-04 1.6971634832e+00 -2.9395733817e+00 1.6971634832e+00 2.9395733817e+00 
90000 6.6437992136e+00 -1.0495161253e-04 1.6971665972e+00 -2.9395787753e+00 1.6971665972e+00 2.9395787753e+00 
90100 6.6437992014e+00 -1.0420595451e-04 1.6971696892e+00 -2.9395841307e+00 1.6971696892e+00 2.9395841307e+00 
90200 6.6437991895e+00 -1.0346166687e-04 1.6971727592e+00 -2.9395894481e+00 1.6971727592e+00 2.9395894481e+00 
90300 6.6437991777e+00 -1.0271895779e-04 1.6971758072e+00 -2.9395947275e+00 1.6971758072e+00 2.9395947275e+00 
90400 6.6437991662e+00 -1.0197803424e-04 1.6971788334e+00 -2.9395999690e+00 1.6971788334e+00 2.9395999690e+00 
90500 6.6437991549e+00 -1.0123910163e-04 1.6971818377e+00 -2.9396051726e+00 1.6971818377e+00 2.9396051726e+00 
90600 6.6437991438e+00 -1.0050236345e-04 1.6971848203e+00 -2.9396103386e+00 1.6971848203e+00 2.9396103386e+00 
90700 6.6437991329e+00 -9.9768020861e-05 1.6971877812e+00 -2.9396154670e+00 1.6971877812e+00 2.9396154670e+00 
90800 6.6437991222e+00 -9.9036272405e-05 1.6971907204e+00 -2.9396205578e+00 1.6971907204e+00 2.9396205578e+00 
90900 6.6437991116e+00 -9.8307313629e-05 1.6971936380e+00 -2.9396256113e+00 1.6971936380e+00 2.9396256113e+00 
91000 6.6437991013e+00 -9.7581336776e-05 1.6971965342e+00 -2.9396306277e+00 1.6971965342e+00 2.9396306277e+00 
91100 6.6437990912e+00 -9.6858530484e-05 1.6971994090e+00 -2.9396356069e+00 1.6971994090e+00 2.9396356069e+00 
91200 6.6437990812e+00 -9.6139079482e-05 1.6972022625e+00 -2.9396405493e+00 1.6972022625e+00 2.9396405493e+00 
91300 6.6437990715e+00 -9.5423164318e-05 1.6972050947e+00 -2.9396454550e+00 1.6972050947e+00 2.9396454550e+00 
91400 6.6437990619e+00 -9.4710961083e-05 1.6972079059e+00 -2.9396503241e+00 1.6972079059e+00 2.9396503241e+00 
91500 6.6437990525e+00 -9.4002641172e-05 1.6972106961e+00 -2.9396551569e+00 1.6972106961e+00 2.9396551569e+00 
91600 6.6437990432e+00 -9.3298371034e-05 1.6972134655e+00 -2.9396599535e+00 1.6972134655e+00 2.9396599535e+00 
91700 6.6437990341e+00 -9.2598311952e-05 1.6972162140e+00 -2.9396647141e+00 1.6972162140e+00 2.9396647141e+00 
91800 6.6437990252e+00 -9.1902619838e-05 1.6972189420e+00 -2.9396694391e+00 1.6972189420e+00 2.9396694391e+00 
91900 6.6437990165e+00 -9.1211445052e-05 1.6972216494e+00 -2.9396741285e+00 1.6972216494e+00 2.9396741285e+00 
92000 6.6437990079e+00 -9.0524932195e-05 1.6972243365e+00 -2.9396787827e+00 1.6972243365e+00 2.9396787827e+00 
92100 6.6437989995e+00 -8.9843219966e-05 1.6972270034e+00 -2.9396834018e+00 1.6972270034e+00 2.9396834018e+00 
92200 6.6437989913e+00 -8.9166441004e-05 1.6972296501e+00 -2.9396879861e+00 1.6972296501e+00 2.9396879861e+00 
92300 6.6437989832e+00 -8.8494721762e-05 1.6972322770e+00 -2.9396925359e+00 1.6972322770e+00 2.9396925359e+00 
92400 6.6437989752e+00 -8.7828182373e-05 1.6972348840e+00 -2.9396970514e+00 1.6972348840e+00 2.9396970514e+00 
92500 6.6437989674e+00 -8.7166936562e-05 1.6972374714e+00 -2.9397015329e+00 1.6972374714e+00 2.9397015329e+00 
92600 6.6437989598e+00 -8.6511091542e-05 1.6972400393e+00 -2.9397059807e+00 1.6972400393e+00 2.9397059807e+00 
92700 6.6437989523e+00 -8.5860747932e-05 1.6972425879e+00 -2.9397103950e+00 1.6972425879e+00 2.9397103950e+00 
92800 6.6437989449e+00 -8.5215999714e-05 1.6972451173e+00 -2.9397147760e+00 1.6972451173e+00 2.9397147760e+00 
92900 6.6437989377e+00 -8.4576934156e-05 1.6972476277e+00 -2.9397191242e+00 1.6972476277e+00 2.9397191242e+00 
93000 6.6437989306e+00 -8.3943631804e-05 1.6972501193e+00 -2.9397234398e+00 1.6972501193e+00 2.9397234398e+00 
93100 6.6437989237e+00 -8.3316166441e-05 1.6972525922e+00 -2.9397277230e+00 1.6972525922e+00 2.9397277230e+00 
93200 6.6437989168e+00 -8.2694605078e-05 1.6972550467e+00 -2.9397319742e+00 1.6972550467e+00 2.9397319742e+00 
93300 6.6437989102e+00 -8.2079007970e-05 1.6972574828e+00 -2.9397361937e+00 1.6972574828e+00 2.9397361937e+00 
93400 6.6437989036e+00 -8.1469428610e-05 1.6972599008e+00 -2.9397403818e+00 1.6972599008e+00 2.9397403818e+00 
93500 6.6437988972e+00 -8.0865913782e-05 1.6972623008e+00 -2.9397445388e+00 1.6972623008e+00 2.9397445388e+00 
93600 6.6437988909e+00 -8.0268503581e-05 1.6972646831e+00 -2.9397486650e+00 1.6972646831e+00 2.9397486650e+00 
93700 6.6437988847e+00 -7.9677231469e-05 1.6972670477e+00 -2.9397527606e+00 1.6972670477e+00 2.9397527606e+00 
93800 6.6437988786e+00 -7.9092124345e-05 1.6972693949e+00 -2.9397568262e+00 1.6972693949e+00 2.9397568262e+00 
93900 6.6437988727e+00 -7.8513202606e-05 1.6972717249e+00 -2.9397608618e+00 1.6972717249e+00 2.9397608618e+00 
94000 6.6437988669e+00 -7.7940480237e-05 1.6972740378e+00 -2.9397648679e+00 1.6972740378e+00 2.9397648679e+00 
94100 6.6437988612e+00 -7.7373964901e-05 1.6972763339e+00 -2.9397688448e+00 1.6972763339e+00 2.9397688448e+00 
94200 6.6437988556e+00 -7.6813658043e-05 1.6972786132e+00 -2.9397727927e+00 1.6972786132e+00 2.9397727927e+00 
94300 6.6437988501e+00 -7.6259555007e-05 1.6972808761e+00 -2.9397767121e+00 1.6972808761e+00 2.9397767121e+00 
94400 6.6437988447e+00 -7.5711645147e-05 1.6972831226e+00 -2.9397806032e+00 1.6972831226e+00 2.9397806032e+00 
94500 6.6437988395e+00 -7.5169911966e-05 1.6972853530e+00 -2.9397844663e+00 1.6972853530e+00 2.9397844663e+00 
94600 6.6437988343e+00 -7.4634333243e-05 1.6972875674e+00 -2.9397883018e+00 1.6972875674e+00 2.9397883018e+00 
94700 6.6437988292e+00 -7.4104881180e-05 1.6972897660e+00 -2.9397921100e+00 1.6972897660e+00 2.9397921100e+00 
94800 6.6437988243e+00 -7.3581522565e-05 1.6972919491e+00 -2.9397958911e+00 1.6972919491e+00 2.9397958911e+00 
94900 6.6437988194e+00 -7.3064218912e-05 1.6972941167e+00 -2.9397996455e+00 1.6972941167e+00 2.9397996455e+00 
95000 6.6437988147e+00 -7.2552926638e-05 1.6972962691e+00 -2.9398033735e+00 1.6972962691e+00 2.9398033735e+00 
95100 6.6437988100e+00 -7.2047597228e-05 1.6972984064e+00 -2.9398070755e+00 1.6972984064e+00 2.9398070755e+00 
95200 6.6437988054e+00 -7.1548177415e-05 1.6973005288e+00 -2.9398107516e+00 1.6973005288e+00 2.9398107516e+00 
95300 6.6437988009e+00 -7.1054609344e-05 1.6973026365e+00 -2.9398144023e+00 1.6973026365e+00 2.9398144023e+00 
95400 6.6437987966e+00 -7.0566830788e-05 1.6973047297e+00 -2.9398180277e+00 1.6973047297e+00 2.9398180277e+00 
95500 6.6437987925e+00 -7.2433619500e-05 1.6973047297e+00 -2.9398180277e+00 1.6973047297e+00 2.9398180277e+00 
95600 6.6437987882e+00 -7.1889773046e-05 1.6973068635e+00 -2.9398217235e+00 1.6973068635e+00 2.9398217235e+00 
95700 6.6437987841e+00 -7.1354419385e-05 1.6973089812e+00 -2.9398253916e+00 1.6973089812e+00 2.9398253916e+00 
95800 6.6437987801e+00 -7.0827314168e-05 1.6973110832e+00 -2.9398290324e+00 1.6973110832e+00 2.9398290324e+00 
95900 6.6437987761e+00 -7.0308216890e-05 1.6973131697e+00 -2.9398326462e+00 1.6973131697e+00 2.9398326462e+00 
96000 6.6437987725e+00 -7.2137099539e-05 1.6973131697e+00 -2.9398326462e+00 1.6973131697e+00 2.9398326462e+00 
96100 6.6437987687e+00 -7.1566117165e-05 1.6973152947e+00 -2.9398363269e+00 1.6973152947e+00 2.9398363269e+00 
96200 6.6437987650e+00 -7.1005347831e-05 1.6973174029e+00 -2.9398399784e+00 1.6973174029e+00 2.9398399784e+00 
96300 6.6437987613e+00 -7.0454400532e-05 1.6973194946e+00 -2.9398436013e+00 1.6973194946e+00 2.9398436013e+00 
96400 6.6437987580e+00 -7.2257949033e-05 1.6973194946e+00 -2.9398436013e+00 1.6973194946e+00 2.9398436013e+00 
96500 6.6437987545e+00 -7.1658183710e-05 1.6973216232e+00 -2.9398472882e+00 1.6973216232e+00 2.9398472882e+00 
96600 6.6437987511e+00 -7.1070042867e-05 1.6973237341e+00 -2.9398509444e+00 1.6973237341e+00 2.9398509444e+00 
96700 6.6437987478e+00 -7.0493012604e-05 1.6973258277e+00 -2.9398545706e+00 1.6973258277e+00 2.9398545706e+00 
96800 6.6437987447e+00 -7.2272914293e-05 1.6973258277e+00 -2.9398545706e+00 1.6973258277e+00 2.9398545706e+00 
96900 6.6437987415e+00 -7.1649264880e-05 1.6973279567e+00 -2.9398582582e+00 1.6973279567e+00 2.9398582582e+00 
97000 6.6437987384e+00 -7.1038199990e-05 1.6973300674e+00 -2.9398619139e+00 1.6973300674e+00 2.9398619139e+00 
97100 6.6437987353e+00 -7.0439107903e-05 1.6973321600e+00 -2.9398655385e+00 1.6973321600e+00 2.9398655385e+00 
97200 6.6437987325e+00 -7.2195902134e-05 1.6973321600e+00 -2.9398655385e+00 1.6973321600e+00 2.9398655385e+00 
97300 6.6437987296e+00 -7.1551698009e-05 1.6973342868e+00 -2.9398692221e+00 1.6973342868e+00 2.9398692221e+00 
97400 6.6437987267e+00 -7.0920679346e-05 1.6973363945e+00 -2.9398728729e+00 1.6973363945e+00 2.9398728729e+00 
97500 6.6437987239e+00 -7.0302159156e-05 1.6973384837e+00 -2.9398764914e+00 1.6973384837e+00 2.9398764914e+00 
97600 6.6437987214e+00 -7.2035400589e-05 1.6973384837e+00 -2.9398764914e+00 1.6973384837e+00 2.9398764914e+00 
97700 6.6437987187e+00 -7.1372746702e-05 1.6973406057e+00 -2.9398801669e+00 1.6973406057e+00 2.9398801669e+00 
97800 6.6437987161e+00 -7.0723602811e-05 1.6973427082e+00 -2.9398838085e+00 1.6973427082e+00 2.9398838085e+00 
97900 6.6437987135e+00 -7.0087226711e-05 1.6973447916e+00 -2.9398874170e+00 1.6973447916e+00 2.9398874170e+00 
98000 6.6437987112e+00 -7.1795654818e-05 1.6973447916e+00 -2.9398874170e+00 1.6973447916e+00 2.9398874170e+00 
98100 6.6437987088e+00 -7.1115742770e-05 1.6973469065e+00 -2.9398910802e+00 1.6973469065e+00 2.9398910802e+00 
98200 6.6437987064e+00 -7.0449461913e-05 1.6973490014e+00 -2.9398947087e+00 1.6973490014e+00 2.9398947087e+00 
98300 6.6437987042e+00 -7.2140819572e-05 1.6973490014e+00 -2.9398947087e+00 1.6973490014e+00 2.9398947087e+00 
98400 6.6437987020e+00 -7.1432176631e-05 1.6973511265e+00 -2.9398983894e+00 1.6973511265e+00 2.9398983894e+00 
98500 6.6437986997e+00 -7.0737844838e-05 1.6973532308e+00 -2.9399020341e+00 1.6973532308e+00 2.9399020341e+00 
98600 6.6437986976e+00 -7.0056986428e-05 1.6973553145e+00 -2.9399056433e+00 1.6973553145e+00 2.9399056433e+00 
98700 6.6437986956e+00 -7.1720506343e-05 1.6973553145e+00 -2.9399056433e+00 1.6973553145e+00 2.9399056433e+00 
98800 6.6437986935e+00 -7.0997300029e-05 1.6973574272e+00 -2.9399093026e+00 1.6973574272e+00 2.9399093026e+00 
98900 6.6437986915e+00 -7.0288190026e-05 1.6973595186e+00 -2.9399129250e+00 1.6973595186e+00 2.9399129250e+00 
99000 6.6437986897e+00 -7.1931713178e-05 1.6973595186e+00 -2.9399129250e+00 1.6973595186e+00 2.9399129250e+00 
99100 6.6437986878e+00 -7.1181140455e-05 1.6973616376e+00 -2.9399165951e+00 1.6973616376e+00 2.9399165951e+00 
99200 6.6437986859e+00 -7.0445163274e-05 1.6973637344e+00 -2.9399202269e+00 1.6973637344e+00 2.9399202269e+00 
99300 6.6437986842e+00 -7.2067489911e-05 1.6973637344e+00 -2.9399202269e+00 1.6973637344e+00 2.9399202269e+00 
99400 6.6437986824e+00 -7.1290789594e-05 1.6973658573e+00 -2.9399239039e+00 1.6973658573e+00 2.9399239039e+00 
99500 6.6437986807e+00 -7.0529087251e-05 1.6973679574e+00 -2.9399275413e+00 1.6973679574e+00 2.9399275413e+00 
99600 6.6437986791e+00 -7.2128840439e-05 1.6973679574e+00 -2.9399275413e+00 1.6973679574e+00 2.9399275413e+00 
99700 6.6437986775e+00 -7.1327058356e-05 1.6973700821e+00 -2.9399312214e+00 1.6973700821e+00 2.9399312214e+00 
99800 6.6437986758e+00 -7.0540603601e-05 1.6973721832e+00 -2.9399348606e+00 1.6973721832e+00 2.9399348606e+00 
99900 6.6437986744e+00 -7.2116281235e-05 1.6973721832e+00 -2.9399348606e+00 1.6973721832e+00 2.9399348606e+00 
100000 6.6437986729e+00 -7.1290337605e-05 1.6973743075e+00 -2.9399385401e+00 1.6973743075e+00 2.9399385401e+00 
100100 6.6437986713e+00 -7.0479998207e-05 1.6973764076e+00 -2.9399421775e+00 1.6973764076e+00 2.9399421775e+00 
100200 6.6437986700e+00 -7.2030022419e-05 1.6973764076e+00 -2.9399421775e+00 1.6973764076e+00 2.9399421775e+00 
100300 6.6437986686e+00 -7.1180770438e-05 1.6973785294e+00 -2.9399458525e+00 1.6973785294e+00 2.9399458525e+00 
100400 6.6437986672e+00 -7.0347364794e-05 1.6973806262e+00 -2.9399494843e+00 1.6973806262e+00 2.9399494843e+00 
100500 6.6437986660e+00 -7.1870128254e-05 1.6973806262e+00 -2.9399494843e+00 1.6973806262e+00 2.9399494843e+00 
100600 6.6437986647e+00 -7.0998404106e-05 1.6973827432e+00 -2.9399531512e+00 1.6973827432e+00 2.9399531512e+00 
100700 6.6437986634e+00 -7.0142748428e-05 1.6973848347e+00 -2.9399567736e+00 1.6973848347e+00 2.9399567736e+00 
100800 6.6437986623e+00 -7.1636657117e-05 1.6973848347e+00 -2.9399567736e+00 1.6973848347e+00 2.9399567736e+00 
100900 6.6437986611e+00 -7.0743321674e-05 1.6973869449e+00 -2.9399604286e+00 1.6973869449e+00 2.9399604286e+00 
101000 6.6437986599e+00 -6.9866269008e-05 1.6973890288e+00 -2.9399640380e+00 1.6973890288e+00 2.9399640380e+00 
101100 6.6437986589e+00 -7.1329781099e-05 1.6973890288e+00 -2.9399640380e+00 1.6973890288e+00 2.9399640380e+00 
101200 6.6437986577e+00 -7.0415753685e-05 1.6973911299e+00 -2.9399676773e+00 1.6973911299e+00 2.9399676773e+00 
101300 6.6437986568e+00 -7.1861735350e-05 1.6973911299e+00 -2.9399676773e+00 1.6973911299e+00 2.9399676773e+00 
101400 6.6437986557e+00 -7.0912484848e-05 1.6973932467e+00 -2.9399713438e+00 1.6973932467e+00 2.9399713438e+00 
101500 6.6437986547e+00 -6.9980818475e-05 1.6973953356e+00 -2.9399749618e+00 1.6973953356e+00 2.9399749618e+00 
101600 6.6437986538e+00 -7.1394766513e-05 1.6973953356e+00 -2.9399749618e+00 1.6973953356e+00 2.9399749618e+00 
101700 6.6437986528e+00 -7.0428501441e-05 1.6973974387e+00 -2.9399786044e+00 1.6973974387e+00 2.9399786044e+00 
101800 6.6437986520e+00 -7.1823840456e-05 1.6973974387e+00 -2.9399786044e+00 1.6973974387e+00 2.9399786044e+00 
101900 6.6437986511e+00 -7.0824699225e-05 1.6973995544e+00 -2.9399822689e+00 1.6973995544e+00 2.9399822689e+00 
102000 6.6437986502e+00 -6.9844277959e-05 1.6974016407e+00 -2.9399858825e+00 1.6974016407e+00 2.9399858825e+00 
102100 6.6437986495e+00 -7.1206014271e-05 1.6974016407e+00 -2.9399858825e+00 1.6974016407e+00 2.9399858825e+00 
102200 6.6437986486e+00 -7.0193325167e-05 1.6974037382e+00 -2.9399895154e+00 1.6974037382e+00 2.9399895154e+00 
102300 6.6437986479e+00 -7.1535452155e-05 1.6974037382e+00 -2.9399895154e+00 1.6974037382e+00 2.9399895154e+00 
102400 6.6437986471e+00 -7.0492220277e-05 1.6974058454e+00 -2.9399931652e+00 1.6974058454e+00 2.9399931652e+00 
102500 6.6437986465e+00 -7.1814728251e-05 1.6974058454e+00 -2.9399931652e+00 1.6974058454e+00 2.9399931652e+00 
102600 6.6437986457e+00 -7.0742599069e-05 1.6974079608e+00 -2.9399968292e+00 1.6974079608e+00 2.9399968292e+00 
102700 6.6437986450e+00 -6.9691132728e-05 1.6974100446e+00 -2.9400004386e+00 1.6974100446e+00 2.9400004386e+00 
102800 6.6437986444e+00 -7.0978591956e-05 1.6974100446e+00 -2.9400004386e+00 1.6974100446e+00 2.9400004386e+00 
102900 6.6437986437e+00 -6.9898753940e-05 1.6974121354e+00 -2.9400040599e+00 1.6974121354e+00 2.9400040599e+00 
103000 6.6437986432e+00 -7.1165703006e-05 1.6974121354e+00 -2.9400040599e+00 1.6974121354e+00 2.9400040599e+00 
103100 6.6437986426e+00 -7.0059180028e-05 1.6974142317e+00 -2.9400076908e+00 1.6974142317e+00 2.9400076908e+00 
103200 6.6437986421e+00 -7.1305676895e-05 1.6974142317e+00 -2.9400076908e+00 1.6974142317e+00 2.9400076908e+00 
103300 6.6437986415e+00 -7.0174087681e-05 1.6974163321e+00 -2.9400113289e+00 1.6974163321e+00 2.9400113289e+00 
103400 6.6437986411e+00 -7.1400181912e-05 1.6974163321e+00 -2.9400113289e+00 1.6974163321e+00 2.9400113289e+00 
103500 6.6437986405e+00 -7.0245082943e-05 1.6974184353e+00 -2.9400149717e+00 1.6974184353e+00 2.9400149717e+00 
103600 6.6437986401e+00 -7.1450818809e-05 1.6974184353e+00 -2.9400149717e+00 1.6974184353e+00 2.9400149717e+00 
103700 6.6437986395e+00 -7.0273709578e-05 1.6974205400e+00 -2.9400186171e+00 1.6974205400e+00 2.9400186171e+00 
103800 6.6437986392e+00 -7.1459128972e-05 1.6974205400e+00 -2.9400186171e+00 1.6974205400e+00 2.9400186171e+00 
103900 6.6437986387e+00 -7.0261456777e-05 1.6974226450e+00 -2.9400222630e+00 1.6974226450e+00 2.9400222630e+00 
104000 6.6437986384e+00 -7.1426601936e-05 1.6974226450e+00 -2.9400222630e+00 1.6974226450e+00 2.9400222630e+00 
104100 6.6437986379e+00 -7.0209766200e-05 1.6974247489e+00 -2.9400259072e+00 1.6974247489e+00 2.9400259072e+00 
104200 6.6437986376e+00 -7.1354682205e-05 1.6974247489e+00 -2.9400259072e+00 1.6974247489e+00 2.9400259072e+00 
104300 6.6437986372e+00 -7.0120038397e-05 1.6974268508e+00 -2.9400295477e+00 1.6974268508e+00 2.9400295477e+00 
104400 6.6437986369e+00 -7.1244775479e-05 1.6974268508e+00 -2.9400295477e+00 1.6974268508e+00 2.9400295477e+00 
104500 6.6437986365e+00 -6.9993638583e-05 1.6974289494e+00 -2.9400331826e+00 1.6974289494e+00 2.9400331826e+00 
104600 6.6437986363e+00 -7.1098254200e-05 1.6974289494e+00 -2.9400331826e+00 1.6974289494e+00 2.9400331826e+00 
104700 6.6437986359e+00 -6.9831901805e-05 1.6974310437e+00 -2.9400368100e+00 1.6974310437e+00 2.9400368100e+00 
104800 6.6437986357e+00 -7.0916462529e-05 1.6974310437e+00 -2.9400368100e+00 1.6974310437e+00 2.9400368100e+00 
104900 6.6437986353e+00 -6.9636137522e-05 1.6974331326e+00 -2.9400404282e+00 1.6974331326e+00 2.9400404282e+00 
105000 6.6437986352e+00 -7.0700720678e-05 1.6974331326e+00 -2.9400404282e+00 1.6974331326e+00 2.9400404282e+00 
105100 6.6437986350e+00 -7.1760472663e-05 1.6974331326e+00 -2.9400404282e+00 1.6974331326e+00 2.9400404282e+00 
105200 6.6437986347e+00 -7.0427827860e-05 1.6974352464e+00 -2.9400440894e+00 1.6974352464e+00 2.9400440894e+00 
105300 6.6437986346e+00 -7.1468590999e-05 1.6974352464e+00 -2.9400440894e+00 1.6974352464e+00 2.9400440894e+00 
105400 6.6437986343e+00 -7.0126650666e-05 1.6974373516e+00 -2.9400477357e+00 1.6974373516e+00 2.9400477357e+00 
105500 6.6437986342e+00 -7.1148414053e-05 1.6974373516e+00 -2.9400477357e+00 1.6974373516e+00 2.9400477357e+00 
105600 6.6437986339e+00 -6.9798115248e-05 1.6974394474e+00 -2.9400513656e+00 1.6974394474e+00 2.9400513656e+00 
105700 6.6437986338e+00 -7.0800885343e-05 1.6974394474e+00 -2.9400513656e+00 1.6974394474e+00 2.9400513656e+00 
105800 6.6437986336e+00 -6.9443151836e-05 1.6974415329e+00 -2.9400549779e+00 1.6974415329e+00 2.9400549779e+00 
105900 6.6437986335e+00 -7.0426953791e-05 1.6974415329e+00 -2.9400549779e+00 1.6974415329e+00 2.9400549779e+00 
106000 6.6437986334e+00 -7.1406394945e-05 1.6974415329e+00 -2.9400549779e+00 1.6974415329e+00 2.9400549779e+00 
106100 6.6437986332e+00 -7.0005706424e-05 1.6974436363e+00 -2.9400586210e+00 1.6974436363e+00 2.9400586210e+00 
106200 6.6437986332e+00 -7.0967101177e-05 1.6974436363e+00 -2.9400586210e+00 1.6974436363e+00 2.9400586210e+00 
106300 6.6437986330e+00 -6.9562936649e-05 1.6974457267e+00 -2.9400622417e+00 1.6974457267e+00 2.9400622417e+00 
106400 6.6437986330e+00 -7.0506240583e-05 1.6974457267e+00 -2.9400622417e+00 1.6974457267e+00 2.9400622417e+00 
106500 6.6437986330e+00 -7.1445604781e-05 1.6974457267e+00 -2.9400622417e+00 1.6974457267e+00 2.9400622417e+00 
106600 6.6437986328e+00 -7.0003952684e-05 1.6974478312e+00 -2.9400658868e+00 1.6974478312e+00 2.9400658868e+00 
106700 6.6437986328e+00 -7.0926052516e-05 1.6974478312e+00 -2.9400658868e+00 1.6974478312e+00 2.9400658868e+00 
106800 6.6437986327e+00 -6.9484341244e-05 1.6974499204e+00 -2.9400695054e+00 1.6974499204e+00 2.9400695054e+00 
106900 6.6437986327e+00 -7.0389073103e-05 1.6974499204e+00 -2.9400695054e+00 1.6974499204e+00 2.9400695054e+00 
107000 6.6437986328e+00 -7.1290198575e-05 1.6974499204e+00 -2.9400695054e+00 1.6974499204e+00 2.9400695054e+00 
107100 6.6437986326e+00 -6.9815811500e-05 1.6974520203e+00 -2.9400731425e+00 1.6974520203e+00 2.9400731425e+00 
107200 6.6437986327e+00 -7.0700313498e-05 1.6974520203e+00 -2.9400731425e+00 1.6974520203e+00 2.9400731425e+00 
107300 6.6437986328e+00 -7.1581575840e-05 1.6974520203e+00 -2.9400731425e+00 1.6974520203e+00 2.9400731425e+00 
107400 6.6437986327e+00 -7.0077985213e-05 1.6974541288e+00 -2.9400767946e+00 1.6974541288e+00 2.9400767946e+00 
107500 6.6437986327e+00 -7.0943258791e-05 1.6974541288e+00 -2.9400767946e+00 1.6974541288e+00 2.9400767946e+00 
107600 6.6437986327e+00 -6.9444766862e-05 1.6974562185e+00 -2.9400804140e+00 1.6974562185e+00 2.9400804140e+00 
107700 6.6437986327e+00 -7.0293827600e-05 1.6974562185e+00 -2.9400804140e+00 1.6974562185e+00 2.9400804140e+00 
107800 6.6437986328e+00 -7.1139811777e-05 1.6974562185e+00 -2.9400804140e+00 1.6974562185e+00 2.9400804140e+00 
107900 6.6437986328e+00 -6.9615809186e-05 1.6974583140e+00 -2.9400840435e+00 1.6974583140e+00 2.9400840435e+00 
108000 6.6437986329e+00 -7.0446158253e-05 1.6974583140e+00 -2.9400840435e+00 1.6974583140e+00 2.9400840435e+00 
108100 6.6437986330e+00 -7.1273706973e-05 1.6974583140e+00 -2.9400840435e+00 1.6974583140e+00 2.9400840435e+00 
108200 6.6437986330e+00 -6.9727080922e-05 1.6974604134e+00 -2.9400876798e+00 1.6974604134e+00 2.9400876798e+00 
108300 6.6437986331e+00 -7.0539478688e-05 1.6974604134e+00 -2.9400876798e+00 1.6974604134e+00 2.9400876798e+00 
108400 6.6437986332e+00 -7.1349303017e-05 1.6974604134e+00 -2.9400876798e+00 1.6974604134e+00 2.9400876798e+00 
108500 6.6437986332e+00 -6.9782656323e-05 1.6974625150e+00 -2.9400913200e+00 1.6974625150e+00 2.9400913200e+00 
108600 6.6437986333e+00 -7.0577726903e-05 1.6974625150e+00 -2.9400913200e+00 1.6974625150e+00 2.9400913200e+00 
108700 6.6437986335e+00 -7.1370405395e-05 1.6974625150e+00 -2.9400913200e+00 1.6974625150e+00 2.9400913200e+00 
108800 6.6437986335e+00 -6.9786085578e-05 1.6974646173e+00 -2.9400949612e+00 1.6974646173e+00 2.9400949612e+00 
108900 6.6437986336e+00 -7.0564327839e-05 1.6974646173e+00 -2.9400949612e+00 1.6974646173e+00 2.9400949612e+00 
109000 6.6437986338e+00 -7.1340317804e-05 1.6974646173e+00 -2.9400949612e+00 1.6974646173e+00 2.9400949612e+00 
109100 6.6437986338e+00 -6.9740445242e-05 1.6974667187e+00 -2.9400986009e+00 1.6974667187e+00 2.9400986009e+00 
109200 6.6437986340e+00 -7.0502244529e-05 1.6974667187e+00 -2.9400986009e+00 1.6974667187e+00 2.9400986009e+00 
109300 6.6437986341e+00 -7.1261893921e-05 1.6974667187e+00 -2.9400986009e+00 1.6974667187e+00 2.9400986009e+00 
109400 6.6437986341e+00 -6.9648388871e-05 1.6974688178e+00 -2.9401022366e+00 1.6974688178e+00 2.9401022366e+00 
109500 6.6437986343e+00 -7.0394029230e-05 1.6974688178e+00 -2.9401022366e+00 1.6974688178e+00 2.9401022366e+00 
109600 6.6437986345e+00 -7.1137588977e-05 1.6974688178e+00 -2.9401022366e+00 1.6974688178e+00 2.9401022366e+00 
109700 6.6437986345e+00 -6.9512197242e-05 1.6974709132e+00 -2.9401058660e+00 1.6974709132e+00 2.9401058660e+00 
109800 6.6437986347e+00 -7.0241873953e-05 1.6974709132e+00 -2.9401058660e+00 1.6974709132e+00 2.9401058660e+00 
109900 6.6437986349e+00 -7.0969510517e-05 1.6974709132e+00 -2.9401058660e+00 1.6974709132e+00 2.9401058660e+00 
110000 6.6437986349e+00 -6.9333827583e-05 1.6974730036e+00 -2.9401094867e+00 1.6974730036e+00 2.9401094867e+00 
110100 6.6437986352e+00 -7.0047659768e-05 1.6974730036e+00 -2.9401094867e+00 1.6974730036e+00 2.9401094867e+00 
110200 6.6437986354e+00 -7.0759467737e-05 1.6974730036e+00 -2.9401094867e+00 1.6974730036e+00 2.9401094867e+00 
110300 6.6437986354e+00 -6.9114961275e-05 1.6974750879e+00 -2.9401130968e+00 1.6974750879e+00 2.9401130968e+00 
110400 6.6437986356e+00 -6.9813004448e-05 1.6974750879e+00 -2.9401130968e+00 1.6974750879e+00 2.9401130968e+00 
110500 6.6437986358e+00 -7.0509019014e-05 1.6974750879e+00 -2.9401130968e+00 1.6974750879e+00 2.9401130968e+00 
110600 6.6437986360e+00 -7.1203357015e-05 1.6974750879e+00 -2.9401130968e+00 1.6974750879e+00 2.9401130968e+00 
110700 6.6437986361e+00 -6.9526940202e-05 1.6974771852e+00 -2.9401167294e+00 1.6974771852e+00 2.9401167294e+00 
110800 6.6437986363e+00 -7.0208068929e-05 1.6974771852e+00 -2.9401167294e+00 1.6974771852e+00 2.9401167294e+00 
110900 6.6437986365e+00 -7.0887438921e-05 1.6974771852e+00 -2.9401167294e+00 1.6974771852e+00 2.9401167294e+00 
111000 6.6437986366e+00 -6.9206487175e-05 1.6974792732e+00 -2.9401203460e+00 1.6974792732e+00 2.9401203460e+00 
111100 6.6437986368e+00 -6.9872515901e-05 1.6974792732e+00 -2.9401203460e+00 1.6974792732e+00 2.9401203460e+00 
111200 6.6437986371e+00 -7.0536693586e-05 1.6974792732e+00 -2.9401203460e+00 1.6974792732e+00 2.9401203460e+00 
111300 6.6437986373e+00 -7.1199345587e-05 1.6974792732e+00 -2.9401203460e+00 1.6974792732e+00 2.9401203460e+00 
111400 6.6437986374e+00 -6.9491516983e-05 1.6974813704e+00 -2.9401239785e+00 1.6974813704e+00 2.9401239785e+00 
111500 6.6437986376e+00 -7.0141185964e-05 1.6974813704e+00 -2.9401239785e+00 1.6974813704e+00 2.9401239785e+00 
111600 6.6437986378e+00 -7.0789173042e-05 1.6974813704e+00 -2.9401239785e+00 1.6974813704e+00 2.9401239785e+00 
111700 6.6437986379e+00 -6.9080178021e-05 1.6974834556e+00 -2.9401275900e+00 1.6974834556e+00 2.9401275900e+00 
111800 6.6437986381e+00 -6.9714925399e-05 1.6974834556e+00 -2.9401275900e+00 1.6974834556e+00 2.9401275900e+00 
111900 6.6437986384e+00 -7.0347835001e-05 1.6974834556e+00 -2.9401275900e+00 1.6974834556e+00 2.9401275900e+00 
112000 6.6437986386e+00 -7.0979212501e-05 1.6974834556e+00 -2.9401275900e+00 1.6974834556e+00 2.9401275900e+00 
112100 6.6437986387e+00 -6.9247425247e-05 1.6974855463e+00 -2.9401312113e+00 1.6974855463e+00 2.9401312113e+00 
112200 6.6437986389e+00 -6.9865785441e-05 1.6974855463e+00 -2.9401312113e+00 1.6974855463e+00 2.9401312113e+00 
112300 6.6437986392e+00 -7.0482407626e-05 1.6974855463e+00 -2.9401312113e+00 1.6974855463e+00 2.9401312113e+00 
112400 6.6437986394e+00 -7.1097582868e-05 1.6974855463e+00 -2.9401312113e+00 1.6974855463e+00 2.9401312113e+00 
112500 6.6437986395e+00 -6.9345733230e-05 1.6974876405e+00 -2.9401348385e+00 1.6974876405e+00 2.9401348385e+00 
112600 6.6437986398e+00 -6.9948001704e-05 1.6974876405e+00 -2.9401348385e+00 1.6974876405e+00 2.9401348385e+00 
112700 6.6437986400e+00 -7.0548574934e-05 1.6974876405e+00 -2.9401348385e+00 1.6974876405e+00 2.9401348385e+00 
112800 6.6437986403e+00 -7.1147731578e-05 1.6974876405e+00 -2.9401348385e+00 1.6974876405e+00 2.9401348385e+00 
112900 6.6437986404e+00 -6.9378220922e-05 1.6974897362e+00 -2.9401384683e+00 1.6974897362e+00 2.9401384683e+00 
113000 6.6437986406e+00 -6.9964488855e-05 1.6974897362e+00 -2.9401384683e+00 1.6974897362e+00 2.9401384683e+00 
113100 6.6437986409e+00 -7.0549057258e-05 1.6974897362e+00 -2.9401384683e+00 1.6974897362e+00 2.9401384683e+00 
113200 6.6437986411e+00 -7.1132194613e-05 1.6974897362e+00 -2.9401384683e+00 1.6974897362e+00 2.9401384683e+00 
113300 6.6437986412e+00 -6.9347165491e-05 1.6974918314e+00 -2.9401420974e+00 1.6974918314e+00 2.9401420974e+00 
113400 6.6437986415e+00 -6.9917359258e-05 1.6974918314e+00 -2.9401420974e+00 1.6974918314e+00 2.9401420974e+00 
113500 6.6437986417e+00 -7.0485812047e-05 1.6974918314e+00 -2.9401420974e+00 1.6974918314e+00 2.9401420974e+00 
113600 6.6437986420e+00 -7.1052784349e-05 1.6974918314e+00 -2.9401420974e+00 1.6974918314e+00 2.9401420974e+00 
113700 6.6437986421e+00 -6.9254183665e-05 1.6974939242e+00 -2.9401457223e+00 1.6974939242e+00 2.9401457223e+00 
113800 6.6437986423e+00 -6.9808103775e-05 1.6974939242e+00 -2.9401457223e+00 1.6974939242e+00 2.9401457223e+00 
113900 6.6437986426e+00 -7.0360213888e-05 1.6974939242e+00 -2.9401457223e+00 1.6974939242e+00 2.9401457223e+00 
114000 6.6437986428e+00 -7.0910768594e-05 1.6974939242e+00 -2.9401457223e+00 1.6974939242e+00 2.9401457223e+00 
114100 6.6437986429e+00 -6.9100403624e-05 1.6974960129e+00 -2.9401493401e+00 1.6974960129e+00 2.9401493401e+00 
114200 6.6437986432e+00 -6.9637762239e-05 1.6974960129e+00 -2.9401493401e+00 1.6974960129e+00 2.9401493401e+00 
114300 6.6437986434e+00 -7.0173223364e-05 1.6974960129e+00 -2.9401493401e+00 1.6974960129e+00 2.9401493401e+00 
114400 6.6437986437e+00 -7.0707037612e-05 1.6974960129e+00 -2.9401493401e+00 1.6974960129e+00 2.9401493401e+00 
114500 6.6437986439e+00 -7.1239443625e-05 1.6974960129e+00 -2.9401493401e+00 1.6974960129e+00 2.9401493401e+00 
114600 6.6437986440e+00 -6.9400132458e-05 1.6974981113e+00 -2.9401529745e+00 1.6974981113e+00 2.9401529745e+00 
114700 6.6437986443e+00 -6.9919540770e-05 1.6974981113e+00 -2.9401529745e+00 1.6974981113e+00 2.9401529745e+00 
114800 6.6437986445e+00 -7.0437149062e-05 1.6974981113e+00 -2.9401529745e+00 1.6974981113e+00 2.9401529745e+00 
114900 6.6437986448e+00 -7.0953194195e-05 1.6974981113e+00 -2.9401529745e+00 1.6974981113e+00 2.9401529745e+00 
115000 6.6437986449e+00 -6.9106899156e-05 1.6975002012e+00 -2.9401565944e+00 1.6975002012e+00 2.9401565944e+00 
115100 6.6437986451e+00 -6.9609677017e-05 1.6975002012e+00 -2.9401565944e+00 1.6975002012e+00 2.9401565944e+00 
115200 6.6437986454e+00 -7.0110501827e-05 1.6975002012e+00 -2.9401565944e+00 1.6975002012e+00 2.9401565944e+00 
115300 6.6437986456e+00 -7.0609610469e-05 1.6975002012e+00 -2.9401565944e+00 1.6975002012e+00 2.9401565944e+00 
115400 6.6437986459e+00 -7.1107228831e-05 1.6975002012e+00 -2.9401565944e+00 1.6975002012e+00 2.9401565944e+00 
115500 6.6437986460e+00 -6.9237451570e-05 1.6975022957e+00 -2.9401602221e+00 1.6975022957e+00 2.9401602221e+00 
115600 6.6437986462e+00 -6.9721893830e-05 1.6975022957e+00 -2.9401602221e+00 1.6975022957e+00 2.9401602221e+00 
115700 6.6437986465e+00 -7.0204423454e-05 1.6975022957e+00 -2.9401602221e+00 1.6975022957e+00 2.9401602221e+00 
115800 6.6437986467e+00 -7.0685268259e-05 1.6975022957e+00 -2.9401602221e+00 1.6975022957e+00 2.9401602221e+00 
115900 6.6437986470e+00 -7.1164645508e-05 1.6975022957e+00 -2.9401602221e+00 1.6975022957e+00 2.9401602221e+00 
116000 6.6437986470e+00 -6.9274739007e-05 1.6975043919e+00 -2.9401638528e+00 1.6975043919e+00 2.9401638528e+00 
116100 6.6437986473e+00 -6.9740952821e-05 1.6975043919e+00 -2.9401638528e+00 1.6975043919e+00 2.9401638528e+00 
116200 6.6437986475e+00 -7.0205252763e-05 1.6975043919e+00 -2.9401638528e+00 1.6975043919e+00 2.9401638528e+00 
116300 6.6437986478e+00 -7.0667859874e-05 1.6975043919e+00 -2.9401638528e+00 1.6975043919e+00 2.9401638528e+00 
116400 6.6437986480e+00 -7.1128985098e-05 1.6975043919e+00 -2.9401638528e+00 1.6975043919e+00 2.9401638528e+00 
116500 6.6437986481e+00 -6.9222000886e-05 1.6975064870e+00 -2.9401674816e+00 1.6975064870e+00 2.9401674816e+00 
116600 6.6437986483e+00 -6.9669922199e-05 1.6975064870e+00 -2.9401674816e+00 1.6975064870e+00 2.9401674816e+00 
116700 6.6437986486e+00 -7.0115899482e-05 1.6975064870e+00 -2.9401674816e+00 1.6975064870e+00 2.9401674816e+00 
116800 6.6437986488e+00 -7.0560149171e-05 1.6975064870e+00 -2.9401674816e+00 1.6975064870e+00 2.9401674816e+00 
116900 6.6437986491e+00 -7.1002878020e-05 1.6975064870e+00 -2.9401674816e+00 1.6975064870e+00 2.9401674816e+00 
117000 6.6437986491e+00 -6.9081658873e-05 1.6975085784e+00 -2.9401711040e+00 1.6975085784e+00 2.9401711040e+00 
117100 6.6437986494e+00 -6.9511114175e-05 1.6975085784e+00 -2.9401711040e+00 1.6975085784e+00 2.9401711040e+00 
117200 6.6437986496e+00 -6.9938578232e-05 1.6975085784e+00 -2.9401711040e+00 1.6975085784e+00 2.9401711040e+00 
117300 6.6437986499e+00 -7.0364264824e-05 1.6975085784e+00 -2.9401711040e+00 1.6975085784e+00 2.9401711040e+00 
117400 6.6437986501e+00 -7.0788378437e-05 1.6975085784e+00 -2.9401711040e+00 1.6975085784e+00 2.9401711040e+00 
117500 6.6437986502e+00 -6.8855635413e-05 1.6975106634e+00 -2.9401747154e+00 1.6975106634e+00 2.9401747154e+00 
117600 6.6437986504e+00 -6.9266398512e-05 1.6975106634e+00 -2.9401747154e+00 1.6975106634e+00 2.9401747154e+00 
117700 6.6437986506e+00 -6.9675116753e-05 1.6975106634e+00 -2.9401747154e+00 1.6975106634e+00 2.9401747154e+00 
117800 6.6437986509e+00 -7.0082002950e-05 1.6975106634e+00 -2.9401747154e+00 1.6975106634e+00 2.9401747154e+00 
117900 6.6437986511e+00 -7.0487260963e-05 1.6975106634e+00 -2.9401747154e+00 1.6975106634e+00 2.9401747154e+00 
118000 6.6437986513e+00 -7.0891085645e-05 1.6975106634e+00 -2.9401747154e+00 1.6975106634e+00 2.9401747154e+00 
118100 6.6437986514e+00 -6.8934774100e-05 1.6975127515e+00 -2.9401783321e+00 1.6975127515e+00 2.9401783321e+00 
118200 6.6437986516e+00 -6.9325484228e-05 1.6975127515e+00 -2.9401783321e+00 1.6975127515e+00 2.9401783321e+00 
118300 6.6437986518e+00 -6.9714260587e-05 1.6975127515e+00 -2.9401783321e+00 1.6975127515e+00 2.9401783321e+00 
118400 6.6437986521e+00 -7.0101307649e-05 1.6975127515e+00 -2.9401783321e+00 1.6975127515e+00 2.9401783321e+00 
118500 6.6437986523e+00 -7.0486821259e-05 1.6975127515e+00 -2.9401783321e+00 1.6975127515e+00 2.9401783321e+00 
118600 6.6437986525e+00 -7.0870988567e-05 1.6975127515e+00 -2.9401783321e+00 1.6975127515e+00 2.9401783321e+00 
118700 6.6437986526e+00 -6.8895775774e-05 1.6975148390e+00 -2.9401819478e+00 1.6975148390e+00 2.9401819478e+00 
118800 6.6437986528e+00 -6.9266983829e-05 1.6975148390e+00 -2.9401819478e+00 1.6975148390e+00 2.9401819478e+00 
118900 6.6437986530e+00 -6.9636324279e-05 1.6975148390e+00 -2.9401819478e+00 1.6975148390e+00 2.9401819478e+00 
119000 6.6437986532e+00 -7.0003995194e-05 1.6975148390e+00 -2.9401819478e+00 1.6975148390e+00 2.9401819478e+00 
119100 6.6437986535e+00 -7.0370186318e-05 1.6975148390e+00 -2.9401819478e+00 1.6975148390e+00 2.9401819478e+00 
119200 6.6437986537e+00 -7.0735079038e-05 1.6975148390e+00 -2.9401819478e+00 1.6975148390e+00 2.9401819478e+00 
119300 6.6437986537e+00 -6.8745164231e-05 1.6975169225e+00 -2.9401855565e+00 1.6975169225e+00 2.9401855565e+00 
119400 6.6437986539e+00 -6.9097198160e-05 1.6975169225e+00 -2.9401855565e+00 1.6975169225e+00 2.9401855565e+00 
119500 6.6437986542e+00 -6.9447398998e-05 1.6975169225e+00 -2.9401855565e+00 1.6975169225e+00 2.9401855565e+00 
119600 6.6437986544e+00 -6.9795960239e-05 1.6975169225e+00 -2.9401855565e+00 1.6975169225e+00 2.9401855565e+00 
119700 6.6437986546e+00 -7.0143067369e-05 1.6975169225e+00 -2.9401855565e+00 1.6975169225e+00 2.9401855565e+00 
119800 6.6437986548e+00 -7.0488897831e-05 1.6975169225e+00 -2.9401855565e+00 1.6975169225e+00 2.9401855565e+00 
119900 6.6437986550e+00 -7.0833620992e-05 1.6975169225e+00 -2.9401855565e+00 1.6975169225e+00 2.9401855565e+00 
120000 6.6437986550e+00 -6.8820444639e-05 1.6975190089e+00 -2.9401891702e+00 1.6975190089e+00 2.9401891702e+00 
120100 6.6437986552e+00 -6.9152641285e-05 1.6975190089e+00 -2.9401891702e+00 1.6975190089e+00 2.9401891702e+00 
120200 6.6437986554e+00 -6.9483160215e-05 1.6975190089e+00 -2.9401891702e+00 1.6975190089e+00 2.9401891702e+00 
120300 6.6437986557e+00 -6.9812184179e-05 1.6975190089e+00 -2.9401891702e+00 1.6975190089e+00 2.9401891702e+00 
120400 6.6437986559e+00 -7.0139888251e-05 1.6975190089e+00 -2.9401891702e+00 1.6975190089e+00 2.9401891702e+00 
120500 6.6437986561e+00 -7.0466439782e-05 1.6975190089e+00 -2.9401891702e+00 1.6975190089e+00 2.9401891702e+00 
120600 6.6437986563e+00 -7.0791998389e-05 1.6975190089e+00 -2.9401891702e+00 1.6975190089e+00 2.9401891702e+00 
120700 6.6437986563e+00 -6.8761155119e-05 1.6975210941e+00 -2.9401927818e+00 1.6975210941e+00 2.9401927818e+00 
120800 6.6437986565e+00 -6.9074394408e-05 1.6975210941e+00 -2.9401927818e+00 1.6975210941e+00 2.9401927818e+00 
120900 6.6437986567e+00 -6.9386043790e-05 1.6975210941e+00 -2.9401927818e+00 1.6975210941e+00 2.9401927818e+00 
121000 6.6437986569e+00 -6.9696277635e-05 1.6975210941e+00 -2.9401927818e+00 1.6975210941e+00 2.9401927818e+00 
121100 6.6437986571e+00 -7.0005262980e-05 1.6975210941e+00 -2.9401927818e+00 1.6975210941e+00 2.9401927818e+00 
121200 6.6437986573e+00 -7.0313159509e-05 1.6975210941e+00 -2.9401927818e+00 1.6975210941e+00 2.9401927818e+00 
121300 6.6437986575e+00 -7.0620119526e-05 1.6975210941e+00 -2.9401927818e+00 1.6975210941e+00 2.9401927818e+00 
121400 6.6437986576e+00 -7.0926287935e-05 1.6975210941e+00 -2.9401927818e+00 1.6975210941e+00 2.9401927818e+00 
121500 6.6437986577e+00 -6.8871780645e-05 1.6975231832e+00 -2.9401964003e+00 1.6975231832e+00 2.9401964003e+00 
121600 6.6437986579e+00 -6.9165969256e-05 1.6975231832e+00 -2.9401964003e+00 1.6975231832e+00 2.9401964003e+00 
121700 6.6437986580e+00 -6.9458725426e-05 1.6975231832e+00 -2.9401964003e+00 1.6975231832e+00 2.9401964003e+00 
121800 6.6437986582e+00 -6.9750210410e-05 1.6975231832e+00 -2.9401964003e+00 1.6975231832e+00 2.9401964003e+00 
121900 6.6437986584e+00 -7.0040578546e-05 1.6975231832e+00 -2.9401964003e+00 1.6975231832e+00 2.9401964003e+00 
122000 6.6437986586e+00 -7.0329977222e-05 1.6975231832e+00 -2.9401964003e+00 1.6975231832e+00 2.9401964003e+00 
122100 6.6437986588e+00 -7.0618546858e-05 1.6975231832e+00 -2.9401964003e+00 1.6975231832e+00 2.9401964003e+00 
122200 6.6437986590e+00 -7.0906420913e-05 1.6975231832e+00 -2.9401964003e+00 1.6975231832e+00 2.9401964003e+00 
122300 6.6437986590e+00 -6.8834373069e-05 1.6975252717e+00 -2.9402000177e+00 1.6975252717e+00 2.9402000177e+00 
122400 6.6437986591e+00 -6.9110429732e-05 1.6975252717e+00 -2.9402000177e+00 1.6975252717e+00 2.9402000177e+00 
122500 6.6437986593e+00 -6.9385118500e-05 1.6975252717e+00 -2.9402000177e+00 1.6975252717e+00 2.9402000177e+00 
122600 6.6437986595e+00 -6.9658590899e-05 1.6975252717e+00 -2.9402000177e+00 1.6975252717e+00 2.9402000177e+00 
122700 6.6437986597e+00 -6.9930991983e-05 1.6975252717e+00 -2.9402000177e+00 1.6975252717e+00 2.9402000177e+00 
122800 6.6437986598e+00 -7.0202460299e-05 1.6975252717e+00 -2.9402000177e+00 1.6975252717e+00 2.9402000177e+00 
122900 6.6437986600e+00 -7.0473127868e-05 1.6975252717e+00 -2.9402000177e+00 1.6975252717e+00 2.9402000177e+00 
123000 6.6437986602e+00 -7.0743120190e-05 1.6975252717e+00 -2.9402000177e+00 1.6975252717e+00 2.9402000177e+00 
123100 6.6437986602e+00 -6.8658644950e-05 1.6975273554e+00 -2.9402036268e+00 1.6975273554e+00 2.9402036268e+00 
123200 6.6437986603e+00 -6.8916863290e-05 1.6975273554e+00 -2.9402036268e+00 1.6975273554e+00 2.9402036268e+00 
123300 6.6437986605e+00 -6.9173715226e-05 1.6975273554e+00 -2.9402036268e+00 1.6975273554e+00 2.9402036268e+00 
123400 6.6437986607e+00 -6.9429345984e-05 1.6975273554e+00 -2.9402036268e+00 1.6975273554e+00 2.9402036268e+00 
123500 6.6437986608e+00 -6.9683894733e-05 1.6975273554e+00 -2.9402036268e+00 1.6975273554e+00 2.9402036268e+00 
123600 6.6437986610e+00 -6.9937494576e-05 1.6975273554e+00 -2.9402036268e+00 1.6975273554e+00 2.9402036268e+00 
123700 6.6437986612e+00 -7.0190272509e-05 1.6975273554e+00 -2.9402036268e+00 1.6975273554e+00 2.9402036268e+00 
123800 6.6437986613e+00 -7.0442349420e-05 1.6975273554e+00 -2.9402036268e+00 1.6975273554e+00 2.9402036268e+00 
123900 6.6437986615e+00 -7.0693840088e-05 1.6975273554e+00 -2.9402036268e+00 1.6975273554e+00 2.9402036268e+00 
124000 6.6437986616e+00 -7.0944853199e-05 1.6975273554e+00 -2.9402036268e+00 1.6975273554e+00 2.9402036268e+00 
124100 6.6437986616e+00 -6.8834875191e-05 1.6975294451e+00 -2.9402072462e+00 1.6975294451e+00 2.9402072462e+00 
124200 6.6437986618e+00 -6.9074430293e-05 1.6975294451e+00 -2.9402072462e+00 1.6975294451e+00 2.9402072462e+00 
124300 6.6437986619e+00 -6.9312765998e-05 1.6975294451e+00 -2.9402072462e+00 1.6975294451e+00 2.9402072462e+00 
124400 6.6437986621e+00 -6.9550012687e-05 1.6975294451e+00 -2.9402072462e+00 1.6975294451e+00 2.9402072462e+00 
124500 6.6437986622e+00 -6.9786295168e-05 1.6975294451e+00 -2.9402072462e+00 1.6975294451e+00 2.9402072462e+00 
124600 6.6437986624e+00 -7.0021732674e-05 1.6975294451e+00 -2.9402072462e+00 1.6975294451e+00 2.9402072462e+00 
124700 6.6437986625e+00 -7.0256438833e-05 1.6975294451e+00 -2.9402072462e+00 1.6975294451e+00 2.9402072462e+00 
124800 6.6437986627e+00 -7.0490521681e-05 1.6975294451e+00 -2.9402072462e+00 1.6975294451e+00 2.9402072462e+00 
124900 6.6437986628e+00 -7.0724083647e-05 1.6975294451e+00 -2.9402072462e+00 1.6975294451e+00 2.9402072462e+00 
125000 6.6437986628e+00 -6.8603959197e-05 1.6975315282e+00 -2.9402108543e+00 1.6975315282e+00 2.9402108543e+00 
125100 6.6437986630e+00 -6.8825993334e-05 1.6975315282e+00 -2.9402108543e+00 1.6975315282e+00 2.9402108543e+00 
125200 6.6437986631e+00 -6.9046752180e-05 1.6975315282e+00 -2.9402108543e+00 1.6975315282e+00 2.9402108543e+00 
125300 6.6437986632e+00 -6.9266361662e-05 1.6975315282e+00 -2.9402108543e+00 1.6975315282e+00 2.9402108543e+00 
125400 6.6437986634e+00 -6.9484942622e-05 1.6975315282e+00 -2.9402108543e+00 1.6975315282e+00 2.9402108543e+00 
125500 6.6437986635e+00 -6.9702610770e-05 1.6975315282e+00 -2.9402108543e+00 1.6975315282e+00 2.9402108543e+00 
125600 6.6437986637e+00 -6.9919476667e-05 1.6975315282e+00 -2.9402108543e+00 1.6975315282e+00 2.9402108543e+00 
125700 6.6437986638e+00 -7.0135645715e-05 1.6975315282e+00 -2.9402108543e+00 1.6975315282e+00 2.9402108543e+00 
125800 6.6437986639e+00 -7.0351218154e-05 1.6975315282e+00 -2.9402108543e+00 1.6975315282e+00 2.9402108543e+00 
125900 6.6437986641e+00 -7.0566289058e-05 1.6975315282e+00 -2.9402108543e+00 1.6975315282e+00 2.9402108543e+00 
126000 6.6437986642e+00 -7.0780948360e-05 1.6975315282e+00 -2.9402108543e+00 1.6975315282e+00 2.9402108543e+00 
126100 6.6437986642e+00 -6.8640134056e-05 1.6975336130e+00 -2.9402144653e+00 1.6975336130e+00 2.9402144653e+00 
126200 6.6437986643e+00 -6.8843439703e-05 1.6975336130e+00 -2.9402144653e+00 1.6975336130e+00 2.9402144653e+00 
126300 6.6437986644e+00 -6.9045543735e-05 1.6975336130e+00 -2.9402144653e+00 1.6975336130e+00 2.9402144653e+00 
126400 6.6437986646e+00 -6.9246561464e-05 1.6975336130e+00 -2.9402144653e+00 1.6975336130e+00 2.9402144653e+00 
126500 6.6437986647e+00 -6.9446603569e-05 1.6975336130e+00 -2.9402144653e+00 1.6975336130e+00 2.9402144653e+00 
126600 6.6437986648e+00 -6.9645776077e-05 1.6975336130e+00 -2.9402144653e+00 1.6975336130e+00 2.9402144653e+00 
126700 6.6437986649e+00 -6.9844180338e-05 1.6975336130e+00 -2.9402144653e+00 1.6975336130e+00 2.9402144653e+00 
126800 6.6437986651e+00 -7.0041913013e-05 1.6975336130e+00 -2.9402144653e+00 1.6975336130e+00 2.9402144653e+00 
126900 6.6437986652e+00 -7.0239066075e-05 1.6975336130e+00 -2.9402144653e+00 1.6975336130e+00 2.9402144653e+00 
127000 6.6437986653e+00 -7.0435726796e-05 1.6975336130e+00 -2.9402144653e+00 1.6975336130e+00 2.9402144653e+00 
127100 6.6437986654e+00 -7.0631977779e-05 1.6975336130e+00 -2.9402144653e+00 1.6975336130e+00 2.9402144653e+00 
127200 6.6437986656e+00 -7.0827896957e-05 1.6975336130e+00 -2.9402144653e+00 1.6975336130e+00 2.9402144653e+00 
127300 6.6437986655e+00 -6.8666856428e-05 1.6975356992e+00 -2.9402180787e+00 1.6975356992e+00 2.9402180787e+00 
127400 6.6437986656e+00 -6.8851540354e-05 1.6975356992e+00 -2.9402180787e+00 1.6975356992e+00 2.9402180787e+00 
127500 6.6437986657e+00 -6.9035068760e-05 1.6975356992e+00 -2.9402180787e+00 1.6975356992e+00 2.9402180787e+00 
127600 6.6437986659e+00 -6.9217546963e-05 1.6975356992e+00 -2.9402180787e+00 1.6975356992e+00 2.9402180787e+00 
127700 6.6437986660e+00 -6.9399076149e-05 1.6975356992e+00 -2.9402180787e+00 1.6975356992e+00 2.9402180787e+00 
127800 6.6437986661e+00 -6.9579753355e-05 1.6975356992e+00 -2.9402180787e+00 1.6975356992e+00 2.9402180787e+00 
127900 6.6437986662e+00 -6.9759671426e-05 1.6975356992e+00 -2.9402180787e+00 1.6975356992e+00 2.9402180787e+00 
128000 6.6437986663e+00 -6.9938919024e-05 1.6975356992e+00 -2.9402180787e+00 1.6975356992e+00 2.9402180787e+00 
128100 6.6437986664e+00 -7.0117580599e-05 1.6975356992e+00 -2.9402180787e+00 1.6975356992e+00 2.9402180787e+00 
128200 6.6437986665e+00 -7.0295736407e-05 1.6975356992e+00 -2.9402180787e+00 1.6975356992e+00 2.9402180787e+00 
128300 6.6437986666e+00 -7.0473462506e-05 1.6975356992e+00 -2.9402180787e+00 1.6975356992e+00 2.9402180787e+00 
128400 6.6437986668e+00 -7.0650830768e-05 1.6975356992e+00 -2.9402180787e+00 1.6975356992e+00 2.9402180787e+00 
128500 6.6437986669e+00 -7.0827908907e-05 1.6975356992e+00 -2.9402180787e+00 1.6975356992e+00 2.9402180787e+00 
128600 6.6437986668e+00 -6.8648066713e-05 1.6975377854e+00 -2.9402216921e+00 1.6975377854e+00 2.9402216921e+00 
128700 6.6437986669e+00 -6.8813964243e-05 1.6975377854e+00 -2.9402216921e+00 1.6975377854e+00 2.9402216921e+00 
128800 6.6437986670e+00 -6.8978720254e-05 1.6975377854e+00 -2.9402216921e+00 1.6975377854e+00 2.9402216921e+00 
128900 6.6437986671e+00 -6.9142431837e-05 1.6975377854e+00 -2.9402216921e+00 1.6975377854e+00 2.9402216921e+00 
129000 6.6437986672e+00 -6.9305192442e-05 1.6975377854e+00 -2.9402216921e+00 1.6975377854e+00 2.9402216921e+00 
129100 6.6437986673e+00 -6.9467091854e-05 1.6975377854e+00 -2.9402216921e+00 1.6975377854e+00 2.9402216921e+00 
129200 6.6437986674e+00 -6.9628216172e-05 1.6975377854e+00 -2.9402216921e+00 1.6975377854e+00 2.9402216921e+00 
129300 6.6437986675e+00 -6.9788647781e-05 1.6975377854e+00 -2.9402216921e+00 1.6975377854e+00 2.9402216921e+00 
129400 6.6437986676e+00 -6.9948465343e-05 1.6975377854e+00 -2.9402216921e+00 1.6975377854e+00 2.9402216921e+00 
129500 6.6437986677e+00 -7.0107743782e-05 1.6975377854e+00 -2.9402216921e+00 1.6975377854e+00 2.9402216921e+00 
129600 6.6437986678e+00 -7.0266554303e-05 1.6975377854e+00 -2.9402216921e+00 1.6975377854e+00 2.9402216921e+00 
129700 6.6437986679e+00 -7.0424964382e-05 1.6975377854e+00 -2.9402216921e+00 1.6975377854e+00 2.9402216921e+00 
129800 6.6437986680e+00 -7.0583037784e-05 1.6975377854e+00 -2.9402216921e+00 1.6975377854e+00 2.9402216921e+00 
129900 6.6437986681e+00 -7.0740834583e-05 1.6975377854e+00 -2.9402216921e+00 1.6975377854e+00 2.9402216921e+00 
130000 6.6437986680e+00 -6.8544622515e-05 1.6975398691e+00 -2.9402253011e+00 1.6975398691e+00 2.9402253011e+00 
130100 6.6437986681e+00 -6.8691257909e-05 1.6975398691e+00 -2.9402253011e+00 1.6975398691e+00 2.9402253011e+00 
130200 6.6437986682e+00 -6.8836746441e-05 1.6975398691e+00 -2.9402253011e+00 1.6975398691e+00 2.9402253011e+00 
130300 6.6437986683e+00 -6.8981179344e-05 1.6975398691e+00 -2.9402253011e+00 1.6975398691e+00 2.9402253011e+00 
130400 6.6437986684e+00 -6.9124644671e-05 1.6975398691e+00 -2.9402253011e+00 1.6975398691e+00 2.9402253011e+00 
130500 6.6437986685e+00 -6.9267227252e-05 1.6975398691e+00 -2.9402253011e+00 1.6975398691e+00 2.9402253011e+00 
130600 6.6437986686e+00 -6.9409008659e-05 1.6975398691e+00 -2.9402253011e+00 1.6975398691e+00 2.9402253011e+00 
130700 6.6437986687e+00 -6.9550067186e-05 1.6975398691e+00 -2.9402253011e+00 1.6975398691e+00 2.9402253011e+00 
130800 6.6437986687e+00 -6.9690477829e-05 1.6975398691e+00 -2.9402253011e+00 1.6975398691e+00 2.9402253011e+00 
130900 6.6437986688e+00 -6.9830312265e-05 1.6975398691e+00 -2.9402253011e+00 1.6975398691e+00 2.9402253011e+00 
131000 6.6437986689e+00 -6.9969638855e-05 1.6975398691e+00 -2.9402253011e+00 1.6975398691e+00 2.9402253011e+00 
131100 6.6437986690e+00 -7.0108522627e-05 1.6975398691e+00 -2.9402253011e+00 1.6975398691e+00 2.9402253011e+00 
131200 6.6437986691e+00 -7.0247025298e-05 1.6975398691e+00 -2.9402253011e+00 1.6975398691e+00 2.9402253011e+00 
131300 6.6437986692e+00 -7.0385205264e-05 1.6975398691e+00 -2.9402253011e+00 1.6975398691e+00 2.9402253011e+00 
131400 6.6437986692e+00 -7.0523117622e-05 1.6975398691e+00 -2.9402253011e+00 1.6975398691e+00 2.9402253011e+00 
131500 6.6437986693e+00 -7.0660814192e-05 1.6975398691e+00 -2.9402253011e+00 1.6975398691e+00 2.9402253011e+00 
131600 6.6437986694e+00 -7.0798343532e-05 1.6975398691e+00 -2.9402253011e+00 1.6975398691e+00 2.9402253011e+00 
131700 6.6437986693e+00 -6.8580056541e-05 1.6975419544e+00 -2.9402289130e+00 1.6975419544e+00 2.9402289130e+00 
131800 6.6437986694e+00 -6.8706601660e-05 1.6975419544e+00 -2.9402289130e+00 1.6975419544e+00 2.9402289130e+00 
131900 6.6437986695e+00 -6.8832076580e-05 1.6975419544e+00 -2.9402289130e+00 1.6975419544e+00 2.9402289130e+00 
132000 6.6437986696e+00 -6.8956562842e-05 1.6975419544e+00 -2.9402289130e+00 1.6975419544e+00 2.9402289130e+00 
132100 6.6437986696e+00 -6.9080139259e-05 1.6975419544e+00 -2.9402289130e+00 1.6975419544e+00 2.9402289130e+00 
132200 6.6437986697e+00 -6.9202881864e-05 1.6975419544e+00 -2.9402289130e+00 1.6975419544e+00 2.9402289130e+00 
132300 6.6437986698e+00 -6.9324863896e-05 1.6975419544e+00 -2.9402289130e+00 1.6975419544e+00 2.9402289130e+00 
132400 6.6437986699e+00 -6.9446155762e-05 1.6975419544e+00 -2.9402289130e+00 1.6975419544e+00 2.9402289130e+00 
132500 6.6437986699e+00 -6.9566825013e-05 1.6975419544e+00 -2.9402289130e+00 1.6975419544e+00 2.9402289130e+00 
132600 6.6437986700e+00 -6.9686936342e-05 1.6975419544e+00 -2.9402289130e+00 1.6975419544e+00 2.9402289130e+00 
132700 6.6437986701e+00 -6.9806551554e-05 1.6975419544e+00 -2.9402289130e+00 1.6975419544e+00 2.9402289130e+00 
132800 6.6437986701e+00 -6.9925729574e-05 1.6975419544e+00 -2.9402289130e+00 1.6975419544e+00 2.9402289130e+00 
132900 6.6437986702e+00 -7.0044526445e-05 1.6975419544e+00 -2.9402289130e+00 1.6975419544e+00 2.9402289130e+00 
133000 6.6437986703e+00 -7.0162995323e-05 1.6975419544e+00 -2.9402289130e+00 1.6975419544e+00 2.9402289130e+00 
133100 6.6437986704e+00 -7.0281186488e-05 1.6975419544e+00 -2.9402289130e+00 1.6975419544e+00 2.9402289130e+00 
133200 6.6437986704e+00 -7.0399147364e-05 1.6975419544e+00 -2.9402289130e+00 1.6975419544e+00 2.9402289130e+00 
133300 6.6437986705e+00 -7.0516922525e-05 1.6975419544e+00 -2.9402289130e+00 1.6975419544e+00 2.9402289130e+00 
133400 6.6437986706e+00 -7.0634553726e-05 1.6975419544e+00 -2.9402289130e+00 1.6975419544e+00 2.9402289130e+00 
133500 6.6437986706e+00 -7.0752079916e-05 1.6975419544e+00 -2.9402289130e+00 1.6975419544e+00 2.9402289130e+00 
133600 6.6437986705e+00 -6.8515390015e-05 1.6975440383e+00 -2.9402325225e+00 1.6975440383e+00 2.9402325225e+00 
133700 6.6437986706e+00 -6.8622036457e-05 1.6975440383e+00 -2.9402325225e+00 1.6975440383e+00 2.9402325225e+00 
133800 6.6437986707e+00 -6.8727649540e-05 1.6975440383e+00 -2.9402325225e+00 1.6975440383e+00 2.9402325225e+00 
133900 6.6437986707e+00 -6.8832303013e-05 1.6975440383e+00 -2.9402325225e+00 1.6975440383e+00 2.9402325225e+00 
134000 6.6437986708e+00 -6.8936068344e-05 1.6975440383e+00 -2.9402325225e+00 1.6975440383e+00 2.9402325225e+00 
134100 6.6437986708e+00 -6.9039014681e-05 1.6975440383e+00 -2.9402325225e+00 1.6975440383e+00 2.9402325225e+00 
134200 6.6437986709e+00 -6.9141208822e-05 1.6975440383e+00 -2.9402325225e+00 1.6975440383e+00 2.9402325225e+00 
134300 6.6437986710e+00 -6.9242715181e-05 1.6975440383e+00 -2.9402325225e+00 1.6975440383e+00 2.9402325225e+00 
134400 6.6437986710e+00 -6.9343595762e-05 1.6975440383e+00 -2.9402325225e+00 1.6975440383e+00 2.9402325225e+00 
134500 6.6437986711e+00 -6.9443910134e-05 1.6975440383e+00 -2.9402325225e+00 1.6975440383e+00 2.9402325225e+00 
134600 6.6437986711e+00 -6.9543715427e-05 1.6975440383e+00 -2.9402325225e+00 1.6975440383e+00 2.9402325225e+00 
134700 6.6437986712e+00 -6.9643066301e-05 1.6975440383e+00 -2.9402325225e+00 1.6975440383e+00 2.9402325225e+00 
134800 6.6437986713e+00 -6.9742014952e-05 1.6975440383e+00 -2.9402325225e+00 1.6975440383e+00 2.9402325225e+00 
134900 6.6437986713e+00 -6.9840611105e-05 1.6975440383e+00 -2.9402325225e+00 1.6975440383e+00 2.9402325225e+00 
135000 6.6437986714e+00 -6.9938902010e-05 1.6975440383e+00 -2.9402325225e+00 1.6975440383e+00 2.9402325225e+00 
135100 6.6437986714e+00 -7.0036932455e-05 1.6975440383e+00 -2.9402325225e+00 1.6975440383e+00 2.9402325225e+00 
135200 6.6437986715e+00 -7.0134744757e-05 1.6975440383e+00 -2.9402325225e+00 1.6975440383e+00 2.9402325225e+00 
135300 6.6437986715e+00 -7.0232378797e-05 1.6975440383e+00 -2.9402325225e+00 1.6975440383e+00 2.9402325225e+00 
135400 6.6437986716e+00 -7.0329872022e-05 1.6975440383e+00 -2.9402325225e+00 1.6975440383e+00 2.9402325225e+00 
135500 6.6437986717e+00 -7.0427259463e-05 1.6975440383e+00 -2.9402325225e+00 1.6975440383e+00 2.9402325225e+00 
135600 6.6437986717e+00 -7.0524573762e-05 1.6975440383e+00 -2.9402325225e+00 1.6975440383e+00 2.9402325225e+00 
135700 6.6437986718e+00 -7.0621845196e-05 1.6975440383e+00 -2.9402325225e+00 1.6975440383e+00 2.9402325225e+00 
135800 6.6437986718e+00 -7.0719101705e-05 1.6975440383e+00 -2.9402325225e+00 1.6975440383e+00 2.9402325225e+00 
135900 6.6437986717e+00 -6.8463326742e-05 1.6975461213e+00 -2.9402361303e+00 1.6975461213e+00 2.9402361303e+00 
136000 6.6437986718e+00 -6.8549857479e-05 1.6975461213e+00 -2.9402361303e+00 1.6975461213e+00 2.9402361303e+00 
136100 6.6437986718e+00 -6.8635415204e-05 1.6975461213e+00 -2.9402361303e+00 1.6975461213e+00 2.9402361303e+00 
136200 6.6437986719e+00 -6.8720064499e-05 1.6975461213e+00 -2.9402361303e+00 1.6975461213e+00 2.9402361303e+00 
136300 6.6437986719e+00 -6.8803868147e-05 1.6975461213e+00 -2.9402361303e+00 1.6975461213e+00 2.9402361303e+00 
136400 6.6437986720e+00 -6.8886887076e-05 1.6975461213e+00 -2.9402361303e+00 1.6975461213e+00 2.9402361303e+00 
136500 6.6437986720e+00 -6.8969180333e-05 1.6975461213e+00 -2.9402361303e+00 1.6975461213e+00 2.9402361303e+00 
136600 6.6437986721e+00 -6.9050805044e-05 1.6975461213e+00 -2.9402361303e+00 1.6975461213e+00 2.9402361303e+00 
136700 6.6437986721e+00 -6.9131816386e-05 1.6975461213e+00 -2.9402361303e+00 1.6975461213e+00 2.9402361303e+00 
136800 6.6437986721e+00 -6.9212267566e-05 1.6975461213e+00 -2.9402361303e+00 1.6975461213e+00 2.9402361303e+00 
136900 6.6437986722e+00 -6.9292209794e-05 1.6975461213e+00 -2.9402361303e+00 1.6975461213e+00 2.9402361303e+00 
137000 6.6437986722e+00 -6.9371692268e-05 1.6975461213e+00 -2.9402361303e+00 1.6975461213e+00 2.9402361303e+00 
137100 6.6437986723e+00 -6.9450762161e-05 1.6975461213e+00 -2.9402361303e+00 1.6975461213e+00 2.9402361303e+00 
137200 6.6437986723e+00 -6.9529464613e-05 1.6975461213e+00 -2.9402361303e+00 1.6975461213e+00 2.9402361303e+00 
137300 6.6437986724e+00 -6.9607842717e-05 1.6975461213e+00 -2.9402361303e+00 1.6975461213e+00 2.9402361303e+00 
137400 6.6437986724e+00 -6.9685937526e-05 1.6975461213e+00 -2.9402361303e+00 1.6975461213e+00 2.9402361303e+00 
137500 6.6437986725e+00 -6.9763788049e-05 1.6975461213e+00 -2.9402361303e+00 1.6975461213e+00 2.9402361303e+00 
137600 6.6437986725e+00 -6.9841431251e-05 1.6975461213e+00 -2.9402361303e+00 1.6975461213e+00 2.9402361303e+00 
137700 6.6437986726e+00 -6.9918902067e-05 1.6975461213e+00 -2.9402361303e+00 1.6975461213e+00 2.9402361303e+00 
137800 6.6437986726e+00 -6.9996233408e-05 1.6975461213e+00 -2.9402361303e+00 1.6975461213e+00 2.9402361303e+00 
137900 6.6437986726e+00 -7.0073456176e-05 1.6975461213e+00 -2.9402361303e+00 1.6975461213e+00 2.9402361303e+00 
138000 6.6437986727e+00 -7.0150599276e-05 1.6975461213e+00 -2.9402361303e+00 1.6975461213e+00 2.9402361303e+00 
138100 6.6437986727e+00 -7.0227689639e-05 1.6975461213e+00 -2.9402361303e+00 1.6975461213e+00 2.9402361303e+00 
138200 6.6437986728e+00 -7.0304752245e-05 1.6975461213e+00 -2.9402361303e+00 1.6975461213e+00 2.9402361303e+00 
138300 6.6437986728e+00 -7.0381810140e-05 1.6975461213e+00 -2.9402361303e+00 1.6975461213e+00 2.9402361303e+00 
138400 6.6437986728e+00 -7.0458884471e-05 1.6975461213e+00 -2.9402361303e+00 1.6975461213e+00 2.9402361303e+00 
138500 6.6437986729e+00 -7.0535994507e-05 1.6975461213e+00 -2.9402361303e+00 1.6975461213e+00 2.9402361303e+00 
138600 6.6437986729e+00 -7.0613157669e-05 1.6975461213e+00 -2.9402361303e+00 1.6975461213e+00 2.9402361303e+00 
138700 6.6437986730e+00 -7.0690389575e-05 1.6975461213e+00 -2.9402361303e+00 1.6975461213e+00 2.9402361303e+00 
138800 6.6437986730e+00 -7.0767704065e-05 1.6975461213e+00 -2.9402361303e+00 1.6975461213e+00 2.9402361303e+00 
138900 6.6437986729e+00 -6.8490461705e-05 1.6975482057e+00 -2.9402397406e+00 1.6975482057e+00 2.9402397406e+00 
139000 6.6437986729e+00 -6.8557197932e-05 1.6975482057e+00 -2.9402397406e+00 1.6975482057e+00 2.9402397406e+00 
139100 6.6437986729e+00 -6.8623019047e-05 1.6975482057e+00 -2.9402397406e+00 1.6975482057e+00 2.9402397406e+00 
139200 6.6437986730e+00 -6.8687977841e-05 1.6975482057e+00 -2.9402397406e+00 1.6975482057e+00 2.9402397406e+00 
139300 6.6437986730e+00 -6.8752125880e-05 1.6975482057e+00 -2.9402397406e+00 1.6975482057e+00 2.9402397406e+00 
139400 6.6437986731e+00 -6.8815513453e-05 1.6975482057e+00 -2.9402397406e+00 1.6975482057e+00 2.9402397406e+00 
139500 6.6437986731e+00 -6.8878189542e-05 1.6975482057e+00 -2.9402397406e+00 1.6975482057e+00 2.9402397406e+00 
139600 6.6437986731e+00 -6.8940201775e-05 1.6975482057e+00 -2.9402397406e+00 1.6975482057e+00 2.9402397406e+00 
139700 6.6437986732e+00 -6.9001596411e-05 1.6975482057e+00 -2.9402397406e+00 1.6975482057e+00 2.9402397406e+00 
139800 6.6437986732e+00 -6.9062418292e-05 1.6975482057e+00 -2.9402397406e+00 1.6975482057e+00 2.9402397406e+00 
139900 6.6437986732e+00 -6.9122710837e-05 1.6975482057e+00 -2.9402397406e+00 1.6975482057e+00 2.9402397406e+00 
140000 6.6437986733e+00 -6.9182516000e-05 1.6975482057e+00 -2.9402397406e+00 1.6975482057e+00 2.9402397406e+00 
140100 6.6437986733e+00 -6.9241874269e-05 1.6975482057e+00 -2.9402397406e+00 1.6975482057e+00 2.9402397406e+00 
140200 6.6437986733e+00 -6.9300824632e-05 1.6975482057e+00 -2.9402397406e+00 1.6975482057e+00 2.9402397406e+00 
140300 6.6437986734e+00 -6.9359404577e-05 1.6975482057e+00 -2.9402397406e+00 1.6975482057e+00 2.9402397406e+00 
140400 6.6437986734e+00 -6.9417650077e-05 1.6975482057e+00 -2.9402397406e+00 1.6975482057e+00 2.9402397406e+00 
140500 6.6437986734e+00 -6.9475595576e-05 1.6975482057e+00 -2.9402397406e+00 1.6975482057e+00 2.9402397406e+00 
140600 6.6437986735e+00 -6.9533273988e-05 1.6975482057e+00 -2.9402397406e+00 1.6975482057e+00 2.9402397406e+00 
140700 6.6437986735e+00 -6.9590716701e-05 1.6975482057e+00 -2.9402397406e+00 1.6975482057e+00 2.9402397406e+00 
140800 6.6437986735e+00 -6.9647953561e-05 1.6975482057e+00 -2.9402397406e+00 1.6975482057e+00 2.9402397406e+00 
140900 6.6437986735e+00 -6.9705012891e-05 1.6975482057e+00 -2.9402397406e+00 1.6975482057e+00 2.9402397406e+00 
141000 6.6437986736e+00 -6.9761921485e-05 1.6975482057e+00 -2.9402397406e+00 1.6975482057e+00 2.9402397406e+00 
141100 6.6437986736e+00 -6.9818704615e-05 1.6975482057e+00 -2.9402397406e+00 1.6975482057e+00 2.9402397406e+00 
141200 6.6437986736e+00 -6.9875386049e-05 1.6975482057e+00 -2.9402397406e+00 1.6975482057e+00 2.9402397406e+00 
141300 6.6437986737e+00 -6.9931988053e-05 1.6975482057e+00 -2.9402397406e+00 1.6975482057e+00 2.9402397406e+00 
141400 6.6437986737e+00 -6.9988531405e-05 1.6975482057e+00 -2.9402397406e+00 1.6975482057e+00 2.9402397406e+00 
141500 6.6437986737e+00 -7.0045035419e-05 1.6975482057e+00 -2.9402397406e+00 1.6975482057e+00 2.9402397406e+00 
141600 6.6437986737e+00 -7.0055203365e-05 1.6975482057e+00 -2.9402397406e+00 1.6975482057e+00 2.9402397406e+00 
141600 6.6437986737e+00 -7.0055203365e-05 1.6975482057e+00 -2.9402397406e+00 1.6975482057e+00 2.9402397406e+00 
