# step Hamiltonian StressXX CellTensor1 CellTensor2 CellTensor3 CellTensor4 
0 5.1189666674e+00 -1.8182146787e-02 1.5077760783e+00 -2.6115447740e+00 1.5077760783e+00 2.6115447740e+00 
100 5.1199245897e+00 -1.8402573626e-02 1.5077760783e+00 -2.6115447740e+00 1.5077760783e+00 2.6115447740e+00 
200 5.1207614819e+00 -1.8194738497e-02 1.5083863749e+00 -2.6126018388e+00 1.5083863749e+00 2.6126018388e+00 
300 5.1215019400e+00 -1.8023344616e-02 1.5089895344e+00 -2.6136465417e+00 1.5089895344e+00 2.6136465417e+00 
400 5.1221545952e+00 -1.7881332257e-02 1.5095867729e+00 -2.6146809891e+00 1.5095867729e+00 2.6146809891e+00 
500 5.1227273207e+00 -1.7762453422e-02 1.5101790708e+00 -2.6157068791e+00 1.5101790708e+00 2.6157068791e+00 
600 5.1232273250e+00 -1.7661177706e-02 1.5107671999e+00 -2.6167255486e+00 1.5107671999e+00 2.6167255486e+00 
700 5.1236612290e+00 -1.7572613234e-02 1.5113517478e+00 -2.6177380153e+00 1.5113517478e+00 2.6177380153e+00 
800 5.1240351281e+00 -1.7492439566e-02 1.5119331392e+00 -2.6187450148e+00 1.5119331392e+00 2.6187450148e+00 
900 5.1243546456e+00 -1.7416850149e-02 1.5125116554e+00 -2.6197470342e+00 1.5125116554e+00 2.6197470342e+00 
1000 5.1246249762e+00 -1.7342502485e-02 1.5130874511e+00 -2.6207443416e+00 1.5130874511e+00 2.6207443416e+00 
1100 5.1248509233e+00 -1.7266474547e-02 1.5136605706e+00 -2.6217370136e+00 1.5136605706e+00 2.6217370136e+00 
1200 5.1250369304e+00 -1.7186226350e-02 1.5142309613e+00 -2.6227249593e+00 1.5142309613e+00 2.6227249593e+00 
1300 5.1251871082e+00 -1.7099565749e-02 1.5147984870e+00 -2.6237079426e+00 1.5147984870e+00 2.6237079426e+00 
1400 5.1253052584e+00 -1.7004617797e-02 1.5153629392e+00 -2.6246856026e+00 1.5153629392e+00 2.6246856026e+00 
1500 5.1253948941e+00 -1.6899797083e-02 1.5159240479e+00 -2.6256574713e+00 1.5159240479e+00 2.6256574713e+00 
1600 5.1254592583e+00 -1.6783782607e-02 1.5164814911e+00 -2.6266229914e+00 1.5164814911e+00 2.6266229914e+00 
1700 5.1255013405e+00 -1.6655494827e-02 1.5170349038e+00 -2.6275815303e+00 1.5170349038e+00 2.6275815303e+00 
1800 5.1255238919e+00 -1.6514074594e-02 1.5175838859e+00 -2.6285323951e+00 1.5175838859e+00 2.6285323951e+00 
1900 5.1255294387e+00 -1.6358863728e-02 1.5181280094e+00 -2.6294748447e+00 1.5181280094e+00 2.6294748447e+00 
2000 5.1255202956e+00 -1.6189387044e-02 1.5186668253e+00 -2.6304081012e+00 1.5186668253e+00 2.6304081012e+00 
2100 5.1254985779e+00 -1.6005335664e-02 1.5191998696e+00 -2.6313313610e+00 1.5191998696e+00 2.6313313610e+00 
2200 5.1254662123e+00 -1.5806551486e-02 1.5197266686e+00 -2.6322438037e+00 1.5197266686e+00 2.6322438037e+00 
2300 5.1254249489e+00 -1.5593012697e-02 1.5202467442e+00 -2.6331446009e+00 1.5202467442e+00 2.6331446009e+00 
2400 5.1253763706e+00 -1.5364820235e-02 1.5207596178e+00 -2.6340329241e+00 1.5207596178e+00 2.6340329241e+00 
2500 5.1253219040e+00 -1.5122185129e-02 1.5212648150e+00 -2.6349079514e+00 1.5212648150e+00 2.6349079514e+00 
2600 5.1252628289e+00 -1.4865416643e-02 1.5217618688e+00 -2.6357688738e+00 1.5217618688e+00 2.6357688738e+00 
2700 5.1252002876e+00 -1.4594911172e-02 1.5222503227e+00 -2.6366149008e+00 1.5222503227e+00 2.6366149008e+00 
2800 5.1251352942e+00 -1.4311141840e-02 1.5227297339e+00 -2.6374452653e+00 1.5227297339e+00 2.6374452653e+00 
2900 5.1250687432e+00 -1.4014648765e-02 1.5231996754e+00 -2.6382592279e+00 1.5231996754e+00 2.6382592279e+00 
3000 5.1250014185e+00 -1.3706029944e-02 1.5236597383e+00 -2.6390560802e+00 1.5236597383e+00 2.6390560802e+00 
3100 5.1249340011e+00 -1.3385932734e-02 1.5241095338e+00 -2.6398351488e+00 1.5241095338e+00 2.6398351488e+00 
3200 5.1248670777e+00 -1.3055045893e-02 1.5245486943e+00 -2.6405957972e+00 1.5245486943e+00 2.6405957972e+00 
3300 5.1248011476e+00 -1.2714092173e-02 1.5249768754e+00 -2.6413374285e+00 1.5249768754e+00 2.6413374285e+00 
3400 5.1247366309e+00 -1.2363821418e-02 1.5253937561e+00 -2.6420594872e+00 1.5253937561e+00 2.6420594872e+00 
3500 5.1246738748e+00 -1.2005004163e-02 1.5257990406e+00 -2.6427614605e+00 1.5257990406e+00 2.6427614605e+00 
3600 5.1246131609e+00 -1.1638425706e-02 1.5261924581e+00 -2.6434428796e+00 1.5261924581e+00 2.6434428796e+00 
3700 5.1245547113e+00 -1.1264880643e-02 1.5265737636e+00 -2.6441033200e+00 1.5265737636e+00 2.6441033200e+00 
3800 5.1244986945e+00 -1.0885167836e-02 1.5269427380e+00 -2.6447424025e+00 1.5269427380e+00 2.6447424025e+00 
3900 5.1244452318e+00 -1.0500085807e-02 1.5272991886e+00 -2.6453597929e+00 1.5272991886e+00 2.6453597929e+00 
4000 5.1243944019e+00 -1.0110428535e-02 1.5276429483e+00 -2.6459552023e+00 1.5276429483e+00 2.6459552023e+00 
4100 5.1243462464e+00 -9.7169816440e-03 1.5279738762e+00 -2.6465283862e+00 1.5279738762e+00 2.6465283862e+00 
4200 5.1243007747e+00 -9.3205189619e-03 1.5282918567e+00 -2.6470791446e+00 1.5282918567e+00 2.6470791446e+00 
4300 5.1242579677e+00 -8.9217994375e-03 1.5285967994e+00 -2.6476073209e+00 1.5285967994e+00 2.6476073209e+00 
4400 5.1242177826e+00 -8.5215643961e-03 1.5288886384e+00 -2.6481128009e+00 1.5288886384e+00 2.6481128009e+00 
4500 5.1241801563e+00 -8.1205351194e-03 1.5291673318e+00 -2.6485955120e+00 1.5291673318e+00 2.6485955120e+00 
4600 5.1241450089e+00 -7.7194107340e-03 1.5294328610e+00 -2.6490554219e+00 1.5294328610e+00 2.6490554219e+00 
4700 5.1241122467e+00 -7.3188663901e-03 1.5296852298e+00 -2.6494925375e+00 1.5296852298e+00 2.6494925375e+00 
4800 5.1240817653e+00 -6.9195517163e-03 1.5299244639e+00 -2.6499069032e+00 1.5299244639e+00 2.6499069032e+00 
4900 5.1240534518e+00 -6.5220895335e-03 1.5301506097e+00 -2.6502985993e+00 1.5301506097e+00 2.6502985993e+00 
5000 5.1240271875e+00 -6.1270748112e-03 1.5303637339e+00 -2.6506677412e+00 1.5303637339e+00 2.6506677412e+00 
5100 5.1240028497e+00 -5.7350738510e-03 1.5305639219e+00 -2.6510144769e+00 1.5305639219e+00 2.6510144769e+00 
5200 5.1239803136e+00 -5.3466236811e-03 1.5307512773e+00 -2.6513389861e+00 1.5307512773e+00 2.6513389861e+00 
5300 5.1239594537e+00 -4.9622316466e-03 1.5309259212e+00 -2.6516414781e+00 1.5309259212e+00 2.6516414781e+00 
5400 5.1239401454e+00 -4.5823751789e-03 1.5310879904e+00 -2.6519221902e+00 1.5310879904e+00 2.6519221902e+00 
5500 5.1239222660e+00 -4.2075017317e-03 1.5312376372e+00 -2.6521813862e+00 1.5312376372e+00 2.6521813862e+00 
5600 5.1239056960e+00 -3.8380288657e-03 1.5313750282e+00 -2.6524193543e+00 1.5313750282e+00 2.6524193543e+00 
5700 5.1238903194e+00 -3.4743444707e-03 1.5315003431e+00 -2.6526364060e+00 1.5315003431e+00 2.6526364060e+00 
5800 5.1238760248e+00 -3.1168071100e-03 1.5316137739e+00 -2.6528328740e+00 1.5316137739e+00 2.6528328740e+00 
5900 5.1238627059e+00 -2.7657464742e-03 1.5317155242e+00 -2.6530091106e+00 1.5317155242e+00 2.6530091106e+00 
6000 5.1238502618e+00 -2.4214639312e-03 1.5318058077e+00 -2.6531654863e+00 1.5318058077e+00 2.6531654863e+00 
6100 5.1238385973e+00 -2.0842331621e-03 1.5318848479e+00 -2.6533023879e+00 1.5318848479e+00 2.6533023879e+00 
6200 5.1238276231e+00 -1.7543008696e-03 1.5319528768e+00 -2.6534202174e+00 1.5319528768e+00 2.6534202174e+00 
6300 5.1238172560e+00 -1.4318875494e-03 1.5320101342e+00 -2.6535193901e+00 1.5320101342e+00 2.6535193901e+00 
6400 5.1238074190e+00 -1.1171883150e-03 1.5320568667e+00 -2.6536003332e+00 1.5320568667e+00 2.6536003332e+00 
6500 5.1237980410e+00 -8.1037376451e-04 1.5320933273e+00 -2.6536634847e+00 1.5320933273e+00 2.6536634847e+00 
6600 5.1237890569e+00 -5.1159088352e-04 1.5321197740e+00 -2.6537092918e+00 1.5321197740e+00 2.6537092918e+00 
6700 5.1237804076e+00 -2.2096397370e-04 1.5321364695e+00 -2.6537382093e+00 1.5321364695e+00 2.6537382093e+00 
6800 5.1237720395e+00 6.1404398934e-05 1.5321436805e+00 -2.6537506991e+00 1.5321436805e+00 2.6537506991e+00 
6900 5.1237639060e+00 3.3681054786e-04 1.5321436805e+00 -2.6537506991e+00 1.5321436805e+00 2.6537506991e+00 
7000 5.1237559626e+00 6.0240827145e-04 1.5321326890e+00 -2.6537316613e+00 1.5321326890e+00 2.6537316613e+00 
7100 5.1237481714e+00 8.5956128108e-04 1.5321130299e+00 -2.6536976108e+00 1.5321130299e+00 2.6536976108e+00 
7200 5.1237404992e+00 1.1082442634e-03 1.5320849785e+00 -2.6536490243e+00 1.5320849785e+00 2.6536490243e+00 
7300 5.1237329172e+00 1.3484488263e-03 1.5320488108e+00 -2.6535863800e+00 1.5320488108e+00 2.6535863800e+00 
7400 5.1237254007e+00 1.5801825542e-03 1.5320048030e+00 -2.6535101562e+00 1.5320048030e+00 2.6535101562e+00 
7500 5.1237179287e+00 1.8034680789e-03 1.5319532309e+00 -2.6534208307e+00 1.5319532309e+00 2.6534208307e+00 
7600 5.1237104840e+00 2.0183421684e-03 1.5318943696e+00 -2.6533188799e+00 1.5318943696e+00 2.6533188799e+00 
7700 5.1237030524e+00 2.2248548361e-03 1.5318284927e+00 -2.6532047778e+00 1.5318284927e+00 2.6532047778e+00 
7800 5.1236956228e+00 2.4230684729e-03 1.5317558724e+00 -2.6530789958e+00 1.5317558724e+00 2.6530789958e+00 
7900 5.1236881866e+00 2.6130570037e-03 1.5316767786e+00 -2.6529420013e+00 1.5316767786e+00 2.6529420013e+00 
8000 5.1236807377e+00 2.7949050686e-03 1.5315914789e+00 -2.6527942578e+00 1.5315914789e+00 2.6527942578e+00 
8100 5.1236732724e+00 2.9687072323e-03 1.5315002379e+00 -2.6526362239e+00 1.5315002379e+00 2.6526362239e+00 
8200 5.1236657885e+00 3.1345672193e-03 1.5314033174e+00 -2.6524683526e+00 1.5314033174e+00 2.6524683526e+00 
8300 5.1236582857e+00 3.2925971777e-03 1.5313009756e+00 -2.6522910913e+00 1.5313009756e+00 2.6522910913e+00 
8400 5.1236507653e+00 3.4429169720e-03 1.5311934670e+00 -2.6521048811e+00 1.5311934670e+00 2.6521048811e+00 
8500 5.1236432296e+00 3.5856535025e-03 1.5310810425e+00 -2.6519101561e+00 1.5310810425e+00 2.6519101561e+00 
8600 5.1236356822e+00 3.7209400547e-03 1.5309639485e+00 -2.6517073433e+00 1.5309639485e+00 2.6517073433e+00 
8700 5.1236281273e+00 3.8489156760e-03 1.5308424273e+00 -2.6514968625e+00 1.5308424273e+00 2.6514968625e+00 
8800 5.1236205702e+00 3.9697245801e-03 1.5307167167e+00 -2.6512791253e+00 1.5307167167e+00 2.6512791253e+00 
8900 5.1236130166e+00 4.0835155791e-03 1.5305870497e+00 -2.6510545355e+00 1.5305870497e+00 2.6510545355e+00 
9000 5.1236054725e+00 4.1904415427e-03 1.5304536546e+00 -2.6508234884e+00 1.5304536546e+00 2.6508234884e+00 
9100 5.1235979445e+00 4.2906588830e-03 1.5303167547e+00 -2.6505863708e+00 1.5303167547e+00 2.6505863708e+00 
9200 5.1235904393e+00 4.3843270657e-03 1.5301765682e+00 -2.6503435607e+00 1.5301765682e+00 2.6503435607e+00 
9300 5.1235829636e+00 4.4716081457e-03 1.5300333083e+00 -2.6500954273e+00 1.5300333083e+00 2.6500954273e+00 
9400 5.1235755242e+00 4.5526663277e-03 1.5298871829e+00 -2.6498423306e+00 1.5298871829e+00 2.6498423306e+00 
9500 5.1235681280e+00 4.6276675496e-03 1.5297383944e+00 -2.6495846213e+00 1.5297383944e+00 2.6495846213e+00 
9600 5.1235607814e+00 4.6967790890e-03 1.5295871400e+00 -2.6493226411e+00 1.5295871400e+00 2.6493226411e+00 
9700 5.1235534910e+00 4.7601691919e-03 1.5294336117e+00 -2.6490567222e+00 1.5294336117e+00 2.6490567222e+00 
9800 5.1235462629e+00 4.8180067225e-03 1.5292779956e+00 -2.6487871873e+00 1.5292779956e+00 2.6487871873e+00 
9900 5.1235391031e+00 4.8704608331e-03 1.5291204728e+00 -2.6485143497e+00 1.5291204728e+00 2.6485143497e+00 
10000 5.1235320170e+00 4.9177006548e-03 1.5289612186e+00 -2.6482385134e+00 1.5289612186e+00 2.6482385134e+00 
10100 5.1235250100e+00 4.9598950057e-03 1.5288004031e+00 -2.6479599727e+00 1.5288004031e+00 2.6479599727e+00 
10200 5.1235180869e+00 4.9972121187e-03 1.5286381907e+00 -2.6476790126e+00 1.5286381907e+00 2.6476790126e+00 
10300 5.1235112523e+00 5.0298193856e-03 1.5284747405e+00 -2.6473959087e+00 1.5284747405e+00 2.6473959087e+00 
10400 5.1235045100e+00 5.0578831192e-03 1.5283102063e+00 -2.6471109270e+00 1.5283102063e+00 2.6471109270e+00 
10500 5.1234978640e+00 5.0815683305e-03 1.5281447362e+00 -2.6468243244e+00 1.5281447362e+00 2.6468243244e+00 
10600 5.1234913174e+00 5.1010385219e-03 1.5279784733e+00 -2.6465363486e+00 1.5279784733e+00 2.6465363486e+00 
10700 5.1234848730e+00 5.1164554951e-03 1.5278115552e+00 -2.6462472379e+00 1.5278115552e+00 2.6462472379e+00 
10800 5.1234785335e+00 5.1279791730e-03 1.5276441143e+00 -2.6459572218e+00 1.5276441143e+00 2.6459572218e+00 
10900 5.1234723007e+00 5.1357674350e-03 1.5274762779e+00 -2.6456665207e+00 1.5274762779e+00 2.6456665207e+00 
11000 5.1234661766e+00 5.1399759661e-03 1.5273081681e+00 -2.6453753460e+00 1.5273081681e+00 2.6453753460e+00 
11100 5.1234601622e+00 5.1407581175e-03 1.5271399021e+00 -2.6450839007e+00 1.5271399021e+00 2.6450839007e+00 
11200 5.1234542587e+00 5.1382647793e-03 1.5269715919e+00 -2.6447923790e+00 1.5269715919e+00 2.6447923790e+00 
11300 5.1234484667e+00 5.1326442649e-03 1.5268033449e+00 -2.6445009665e+00 1.5268033449e+00 2.6445009665e+00 
11400 5.1234427864e+00 5.1240422056e-03 1.5266352633e+00 -2.6442098406e+00 1.5266352633e+00 2.6442098406e+00 
11500 5.1234372180e+00 5.1126014563e-03 1.5264674449e+00 -2.6439191707e+00 1.5264674449e+00 2.6439191707e+00 
11600 5.1234317610e+00 5.0984620101e-03 1.5262999829e+00 -2.6436291179e+00 1.5262999829e+00 2.6436291179e+00 
11700 5.1234264150e+00 5.0817609235e-03 1.5261329656e+00 -2.6433398355e+00 1.5261329656e+00 2.6433398355e+00 
11800 5.1234211791e+00 5.0626322493e-03 1.5259664772e+00 -2.6430514692e+00 1.5259664772e+00 2.6430514692e+00 
11900 5.1234160524e+00 5.0412069792e-03 1.5258005974e+00 -2.6427641569e+00 1.5258005974e+00 2.6427641569e+00 
12000 5.1234110337e+00 5.0176129936e-03 1.5256354016e+00 -2.6424780294e+00 1.5256354016e+00 2.6424780294e+00 
12100 5.1234061214e+00 4.9919750201e-03 1.5254709612e+00 -2.6421932103e+00 1.5254709612e+00 2.6421932103e+00 
12200 5.1234013142e+00 4.9644145980e-03 1.5253073433e+00 -2.6419098158e+00 1.5253073433e+00 2.6419098158e+00 
12300 5.1233966101e+00 4.9350500518e-03 1.5251446113e+00 -2.6416279557e+00 1.5251446113e+00 2.6416279557e+00 
12400 5.1233920074e+00 4.9039964692e-03 1.5249828246e+00 -2.6413477329e+00 1.5249828246e+00 2.6413477329e+00 
12500 5.1233875041e+00 4.8713656871e-03 1.5248220389e+00 -2.6410692438e+00 1.5248220389e+00 2.6410692438e+00 
12600 5.1233830980e+00 4.8372662827e-03 1.5246623061e+00 -2.6407925786e+00 1.5246623061e+00 2.6407925786e+00 
12700 5.1233787872e+00 4.8018035707e-03 1.5245036748e+00 -2.6405178212e+00 1.5245036748e+00 2.6405178212e+00 
12800 5.1233745693e+00 4.7650796052e-03 1.5243461901e+00 -2.6402450496e+00 1.5243461901e+00 2.6402450496e+00 
12900 5.1233704420e+00 4.7271931881e-03 1.5241898937e+00 -2.6399743362e+00 1.5241898937e+00 2.6399743362e+00 
13000 5.1233664031e+00 4.6882398803e-03 1.5240348240e+00 -2.6397057476e+00 1.5240348240e+00 2.6397057476e+00 
13100 5.1233624502e+00 4.6483120195e-03 1.5238810164e+00 -2.6394393451e+00 1.5238810164e+00 2.6394393451e+00 
13200 5.1233585809e+00 4.6074987404e-03 1.5237285034e+00 -2.6391751848e+00 1.5237285034e+00 2.6391751848e+00 
13300 5.1233547930e+00 4.5658860001e-03 1.5235773143e+00 -2.6389133176e+00 1.5235773143e+00 2.6389133176e+00 
13400 5.1233510840e+00 4.5235566071e-03 1.5234274758e+00 -2.6386537897e+00 1.5234274758e+00 2.6386537897e+00 
13500 5.1233474517e+00 4.4805902532e-03 1.5232790118e+00 -2.6383966425e+00 1.5232790118e+00 2.6383966425e+00 
13600 5.1233438936e+00 4.4370635489e-03 1.5231319436e+00 -2.6381419129e+00 1.5231319436e+00 2.6381419129e+00 
13700 5.1233404076e+00 4.3930500627e-03 1.5229862900e+00 -2.6378896335e+00 1.5229862900e+00 2.6378896335e+00 
13800 5.1233369914e+00 4.3486203616e-03 1.5228420674e+00 -2.6376398326e+00 1.5228420674e+00 2.6376398326e+00 
13900 5.1233336428e+00 4.3038420558e-03 1.5226992899e+00 -2.6373925347e+00 1.5226992899e+00 2.6373925347e+00 
14000 5.1233303596e+00 4.2587798448e-03 1.5225579693e+00 -2.6371477602e+00 1.5225579693e+00 2.6371477602e+00 
14100 5.1233271398e+00 4.2134955662e-03 1.5224181153e+00 -2.6369055261e+00 1.5224181153e+00 2.6369055261e+00 
14200 5.1233239813e+00 4.1680482460e-03 1.5222797357e+00 -2.6366658456e+00 1.5222797357e+00 2.6366658456e+00 
14300 5.1233208821e+00 4.1224941518e-03 1.5221428363e+00 -2.6364287288e+00 1.5221428363e+00 2.6364287288e+00 
14400 5.1233178404e+00 4.0768868463e-03 1.5220074208e+00 -2.6361941824e+00 1.5220074208e+00 2.6361941824e+00 
14500 5.1233148542e+00 4.0312772432e-03 1.5218734915e+00 -2.6359622100e+00 1.5218734915e+00 2.6359622100e+00 
14600 5.1233119219e+00 3.9857136645e-03 1.5217410489e+00 -2.6357328127e+00 1.5217410489e+00 2.6357328127e+00 
14700 5.1233090416e+00 3.9402418981e-03 1.5216100918e+00 -2.6355059883e+00 1.5216100918e+00 2.6355059883e+00 
14800 5.1233062118e+00 3.8949052576e-03 1.5214806176e+00 -2.6352817323e+00 1.5214806176e+00 2.6352817323e+00 
14900 5.1233034309e+00 3.8497446421e-03 1.5213526221e+00 -2.6350600378e+00 1.5213526221e+00 2.6350600378e+00 
15000 5.1233006973e+00 3.8047985968e-03 1.5212261002e+00 -2.6348408953e+00 1.5212261002e+00 2.6348408953e+00 
15100 5.1232980096e+00 3.7601033752e-03 1.5211010449e+00 -2.6346242932e+00 1.5211010449e+00 2.6346242932e+00 
15200 5.1232953665e+00 3.7156930001e-03 1.5209774485e+00 -2.6344102179e+00 1.5209774485e+00 2.6344102179e+00 
15300 5.1232927666e+00 3.6715993267e-03 1.5208553019e+00 -2.6341986539e+00 1.5208553019e+00 2.6341986539e+00 
15400 5.1232902088e+00 3.6278521045e-03 1.5207345952e+00 -2.6339895836e+00 1.5207345952e+00 2.6339895836e+00 
15500 5.1232876917e+00 3.5844790404e-03 1.5206153171e+00 -2.6337829880e+00 1.5206153171e+00 2.6337829880e+00 
15600 5.1232852143e+00 3.5415058613e-03 1.5204974559e+00 -2.6335788463e+00 1.5204974559e+00 2.6335788463e+00 
15700 5.1232827755e+00 3.4989563766e-03 1.5203809986e+00 -2.6333771364e+00 1.5203809986e+00 2.6333771364e+00 
15800 5.1232803743e+00 3.4568525407e-03 1.5202659316e+00 -2.6331778346e+00 1.5202659316e+00 2.6331778346e+00 
15900 5.1232780098e+00 3.4152145154e-03 1.5201522407e+00 -2.6329809161e+00 1.5201522407e+00 2.6329809161e+00 
16000 5.1232756811e+00 3.3740607315e-03 1.5200399107e+00 -2.6327863549e+00 1.5200399107e+00 2.6327863549e+00 
16100 5.1232733873e+00 3.3334079504e-03 1.5199289261e+00 -2.6325941240e+00 1.5199289261e+00 2.6325941240e+00 
16200 5.1232711275e+00 3.2932713249e-03 1.5198192707e+00 -2.6324041953e+00 1.5198192707e+00 2.6324041953e+00 
16300 5.1232689011e+00 3.2536644598e-03 1.5197109279e+00 -2.6322165399e+00 1.5197109279e+00 2.6322165399e+00 
16400 5.1232667074e+00 3.2145994712e-03 1.5196038803e+00 -2.6320311281e+00 1.5196038803e+00 2.6320311281e+00 
16500 5.1232645455e+00 3.1760870462e-03 1.5194981106e+00 -2.6318479295e+00 1.5194981106e+00 2.6318479295e+00 
16600 5.1232624150e+00 3.1381365003e-03 1.5193936007e+00 -2.6316669131e+00 1.5193936007e+00 2.6316669131e+00 
16700 5.1232603152e+00 3.1007558357e-03 1.5192903325e+00 -2.6314880474e+00 1.5192903325e+00 2.6314880474e+00 
16800 5.1232582455e+00 3.0639517972e-03 1.5191882875e+00 -2.6313113002e+00 1.5191882875e+00 2.6313113002e+00 
16900 5.1232562054e+00 3.0277299282e-03 1.5190874468e+00 -2.6311366391e+00 1.5190874468e+00 2.6311366391e+00 
17000 5.1232541944e+00 2.9920946255e-03 1.5189877917e+00 -2.6309640313e+00 1.5189877917e+00 2.6309640313e+00 
17100 5.1232522119e+00 2.9570491928e-03 1.5188893030e+00 -2.6307934439e+00 1.5188893030e+00 2.6307934439e+00 
17200 5.1232502576e+00 2.9225958934e-03 1.5187919616e+00 -2.6306248436e+00 1.5187919616e+00 2.6306248436e+00 
17300 5.1232483309e+00 2.8887360020e-03 1.5186957481e+00 -2.6304581970e+00 1.5186957481e+00 2.6304581970e+00 
17400 5.1232464315e+00 2.8554698550e-03 1.5186006433e+00 -2.6302934706e+00 1.5186006433e+00 2.6302934706e+00 
17500 5.1232445590e+00 2.8227969001e-03 1.5185066278e+00 -2.6301306309e+00 1.5185066278e+00 2.6301306309e+00 
17600 5.1232427130e+00 2.7907157445e-03 1.5184136822e+00 -2.6299696446e+00 1.5184136822e+00 2.6299696446e+00 
17700 5.1232408930e+00 2.7592242021e-03 1.5183217874e+00 -2.6298104780e+00 1.5183217874e+00 2.6298104780e+00 
17800 5.1232390988e+00 2.7283193393e-03 1.5182309240e+00 -2.6296530981e+00 1.5182309240e+00 2.6296530981e+00 
17900 5.1232373300e+00 2.6979975198e-03 1.5181410730e+00 -2.6294974715e+00 1.5181410730e+00 2.6294974715e+00 
18000 5.1232355863e+00 2.6682544481e-03 1.5180522153e+00 -2.6293435654e+00 1.5180522153e+00 2.6293435654e+00 
18100 5.1232338673e+00 2.6390852121e-03 1.5179643320e+00 -2.6291913471e+00 1.5179643320e+00 2.6291913471e+00 
18200 5.1232321728e+00 2.6104843238e-03 1.5178774044e+00 -2.6290407840e+00 1.5178774044e+00 2.6290407840e+00 
18300 5.1232305024e+00 2.5824457594e-03 1.5177914139e+00 -2.6288918442e+00 1.5177914139e+00 2.6288918442e+00 
18400 5.1232288559e+00 2.5549629982e-03 1.5177063422e+00 -2.6287444957e+00 1.5177063422e+00 2.6287444957e+00 
18500 5.1232272328e+00 2.5280290596e-03 1.5176221712e+00 -2.6285987071e+00 1.5176221712e+00 2.6285987071e+00 
18600 5.1232256331e+00 2.5016365395e-03 1.5175388828e+00 -2.6284544474e+00 1.5175388828e+00 2.6284544474e+00 
18700 5.1232240563e+00 2.4757776456e-03 1.5174564594e+00 -2.6283116859e+00 1.5174564594e+00 2.6283116859e+00 
18800 5.1232225022e+00 2.4504442307e-03 1.5173748836e+00 -2.6281703924e+00 1.5173748836e+00 2.6281703924e+00 
18900 5.1232209705e+00 2.4256278256e-03 1.5172941381e+00 -2.6280305372e+00 1.5172941381e+00 2.6280305372e+00 
19000 5.1232194609e+00 2.4013196706e-03 1.5172142061e+00 -2.6278920910e+00 1.5172142061e+00 2.6278920910e+00 
19100 5.1232179732e+00 2.3775107453e-03 1.5171350710e+00 -2.6277550249e+00 1.5171350710e+00 2.6277550249e+00 
19200 5.1232165071e+00 2.3541917979e-03 1.5170567164e+00 -2.6276193107e+00 1.5170567164e+00 2.6276193107e+00 
19300 5.1232150624e+00 2.3313533733e-03 1.5169791263e+00 -2.6274849207e+00 1.5169791263e+00 2.6274849207e+00 
19400 5.1232136387e+00 2.3089858393e-03 1.5169022850e+00 -2.6273518277e+00 1.5169022850e+00 2.6273518277e+00 
19500 5.1232122358e+00 2.2870794126e-03 1.5168261770e+00 -2.6272200048e+00 1.5168261770e+00 2.6272200048e+00 
19600 5.1232108534e+00 2.2656241831e-03 1.5167507873e+00 -2.6270894261e+00 1.5167507873e+00 2.6270894261e+00 
19700 5.1232094913e+00 2.2446101377e-03 1.5166761012e+00 -2.6269600659e+00 1.5166761012e+00 2.6269600659e+00 
19800 5.1232081492e+00 2.2240271818e-03 1.5166021041e+00 -2.6268318992e+00 1.5166021041e+00 2.6268318992e+00 
19900 5.1232068268e+00 2.2038651615e-03 1.5165287820e+00 -2.6267049016e+00 1.5165287820e+00 2.6267049016e+00 
20000 5.1232055239e+00 2.1841138830e-03 1.5164561211e+00 -2.6265790492e+00 1.5164561211e+00 2.6265790492e+00 
20100 5.1232042402e+00 2.1647631326e-03 1.5163841079e+00 -2.6264543187e+00 1.5163841079e+00 2.6264543187e+00 
20200 5.1232029755e+00 2.1458026941e-03 1.5163127293e+00 -2.6263306874e+00 1.5163127293e+00 2.6263306874e+00 
20300 5.1232017294e+00 2.1272223668e-03 1.5162419726e+00 -2.6262081332e+00 1.5162419726e+00 2.6262081332e+00 
20400 5.1232005018e+00 2.1090119812e-03 1.5161718253e+00 -2.6260866345e+00 1.5161718253e+00 2.6260866345e+00 
20500 5.1231992924e+00 2.0911614148e-03 1.5161022753e+00 -2.6259661703e+00 1.5161022753e+00 2.6259661703e+00 
20600 5.1231981008e+00 2.0736606062e-03 1.5160333108e+00 -2.6258467202e+00 1.5160333108e+00 2.6258467202e+00 
20700 5.1231969269e+00 2.0564995690e-03 1.5159649203e+00 -2.6257282644e+00 1.5159649203e+00 2.6257282644e+00 
20800 5.1231957705e+00 2.0396684044e-03 1.5158970927e+00 -2.6256107836e+00 1.5158970927e+00 2.6256107836e+00 
20900 5.1231946311e+00 2.0231573129e-03 1.5158298173e+00 -2.6254942591e+00 1.5158298173e+00 2.6254942591e+00 
21000 5.1231935086e+00 2.0069566057e-03 1.5157630834e+00 -2.6253786728e+00 1.5157630834e+00 2.6253786728e+00 
21100 5.1231924028e+00 1.9910567150e-03 1.5156968811e+00 -2.6252640069e+00 1.5156968811e+00 2.6252640069e+00 
21200 5.1231913134e+00 1.9754482031e-03 1.5156312003e+00 -2.6251502445e+00 1.5156312003e+00 2.6251502445e+00 
21300 5.1231902401e+00 1.9601217717e-03 1.5155660316e+00 -2.6250373690e+00 1.5155660316e+00 2.6250373690e+00 
21400 5.1231891826e+00 1.9450682699e-03 1.5155013658e+00 -2.6249253644e+00 1.5155013658e+00 2.6249253644e+00 
21500 5.1231881408e+00 1.9302787013e-03 1.5154371938e+00 -2.6248142153e+00 1.5154371938e+00 2.6248142153e+00 
21600 5.1231871144e+00 1.9157442310e-03 1.5153735070e+00 -2.6247039066e+00 1.5153735070e+00 2.6247039066e+00 
21700 5.1231861032e+00 1.9014561918e-03 1.5153102972e+00 -2.6245944239e+00 1.5153102972e+00 2.6245944239e+00 
21800 5.1231851069e+00 1.8874060895e-03 1.5152475561e+00 -2.6244857533e+00 1.5152475561e+00 2.6244857533e+00 
21900 5.1231841252e+00 1.8735856077e-03 1.5151852761e+00 -2.6243778811e+00 1.5151852761e+00 2.6243778811e+00 
22000 5.1231831580e+00 1.8599866124e-03 1.5151234496e+00 -2.6242707944e+00 1.5151234496e+00 2.6242707944e+00 
22100 5.1231822050e+00 1.8466011556e-03 1.5150620693e+00 -2.6241644806e+00 1.5150620693e+00 2.6241644806e+00 
22200 5.1231812660e+00 1.8334214786e-03 1.5150011283e+00 -2.6240589277e+00 1.5150011283e+00 2.6240589277e+00 
22300 5.1231803408e+00 1.8204400148e-03 1.5149406198e+00 -2.6239541239e+00 1.5149406198e+00 2.6239541239e+00 
22400 5.1231794290e+00 1.8076493919e-03 1.5148805373e+00 -2.6238500579e+00 1.5148805373e+00 2.6238500579e+00 
22500 5.1231785306e+00 1.7950424337e-03 1.5148208746e+00 -2.6237467191e+00 1.5148208746e+00 2.6237467191e+00 
22600 5.1231776453e+00 1.7826121616e-03 1.5147616256e+00 -2.6236440969e+00 1.5147616256e+00 2.6236440969e+00 
22700 5.1231767729e+00 1.7703517954e-03 1.5147027847e+00 -2.6235421814e+00 1.5147027847e+00 2.6235421814e+00 
22800 5.1231759132e+00 1.7582547540e-03 1.5146443461e+00 -2.6234409629e+00 1.5146443461e+00 2.6234409629e+00 
22900 5.1231750659e+00 1.7463146556e-03 1.5145863046e+00 -2.6233404321e+00 1.5145863046e+00 2.6233404321e+00 
23000 5.1231742309e+00 1.7345253173e-03 1.5145286551e+00 -2.6232405802e+00 1.5145286551e+00 2.6232405802e+00 
23100 5.1231734079e+00 1.7228807551e-03 1.5144713926e+00 -2.6231413986e+00 1.5144713926e+00 2.6231413986e+00 
23200 5.1231725968e+00 1.7113751824e-03 1.5144145124e+00 -2.6230428791e+00 1.5144145124e+00 2.6230428791e+00 
23300 5.1231717974e+00 1.7000030095e-03 1.5143580099e+00 -2.6229450139e+00 1.5143580099e+00 2.6229450139e+00 
23400 5.1231710095e+00 1.6887588420e-03 1.5143018807e+00 -2.6228477954e+00 1.5143018807e+00 2.6228477954e+00 
23500 5.1231702329e+00 1.6776374789e-03 1.5142461207e+00 -2.6227512163e+00 1.5142461207e+00 2.6227512163e+00 
23600 5.1231694673e+00 1.6666339109e-03 1.5141907259e+00 -2.6226552697e+00 1.5141907259e+00 2.6226552697e+00 
23700 5.1231687128e+00 1.6557433185e-03 1.5141356925e+00 -2.6225599489e+00 1.5141356925e+00 2.6225599489e+00 
23800 5.1231679689e+00 1.6449610691e-03 1.5140810166e+00 -2.6224652475e+00 1.5140810166e+00 2.6224652475e+00 
23900 5.1231672357e+00 1.6342827149e-03 1.5140266948e+00 -2.6223711595e+00 1.5140266948e+00 2.6223711595e+00 
24000 5.1231665128e+00 1.6237039899e-03 1.5139727238e+00 -2.6222776788e+00 1.5139727238e+00 2.6222776788e+00 
24100 5.1231658002e+00 1.6132208072e-03 1.5139191001e+00 -2.6221847999e+00 1.5139191001e+00 2.6221847999e+00 
24200 5.1231650977e+00 1.6028292557e-03 1.5138658208e+00 -2.6220925175e+00 1.5138658208e+00 2.6220925175e+00 
24300 5.1231644051e+00 1.5925255971e-03 1.5138128828e+00 -2.6220008262e+00 1.5138128828e+00 2.6220008262e+00 
24400 5.1231637222e+00 1.5823062624e-03 1.5137602833e+00 -2.6219097212e+00 1.5137602833e+00 2.6219097212e+00 
24500 5.1231630490e+00 1.5721678487e-03 1.5137080195e+00 -2.6218191976e+00 1.5137080195e+00 2.6218191976e+00 
24600 5.1231623852e+00 1.5621071153e-03 1.5136560888e+00 -2.6217292510e+00 1.5136560888e+00 2.6217292510e+00 
24700 5.1231617307e+00 1.5521209802e-03 1.5136044886e+00 -2.6216398769e+00 1.5136044886e+00 2.6216398769e+00 
24800 5.1231610854e+00 1.5422065165e-03 1.5135532166e+00 -2.6215510711e+00 1.5135532166e+00 2.6215510711e+00 
24900 5.1231604490e+00 1.5323609484e-03 1.5135022703e+00 -2.6214628295e+00 1.5135022703e+00 2.6214628295e+00 
25000 5.1231598216e+00 1.5225816473e-03 1.5134516476e+00 -2.6213751484e+00 1.5134516476e+00 2.6213751484e+00 
25100 5.1231592029e+00 1.5128661284e-03 1.5134013462e+00 -2.6212880239e+00 1.5134013462e+00 2.6212880239e+00 
25200 5.1231585928e+00 1.5032120458e-03 1.5133513642e+00 -2.6212014525e+00 1.5133513642e+00 2.6212014525e+00 
25300 5.1231579912e+00 1.4936171893e-03 1.5133016994e+00 -2.6211154306e+00 1.5133016994e+00 2.6211154306e+00 
25400 5.1231573979e+00 1.4840794802e-03 1.5132523501e+00 -2.6210299550e+00 1.5132523501e+00 2.6210299550e+00 
25500 5.1231568128e+00 1.4745969671e-03 1.5132033143e+00 -2.6209450225e+00 1.5132033143e+00 2.6209450225e+00 
25600 5.1231562359e+00 1.4651678219e-03 1.5131545902e+00 -2.6208606299e+00 1.5131545902e+00 2.6208606299e+00 
25700 5.1231556669e+00 1.4557903359e-03 1.5131061761e+00 -2.6207767743e+00 1.5131061761e+00 2.6207767743e+00 
25800 5.1231551057e+00 1.4464629157e-03 1.5130580703e+00 -2.6206934526e+00 1.5130580703e+00 2.6206934526e+00 
25900 5.1231545523e+00 1.4371840791e-03 1.5130102713e+00 -2.6206106622e+00 1.5130102713e+00 2.6206106622e+00 
26000 5.1231540065e+00 1.4279524512e-03 1.5129627773e+00 -2.6205284003e+00 1.5129627773e+00 2.6205284003e+00 
26100 5.1231534682e+00 1.4187667604e-03 1.5129155870e+00 -2.6204466642e+00 1.5129155870e+00 2.6204466642e+00 
26200 5.1231529373e+00 1.4096258343e-03 1.5128686987e+00 -2.6203654513e+00 1.5128686987e+00 2.6203654513e+00 
26300 5.1231524137e+00 1.4005285962e-03 1.5128221111e+00 -2.6202847592e+00 1.5128221111e+00 2.6202847592e+00 
26400 5.1231518972e+00 1.3914740607e-03 1.5127758227e+00 -2.6202045854e+00 1.5127758227e+00 2.6202045854e+00 
26500 5.1231513879e+00 1.3824613303e-03 1.5127298322e+00 -2.6201249275e+00 1.5127298322e+00 2.6201249275e+00 
26600 5.1231508855e+00 1.3734895914e-03 1.5126841382e+00 -2.6200457831e+00 1.5126841382e+00 2.6200457831e+00 
26700 5.1231503900e+00 1.3645581107e-03 1.5126387393e+00 -2.6199671500e+00 1.5126387393e+00 2.6199671500e+00 
26800 5.1231499012e+00 1.3556662313e-03 1.5125936343e+00 -2.6198890259e+00 1.5125936343e+00 2.6198890259e+00 
26900 5.1231494192e+00 1.3468133696e-03 1.5125488219e+00 -2.6198114085e+00 1.5125488219e+00 2.6198114085e+00 
27000 5.1231489437e+00 1.3379990111e-03 1.5125043008e+00 -2.6197342957e+00 1.5125043008e+00 2.6197342957e+00 
27100 5.1231484747e+00 1.3292227076e-03 1.5124600698e+00 -2.6196576853e+00 1.5124600698e+00 2.6196576853e+00 
27200 5.1231480120e+00 1.3204840731e-03 1.5124161276e+00 -2.6195815752e+00 1.5124161276e+00 2.6195815752e+00 
27300 5.1231475557e+00 1.3117827810e-03 1.5123724730e+00 -2.6195059632e+00 1.5123724730e+00 2.6195059632e+00 
27400 5.1231471056e+00 1.3031185608e-03 1.5123291048e+00 -2.6194308473e+00 1.5123291048e+00 2.6194308473e+00 
27500 5.1231466617e+00 1.2944911946e-03 1.5122860219e+00 -2.6193562255e+00 1.5122860219e+00 2.6193562255e+00 
27600 5.1231462238e+00 1.2859005142e-03 1.5122432229e+00 -2.6192820955e+00 1.5122432229e+00 2.6192820955e+00 
27700 5.1231457918e+00 1.2773463981e-03 1.5122007068e+00 -2.6192084554e+00 1.5122007068e+00 2.6192084554e+00 
27800 5.1231453657e+00 1.2688287683e-03 1.5121584723e+00 -2.6191353031e+00 1.5121584723e+00 2.6191353031e+00 
27900 5.1231449454e+00 1.2603475879e-03 1.5121165183e+00 -2.6190626366e+00 1.5121165183e+00 2.6190626366e+00 
28000 5.1231445308e+00 1.2519028578e-03 1.5120748435e+00 -2.6189904538e+00 1.5120748435e+00 2.6189904538e+00 
28100 5.1231441218e+00 1.2434946144e-03 1.5120334469e+00 -2.6189187527e+00 1.5120334469e+00 2.6189187527e+00 
28200 5.1231437184e+00 1.2351229266e-03 1.5119923271e+00 -2.6188475312e+00 1.5119923271e+00 2.6188475312e+00 
28300 5.1231433204e+00 1.2267878935e-03 1.5119514831e+00 -2.6187767872e+00 1.5119514831e+00 2.6187767872e+00 
28400 5.1231429278e+00 1.2184896420e-03 1.5119109136e+00 -2.6187065188e+00 1.5119109136e+00 2.6187065188e+00 
28500 5.1231425406e+00 1.2102283241e-03 1.5118706174e+00 -2.6186367238e+00 1.5118706174e+00 2.6186367238e+00 
28600 5.1231421586e+00 1.2020041149e-03 1.5118305934e+00 -2.6185674001e+00 1.5118305934e+00 2.6185674001e+00 
28700 5.1231417818e+00 1.1938172104e-03 1.5117908403e+00 -2.6184985458e+00 1.5117908403e+00 2.6184985458e+00 
28800 5.1231414101e+00 1.1856678250e-03 1.5117513569e+00 -2.6184301586e+00 1.5117513569e+00 2.6184301586e+00 
28900 5.1231410435e+00 1.1775561899e-03 1.5117121420e+00 -2.6183622364e+00 1.5117121420e+00 2.6183622364e+00 
29000 5.1231406817e+00 1.1694825508e-03 1.5116731944e+00 -2.6182947772e+00 1.5116731944e+00 2.6182947772e+00 
29100 5.1231403249e+00 1.1614471662e-03 1.5116345129e+00 -2.6182277788e+00 1.5116345129e+00 2.6182277788e+00 
29200 5.1231399730e+00 1.1534503055e-03 1.5115960961e+00 -2.6181612390e+00 1.5115960961e+00 2.6181612390e+00 
29300 5.1231396258e+00 1.1454922473e-03 1.5115579429e+00 -2.6180951556e+00 1.5115579429e+00 2.6180951556e+00 
29400 5.1231392832e+00 1.1375732777e-03 1.5115200519e+00 -2.6180295266e+00 1.5115200519e+00 2.6180295266e+00 
29500 5.1231389454e+00 1.1296936887e-03 1.5114824220e+00 -2.6179643496e+00 1.5114824220e+00 2.6179643496e+00 
29600 5.1231386120e+00 1.1218537767e-03 1.5114450517e+00 -2.6178996224e+00 1.5114450517e+00 2.6178996224e+00 
29700 5.1231382832e+00 1.1140538412e-03 1.5114079399e+00 -2.6178353429e+00 1.5114079399e+00 2.6178353429e+00 
29800 5.1231379589e+00 1.1062941833e-03 1.5113710852e+00 -2.6177715087e+00 1.5113710852e+00 2.6177715087e+00 
29900 5.1231376389e+00 1.0985751043e-03 1.5113344864e+00 -2.6177081176e+00 1.5113344864e+00 2.6177081176e+00 
30000 5.1231373233e+00 1.0908969049e-03 1.5112981420e+00 -2.6176451673e+00 1.5112981420e+00 2.6176451673e+00 
30100 5.1231370119e+00 1.0832598834e-03 1.5112620507e+00 -2.6175826554e+00 1.5112620507e+00 2.6175826554e+00 
30200 5.1231367047e+00 1.0756643352e-03 1.5112262113e+00 -2.6175205797e+00 1.5112262113e+00 2.6175205797e+00 
30300 5.1231364017e+00 1.0681105515e-03 1.5111906223e+00 -2.6174589377e+00 1.5111906223e+00 2.6174589377e+00 
30400 5.1231361027e+00 1.0605988183e-03 1.5111552824e+00 -2.6173977273e+00 1.5111552824e+00 2.6173977273e+00 
30500 5.1231358078e+00 1.0531294158e-03 1.5111201902e+00 -2.6173369458e+00 1.5111201902e+00 2.6173369458e+00 
30600 5.1231355169e+00 1.0457026170e-03 1.5110853444e+00 -2.6172765910e+00 1.5110853444e+00 2.6172765910e+00 
30700 5.1231352299e+00 1.0383186877e-03 1.5110507435e+00 -2.6172166605e+00 1.5110507435e+00 2.6172166605e+00 
30800 5.1231349468e+00 1.0309778849e-03 1.5110163861e+00 -2.6171571518e+00 1.5110163861e+00 2.6171571518e+00 
30900 5.1231346675e+00 1.0236804569e-03 1.5109822708e+00 -2.6170980624e+00 1.5109822708e+00 2.6170980624e+00 
31000 5.1231343920e+00 1.0164266423e-03 1.5109483963e+00 -2.6170393900e+00 1.5109483963e+00 2.6170393900e+00 
31100 5.1231341201e+00 1.0092166693e-03 1.5109147610e+00 -2.6169811320e+00 1.5109147610e+00 2.6169811320e+00 
31200 5.1231338520e+00 1.0020507557e-03 1.5108813636e+00 -2.6169232860e+00 1.5108813636e+00 2.6169232860e+00 
31300 5.1231335875e+00 9.9492910795e-04 1.5108482026e+00 -2.6168658494e+00 1.5108482026e+00 2.6168658494e+00 
31400 5.1231333265e+00 9.8785192089e-04 1.5108152766e+00 -2.6168088198e+00 1.5108152766e+00 2.6168088198e+00 
31500 5.1231330690e+00 9.8081937748e-04 1.5107825840e+00 -2.6167521947e+00 1.5107825840e+00 2.6167521947e+00 
31600 5.1231328151e+00 9.7383164838e-04 1.5107501235e+00 -2.6166959714e+00 1.5107501235e+00 2.6166959714e+00 
31700 5.1231325645e+00 9.6688889165e-04 1.5107178935e+00 -2.6166401475e+00 1.5107178935e+00 2.6166401475e+00 
31800 5.1231323173e+00 9.5999125258e-04 1.5106858927e+00 -2.6165847203e+00 1.5106858927e+00 2.6165847203e+00 
31900 5.1231320734e+00 9.5313886341e-04 1.5106541194e+00 -2.6165296875e+00 1.5106541194e+00 2.6165296875e+00 
32000 5.1231318329e+00 9.4633184320e-04 1.5106225723e+00 -2.6164750463e+00 1.5106225723e+00 2.6164750463e+00 
32100 5.1231315955e+00 9.3957029769e-04 1.5105912498e+00 -2.6164207942e+00 1.5105912498e+00 2.6164207942e+00 
32200 5.1231313614e+00 9.3285431919e-04 1.5105601505e+00 -2.6163669286e+00 1.5105601505e+00 2.6163669286e+00 
32300 5.1231311304e+00 9.2618398655e-04 1.5105292729e+00 -2.6163134469e+00 1.5105292729e+00 2.6163134469e+00 
32400 5.1231309025e+00 9.1955936506e-04 1.5104986154e+00 -2.6162603466e+00 1.5104986154e+00 2.6162603466e+00 
32500 5.1231306777e+00 9.1298050651e-04 1.5104681765e+00 -2.6162076250e+00 1.5104681765e+00 2.6162076250e+00 
32600 5.1231304559e+00 9.0644744917e-04 1.5104379549e+00 -2.6161552795e+00 1.5104379549e+00 2.6161552795e+00 
32700 5.1231302371e+00 8.9996021784e-04 1.5104079488e+00 -2.6161033075e+00 1.5104079488e+00 2.6161033075e+00 
32800 5.1231300212e+00 8.9351882395e-04 1.5103781570e+00 -2.6160517065e+00 1.5103781570e+00 2.6160517065e+00 
32900 5.1231298083e+00 8.8712326563e-04 1.5103485778e+00 -2.6160004738e+00 1.5103485778e+00 2.6160004738e+00 
33000 5.1231295982e+00 8.8077352783e-04 1.5103192097e+00 -2.6159496068e+00 1.5103192097e+00 2.6159496068e+00 
33100 5.1231293909e+00 8.7446958249e-04 1.5102900513e+00 -2.6158991030e+00 1.5102900513e+00 2.6158991030e+00 
33200 5.1231291864e+00 8.6821138863e-04 1.5102611010e+00 -2.6158489596e+00 1.5102611010e+00 2.6158489596e+00 
33300 5.1231289846e+00 8.6199889263e-04 1.5102323573e+00 -2.6157991741e+00 1.5102323573e+00 2.6157991741e+00 
33400 5.1231287856e+00 8.5583202833e-04 1.5102038188e+00 -2.6157497439e+00 1.5102038188e+00 2.6157497439e+00 
33500 5.1231285892e+00 8.4971071729e-04 1.5101754839e+00 -2.6157006664e+00 1.5101754839e+00 2.6157006664e+00 
33600 5.1231283955e+00 8.4363486901e-04 1.5101473511e+00 -2.6156519391e+00 1.5101473511e+00 2.6156519391e+00 
33700 5.1231282043e+00 8.3760438115e-04 1.5101194190e+00 -2.6156035592e+00 1.5101194190e+00 2.6156035592e+00 
33800 5.1231280158e+00 8.3161913980e-04 1.5100916860e+00 -2.6155555243e+00 1.5100916860e+00 2.6155555243e+00 
33900 5.1231278297e+00 8.2567901976e-04 1.5100641507e+00 -2.6155078318e+00 1.5100641507e+00 2.6155078318e+00 
34000 5.1231276462e+00 8.1978388476e-04 1.5100368116e+00 -2.6154604790e+00 1.5100368116e+00 2.6154604790e+00 
34100 5.1231274651e+00 8.1393358778e-04 1.5100096672e+00 -2.6154134635e+00 1.5100096672e+00 2.6154134635e+00 
34200 5.1231272864e+00 8.0812797136e-04 1.5099827160e+00 -2.6153667827e+00 1.5099827160e+00 2.6153667827e+00 
34300 5.1231271102e+00 8.0236686785e-04 1.5099559566e+00 -2.6153204340e+00 1.5099559566e+00 2.6153204340e+00 
34400 5.1231269363e+00 7.9665009976e-04 1.5099293874e+00 -2.6152744149e+00 1.5099293874e+00 2.6152744149e+00 
34500 5.1231267647e+00 7.9097748002e-04 1.5099030072e+00 -2.6152287229e+00 1.5099030072e+00 2.6152287229e+00 
34600 5.1231265954e+00 7.8534881236e-04 1.5098768142e+00 -2.6151833554e+00 1.5098768142e+00 2.6151833554e+00 
34700 5.1231264284e+00 7.7976389159e-04 1.5098508073e+00 -2.6151383100e+00 1.5098508073e+00 2.6151383100e+00 
34800 5.1231262636e+00 7.7422250392e-04 1.5098249848e+00 -2.6150935842e+00 1.5098249848e+00 2.6150935842e+00 
34900 5.1231261011e+00 7.6872442731e-04 1.5097993454e+00 -2.6150491754e+00 1.5097993454e+00 2.6150491754e+00 
35000 5.1231259407e+00 7.6326943179e-04 1.5097738876e+00 -2.6150050813e+00 1.5097738876e+00 2.6150050813e+00 
35100 5.1231257825e+00 7.5785727976e-04 1.5097486101e+00 -2.6149612993e+00 1.5097486101e+00 2.6149612993e+00 
35200 5.1231256263e+00 7.5248772638e-04 1.5097235114e+00 -2.6149178271e+00 1.5097235114e+00 2.6149178271e+00 
35300 5.1231254723e+00 7.4716051985e-04 1.5096985901e+00 -2.6148746621e+00 1.5096985901e+00 2.6148746621e+00 
35400 5.1231253203e+00 7.4187540174e-04 1.5096738448e+00 -2.6148318020e+00 1.5096738448e+00 2.6148318020e+00 
35500 5.1231251704e+00 7.3663210736e-04 1.5096492741e+00 -2.6147892444e+00 1.5096492741e+00 2.6147892444e+00 
35600 5.1231250225e+00 7.3143036605e-04 1.5096248767e+00 -2.6147469869e+00 1.5096248767e+00 2.6147469869e+00 
35700 5.1231248765e+00 7.2626990150e-04 1.5096006512e+00 -2.6147050271e+00 1.5096006512e+00 2.6147050271e+00 
35800 5.1231247325e+00 7.2115043212e-04 1.5095765963e+00 -2.6146633626e+00 1.5095765963e+00 2.6146633626e+00 
35900 5.1231245904e+00 7.1607167128e-04 1.5095527105e+00 -2.6146219912e+00 1.5095527105e+00 2.6146219912e+00 
36000 5.1231244502e+00 7.1103332772e-04 1.5095289925e+00 -2.6145809105e+00 1.5095289925e+00 2.6145809105e+00 
36100 5.1231243119e+00 7.0603510577e-04 1.5095054411e+00 -2.6145401183e+00 1.5095054411e+00 2.6145401183e+00 
36200 5.1231241755e+00 7.0107670573e-04 1.5094820548e+00 -2.6144996121e+00 1.5094820548e+00 2.6144996121e+00 
36300 5.1231240408e+00 6.9615782413e-04 1.5094588325e+00 -2.6144593898e+00 1.5094588325e+00 2.6144593898e+00 
36400 5.1231239080e+00 6.9127815403e-04 1.5094357727e+00 -2.6144194490e+00 1.5094357727e+00 2.6144194490e+00 
36500 5.1231237769e+00 6.8643738534e-04 1.5094128742e+00 -2.6143797877e+00 1.5094128742e+00 2.6143797877e+00 
36600 5.1231236476e+00 6.8163520509e-04 1.5093901357e+00 -2.6143404034e+00 1.5093901357e+00 2.6143404034e+00 
36700 5.1231235200e+00 6.7687129770e-04 1.5093675559e+00 -2.6143012941e+00 1.5093675559e+00 2.6143012941e+00 
36800 5.1231233941e+00 6.7214534527e-04 1.5093451336e+00 -2.6142624576e+00 1.5093451336e+00 2.6142624576e+00 
36900 5.1231232699e+00 6.6745702786e-04 1.5093228676e+00 -2.6142238916e+00 1.5093228676e+00 2.6142238916e+00 
37000 5.1231231474e+00 6.6280602373e-04 1.5093007565e+00 -2.6141855941e+00 1.5093007565e+00 2.6141855941e+00 
37100 5.1231230265e+00 6.5819200962e-04 1.5092787991e+00 -2.6141475629e+00 1.5092787991e+00 2.6141475629e+00 
37200 5.1231229072e+00 6.5361466098e-04 1.5092569943e+00 -2.6141097959e+00 1.5092569943e+00 2.6141097959e+00 
37300 5.1231227895e+00 6.4907365222e-04 1.5092353409e+00 -2.6140722909e+00 1.5092353409e+00 2.6140722909e+00 
37400 5.1231226733e+00 6.4456865696e-04 1.5092138375e+00 -2.6140350461e+00 1.5092138375e+00 2.6140350461e+00 
37500 5.1231225588e+00 6.4009934825e-04 1.5091924831e+00 -2.6139980592e+00 1.5091924831e+00 2.6139980592e+00 
37600 5.1231224457e+00 6.3566539878e-04 1.5091712765e+00 -2.6139613282e+00 1.5091712765e+00 2.6139613282e+00 
37700 5.1231223342e+00 6.3126648113e-04 1.5091502164e+00 -2.6139248511e+00 1.5091502164e+00 2.6139248511e+00 
37800 5.1231222241e+00 6.2690226794e-04 1.5091293019e+00 -2.6138886260e+00 1.5091293019e+00 2.6138886260e+00 
37900 5.1231221155e+00 6.2257243215e-04 1.5091085316e+00 -2.6138526508e+00 1.5091085316e+00 2.6138526508e+00 
38000 5.1231220083e+00 6.1827664716e-04 1.5090879045e+00 -2.6138169236e+00 1.5090879045e+00 2.6138169236e+00 
38100 5.1231219026e+00 6.1401458705e-04 1.5090674194e+00 -2.6137814425e+00 1.5090674194e+00 2.6137814425e+00 
38200 5.1231217983e+00 6.0978592674e-04 1.5090470753e+00 -2.6137462054e+00 1.5090470753e+00 2.6137462054e+00 
38300 5.1231216954e+00 6.0559034215e-04 1.5090268710e+00 -2.6137112105e+00 1.5090268710e+00 2.6137112105e+00 
38400 5.1231215938e+00 6.0142751042e-04 1.5090068054e+00 -2.6136764560e+00 1.5090068054e+00 2.6136764560e+00 
38500 5.1231214936e+00 5.9729711000e-04 1.5089868776e+00 -2.6136419399e+00 1.5089868776e+00 2.6136419399e+00 
38600 5.1231213948e+00 5.9319882087e-04 1.5089670863e+00 -2.6136076604e+00 1.5089670863e+00 2.6136076604e+00 
38700 5.1231212972e+00 5.8913232463e-04 1.5089474305e+00 -2.6135736156e+00 1.5089474305e+00 2.6135736156e+00 
38800 5.1231212010e+00 5.8509730467e-04 1.5089279093e+00 -2.6135398038e+00 1.5089279093e+00 2.6135398038e+00 
38900 5.1231211060e+00 5.8109344629e-04 1.5089085215e+00 -2.6135062231e+00 1.5089085215e+00 2.6135062231e+00 
39000 5.1231210123e+00 5.7712043686e-04 1.5088892661e+00 -2.6134728718e+00 1.5088892661e+00 2.6134728718e+00 
39100 5.1231209199e+00 5.7317796585e-04 1.5088701421e+00 -2.6134397481e+00 1.5088701421e+00 2.6134397481e+00 
39200 5.1231208286e+00 5.6926572506e-04 1.5088511485e+00 -2.6134068503e+00 1.5088511485e+00 2.6134068503e+00 
39300 5.1231207386e+00 5.6538340863e-04 1.5088322844e+00 -2.6133741766e+00 1.5088322844e+00 2.6133741766e+00 
39400 5.1231206498e+00 5.6153071320e-04 1.5088135486e+00 -2.6133417253e+00 1.5088135486e+00 2.6133417253e+00 
39500 5.1231205622e+00 5.5770733796e-04 1.5087949403e+00 -2.6133094948e+00 1.5087949403e+00 2.6133094948e+00 
39600 5.1231204757e+00 5.5391298478e-04 1.5087764584e+00 -2.6132774833e+00 1.5087764584e+00 2.6132774833e+00 
39700 5.1231203904e+00 5.5014735824e-04 1.5087581021e+00 -2.6132456892e+00 1.5087581021e+00 2.6132456892e+00 
39800 5.1231203062e+00 5.4641016576e-04 1.5087398704e+00 -2.6132141109e+00 1.5087398704e+00 2.6132141109e+00 
39900 5.1231202232e+00 5.4270111763e-04 1.5087217622e+00 -2.6131827467e+00 1.5087217622e+00 2.6131827467e+00 
40000 5.1231201412e+00 5.3901992710e-04 1.5087037768e+00 -2.6131515950e+00 1.5087037768e+00 2.6131515950e+00 
40100 5.1231200603e+00 5.3536631043e-04 1.5086859132e+00 -2.6131206543e+00 1.5086859132e+00 2.6131206543e+00 
40200 5.1231199806e+00 5.3173998692e-04 1.5086681704e+00 -2.6130899229e+00 1.5086681704e+00 2.6130899229e+00 
40300 5.1231199018e+00 5.2814067901e-04 1.5086505476e+00 -2.6130593993e+00 1.5086505476e+00 2.6130593993e+00 
40400 5.1231198241e+00 5.2456811227e-04 1.5086330439e+00 -2.6130290820e+00 1.5086330439e+00 2.6130290820e+00 
40500 5.1231197475e+00 5.2102201549e-04 1.5086156584e+00 -2.6129989694e+00 1.5086156584e+00 2.6129989694e+00 
40600 5.1231196719e+00 5.1750212064e-04 1.5085983902e+00 -2.6129690600e+00 1.5085983902e+00 2.6129690600e+00 
40700 5.1231195972e+00 5.1400816301e-04 1.5085812385e+00 -2.6129393524e+00 1.5085812385e+00 2.6129393524e+00 
40800 5.1231195236e+00 5.1053988112e-04 1.5085642024e+00 -2.6129098450e+00 1.5085642024e+00 2.6129098450e+00 
40900 5.1231194510e+00 5.0709701681e-04 1.5085472810e+00 -2.6128805363e+00 1.5085472810e+00 2.6128805363e+00 
41000 5.1231193793e+00 5.0367931525e-04 1.5085304736e+00 -2.6128514250e+00 1.5085304736e+00 2.6128514250e+00 
41100 5.1231193085e+00 5.0028652492e-04 1.5085137792e+00 -2.6128225096e+00 1.5085137792e+00 2.6128225096e+00 
41200 5.1231192387e+00 4.9691839767e-04 1.5084971972e+00 -2.6127937886e+00 1.5084971972e+00 2.6127937886e+00 
41300 5.1231191699e+00 4.9357468866e-04 1.5084807266e+00 -2.6127652606e+00 1.5084807266e+00 2.6127652606e+00 
41400 5.1231191019e+00 4.9025515644e-04 1.5084643666e+00 -2.6127369244e+00 1.5084643666e+00 2.6127369244e+00 
41500 5.1231190349e+00 4.8695956287e-04 1.5084481165e+00 -2.6127087783e+00 1.5084481165e+00 2.6127087783e+00 
41600 5.1231189687e+00 4.8368767317e-04 1.5084319754e+00 -2.6126808212e+00 1.5084319754e+00 2.6126808212e+00 
41700 5.1231189034e+00 4.8043925589e-04 1.5084159427e+00 -2.6126530516e+00 1.5084159427e+00 2.6126530516e+00 
41800 5.1231188390e+00 4.7721408290e-04 1.5084000174e+00 -2.6126254683e+00 1.5084000174e+00 2.6126254683e+00 
41900 5.1231187754e+00 4.7401192938e-04 1.5083841989e+00 -2.6125980698e+00 1.5083841989e+00 2.6125980698e+00 
42000 5.1231187127e+00 4.7083257380e-04 1.5083684863e+00 -2.6125708549e+00 1.5083684863e+00 2.6125708549e+00 
42100 5.1231186508e+00 4.6767579792e-04 1.5083528790e+00 -2.6125438222e+00 1.5083528790e+00 2.6125438222e+00 
42200 5.1231185898e+00 4.6454138672e-04 1.5083373762e+00 -2.6125169705e+00 1.5083373762e+00 2.6125169705e+00 
42300 5.1231185295e+00 4.6142912843e-04 1.5083219771e+00 -2.6124902985e+00 1.5083219771e+00 2.6124902985e+00 
42400 5.1231184701e+00 4.5833881448e-04 1.5083066810e+00 -2.6124638049e+00 1.5083066810e+00 2.6124638049e+00 
42500 5.1231184114e+00 4.5527023948e-04 1.5082914872e+00 -2.6124374885e+00 1.5082914872e+00 2.6124374885e+00 
42600 5.1231183535e+00 4.5222320115e-04 1.5082763950e+00 -2.6124113480e+00 1.5082763950e+00 2.6124113480e+00 
42700 5.1231182964e+00 4.4919750038e-04 1.5082614036e+00 -2.6123853822e+00 1.5082614036e+00 2.6123853822e+00 
42800 5.1231182400e+00 4.4619294108e-04 1.5082465124e+00 -2.6123595898e+00 1.5082465124e+00 2.6123595898e+00 
42900 5.1231181844e+00 4.4320933024e-04 1.5082317207e+00 -2.6123339698e+00 1.5082317207e+00 2.6123339698e+00 
43000 5.1231181296e+00 4.4024647785e-04 1.5082170277e+00 -2.6123085208e+00 1.5082170277e+00 2.6123085208e+00 
43100 5.1231180754e+00 4.3730419686e-04 1.5082024328e+00 -2.6122832416e+00 1.5082024328e+00 2.6122832416e+00 
43200 5.1231180220e+00 4.3438230317e-04 1.5081879353e+00 -2.6122581312e+00 1.5081879353e+00 2.6122581312e+00 
43300 5.1231179693e+00 4.3148061554e-04 1.5081735345e+00 -2.6122331883e+00 1.5081735345e+00 2.6122331883e+00 
43400 5.1231179173e+00 4.2859895561e-04 1.5081592298e+00 -2.6122084118e+00 1.5081592298e+00 2.6122084118e+00 
43500 5.1231178659e+00 4.2573714781e-04 1.5081450204e+00 -2.6121838006e+00 1.5081450204e+00 2.6121838006e+00 
43600 5.1231178153e+00 4.2289501934e-04 1.5081309059e+00 -2.6121593534e+00 1.5081309059e+00 2.6121593534e+00 
43700 5.1231177653e+00 4.2007240012e-04 1.5081168854e+00 -2.6121350692e+00 1.5081168854e+00 2.6121350692e+00 
43800 5.1231177160e+00 4.1726912273e-04 1.5081029584e+00 -2.6121109469e+00 1.5081029584e+00 2.6121109469e+00 
43900 5.1231176673e+00 4.1448502242e-04 1.5080891241e+00 -2.6120869853e+00 1.5080891241e+00 2.6120869853e+00 
44000 5.1231176193e+00 4.1171993698e-04 1.5080753821e+00 -2.6120631834e+00 1.5080753821e+00 2.6120631834e+00 
44100 5.1231175719e+00 4.0897370676e-04 1.5080617316e+00 -2.6120395401e+00 1.5080617316e+00 2.6120395401e+00 
44200 5.1231175252e+00 4.0624617460e-04 1.5080481720e+00 -2.6120160542e+00 1.5080481720e+00 2.6120160542e+00 
44300 5.1231174791e+00 4.0353718580e-04 1.5080347028e+00 -2.6119927248e+00 1.5080347028e+00 2.6119927248e+00 
44400 5.1231174335e+00 4.0084658804e-04 1.5080213232e+00 -2.6119695508e+00 1.5080213232e+00 2.6119695508e+00 
44500 5.1231173886e+00 3.9817423136e-04 1.5080080328e+00 -2.6119465310e+00 1.5080080328e+00 2.6119465310e+00 
44600 5.1231173443e+00 3.9551996810e-04 1.5079948308e+00 -2.6119236645e+00 1.5079948308e+00 2.6119236645e+00 
44700 5.1231173006e+00 3.9288365288e-04 1.5079817167e+00 -2.6119009503e+00 1.5079817167e+00 2.6119009503e+00 
44800 5.1231172574e+00 3.9026514250e-04 1.5079686899e+00 -2.6118783872e+00 1.5079686899e+00 2.6118783872e+00 
44900 5.1231172148e+00 3.8766429594e-04 1.5079557499e+00 -2.6118559743e+00 1.5079557499e+00 2.6118559743e+00 
45000 5.1231171728e+00 3.8508097431e-04 1.5079428959e+00 -2.6118337106e+00 1.5079428959e+00 2.6118337106e+00 
45100 5.1231171314e+00 3.8251504077e-04 1.5079301275e+00 -2.6118115951e+00 1.5079301275e+00 2.6118115951e+00 
45200 5.1231170904e+00 3.7996636052e-04 1.5079174441e+00 -2.6117896268e+00 1.5079174441e+00 2.6117896268e+00 
45300 5.1231170501e+00 3.7743480074e-04 1.5079048451e+00 -2.6117678046e+00 1.5079048451e+00 2.6117678046e+00 
45400 5.1231170102e+00 3.7492023054e-04 1.5078923299e+00 -2.6117461277e+00 1.5078923299e+00 2.6117461277e+00 
45500 5.1231169709e+00 3.7242252091e-04 1.5078798980e+00 -2.6117245950e+00 1.5078798980e+00 2.6117245950e+00 
45600 5.1231169321e+00 3.6994154469e-04 1.5078675488e+00 -2.6117032055e+00 1.5078675488e+00 2.6117032055e+00 
45700 5.1231168939e+00 3.6747717654e-04 1.5078552817e+00 -2.6116819584e+00 1.5078552817e+00 2.6116819584e+00 
45800 5.1231168561e+00 3.6502929285e-04 1.5078430963e+00 -2.6116608527e+00 1.5078430963e+00 2.6116608527e+00 
45900 5.1231168188e+00 3.6259777173e-04 1.5078309920e+00 -2.6116398874e+00 1.5078309920e+00 2.6116398874e+00 
46000 5.1231167821e+00 3.6018249297e-04 1.5078189682e+00 -2.6116190615e+00 1.5078189682e+00 2.6116190615e+00 
46100 5.1231167458e+00 3.5778333798e-04 1.5078070244e+00 -2.6115983742e+00 1.5078070244e+00 2.6115983742e+00 
46200 5.1231167100e+00 3.5540018977e-04 1.5077951600e+00 -2.6115778246e+00 1.5077951600e+00 2.6115778246e+00 
46300 5.1231166746e+00 3.5303293287e-04 1.5077833746e+00 -2.6115574116e+00 1.5077833746e+00 2.6115574116e+00 
46400 5.1231166398e+00 3.5068145334e-04 1.5077716676e+00 -2.6115371345e+00 1.5077716676e+00 2.6115371345e+00 
46500 5.1231166054e+00 3.4834563870e-04 1.5077600385e+00 -2.6115169923e+00 1.5077600385e+00 2.6115169923e+00 
46600 5.1231165714e+00 3.4602537791e-04 1.5077484868e+00 -2.6114969841e+00 1.5077484868e+00 2.6114969841e+00 
46700 5.1231165379e+00 3.4372056129e-04 1.5077370119e+00 -2.6114771090e+00 1.5077370119e+00 2.6114771090e+00 
46800 5.1231165049e+00 3.4143108055e-04 1.5077256133e+00 -2.6114573661e+00 1.5077256133e+00 2.6114573661e+00 
46900 5.1231164723e+00 3.3915682869e-04 1.5077142906e+00 -2.6114377546e+00 1.5077142906e+00 2.6114377546e+00 
47000 5.1231164401e+00 3.3689770000e-04 1.5077030432e+00 -2.6114182736e+00 1.5077030432e+00 2.6114182736e+00 
47100 5.1231164083e+00 3.3465359003e-04 1.5076918707e+00 -2.6113989222e+00 1.5076918707e+00 2.6113989222e+00 
47200 5.1231163770e+00 3.3242439552e-04 1.5076807725e+00 -2.6113796996e+00 1.5076807725e+00 2.6113796996e+00 
47300 5.1231163461e+00 3.3021001439e-04 1.5076697482e+00 -2.6113606049e+00 1.5076697482e+00 2.6113606049e+00 
47400 5.1231163156e+00 3.2801034573e-04 1.5076587972e+00 -2.6113416372e+00 1.5076587972e+00 2.6113416372e+00 
47500 5.1231162854e+00 3.2582528972e-04 1.5076479191e+00 -2.6113227957e+00 1.5076479191e+00 2.6113227957e+00 
47600 5.1231162557e+00 3.2365474763e-04 1.5076371133e+00 -2.6113040796e+00 1.5076371133e+00 2.6113040796e+00 
47700 5.1231162264e+00 3.2149862178e-04 1.5076263795e+00 -2.6112854881e+00 1.5076263795e+00 2.6112854881e+00 
47800 5.1231161975e+00 3.1935681553e-04 1.5076157171e+00 -2.6112670203e+00 1.5076157171e+00 2.6112670203e+00 
47900 5.1231161689e+00 3.1722923322e-04 1.5076051257e+00 -2.6112486754e+00 1.5076051257e+00 2.6112486754e+00 
48000 5.1231161408e+00 3.1511578015e-04 1.5075946047e+00 -2.6112304526e+00 1.5075946047e+00 2.6112304526e+00 
48100 5.1231161130e+00 3.1301636258e-04 1.5075841538e+00 -2.6112123510e+00 1.5075841538e+00 2.6112123510e+00 
48200 5.1231160855e+00 3.1093088766e-04 1.5075737724e+00 -2.6111943699e+00 1.5075737724e+00 2.6111943699e+00 
48300 5.1231160585e+00 3.0885926345e-04 1.5075634601e+00 -2.6111765085e+00 1.5075634601e+00 2.6111765085e+00 
48400 5.1231160318e+00 3.0680139887e-04 1.5075532165e+00 -2.6111587660e+00 1.5075532165e+00 2.6111587660e+00 
48500 5.1231160054e+00 3.0475720366e-04 1.5075430410e+00 -2.6111411416e+00 1.5075430410e+00 2.6111411416e+00 
48600 5.1231159794e+00 3.0272658839e-04 1.5075329333e+00 -2.6111236345e+00 1.5075329333e+00 2.6111236345e+00 
48700 5.1231159538e+00 3.0070946444e-04 1.5075228928e+00 -2.6111062439e+00 1.5075228928e+00 2.6111062439e+00 
48800 5.1231159284e+00 2.9870574392e-04 1.5075129192e+00 -2.6110889691e+00 1.5075129192e+00 2.6110889691e+00 
48900 5.1231159034e+00 2.9671533973e-04 1.5075030120e+00 -2.6110718093e+00 1.5075030120e+00 2.6110718093e+00 
49000 5.1231158788e+00 2.9473816549e-04 1.5074931707e+00 -2.6110547637e+00 1.5074931707e+00 2.6110547637e+00 
49100 5.1231158545e+00 2.9277413552e-04 1.5074833949e+00 -2.6110378316e+00 1.5074833949e+00 2.6110378316e+00 
49200 5.1231158304e+00 2.9082316484e-04 1.5074736842e+00 -2.6110210122e+00 1.5074736842e+00 2.6110210122e+00 
49300 5.1231158068e+00 2.8888516914e-04 1.5074640382e+00 -2.6110043048e+00 1.5074640382e+00 2.6110043048e+00 
49400 5.1231157834e+00 2.8696006478e-04 1.5074544564e+00 -2.6109877086e+00 1.5074544564e+00 2.6109877086e+00 
49500 5.1231157603e+00 2.8504776873e-04 1.5074449384e+00 -2.6109712229e+00 1.5074449384e+00 2.6109712229e+00 
49600 5.1231157375e+00 2.8314819861e-04 1.5074354837e+00 -2.6109548469e+00 1.5074354837e+00 2.6109548469e+00 
49700 5.1231157151e+00 2.8126127265e-04 1.5074260920e+00 -2.6109385800e+00 1.5074260920e+00 2.6109385800e+00 
49800 5.1231156929e+00 2.7938690965e-04 1.5074167628e+00 -2.6109224214e+00 1.5074167628e+00 2.6109224214e+00 
49900 5.1231156710e+00 2.7752502900e-04 1.5074074958e+00 -2.6109063704e+00 1.5074074958e+00 2.6109063704e+00 
50000 5.1231156495e+00 2.7567555065e-04 1.5073982904e+00 -2.6108904262e+00 1.5073982904e+00 2.6108904262e+00 
50100 5.1231156282e+00 2.7383839512e-04 1.5073891463e+00 -2.6108745882e+00 1.5073891463e+00 2.6108745882e+00 
50200 5.1231156071e+00 2.7201348345e-04 1.5073800631e+00 -2.6108588557e+00 1.5073800631e+00 2.6108588557e+00 
50300 5.1231155864e+00 2.7020073721e-04 1.5073710404e+00 -2.6108432279e+00 1.5073710404e+00 2.6108432279e+00 
50400 5.1231155659e+00 2.6840007848e-04 1.5073620778e+00 -2.6108277041e+00 1.5073620778e+00 2.6108277041e+00 
50500 5.1231155457e+00 2.6661142985e-04 1.5073531748e+00 -2.6108122837e+00 1.5073531748e+00 2.6108122837e+00 
50600 5.1231155258e+00 2.6483471442e-04 1.5073443311e+00 -2.6107969660e+00 1.5073443311e+00 2.6107969660e+00 
50700 5.1231155062e+00 2.6306985574e-04 1.5073355463e+00 -2.6107817503e+00 1.5073355463e+00 2.6107817503e+00 
50800 5.1231154867e+00 2.6131677786e-04 1.5073268200e+00 -2.6107666359e+00 1.5073268200e+00 2.6107666359e+00 
50900 5.1231154676e+00 2.5957540529e-04 1.5073181518e+00 -2.6107516221e+00 1.5073181518e+00 2.6107516221e+00 
51000 5.1231154487e+00 2.5784566299e-04 1.5073095413e+00 -2.6107367083e+00 1.5073095413e+00 2.6107367083e+00 
51100 5.1231154301e+00 2.5612747637e-04 1.5073009881e+00 -2.6107218937e+00 1.5073009881e+00 2.6107218937e+00 
51200 5.1231154117e+00 2.5442077129e-04 1.5072924919e+00 -2.6107071779e+00 1.5072924919e+00 2.6107071779e+00 
51300 5.1231153935e+00 2.5272547403e-04 1.5072840523e+00 -2.6106925600e+00 1.5072840523e+00 2.6106925600e+00 
51400 5.1231153756e+00 2.5104151130e-04 1.5072756688e+00 -2.6106780394e+00 1.5072756688e+00 2.6106780394e+00 
51500 5.1231153579e+00 2.4936881025e-04 1.5072673411e+00 -2.6106636155e+00 1.5072673411e+00 2.6106636155e+00 
51600 5.1231153405e+00 2.4770729840e-04 1.5072590689e+00 -2.6106492876e+00 1.5072590689e+00 2.6106492876e+00 
51700 5.1231153233e+00 2.4605690373e-04 1.5072508518e+00 -2.6106350551e+00 1.5072508518e+00 2.6106350551e+00 
51800 5.1231153063e+00 2.4441755458e-04 1.5072426894e+00 -2.6106209173e+00 1.5072426894e+00 2.6106209173e+00 
51900 5.1231152895e+00 2.4278917971e-04 1.5072345813e+00 -2.6106068737e+00 1.5072345813e+00 2.6106068737e+00 
52000 5.1231152730e+00 2.4117170827e-04 1.5072265272e+00 -2.6105929235e+00 1.5072265272e+00 2.6105929235e+00 
52100 5.1231152566e+00 2.3956506979e-04 1.5072185266e+00 -2.6105790663e+00 1.5072185266e+00 2.6105790663e+00 
52200 5.1231152405e+00 2.3796919419e-04 1.5072105794e+00 -2.6105653012e+00 1.5072105794e+00 2.6105653012e+00 
52300 5.1231152246e+00 2.3638401176e-04 1.5072026850e+00 -2.6105516278e+00 1.5072026850e+00 2.6105516278e+00 
52400 5.1231152090e+00 2.3480945319e-04 1.5071948432e+00 -2.6105380454e+00 1.5071948432e+00 2.6105380454e+00 
52500 5.1231151935e+00 2.3324544952e-04 1.5071870536e+00 -2.6105245534e+00 1.5071870536e+00 2.6105245534e+00 
52600 5.1231151782e+00 2.3169193216e-04 1.5071793159e+00 -2.6105111512e+00 1.5071793159e+00 2.6105111512e+00 
52700 5.1231151631e+00 2.3014883289e-04 1.5071716296e+00 -2.6104978382e+00 1.5071716296e+00 2.6104978382e+00 
52800 5.1231151483e+00 2.2861608388e-04 1.5071639945e+00 -2.6104846138e+00 1.5071639945e+00 2.6104846138e+00 
52900 5.1231151336e+00 2.2709361761e-04 1.5071564102e+00 -2.6104714774e+00 1.5071564102e+00 2.6104714774e+00 
53000 5.1231151191e+00 2.2558136696e-04 1.5071488763e+00 -2.6104584284e+00 1.5071488763e+00 2.6104584284e+00 
53100 5.1231151048e+00 2.2407926514e-04 1.5071413926e+00 -2.6104454662e+00 1.5071413926e+00 2.6104454662e+00 
53200 5.1231150907e+00 2.2258724575e-04 1.5071339587e+00 -2.6104325903e+00 1.5071339587e+00 2.6104325903e+00 
53300 5.1231150768e+00 2.2110524270e-04 1.5071265743e+00 -2.6104198001e+00 1.5071265743e+00 2.6104198001e+00 
53400 5.1231150631e+00 2.1963319027e-04 1.5071192389e+00 -2.6104070949e+00 1.5071192389e+00 2.6104070949e+00 
53500 5.1231150495e+00 2.1817102310e-04 1.5071119524e+00 -2.6103944743e+00 1.5071119524e+00 2.6103944743e+00 
53600 5.1231150361e+00 2.1671867617e-04 1.5071047144e+00 -2.6103819376e+00 1.5071047144e+00 2.6103819376e+00 
53700 5.1231150230e+00 2.1527608479e-04 1.5070975245e+00 -2.6103694844e+00 1.5070975245e+00 2.6103694844e+00 
53800 5.1231150099e+00 2.1384318465e-04 1.5070903824e+00 -2.6103571140e+00 1.5070903824e+00 2.6103571140e+00 
53900 5.1231149971e+00 2.1241991174e-04 1.5070832879e+00 -2.6103448258e+00 1.5070832879e+00 2.6103448258e+00 
54000 5.1231149844e+00 2.1100620245e-04 1.5070762405e+00 -2.6103326194e+00 1.5070762405e+00 2.6103326194e+00 
54100 5.1231149719e+00 2.0960199345e-04 1.5070692400e+00 -2.6103204941e+00 1.5070692400e+00 2.6103204941e+00 
54200 5.1231149595e+00 2.0820722181e-04 1.5070622860e+00 -2.6103084495e+00 1.5070622860e+00 2.6103084495e+00 
54300 5.1231149474e+00 2.0682182490e-04 1.5070553783e+00 -2.6102964850e+00 1.5070553783e+00 2.6102964850e+00 
54400 5.1231149353e+00 2.0544574045e-04 1.5070485165e+00 -2.6102846001e+00 1.5070485165e+00 2.6102846001e+00 
54500 5.1231149235e+00 2.0407890652e-04 1.5070417004e+00 -2.6102727942e+00 1.5070417004e+00 2.6102727942e+00 
54600 5.1231149118e+00 2.0272126153e-04 1.5070349295e+00 -2.6102610667e+00 1.5070349295e+00 2.6102610667e+00 
54700 5.1231149002e+00 2.0137274421e-04 1.5070282037e+00 -2.6102494172e+00 1.5070282037e+00 2.6102494172e+00 
54800 5.1231148888e+00 2.0003329364e-04 1.5070215226e+00 -2.6102378452e+00 1.5070215226e+00 2.6102378452e+00 
54900 5.1231148776e+00 1.9870284926e-04 1.5070148859e+00 -2.6102263501e+00 1.5070148859e+00 2.6102263501e+00 
55000 5.1231148665e+00 1.9738135082e-04 1.5070082933e+00 -2.6102149314e+00 1.5070082933e+00 2.6102149314e+00 
55100 5.1231148555e+00 1.9606873842e-04 1.5070017445e+00 -2.6102035886e+00 1.5070017445e+00 2.6102035886e+00 
55200 5.1231148447e+00 1.9476495249e-04 1.5069952393e+00 -2.6101923211e+00 1.5069952393e+00 2.6101923211e+00 
55300 5.1231148340e+00 1.9346993381e-04 1.5069887772e+00 -2.6101811286e+00 1.5069887772e+00 2.6101811286e+00 
55400 5.1231148235e+00 1.9218362350e-04 1.5069823581e+00 -2.6101700104e+00 1.5069823581e+00 2.6101700104e+00 
55500 5.1231148131e+00 1.9090596299e-04 1.5069759817e+00 -2.6101589661e+00 1.5069759817e+00 2.6101589661e+00 
55600 5.1231148029e+00 1.8963689407e-04 1.5069696476e+00 -2.6101479952e+00 1.5069696476e+00 2.6101479952e+00 
55700 5.1231147928e+00 1.8837635887e-04 1.5069633556e+00 -2.6101370971e+00 1.5069633556e+00 2.6101370971e+00 
55800 5.1231147828e+00 1.8712429984e-04 1.5069571055e+00 -2.6101262715e+00 1.5069571055e+00 2.6101262715e+00 
55900 5.1231147729e+00 1.8588065977e-04 1.5069508968e+00 -2.6101155177e+00 1.5069508968e+00 2.6101155177e+00 
56000 5.1231147632e+00 1.8464538181e-04 1.5069447293e+00 -2.6101048354e+00 1.5069447293e+00 2.6101048354e+00 
56100 5.1231147536e+00 1.8341840940e-04 1.5069386029e+00 -2.6100942240e+00 1.5069386029e+00 2.6100942240e+00 
56200 5.1231147442e+00 1.8219968637e-04 1.5069325171e+00 -2.6100836831e+00 1.5069325171e+00 2.6100836831e+00 
56300 5.1231147348e+00 1.8098915684e-04 1.5069264717e+00 -2.6100732122e+00 1.5069264717e+00 2.6100732122e+00 
56400 5.1231147256e+00 1.7978676528e-04 1.5069204665e+00 -2.6100628109e+00 1.5069204665e+00 2.6100628109e+00 
56500 5.1231147165e+00 1.7859245652e-04 1.5069145011e+00 -2.6100524785e+00 1.5069145011e+00 2.6100524785e+00 
56600 5.1231147075e+00 1.7740617568e-04 1.5069085753e+00 -2.6100422148e+00 1.5069085753e+00 2.6100422148e+00 
56700 5.1231146987e+00 1.7622786825e-04 1.5069026889e+00 -2.6100320192e+00 1.5069026889e+00 2.6100320192e+00 
56800 5.1231146899e+00 1.7505748003e-04 1.5068968416e+00 -2.6100218913e+00 1.5068968416e+00 2.6100218913e+00 
56900 5.1231146813e+00 1.7389495718e-04 1.5068910330e+00 -2.6100118306e+00 1.5068910330e+00 2.6100118306e+00 
57000 5.1231146728e+00 1.7274024617e-04 1.5068852630e+00 -2.6100018367e+00 1.5068852630e+00 2.6100018367e+00 
57100 5.1231146644e+00 1.7159329382e-04 1.5068795313e+00 -2.6099919091e+00 1.5068795313e+00 2.6099919091e+00 
57200 5.1231146561e+00 1.7045404726e-04 1.5068738377e+00 -2.6099820474e+00 1.5068738377e+00 2.6099820474e+00 
57300 5.1231146479e+00 1.6932245398e-04 1.5068681818e+00 -2.6099722512e+00 1.5068681818e+00 2.6099722512e+00 
57400 5.1231146399e+00 1.6819846177e-04 1.5068625634e+00 -2.6099625199e+00 1.5068625634e+00 2.6099625199e+00 
57500 5.1231146319e+00 1.6708201879e-04 1.5068569824e+00 -2.6099528532e+00 1.5068569824e+00 2.6099528532e+00 
57600 5.1231146241e+00 1.6597307350e-04 1.5068514383e+00 -2.6099432506e+00 1.5068514383e+00 2.6099432506e+00 
57700 5.1231146163e+00 1.6487157470e-04 1.5068459310e+00 -2.6099337117e+00 1.5068459310e+00 2.6099337117e+00 
57800 5.1231146086e+00 1.6377747151e-04 1.5068404603e+00 -2.6099242361e+00 1.5068404603e+00 2.6099242361e+00 
57900 5.1231146011e+00 1.6269071339e-04 1.5068350258e+00 -2.6099148233e+00 1.5068350258e+00 2.6099148233e+00 
58000 5.1231145936e+00 1.6161125014e-04 1.5068296274e+00 -2.6099054730e+00 1.5068296274e+00 2.6099054730e+00 
58100 5.1231145863e+00 1.6053903185e-04 1.5068242648e+00 -2.6098961847e+00 1.5068242648e+00 2.6098961847e+00 
58200 5.1231145790e+00 1.5947400897e-04 1.5068189377e+00 -2.6098869579e+00 1.5068189377e+00 2.6098869579e+00 
58300 5.1231145719e+00 1.5841613225e-04 1.5068136460e+00 -2.6098777924e+00 1.5068136460e+00 2.6098777924e+00 
58400 5.1231145648e+00 1.5736535280e-04 1.5068083893e+00 -2.6098686876e+00 1.5068083893e+00 2.6098686876e+00 
58500 5.1231145578e+00 1.5632162201e-04 1.5068031675e+00 -2.6098596431e+00 1.5068031675e+00 2.6098596431e+00 
58600 5.1231145510e+00 1.5528489162e-04 1.5067979803e+00 -2.6098506586e+00 1.5067979803e+00 2.6098506586e+00 
58700 5.1231145442e+00 1.5425511368e-04 1.5067928275e+00 -2.6098417337e+00 1.5067928275e+00 2.6098417337e+00 
58800 5.1231145375e+00 1.5323224058e-04 1.5067877089e+00 -2.6098328680e+00 1.5067877089e+00 2.6098328680e+00 
58900 5.1231145308e+00 1.5221622500e-04 1.5067826241e+00 -2.6098240609e+00 1.5067826241e+00 2.6098240609e+00 
59000 5.1231145243e+00 1.5120701997e-04 1.5067775731e+00 -2.6098153123e+00 1.5067775731e+00 2.6098153123e+00 
59100 5.1231145179e+00 1.5020457880e-04 1.5067725555e+00 -2.6098066216e+00 1.5067725555e+00 2.6098066216e+00 
59200 5.1231145115e+00 1.4920885516e-04 1.5067675712e+00 -2.6097979886e+00 1.5067675712e+00 2.6097979886e+00 
59300 5.1231145053e+00 1.4821980300e-04 1.5067626199e+00 -2.6097894127e+00 1.5067626199e+00 2.6097894127e+00 
59400 5.1231144991e+00 1.4723737659e-04 1.5067577015e+00 -2.6097808936e+00 1.5067577015e+00 2.6097808936e+00 
59500 5.1231144930e+00 1.4626153053e-04 1.5067528156e+00 -2.6097724310e+00 1.5067528156e+00 2.6097724310e+00 
59600 5.1231144869e+00 1.4529221972e-04 1.5067479620e+00 -2.6097640244e+00 1.5067479620e+00 2.6097640244e+00 
59700 5.1231144810e+00 1.4432939937e-04 1.5067431406e+00 -2.6097556735e+00 1.5067431406e+00 2.6097556735e+00 
59800 5.1231144751e+00 1.4337302500e-04 1.5067383512e+00 -2.6097473780e+00 1.5067383512e+00 2.6097473780e+00 
59900 5.1231144693e+00 1.4242305242e-04 1.5067335935e+00 -2.6097391374e+00 1.5067335935e+00 2.6097391374e+00 
60000 5.1231144636e+00 1.4147943779e-04 1.5067288673e+00 -2.6097309513e+00 1.5067288673e+00 2.6097309513e+00 
60100 5.1231144580e+00 1.4054213752e-04 1.5067241723e+00 -2.6097228195e+00 1.5067241723e+00 2.6097228195e+00 
60200 5.1231144524e+00 1.3961110836e-04 1.5067195085e+00 -2.6097147415e+00 1.5067195085e+00 2.6097147415e+00 
60300 5.1231144469e+00 1.3868630736e-04 1.5067148756e+00 -2.6097067170e+00 1.5067148756e+00 2.6097067170e+00 
60400 5.1231144415e+00 1.3776769185e-04 1.5067102733e+00 -2.6096987456e+00 1.5067102733e+00 2.6096987456e+00 
60500 5.1231144362e+00 1.3685521947e-04 1.5067057015e+00 -2.6096908270e+00 1.5067057015e+00 2.6096908270e+00 
60600 5.1231144309e+00 1.3594884816e-04 1.5067011599e+00 -2.6096829609e+00 1.5067011599e+00 2.6096829609e+00 
60700 5.1231144257e+00 1.3504853615e-04 1.5066966485e+00 -2.6096751468e+00 1.5066966485e+00 2.6096751468e+00 
60800 5.1231144205e+00 1.3415424196e-04 1.5066921669e+00 -2.6096673844e+00 1.5066921669e+00 2.6096673844e+00 
60900 5.1231144155e+00 1.3326592442e-04 1.5066877149e+00 -2.6096596734e+00 1.5066877149e+00 2.6096596734e+00 
61000 5.1231144105e+00 1.3238354263e-04 1.5066832924e+00 -2.6096520134e+00 1.5066832924e+00 2.6096520134e+00 
61100 5.1231144055e+00 1.3150705599e-04 1.5066788992e+00 -2.6096444042e+00 1.5066788992e+00 2.6096444042e+00 
61200 5.1231144007e+00 1.3063642418e-04 1.5066745351e+00 -2.6096368453e+00 1.5066745351e+00 2.6096368453e+00 
61300 5.1231143959e+00 1.2977160718e-04 1.5066701998e+00 -2.6096293364e+00 1.5066701998e+00 2.6096293364e+00 
61400 5.1231143911e+00 1.2891256523e-04 1.5066658933e+00 -2.6096218772e+00 1.5066658933e+00 2.6096218772e+00 
61500 5.1231143864e+00 1.2805925888e-04 1.5066616152e+00 -2.6096144674e+00 1.5066616152e+00 2.6096144674e+00 
61600 5.1231143818e+00 1.2721164893e-04 1.5066573654e+00 -2.6096071065e+00 1.5066573654e+00 2.6096071065e+00 
61700 5.1231143773e+00 1.2636969649e-04 1.5066531438e+00 -2.6095997944e+00 1.5066531438e+00 2.6095997944e+00 
61800 5.1231143728e+00 1.2553336292e-04 1.5066489501e+00 -2.6095925307e+00 1.5066489501e+00 2.6095925307e+00 
61900 5.1231143683e+00 1.2470260987e-04 1.5066447841e+00 -2.6095853150e+00 1.5066447841e+00 2.6095853150e+00 
62000 5.1231143639e+00 1.2387739926e-04 1.5066406457e+00 -2.6095781471e+00 1.5066406457e+00 2.6095781471e+00 
62100 5.1231143596e+00 1.2305769329e-04 1.5066365346e+00 -2.6095710265e+00 1.5066365346e+00 2.6095710265e+00 
62200 5.1231143553e+00 1.2224345442e-04 1.5066324508e+00 -2.6095639531e+00 1.5066324508e+00 2.6095639531e+00 
62300 5.1231143511e+00 1.2143464536e-04 1.5066283939e+00 -2.6095569264e+00 1.5066283939e+00 2.6095569264e+00 
62400 5.1231143470e+00 1.2063122913e-04 1.5066243639e+00 -2.6095499462e+00 1.5066243639e+00 2.6095499462e+00 
62500 5.1231143429e+00 1.1983316898e-04 1.5066203606e+00 -2.6095430122e+00 1.5066203606e+00 2.6095430122e+00 
62600 5.1231143388e+00 1.1904042843e-04 1.5066163837e+00 -2.6095361241e+00 1.5066163837e+00 2.6095361241e+00 
62700 5.1231143348e+00 1.1825297127e-04 1.5066124331e+00 -2.6095292814e+00 1.5066124331e+00 2.6095292814e+00 
62800 5.1231143309e+00 1.1747076154e-04 1.5066085086e+00 -2.6095224841e+00 1.5066085086e+00 2.6095224841e+00 
62900 5.1231143270e+00 1.1669376354e-04 1.5066046101e+00 -2.6095157316e+00 1.5066046101e+00 2.6095157316e+00 
63000 5.1231143232e+00 1.1592194182e-04 1.5066007374e+00 -2.6095090239e+00 1.5066007374e+00 2.6095090239e+00 
63100 5.1231143194e+00 1.1515526119e-04 1.5065968902e+00 -2.6095023604e+00 1.5065968902e+00 2.6095023604e+00 
63200 5.1231143157e+00 1.1439368672e-04 1.5065930685e+00 -2.6094957410e+00 1.5065930685e+00 2.6094957410e+00 
63300 5.1231143120e+00 1.1363718371e-04 1.5065892721e+00 -2.6094891654e+00 1.5065892721e+00 2.6094891654e+00 
63400 5.1231143083e+00 1.1288571772e-04 1.5065855008e+00 -2.6094826333e+00 1.5065855008e+00 2.6094826333e+00 
63500 5.1231143047e+00 1.1213925455e-04 1.5065817544e+00 -2.6094761443e+00 1.5065817544e+00 2.6094761443e+00 
63600 5.1231143012e+00 1.1139776026e-04 1.5065780327e+00 -2.6094696982e+00 1.5065780327e+00 2.6094696982e+00 
63700 5.1231142977e+00 1.1066120114e-04 1.5065743357e+00 -2.6094632948e+00 1.5065743357e+00 2.6094632948e+00 
63800 5.1231142942e+00 1.0992954371e-04 1.5065706631e+00 -2.6094569336e+00 1.5065706631e+00 2.6094569336e+00 
63900 5.1231142908e+00 1.0920275475e-04 1.5065670147e+00 -2.6094506145e+00 1.5065670147e+00 2.6094506145e+00 
64000 5.1231142875e+00 1.0848080127e-04 1.5065633905e+00 -2.6094443372e+00 1.5065633905e+00 2.6094443372e+00 
64100 5.1231142842e+00 1.0776365051e-04 1.5065597902e+00 -2.6094381013e+00 1.5065597902e+00 2.6094381013e+00 
64200 5.1231142809e+00 1.0705126994e-04 1.5065562138e+00 -2.6094319067e+00 1.5065562138e+00 2.6094319067e+00 
64300 5.1231142777e+00 1.0634362729e-04 1.5065526609e+00 -2.6094257530e+00 1.5065526609e+00 2.6094257530e+00 
64400 5.1231142745e+00 1.0564069048e-04 1.5065491315e+00 -2.6094196399e+00 1.5065491315e+00 2.6094196399e+00 
64500 5.1231142713e+00 1.0494242768e-04 1.5065456255e+00 -2.6094135673e+00 1.5065456255e+00 2.6094135673e+00 
64600 5.1231142682e+00 1.0424880729e-04 1.5065421426e+00 -2.6094075348e+00 1.5065421426e+00 2.6094075348e+00 
64700 5.1231142652e+00 1.0355979793e-04 1.5065386827e+00 -2.6094015421e+00 1.5065386827e+00 2.6094015421e+00 
64800 5.1231142621e+00 1.0287536844e-04 1.5065352457e+00 -2.6093955890e+00 1.5065352457e+00 2.6093955890e+00 
64900 5.1231142592e+00 1.0219548787e-04 1.5065318314e+00 -2.6093896753e+00 1.5065318314e+00 2.6093896753e+00 
65000 5.1231142562e+00 1.0152012553e-04 1.5065284397e+00 -2.6093838006e+00 1.5065284397e+00 2.6093838006e+00 
65100 5.1231142533e+00 1.0084925090e-04 1.5065250703e+00 -2.6093779647e+00 1.5065250703e+00 2.6093779647e+00 
65200 5.1231142505e+00 1.0018283370e-04 1.5065217233e+00 -2.6093721674e+00 1.5065217233e+00 2.6093721674e+00 
65300 5.1231142476e+00 9.9520843862e-05 1.5065183983e+00 -2.6093664084e+00 1.5065183983e+00 2.6093664084e+00 
65400 5.1231142448e+00 9.8863251533e-05 1.5065150953e+00 -2.6093606874e+00 1.5065150953e+00 2.6093606874e+00 
65500 5.1231142421e+00 9.8210027069e-05 1.5065118141e+00 -2.6093550042e+00 1.5065118141e+00 2.6093550042e+00 
65600 5.1231142394e+00 9.7561141031e-05 1.5065085546e+00 -2.6093493586e+00 1.5065085546e+00 2.6093493586e+00 
65700 5.1231142367e+00 9.6916564194e-05 1.5065053166e+00 -2.6093437502e+00 1.5065053166e+00 2.6093437502e+00 
65800 5.1231142340e+00 9.6276267535e-05 1.5065021000e+00 -2.6093381789e+00 1.5065021000e+00 2.6093381789e+00 
65900 5.1231142314e+00 9.5640222238e-05 1.5064989046e+00 -2.6093326444e+00 1.5064989046e+00 2.6093326444e+00 
66000 5.1231142289e+00 9.5008399690e-05 1.5064957304e+00 -2.6093271464e+00 1.5064957304e+00 2.6093271464e+00 
66100 5.1231142263e+00 9.4380771476e-05 1.5064925771e+00 -2.6093216848e+00 1.5064925771e+00 2.6093216848e+00 
66200 5.1231142238e+00 9.3757309387e-05 1.5064894446e+00 -2.6093162592e+00 1.5064894446e+00 2.6093162592e+00 
66300 5.1231142213e+00 9.3137985404e-05 1.5064863329e+00 -2.6093108694e+00 1.5064863329e+00 2.6093108694e+00 
66400 5.1231142189e+00 9.2522771712e-05 1.5064832416e+00 -2.6093055152e+00 1.5064832416e+00 2.6093055152e+00 
66500 5.1231142165e+00 9.1911640686e-05 1.5064801708e+00 -2.6093001964e+00 1.5064801708e+00 2.6093001964e+00 
66600 5.1231142141e+00 9.1304564899e-05 1.5064771203e+00 -2.6092949127e+00 1.5064771203e+00 2.6092949127e+00 
66700 5.1231142117e+00 9.0701517111e-05 1.5064740899e+00 -2.6092896639e+00 1.5064740899e+00 2.6092896639e+00 
66800 5.1231142094e+00 9.0102470276e-05 1.5064710795e+00 -2.6092844498e+00 1.5064710795e+00 2.6092844498e+00 
66900 5.1231142071e+00 8.9507397535e-05 1.5064680890e+00 -2.6092792701e+00 1.5064680890e+00 2.6092792701e+00 
67000 5.1231142049e+00 8.8916272220e-05 1.5064651182e+00 -2.6092741245e+00 1.5064651182e+00 2.6092741245e+00 
67100 5.1231142027e+00 8.8329067843e-05 1.5064621670e+00 -2.6092690130e+00 1.5064621670e+00 2.6092690130e+00 
67200 5.1231142005e+00 8.7745758105e-05 1.5064592354e+00 -2.6092639352e+00 1.5064592354e+00 2.6092639352e+00 
67300 5.1231141983e+00 8.7166316890e-05 1.5064563230e+00 -2.6092588909e+00 1.5064563230e+00 2.6092588909e+00 
67400 5.1231141961e+00 8.6590718261e-05 1.5064534300e+00 -2.6092538799e+00 1.5064534300e+00 2.6092538799e+00 
67500 5.1231141940e+00 8.6018936464e-05 1.5064505560e+00 -2.6092489020e+00 1.5064505560e+00 2.6092489020e+00 
67600 5.1231141920e+00 8.5450945921e-05 1.5064477009e+00 -2.6092439570e+00 1.5064477009e+00 2.6092439570e+00 
67700 5.1231141899e+00 8.4886721234e-05 1.5064448648e+00 -2.6092390446e+00 1.5064448648e+00 2.6092390446e+00 
67800 5.1231141879e+00 8.4326237180e-05 1.5064420473e+00 -2.6092341646e+00 1.5064420473e+00 2.6092341646e+00 
67900 5.1231141859e+00 8.3769468710e-05 1.5064392485e+00 -2.6092293169e+00 1.5064392485e+00 2.6092293169e+00 
68000 5.1231141839e+00 8.3216390949e-05 1.5064364681e+00 -2.6092245011e+00 1.5064364681e+00 2.6092245011e+00 
68100 5.1231141819e+00 8.2666979196e-05 1.5064337061e+00 -2.6092197171e+00 1.5064337061e+00 2.6092197171e+00 
68200 5.1231141800e+00 8.2121208913e-05 1.5064309623e+00 -2.6092149647e+00 1.5064309623e+00 2.6092149647e+00 
68300 5.1231141781e+00 8.1579055741e-05 1.5064282366e+00 -2.6092102437e+00 1.5064282366e+00 2.6092102437e+00 
68400 5.1231141762e+00 8.1040495486e-05 1.5064255289e+00 -2.6092055538e+00 1.5064255289e+00 2.6092055538e+00 
68500 5.1231141744e+00 8.0505504116e-05 1.5064228391e+00 -2.6092008949e+00 1.5064228391e+00 2.6092008949e+00 
68600 5.1231141726e+00 7.9974057768e-05 1.5064201670e+00 -2.6091962668e+00 1.5064201670e+00 2.6091962668e+00 
68700 5.1231141708e+00 7.9446132744e-05 1.5064175125e+00 -2.6091916691e+00 1.5064175125e+00 2.6091916691e+00 
68800 5.1231141690e+00 7.8921705507e-05 1.5064148756e+00 -2.6091871018e+00 1.5064148756e+00 2.6091871018e+00 
68900 5.1231141672e+00 7.8400752684e-05 1.5064122561e+00 -2.6091825647e+00 1.5064122561e+00 2.6091825647e+00 
69000 5.1231141655e+00 7.7883251060e-05 1.5064096539e+00 -2.6091780575e+00 1.5064096539e+00 2.6091780575e+00 
69100 5.1231141638e+00 7.7369177579e-05 1.5064070688e+00 -2.6091735800e+00 1.5064070688e+00 2.6091735800e+00 
69200 5.1231141621e+00 7.6858509344e-05 1.5064045008e+00 -2.6091691321e+00 1.5064045008e+00 2.6091691321e+00 
69300 5.1231141604e+00 7.6351223616e-05 1.5064019497e+00 -2.6091647136e+00 1.5064019497e+00 2.6091647136e+00 
69400 5.1231141588e+00 7.5847297809e-05 1.5063994155e+00 -2.6091603242e+00 1.5063994155e+00 2.6091603242e+00 
69500 5.1231141572e+00 7.5346709493e-05 1.5063968980e+00 -2.6091559637e+00 1.5063968980e+00 2.6091559637e+00 
69600 5.1231141556e+00 7.4849436393e-05 1.5063943971e+00 -2.6091516321e+00 1.5063943971e+00 2.6091516321e+00 
69700 5.1231141540e+00 7.4355456381e-05 1.5063919127e+00 -2.6091473290e+00 1.5063919127e+00 2.6091473290e+00 
69800 5.1231141525e+00 7.3864747485e-05 1.5063894447e+00 -2.6091430543e+00 1.5063894447e+00 2.6091430543e+00 
69900 5.1231141509e+00 7.3377287879e-05 1.5063869930e+00 -2.6091388078e+00 1.5063869930e+00 2.6091388078e+00 
70000 5.1231141494e+00 7.2893055889e-05 1.5063845575e+00 -2.6091345893e+00 1.5063845575e+00 2.6091345893e+00 
70100 5.1231141479e+00 7.2412029986e-05 1.5063821380e+00 -2.6091303987e+00 1.5063821380e+00 2.6091303987e+00 
70200 5.1231141464e+00 7.1934188789e-05 1.5063797345e+00 -2.6091262357e+00 1.5063797345e+00 2.6091262357e+00 
70300 5.1231141450e+00 7.1459511064e-05 1.5063773469e+00 -2.6091221001e+00 1.5063773469e+00 2.6091221001e+00 
70400 5.1231141435e+00 7.0987975719e-05 1.5063749750e+00 -2.6091179919e+00 1.5063749750e+00 2.6091179919e+00 
70500 5.1231141421e+00 7.0519561803e-05 1.5063726187e+00 -2.6091139107e+00 1.5063726187e+00 2.6091139107e+00 
70600 5.1231141409e+00 7.1607918362e-05 1.5063726187e+00 -2.6091139107e+00 1.5063726187e+00 2.6091139107e+00 
70700 5.1231141396e+00 7.1115007683e-05 1.5063702419e+00 -2.6091097939e+00 1.5063702419e+00 2.6091097939e+00 
70800 5.1231141382e+00 7.0625857498e-05 1.5063678814e+00 -2.6091057055e+00 1.5063678814e+00 2.6091057055e+00 
70900 5.1231141371e+00 7.1696413808e-05 1.5063678814e+00 -2.6091057055e+00 1.5063678814e+00 2.6091057055e+00 
71000 5.1231141357e+00 7.1183907217e-05 1.5063655016e+00 -2.6091015836e+00 1.5063655016e+00 2.6091015836e+00 
71100 5.1231141344e+00 7.0675712130e-05 1.5063631389e+00 -2.6090974911e+00 1.5063631389e+00 2.6090974911e+00 
71200 5.1231141333e+00 7.1728833601e-05 1.5063631389e+00 -2.6090974911e+00 1.5063631389e+00 2.6090974911e+00 
71300 5.1231141321e+00 7.1198285777e-05 1.5063607580e+00 -2.6090933674e+00 1.5063607580e+00 2.6090933674e+00 
71400 5.1231141308e+00 7.0672526338e-05 1.5063583947e+00 -2.6090892741e+00 1.5063583947e+00 2.6090892741e+00 
71500 5.1231141298e+00 7.1708455824e-05 1.5063583947e+00 -2.6090892741e+00 1.5063583947e+00 2.6090892741e+00 
71600 5.1231141285e+00 7.1161235195e-05 1.5063560145e+00 -2.6090851515e+00 1.5063560145e+00 2.6090851515e+00 
71700 5.1231141273e+00 7.0619217883e-05 1.5063536525e+00 -2.6090810603e+00 1.5063536525e+00 2.6090810603e+00 
71800 5.1231141263e+00 7.1638100100e-05 1.5063536525e+00 -2.6090810603e+00 1.5063536525e+00 2.6090810603e+00 
71900 5.1231141251e+00 7.1075422463e-05 1.5063512747e+00 -2.6090769417e+00 1.5063512747e+00 2.6090769417e+00 
72000 5.1231141239e+00 7.0518311721e-05 1.5063489155e+00 -2.6090728555e+00 1.5063489155e+00 2.6090728555e+00 
72100 5.1231141230e+00 7.1520215041e-05 1.5063489155e+00 -2.6090728555e+00 1.5063489155e+00 2.6090728555e+00 
72200 5.1231141219e+00 7.0943172694e-05 1.5063465415e+00 -2.6090687437e+00 1.5063465415e+00 2.6090687437e+00 
72300 5.1231141207e+00 7.0372018562e-05 1.5063441867e+00 -2.6090646650e+00 1.5063441867e+00 2.6090646650e+00 
72400 5.1231141198e+00 7.1356954307e-05 1.5063441867e+00 -2.6090646650e+00 1.5063441867e+00 2.6090646650e+00 
72500 5.1231141187e+00 7.0766541005e-05 1.5063418181e+00 -2.6090605626e+00 1.5063418181e+00 2.6090605626e+00 
72600 5.1231141176e+00 7.0182302754e-05 1.5063394692e+00 -2.6090564941e+00 1.5063394692e+00 2.6090564941e+00 
72700 5.1231141168e+00 7.1150242091e-05 1.5063394692e+00 -2.6090564941e+00 1.5063394692e+00 2.6090564941e+00 
72800 5.1231141157e+00 7.0547374231e-05 1.5063371075e+00 -2.6090524035e+00 1.5063371075e+00 2.6090524035e+00 
72900 5.1231141149e+00 7.1505131742e-05 1.5063371075e+00 -2.6090524035e+00 1.5063371075e+00 2.6090524035e+00 
73000 5.1231141138e+00 7.0884287149e-05 1.5063347340e+00 -2.6090482925e+00 1.5063347340e+00 2.6090482925e+00 
73100 5.1231141128e+00 7.0270262888e-05 1.5063323812e+00 -2.6090442172e+00 1.5063323812e+00 2.6090442172e+00 
73200 5.1231141120e+00 7.1210960318e-05 1.5063323812e+00 -2.6090442172e+00 1.5063323812e+00 2.6090442172e+00 
73300 5.1231141110e+00 7.0579497541e-05 1.5063300174e+00 -2.6090401232e+00 1.5063300174e+00 2.6090401232e+00 
73400 5.1231141102e+00 7.1509937097e-05 1.5063300174e+00 -2.6090401232e+00 1.5063300174e+00 2.6090401232e+00 
73500 5.1231141092e+00 7.0861640567e-05 1.5063276438e+00 -2.6090360119e+00 1.5063276438e+00 2.6090360119e+00 
73600 5.1231141083e+00 7.0220717925e-05 1.5063252917e+00 -2.6090319379e+00 1.5063252917e+00 2.6090319379e+00 
73700 5.1231141075e+00 7.1133948015e-05 1.5063252917e+00 -2.6090319379e+00 1.5063252917e+00 2.6090319379e+00 
73800 5.1231141066e+00 7.0476673453e-05 1.5063229305e+00 -2.6090278482e+00 1.5063229305e+00 2.6090278482e+00 
73900 5.1231141059e+00 7.1379532068e-05 1.5063229305e+00 -2.6090278482e+00 1.5063229305e+00 2.6090278482e+00 
74000 5.1231141049e+00 7.0706481629e-05 1.5063205611e+00 -2.6090237444e+00 1.5063205611e+00 2.6090237444e+00 
74100 5.1231141042e+00 7.1598949924e-05 1.5063205611e+00 -2.6090237444e+00 1.5063205611e+00 2.6090237444e+00 
74200 5.1231141033e+00 7.0910674161e-05 1.5063181845e+00 -2.6090196280e+00 1.5063181845e+00 2.6090196280e+00 
74300 5.1231141024e+00 7.0230573604e-05 1.5063158308e+00 -2.6090155511e+00 1.5063158308e+00 2.6090155511e+00 
74400 5.1231141018e+00 7.1105603981e-05 1.5063158308e+00 -2.6090155511e+00 1.5063158308e+00 2.6090155511e+00 
74500 5.1231141009e+00 7.0410696799e-05 1.5063134705e+00 -2.6090114630e+00 1.5063134705e+00 2.6090114630e+00 
74600 5.1231141002e+00 7.1275197669e-05 1.5063134705e+00 -2.6090114630e+00 1.5063134705e+00 2.6090114630e+00 
74700 5.1231140994e+00 7.0566028439e-05 1.5063111046e+00 -2.6090073652e+00 1.5063111046e+00 2.6090073652e+00 
74800 5.1231140988e+00 7.1419983288e-05 1.5063111046e+00 -2.6090073652e+00 1.5063111046e+00 2.6090073652e+00 
74900 5.1231140979e+00 7.0697078059e-05 1.5063087339e+00 -2.6090032591e+00 1.5063087339e+00 2.6090032591e+00 
75000 5.1231140973e+00 7.1540464679e-05 1.5063087339e+00 -2.6090032591e+00 1.5063087339e+00 2.6090032591e+00 
75100 5.1231140965e+00 7.0804333871e-05 1.5063063592e+00 -2.6089991460e+00 1.5063063592e+00 2.6089991460e+00 
75200 5.1231140957e+00 7.0077346750e-05 1.5063040090e+00 -2.6089950752e+00 1.5063040090e+00 2.6089950752e+00 
75300 5.1231140951e+00 7.0903041570e-05 1.5063040090e+00 -2.6089950752e+00 1.5063040090e+00 2.6089950752e+00 
75400 5.1231140943e+00 7.0163203298e-05 1.5063016554e+00 -2.6089909987e+00 1.5063016554e+00 2.6089909987e+00 
75500 5.1231140937e+00 7.0978215921e-05 1.5063016554e+00 -2.6089909987e+00 1.5063016554e+00 2.6089909987e+00 
75600 5.1231140930e+00 7.0226049517e-05 1.5062992994e+00 -2.6089869180e+00 1.5062992994e+00 2.6089869180e+00 
75700 5.1231140924e+00 7.1030384308e-05 1.5062992994e+00 -2.6089869180e+00 1.5062992994e+00 2.6089869180e+00 
75800 5.1231140917e+00 7.0266399605e-05 1.5062969416e+00 -2.6089828342e+00 1.5062969416e+00 2.6089828342e+00 
75900 5.1231140911e+00 7.1060060140e-05 1.5062969416e+00 -2.6089828342e+00 1.5062969416e+00 2.6089828342e+00 
76000 5.1231140904e+00 7.0284755630e-05 1.5062945829e+00 -2.6089787487e+00 1.5062945829e+00 2.6089787487e+00 
76100 5.1231140899e+00 7.1067746146e-05 1.5062945829e+00 -2.6089787487e+00 1.5062945829e+00 2.6089787487e+00 
76200 5.1231140892e+00 7.0281610577e-05 1.5062922238e+00 -2.6089746627e+00 1.5062922238e+00 2.6089746627e+00 
76300 5.1231140887e+00 7.1053937241e-05 1.5062922238e+00 -2.6089746627e+00 1.5062922238e+00 2.6089746627e+00 
76400 5.1231140879e+00 7.0257450970e-05 1.5062898653e+00 -2.6089705776e+00 1.5062898653e+00 2.6089705776e+00 
76500 5.1231140875e+00 7.1019122976e-05 1.5062898653e+00 -2.6089705776e+00 1.5062898653e+00 2.6089705776e+00 
76600 5.1231140868e+00 7.0212759104e-05 1.5062875078e+00 -2.6089664944e+00 1.5062875078e+00 2.6089664944e+00 
76700 5.1231140863e+00 7.0963789608e-05 1.5062875078e+00 -2.6089664944e+00 1.5062875078e+00 2.6089664944e+00 
76800 5.1231140856e+00 7.0148014912e-05 1.5062851523e+00 -2.6089624144e+00 1.5062851523e+00 2.6089624144e+00 
76900 5.1231140852e+00 7.0888421819e-05 1.5062851523e+00 -2.6089624144e+00 1.5062851523e+00 2.6089624144e+00 
77000 5.1231140845e+00 7.0063697503e-05 1.5062827992e+00 -2.6089583387e+00 1.5062827992e+00 2.6089583387e+00 
77100 5.1231140840e+00 7.0793504116e-05 1.5062827992e+00 -2.6089583387e+00 1.5062827992e+00 2.6089583387e+00 
77200 5.1231140834e+00 6.9960286399e-05 1.5062804492e+00 -2.6089542685e+00 1.5062804492e+00 2.6089542685e+00 
77300 5.1231140830e+00 7.0679521940e-05 1.5062804492e+00 -2.6089542685e+00 1.5062804492e+00 2.6089542685e+00 
77400 5.1231140825e+00 7.1395238548e-05 1.5062804492e+00 -2.6089542685e+00 1.5062804492e+00 2.6089542685e+00 
77500 5.1231140819e+00 7.0534762592e-05 1.5062780793e+00 -2.6089501637e+00 1.5062780793e+00 2.6089501637e+00 
77600 5.1231140815e+00 7.1240027934e-05 1.5062780793e+00 -2.6089501637e+00 1.5062780793e+00 2.6089501637e+00 
77700 5.1231140809e+00 7.0372525445e-05 1.5062757145e+00 -2.6089460678e+00 1.5062757145e+00 2.6089460678e+00 
77800 5.1231140805e+00 7.1067353012e-05 1.5062757145e+00 -2.6089460678e+00 1.5062757145e+00 2.6089460678e+00 
77900 5.1231140799e+00 7.0193226804e-05 1.5062733555e+00 -2.6089419818e+00 1.5062733555e+00 2.6089419818e+00 
78000 5.1231140795e+00 7.0877640456e-05 1.5062733555e+00 -2.6089419818e+00 1.5062733555e+00 2.6089419818e+00 
78100 5.1231140789e+00 6.9997294276e-05 1.5062710028e+00 -2.6089379067e+00 1.5062710028e+00 2.6089379067e+00 
78200 5.1231140785e+00 7.0671328124e-05 1.5062710028e+00 -2.6089379067e+00 1.5062710028e+00 2.6089379067e+00 
78300 5.1231140781e+00 7.1341942357e-05 1.5062710028e+00 -2.6089379067e+00 1.5062710028e+00 2.6089379067e+00 
78400 5.1231140775e+00 7.0437658126e-05 1.5062686346e+00 -2.6089338050e+00 1.5062686346e+00 2.6089338050e+00 
78500 5.1231140772e+00 7.1098026488e-05 1.5062686346e+00 -2.6089338050e+00 1.5062686346e+00 2.6089338050e+00 
78600 5.1231140766e+00 7.0188878515e-05 1.5062662745e+00 -2.6089297172e+00 1.5062662745e+00 2.6089297172e+00 
78700 5.1231140763e+00 7.0839027694e-05 1.5062662745e+00 -2.6089297172e+00 1.5062662745e+00 2.6089297172e+00 
78800 5.1231140757e+00 6.9925380865e-05 1.5062639230e+00 -2.6089256443e+00 1.5062639230e+00 2.6089256443e+00 
78900 5.1231140754e+00 7.0565350329e-05 1.5062639230e+00 -2.6089256443e+00 1.5062639230e+00 2.6089256443e+00 
79000 5.1231140750e+00 7.1202000915e-05 1.5062639230e+00 -2.6089256443e+00 1.5062639230e+00 2.6089256443e+00 
79100 5.1231140745e+00 7.0266951363e-05 1.5062615595e+00 -2.6089215506e+00 1.5062615595e+00 2.6089215506e+00 
79200 5.1231140742e+00 7.0893568007e-05 1.5062615595e+00 -2.6089215506e+00 1.5062615595e+00 2.6089215506e+00 
79300 5.1231140736e+00 6.9955290592e-05 1.5062592062e+00 -2.6089174745e+00 1.5062592062e+00 2.6089174745e+00 
79400 5.1231140733e+00 7.0571910097e-05 1.5062592062e+00 -2.6089174745e+00 1.5062592062e+00 2.6089174745e+00 
79500 5.1231140730e+00 7.1185302213e-05 1.5062592062e+00 -2.6089174745e+00 1.5062592062e+00 2.6089174745e+00 
79600 5.1231140725e+00 7.0227462587e-05 1.5062568432e+00 -2.6089133817e+00 1.5062568432e+00 2.6089133817e+00 
79700 5.1231140722e+00 7.0831002777e-05 1.5062568432e+00 -2.6089133817e+00 1.5062568432e+00 2.6089133817e+00 
79800 5.1231140717e+00 6.9871126759e-05 1.5062544920e+00 -2.6089093093e+00 1.5062544920e+00 2.6089093093e+00 
79900 5.1231140714e+00 7.0464853393e-05 1.5062544920e+00 -2.6089093093e+00 1.5062544920e+00 2.6089093093e+00 
80000 5.1231140711e+00 7.1055443185e-05 1.5062544920e+00 -2.6089093093e+00 1.5062544920e+00 2.6089093093e+00 
80100 5.1231140706e+00 7.0077761407e-05 1.5062521333e+00 -2.6089052239e+00 1.5062521333e+00 2.6089052239e+00 
80200 5.1231140703e+00 7.0658687448e-05 1.5062521333e+00 -2.6089052239e+00 1.5062521333e+00 2.6089052239e+00 
80300 5.1231140701e+00 7.1236552412e-05 1.5062521333e+00 -2.6089052239e+00 1.5062521333e+00 2.6089052239e+00 
80400 5.1231140696e+00 7.0242235496e-05 1.5062497686e+00 -2.6089011282e+00 1.5062497686e+00 2.6089011282e+00 
80500 5.1231140693e+00 7.0810571003e-05 1.5062497686e+00 -2.6089011282e+00 1.5062497686e+00 2.6089011282e+00 
80600 5.1231140688e+00 6.9816114577e-05 1.5062474181e+00 -2.6088970569e+00 1.5062474181e+00 2.6088970569e+00 
80700 5.1231140686e+00 7.0374955164e-05 1.5062474181e+00 -2.6088970569e+00 1.5062474181e+00 2.6088970569e+00 
80800 5.1231140683e+00 7.0930815964e-05 1.5062474181e+00 -2.6088970569e+00 1.5062474181e+00 2.6088970569e+00 
80900 5.1231140678e+00 6.9921320276e-05 1.5062450635e+00 -2.6088929787e+00 1.5062450635e+00 2.6088929787e+00 
81000 5.1231140676e+00 7.0467834531e-05 1.5062450635e+00 -2.6088929787e+00 1.5062450635e+00 2.6088929787e+00 
81100 5.1231140674e+00 7.1011442693e-05 1.5062450635e+00 -2.6088929787e+00 1.5062450635e+00 2.6088929787e+00 
81200 5.1231140669e+00 6.9987995406e-05 1.5062427063e+00 -2.6088888958e+00 1.5062427063e+00 2.6088888958e+00 
81300 5.1231140667e+00 7.0522394193e-05 1.5062427063e+00 -2.6088888958e+00 1.5062427063e+00 2.6088888958e+00 
81400 5.1231140664e+00 7.1053954784e-05 1.5062427063e+00 -2.6088888958e+00 1.5062427063e+00 2.6088888958e+00 
81500 5.1231140660e+00 7.0017594969e-05 1.5062403476e+00 -2.6088848105e+00 1.5062403476e+00 2.6088848105e+00 
81600 5.1231140658e+00 7.0540075066e-05 1.5062403476e+00 -2.6088848105e+00 1.5062403476e+00 2.6088848105e+00 
81700 5.1231140655e+00 7.1059780460e-05 1.5062403476e+00 -2.6088848105e+00 1.5062403476e+00 2.6088848105e+00 
81800 5.1231140651e+00 7.0011504359e-05 1.5062379888e+00 -2.6088807249e+00 1.5062379888e+00 2.6088807249e+00 
81900 5.1231140649e+00 7.0522252362e-05 1.5062379888e+00 -2.6088807249e+00 1.5062379888e+00 2.6088807249e+00 
82000 5.1231140647e+00 7.1030285944e-05 1.5062379888e+00 -2.6088807249e+00 1.5062379888e+00 2.6088807249e+00 
82100 5.1231140643e+00 6.9971051847e-05 1.5062356309e+00 -2.6088766409e+00 1.5062356309e+00 2.6088766409e+00 
82200 5.1231140641e+00 7.0470247489e-05 1.5062356309e+00 -2.6088766409e+00 1.5062356309e+00 2.6088766409e+00 
82300 5.1231140638e+00 7.0966786785e-05 1.5062356309e+00 -2.6088766409e+00 1.5062356309e+00 2.6088766409e+00 
82400 5.1231140634e+00 6.9897519096e-05 1.5062332752e+00 -2.6088725606e+00 1.5062332752e+00 2.6088725606e+00 
82500 5.1231140632e+00 7.0385338031e-05 1.5062332752e+00 -2.6088725606e+00 1.5062332752e+00 2.6088725606e+00 
82600 5.1231140630e+00 7.0870557326e-05 1.5062332752e+00 -2.6088725606e+00 1.5062332752e+00 2.6088725606e+00 
82700 5.1231140626e+00 6.9792149931e-05 1.5062309226e+00 -2.6088684858e+00 1.5062309226e+00 2.6088684858e+00 
82800 5.1231140624e+00 7.0268766026e-05 1.5062309226e+00 -2.6088684858e+00 1.5062309226e+00 2.6088684858e+00 
82900 5.1231140623e+00 7.0742838506e-05 1.5062309226e+00 -2.6088684858e+00 1.5062309226e+00 2.6088684858e+00 
83000 5.1231140619e+00 6.9656157493e-05 1.5062285742e+00 -2.6088644184e+00 1.5062285742e+00 2.6088644184e+00 
83100 5.1231140617e+00 7.0121744679e-05 1.5062285742e+00 -2.6088644184e+00 1.5062285742e+00 2.6088644184e+00 
83200 5.1231140615e+00 7.0584844135e-05 1.5062285742e+00 -2.6088644184e+00 1.5062285742e+00 2.6088644184e+00 
83300 5.1231140613e+00 7.1045514245e-05 1.5062285742e+00 -2.6088644184e+00 1.5062285742e+00 2.6088644184e+00 
83400 5.1231140609e+00 6.9938879505e-05 1.5062262159e+00 -2.6088603336e+00 1.5062262159e+00 2.6088603336e+00 
83500 5.1231140608e+00 7.0391261279e-05 1.5062262159e+00 -2.6088603336e+00 1.5062262159e+00 2.6088603336e+00 
83600 5.1231140606e+00 7.0841253636e-05 1.5062262159e+00 -2.6088603336e+00 1.5062262159e+00 2.6088603336e+00 
83700 5.1231140602e+00 6.9728484820e-05 1.5062238642e+00 -2.6088562604e+00 1.5062238642e+00 2.6088562604e+00 
83800 5.1231140601e+00 7.0170281660e-05 1.5062238642e+00 -2.6088562604e+00 1.5062238642e+00 2.6088562604e+00 
83900 5.1231140599e+00 7.0609732132e-05 1.5062238642e+00 -2.6088562604e+00 1.5062238642e+00 2.6088562604e+00 
84000 5.1231140598e+00 7.1046891012e-05 1.5062238642e+00 -2.6088562604e+00 1.5062238642e+00 2.6088562604e+00 
84100 5.1231140594e+00 6.9916859025e-05 1.5062215058e+00 -2.6088521755e+00 1.5062215058e+00 2.6088521755e+00 
84200 5.1231140592e+00 7.0345995012e-05 1.5062215058e+00 -2.6088521755e+00 1.5062215058e+00 2.6088521755e+00 
84300 5.1231140591e+00 7.0772870188e-05 1.5062215058e+00 -2.6088521755e+00 1.5062215058e+00 2.6088521755e+00 
84400 5.1231140587e+00 6.9638625919e-05 1.5062191564e+00 -2.6088481063e+00 1.5062191564e+00 2.6088481063e+00 
84500 5.1231140586e+00 7.0057558547e-05 1.5062191564e+00 -2.6088481063e+00 1.5062191564e+00 2.6088481063e+00 
84600 5.1231140584e+00 7.0474266591e-05 1.5062191564e+00 -2.6088481063e+00 1.5062191564e+00 2.6088481063e+00 
84700 5.1231140583e+00 7.0888802937e-05 1.5062191564e+00 -2.6088481063e+00 1.5062191564e+00 2.6088481063e+00 
84800 5.1231140579e+00 6.9739757642e-05 1.5062168032e+00 -2.6088440304e+00 1.5062168032e+00 2.6088440304e+00 
84900 5.1231140578e+00 7.0146513720e-05 1.5062168032e+00 -2.6088440304e+00 1.5062168032e+00 2.6088440304e+00 
85000 5.1231140577e+00 7.0551124647e-05 1.5062168032e+00 -2.6088440304e+00 1.5062168032e+00 2.6088440304e+00 
85100 5.1231140575e+00 7.0953640561e-05 1.5062168032e+00 -2.6088440304e+00 1.5062168032e+00 2.6088440304e+00 
85200 5.1231140572e+00 6.9791226169e-05 1.5062144479e+00 -2.6088399508e+00 1.5062144479e+00 2.6088399508e+00 
85300 5.1231140571e+00 7.0186104260e-05 1.5062144479e+00 -2.6088399508e+00 1.5062144479e+00 2.6088399508e+00 
85400 5.1231140569e+00 7.0578906655e-05 1.5062144479e+00 -2.6088399508e+00 1.5062144479e+00 2.6088399508e+00 
85500 5.1231140568e+00 7.0969681467e-05 1.5062144479e+00 -2.6088399508e+00 1.5062144479e+00 2.6088399508e+00 
85600 5.1231140565e+00 6.9795243259e-05 1.5062120920e+00 -2.6088358703e+00 1.5062120920e+00 2.6088358703e+00 
85700 5.1231140564e+00 7.0178508697e-05 1.5062120920e+00 -2.6088358703e+00 1.5062120920e+00 2.6088358703e+00 
85800 5.1231140562e+00 7.0559760705e-05 1.5062120920e+00 -2.6088358703e+00 1.5062120920e+00 2.6088358703e+00 
85900 5.1231140561e+00 7.0939045966e-05 1.5062120920e+00 -2.6088358703e+00 1.5062120920e+00 2.6088358703e+00 
86000 5.1231140558e+00 6.9753857284e-05 1.5062097371e+00 -2.6088317915e+00 1.5062097371e+00 2.6088317915e+00 
86100 5.1231140557e+00 7.0125752485e-05 1.5062097371e+00 -2.6088317915e+00 1.5062097371e+00 2.6088317915e+00 
86200 5.1231140556e+00 7.0495691632e-05 1.5062097371e+00 -2.6088317915e+00 1.5062097371e+00 2.6088317915e+00 
86300 5.1231140554e+00 7.0863720468e-05 1.5062097371e+00 -2.6088317915e+00 1.5062097371e+00 2.6088317915e+00 
86400 5.1231140551e+00 6.9668994564e-05 1.5062073847e+00 -2.6088277171e+00 1.5062073847e+00 2.6088277171e+00 
86500 5.1231140550e+00 7.0029747473e-05 1.5062073847e+00 -2.6088277171e+00 1.5062073847e+00 2.6088277171e+00 
86600 5.1231140549e+00 7.0388598686e-05 1.5062073847e+00 -2.6088277171e+00 1.5062073847e+00 2.6088277171e+00 
86700 5.1231140548e+00 7.0745593385e-05 1.5062073847e+00 -2.6088277171e+00 1.5062073847e+00 2.6088277171e+00 
86800 5.1231140545e+00 6.9542492751e-05 1.5062050363e+00 -2.6088236494e+00 1.5062050363e+00 2.6088236494e+00 
86900 5.1231140544e+00 6.9892323615e-05 1.5062050363e+00 -2.6088236494e+00 1.5062050363e+00 2.6088236494e+00 
87000 5.1231140543e+00 7.0240305592e-05 1.5062050363e+00 -2.6088236494e+00 1.5062050363e+00 2.6088236494e+00 
87100 5.1231140542e+00 7.0586483599e-05 1.5062050363e+00 -2.6088236494e+00 1.5062050363e+00 2.6088236494e+00 
87200 5.1231140541e+00 7.0930898345e-05 1.5062050363e+00 -2.6088236494e+00 1.5062050363e+00 2.6088236494e+00 
87300 5.1231140538e+00 6.9711231368e-05 1.5062026816e+00 -2.6088195711e+00 1.5062026816e+00 2.6088195711e+00 
87400 5.1231140537e+00 7.0048646886e-05 1.5062026816e+00 -2.6088195711e+00 1.5062026816e+00 2.6088195711e+00 
87500 5.1231140536e+00 7.0384294646e-05 1.5062026816e+00 -2.6088195711e+00 1.5062026816e+00 2.6088195711e+00 
87600 5.1231140535e+00 7.0718216145e-05 1.5062026816e+00 -2.6088195711e+00 1.5062026816e+00 2.6088195711e+00 
87700 5.1231140532e+00 6.9492781890e-05 1.5062003341e+00 -2.6088155050e+00 1.5062003341e+00 2.6088155050e+00 
87800 5.1231140531e+00 6.9819791281e-05 1.5062003341e+00 -2.6088155050e+00 1.5062003341e+00 2.6088155050e+00 
87900 5.1231140530e+00 7.0145072790e-05 1.5062003341e+00 -2.6088155050e+00 1.5062003341e+00 2.6088155050e+00 
88000 5.1231140529e+00 7.0468668764e-05 1.5062003341e+00 -2.6088155050e+00 1.5062003341e+00 2.6088155050e+00 
88100 5.1231140529e+00 7.0790617589e-05 1.5062003341e+00 -2.6088155050e+00 1.5062003341e+00 2.6088155050e+00 
88200 5.1231140526e+00 6.9551697549e-05 1.5061979841e+00 -2.6088114347e+00 1.5061979841e+00 2.6088114347e+00 
88300 5.1231140525e+00 6.9866880148e-05 1.5061979841e+00 -2.6088114347e+00 1.5061979841e+00 2.6088114347e+00 
88400 5.1231140524e+00 7.0180405740e-05 1.5061979841e+00 -2.6088114347e+00 1.5061979841e+00 2.6088114347e+00 
88500 5.1231140523e+00 7.0492314350e-05 1.5061979841e+00 -2.6088114347e+00 1.5061979841e+00 2.6088114347e+00 
88600 5.1231140522e+00 7.0802642216e-05 1.5061979841e+00 -2.6088114347e+00 1.5061979841e+00 2.6088114347e+00 
88700 5.1231140519e+00 6.9551905801e-05 1.5061956337e+00 -2.6088073637e+00 1.5061956337e+00 2.6088073637e+00 
88800 5.1231140519e+00 6.9855593709e-05 1.5061956337e+00 -2.6088073637e+00 1.5061956337e+00 2.6088073637e+00 
88900 5.1231140518e+00 7.0157685538e-05 1.5061956337e+00 -2.6088073637e+00 1.5061956337e+00 2.6088073637e+00 
89000 5.1231140517e+00 7.0458219795e-05 1.5061956337e+00 -2.6088073637e+00 1.5061956337e+00 2.6088073637e+00 
89100 5.1231140517e+00 7.0757231339e-05 1.5061956337e+00 -2.6088073637e+00 1.5061956337e+00 2.6088073637e+00 
89200 5.1231140514e+00 6.9496240249e-05 1.5061932848e+00 -2.6088032954e+00 1.5061932848e+00 2.6088032954e+00 
89300 5.1231140513e+00 6.9788726441e-05 1.5061932848e+00 -2.6088032954e+00 1.5061932848e+00 2.6088032954e+00 
89400 5.1231140512e+00 7.0079671303e-05 1.5061932848e+00 -2.6088032954e+00 1.5061932848e+00 2.6088032954e+00 
89500 5.1231140512e+00 7.0369112449e-05 1.5061932848e+00 -2.6088032954e+00 1.5061932848e+00 2.6088032954e+00 
89600 5.1231140511e+00 7.0657083954e-05 1.5061932848e+00 -2.6088032954e+00 1.5061932848e+00 2.6088032954e+00 
89700 5.1231140510e+00 7.0943616521e-05 1.5061932848e+00 -2.6088032954e+00 1.5061932848e+00 2.6088032954e+00 
89800 5.1231140507e+00 6.9666127172e-05 1.5061909298e+00 -2.6087992163e+00 1.5061909298e+00 2.6087992163e+00 
89900 5.1231140507e+00 6.9946280949e-05 1.5061909298e+00 -2.6087992163e+00 1.5061909298e+00 2.6087992163e+00 
90000 5.1231140506e+00 7.0224966007e-05 1.5061909298e+00 -2.6087992163e+00 1.5061909298e+00 2.6087992163e+00 
90100 5.1231140506e+00 7.0502216855e-05 1.5061909298e+00 -2.6087992163e+00 1.5061909298e+00 2.6087992163e+00 
90200 5.1231140505e+00 7.0778064692e-05 1.5061909298e+00 -2.6087992163e+00 1.5061909298e+00 2.6087992163e+00 
90300 5.1231140502e+00 6.9493577357e-05 1.5061885802e+00 -2.6087951467e+00 1.5061885802e+00 2.6087951467e+00 
90400 5.1231140502e+00 6.9763128195e-05 1.5061885802e+00 -2.6087951467e+00 1.5061885802e+00 2.6087951467e+00 
90500 5.1231140501e+00 7.0031248294e-05 1.5061885802e+00 -2.6087951467e+00 1.5061885802e+00 2.6087951467e+00 
90600 5.1231140500e+00 7.0297972819e-05 1.5061885802e+00 -2.6087951467e+00 1.5061885802e+00 2.6087951467e+00 
90700 5.1231140500e+00 7.0563333656e-05 1.5061885802e+00 -2.6087951467e+00 1.5061885802e+00 2.6087951467e+00 
90800 5.1231140499e+00 7.0827359577e-05 1.5061885802e+00 -2.6087951467e+00 1.5061885802e+00 2.6087951467e+00 
90900 5.1231140497e+00 6.9530035649e-05 1.5061862290e+00 -2.6087910743e+00 1.5061862290e+00 2.6087910743e+00 
91000 5.1231140496e+00 6.9787891561e-05 1.5061862290e+00 -2.6087910743e+00 1.5061862290e+00 2.6087910743e+00 
91100 5.1231140495e+00 7.0044378561e-05 1.5061862290e+00 -2.6087910743e+00 1.5061862290e+00 2.6087910743e+00 
91200 5.1231140495e+00 7.0299530083e-05 1.5061862290e+00 -2.6087910743e+00 1.5061862290e+00 2.6087910743e+00 
91300 5.1231140494e+00 7.0553376446e-05 1.5061862290e+00 -2.6087910743e+00 1.5061862290e+00 2.6087910743e+00 
91400 5.1231140494e+00 7.0805944994e-05 1.5061862290e+00 -2.6087910743e+00 1.5061862290e+00 2.6087910743e+00 
91500 5.1231140491e+00 6.9497695952e-05 1.5061838785e+00 -2.6087870031e+00 1.5061838785e+00 2.6087870031e+00 
91600 5.1231140491e+00 6.9744205919e-05 1.5061838785e+00 -2.6087870031e+00 1.5061838785e+00 2.6087870031e+00 
91700 5.1231140490e+00 6.9989400661e-05 1.5061838785e+00 -2.6087870031e+00 1.5061838785e+00 2.6087870031e+00 
91800 5.1231140490e+00 7.0233312709e-05 1.5061838785e+00 -2.6087870031e+00 1.5061838785e+00 2.6087870031e+00 
91900 5.1231140489e+00 7.0475971587e-05 1.5061838785e+00 -2.6087870031e+00 1.5061838785e+00 2.6087870031e+00 
92000 5.1231140489e+00 7.0717403959e-05 1.5061838785e+00 -2.6087870031e+00 1.5061838785e+00 2.6087870031e+00 
92100 5.1231140486e+00 6.9400023968e-05 1.5061815309e+00 -2.6087829370e+00 1.5061815309e+00 2.6087829370e+00 
92200 5.1231140486e+00 6.9635503058e-05 1.5061815309e+00 -2.6087829370e+00 1.5061815309e+00 2.6087829370e+00 
92300 5.1231140485e+00 6.9869716914e-05 1.5061815309e+00 -2.6087829370e+00 1.5061815309e+00 2.6087829370e+00 
92400 5.1231140485e+00 7.0102697736e-05 1.5061815309e+00 -2.6087829370e+00 1.5061815309e+00 2.6087829370e+00 
92500 5.1231140484e+00 7.0334474805e-05 1.5061815309e+00 -2.6087829370e+00 1.5061815309e+00 2.6087829370e+00 
92600 5.1231140484e+00 7.0565074613e-05 1.5061815309e+00 -2.6087829370e+00 1.5061815309e+00 2.6087829370e+00 
92700 5.1231140484e+00 7.0794521000e-05 1.5061815309e+00 -2.6087829370e+00 1.5061815309e+00 2.6087829370e+00 
92800 5.1231140481e+00 6.9463532340e-05 1.5061791808e+00 -2.6087788664e+00 1.5061791808e+00 2.6087788664e+00 
92900 5.1231140481e+00 6.9687159891e-05 1.5061791808e+00 -2.6087788664e+00 1.5061791808e+00 2.6087788664e+00 
93000 5.1231140480e+00 6.9909587895e-05 1.5061791808e+00 -2.6087788664e+00 1.5061791808e+00 2.6087788664e+00 
93100 5.1231140480e+00 7.0130846501e-05 1.5061791808e+00 -2.6087788664e+00 1.5061791808e+00 2.6087788664e+00 
93200 5.1231140479e+00 7.0350963107e-05 1.5061791808e+00 -2.6087788664e+00 1.5061791808e+00 2.6087788664e+00 
93300 5.1231140479e+00 7.0569962488e-05 1.5061791808e+00 -2.6087788664e+00 1.5061791808e+00 2.6087788664e+00 
93400 5.1231140479e+00 7.0787866916e-05 1.5061791808e+00 -2.6087788664e+00 1.5061791808e+00 2.6087788664e+00 
93500 5.1231140476e+00 6.9445544760e-05 1.5061768309e+00 -2.6087747963e+00 1.5061768309e+00 2.6087747963e+00 
93600 5.1231140476e+00 6.9657743372e-05 1.5061768309e+00 -2.6087747963e+00 1.5061768309e+00 2.6087747963e+00 
93700 5.1231140475e+00 6.9868797091e-05 1.5061768309e+00 -2.6087747963e+00 1.5061768309e+00 2.6087747963e+00 
93800 5.1231140475e+00 7.0078735050e-05 1.5061768309e+00 -2.6087747963e+00 1.5061768309e+00 2.6087747963e+00 
93900 5.1231140475e+00 7.0287583753e-05 1.5061768309e+00 -2.6087747963e+00 1.5061768309e+00 2.6087747963e+00 
94000 5.1231140474e+00 7.0495367191e-05 1.5061768309e+00 -2.6087747963e+00 1.5061768309e+00 2.6087747963e+00 
94100 5.1231140474e+00 7.0499776270e-05 1.5061768309e+00 -2.6087747963e+00 1.5061768309e+00 2.6087747963e+00 
94100 5.1231140474e+00 7.0499776270e-05 1.5061768309e+00 -2.6087747963e+00 1.5061768309e+00 2.6087747963e+00 
