# step Hamiltonian StressXX CellTensor1 CellTensor2 CellTensor3 CellTensor4 
0 5.1462518028e+00 -1.4451391675e-01 1.4739512762e+00 -2.5529584983e+00 1.4739512762e+00 2.5529584983e+00 
100 5.1474868299e+00 -1.4514020336e-01 1.4739512762e+00 -2.5529584983e+00 1.4739512762e+00 2.5529584983e+00 
200 5.1474555276e+00 -1.4473297736e-01 1.4788775156e+00 -2.5614909952e+00 1.4788775156e+00 2.5614909952e+00 
300 5.1472024853e+00 -1.4448428660e-01 1.4837735442e+00 -2.5699711654e+00 1.4837735442e+00 2.5699711654e+00 
400 5.1467781155e+00 -1.4435021954e-01 1.4886450101e+00 -2.5784087919e+00 1.4886450101e+00 2.5784087919e+00 
500 5.1462218560e+00 -1.4429675421e-01 1.4934960095e+00 -2.5868109694e+00 1.4934960095e+00 2.5868109694e+00 
600 5.1455645221e+00 -1.4429758547e-01 1.4983294437e+00 -2.5951827229e+00 1.4983294437e+00 2.5951827229e+00 
700 5.1448301124e+00 -1.4433246762e-01 1.5031472969e+00 -2.6035274895e+00 1.5031472969e+00 2.6035274895e+00 
800 5.1440372088e+00 -1.4438593813e-01 1.5079508533e+00 -2.6118474932e+00 1.5079508533e+00 2.6118474932e+00 
900 5.1432000706e+00 -1.4444632603e-01 1.5127408667e+00 -2.6201440398e+00 1.5127408667e+00 2.6201440398e+00 
1000 5.1423294970e+00 -1.4450497445e-01 1.5175176950e+00 -2.6284177491e+00 1.5175176950e+00 2.6284177491e+00 
1100 5.1414335135e+00 -1.4455562612e-01 1.5222814056e+00 -2.6366687379e+00 1.5222814056e+00 2.6366687379e+00 
1200 5.1405179219e+00 -1.4459393362e-01 1.5270318590e+00 -2.6448967645e+00 1.5270318590e+00 2.6448967645e+00 
1300 5.1395867455e+00 -1.4461706616e-01 1.5317687746e+00 -2.6531013430e+00 1.5317687746e+00 2.6531013430e+00 
1400 5.1386425913e+00 -1.4462339163e-01 1.5364917824e+00 -2.6612818325e+00 1.5364917824e+00 2.6612818325e+00 
1500 5.1376869482e+00 -1.4461221802e-01 1.5412004635e+00 -2.6694375074e+00 1.5412004635e+00 2.6694375074e+00 
1600 5.1367204327e+00 -1.4458358182e-01 1.5458943812e+00 -2.6775676114e+00 1.5458943812e+00 2.6775676114e+00 
1700 5.1357429932e+00 -1.4453807426e-01 1.5505731050e+00 -2.6856713988e+00 1.5505731050e+00 2.6856713988e+00 
1800 5.1347540811e+00 -1.4447669816e-01 1.5552362282e+00 -2.6937481650e+00 1.5552362282e+00 2.6937481650e+00 
1900 5.1337527926e+00 -1.4440074971e-01 1.5598833807e+00 -2.7017972693e+00 1.5598833807e+00 2.7017972693e+00 
2000 5.1327379891e+00 -1.4431172091e-01 1.5645142382e+00 -2.7098181496e+00 1.5645142382e+00 2.7098181496e+00 
2100 5.1317083966e+00 -1.4421121916e-01 1.5691285271e+00 -2.7178103325e+00 1.5691285271e+00 2.7178103325e+00 
2200 5.1306626894e+00 -1.4410090127e-01 1.5737260282e+00 -2.7257734380e+00 1.5737260282e+00 2.7257734380e+00 
2300 5.1295995586e+00 -1.4398241956e-01 1.5783065767e+00 -2.7337071808e+00 1.5783065767e+00 2.7337071808e+00 
2400 5.1285177695e+00 -1.4385737842e-01 1.5828700618e+00 -2.7416113688e+00 1.5828700618e+00 2.7416113688e+00 
2500 5.1274162064e+00 -1.4372729963e-01 1.5874164241e+00 -2.7494858992e+00 1.5874164241e+00 2.7494858992e+00 
2600 5.1262939094e+00 -1.4359359531e-01 1.5919456521e+00 -2.7573307524e+00 1.5919456521e+00 2.7573307524e+00 
2700 5.1251501015e+00 -1.4345754739e-01 1.5964577786e+00 -2.7651459847e+00 1.5964577786e+00 2.7651459847e+00 
2800 5.1239842092e+00 -1.4332029275e-01 1.6009528756e+00 -2.7729317210e+00 1.6009528756e+00 2.7729317210e+00 
2900 5.1227958755e+00 -1.4318281306e-01 1.6054310489e+00 -2.7806881448e+00 1.6054310489e+00 2.7806881448e+00 
3000 5.1215849679e+00 -1.4304592898e-01 1.6098924338e+00 -2.7884154900e+00 1.6098924338e+00 2.7884154900e+00 
3100 5.1203515806e+00 -1.4291029769e-01 1.6143371885e+00 -2.7961140310e+00 1.6143371885e+00 2.7961140310e+00 
3200 5.1190960329e+00 -1.4277641358e-01 1.6187654897e+00 -2.8037840737e+00 1.6187654897e+00 2.8037840737e+00 
3300 5.1178188628e+00 -1.4264461137e-01 1.6231775267e+00 -2.8114259460e+00 1.6231775267e+00 2.8114259460e+00 
3400 5.1165208183e+00 -1.4251507144e-01 1.6275734967e+00 -2.8190399894e+00 1.6275734967e+00 2.8190399894e+00 
3500 5.1152028450e+00 -1.4238782678e-01 1.6319535998e+00 -2.8266265505e+00 1.6319535998e+00 2.8266265505e+00 
3600 5.1138660723e+00 -1.4226277136e-01 1.6363180344e+00 -2.8341859730e+00 1.6363180344e+00 2.8341859730e+00 
3700 5.1125117970e+00 -1.4213966964e-01 1.6406669932e+00 -2.8417185905e+00 1.6406669932e+00 2.8417185905e+00 
3800 5.1111414659e+00 -1.4201816680e-01 1.6450006591e+00 -2.8492247201e+00 1.6450006591e+00 2.8492247201e+00 
3900 5.1097566575e+00 -1.4189779964e-01 1.6493192019e+00 -2.8567046557e+00 1.6493192019e+00 2.8567046557e+00 
4000 5.1083590629e+00 -1.4177800772e-01 1.6536227752e+00 -2.8641586633e+00 1.6536227752e+00 2.8641586633e+00 
4100 5.1069504661e+00 -1.4165814483e-01 1.6579115136e+00 -2.8715869760e+00 1.6579115136e+00 2.8715869760e+00 
4200 5.1055327251e+00 -1.4153749037e-01 1.6621855302e+00 -2.8789897899e+00 1.6621855302e+00 2.8789897899e+00 
4300 5.1041077522e+00 -1.4141526063e-01 1.6664449151e+00 -2.8863672609e+00 1.6664449151e+00 2.8863672609e+00 
4400 5.1026774958e+00 -1.4129061992e-01 1.6706897334e+00 -2.8937195020e+00 1.6706897334e+00 2.8937195020e+00 
4500 5.1012439220e+00 -1.4116269127e-01 1.6749200243e+00 -2.9010465807e+00 1.6749200243e+00 2.9010465807e+00 
4600 5.0998089979e+00 -1.4103056677e-01 1.6791357998e+00 -2.9083485180e+00 1.6791357998e+00 2.9083485180e+00 
4700 5.0983746747e+00 -1.4089331745e-01 1.6833370444e+00 -2.9156252872e+00 1.6833370444e+00 2.9156252872e+00 
4800 5.0969428734e+00 -1.4075000262e-01 1.6875237150e+00 -2.9228768133e+00 1.6875237150e+00 2.9228768133e+00 
4900 5.0955154703e+00 -1.4059967862e-01 1.6916957402e+00 -2.9301029730e+00 1.6916957402e+00 2.9301029730e+00 
5000 5.0940942847e+00 -1.4044140708e-01 1.6958530215e+00 -2.9373035954e+00 1.6958530215e+00 2.9373035954e+00 
5100 5.0926810675e+00 -1.4027426243e-01 1.6999954330e+00 -2.9444784625e+00 1.6999954330e+00 2.9444784625e+00 
5200 5.0912774909e+00 -1.4009733896e-01 1.7041228224e+00 -2.9516273107e+00 1.7041228224e+00 2.9516273107e+00 
5300 5.0898851400e+00 -1.3990975712e-01 1.7082350121e+00 -2.9587498322e+00 1.7082350121e+00 2.9587498322e+00 
5400 5.0885055052e+00 -1.3971066931e-01 1.7123317998e+00 -2.9658456766e+00 1.7123317998e+00 2.9658456766e+00 
5500 5.0871399763e+00 -1.3949926502e-01 1.7164129601e+00 -2.9729144537e+00 1.7164129601e+00 2.9729144537e+00 
5600 5.0857898371e+00 -1.3927477542e-01 1.7204782458e+00 -2.9799557351e+00 1.7204782458e+00 2.9799557351e+00 
5700 5.0844562626e+00 -1.3903647733e-01 1.7245273890e+00 -2.9869690568e+00 1.7245273890e+00 2.9869690568e+00 
5800 5.0831403158e+00 -1.3878369670e-01 1.7285601031e+00 -2.9939539225e+00 1.7285601031e+00 2.9939539225e+00 
5900 5.0818429467e+00 -1.3851581155e-01 1.7325760841e+00 -3.0009098057e+00 1.7325760841e+00 3.0009098057e+00 
6000 5.0805649916e+00 -1.3823225437e-01 1.7365750125e+00 -3.0078361528e+00 1.7365750125e+00 3.0078361528e+00 
6100 5.0793071741e+00 -1.3793251410e-01 1.7405565547e+00 -3.0147323863e+00 1.7405565547e+00 3.0147323863e+00 
6200 5.0780701062e+00 -1.3761613761e-01 1.7445203653e+00 -3.0215979075e+00 1.7445203653e+00 3.0215979075e+00 
6300 5.0768542907e+00 -1.3728273082e-01 1.7484660881e+00 -3.0284320999e+00 1.7484660881e+00 3.0284320999e+00 
6400 5.0756601245e+00 -1.3693195938e-01 1.7523933587e+00 -3.0352343321e+00 1.7523933587e+00 3.0352343321e+00 
6500 5.0744879017e+00 -1.3656354893e-01 1.7563018056e+00 -3.0420039608e+00 1.7563018056e+00 3.0420039608e+00 
6600 5.0733378184e+00 -1.3617728516e-01 1.7601910524e+00 -3.0487403337e+00 1.7601910524e+00 3.0487403337e+00 
6700 5.0722099771e+00 -1.3577301339e-01 1.7640607191e+00 -3.0554427930e+00 1.7640607191e+00 3.0554427930e+00 
6800 5.0711043918e+00 -1.3535063799e-01 1.7679104242e+00 -3.0621106779e+00 1.7679104242e+00 3.0621106779e+00 
6900 5.0700209940e+00 -1.3491012139e-01 1.7717397861e+00 -3.0687433273e+00 1.7717397861e+00 3.0687433273e+00 
7000 5.0689596378e+00 -1.3445148299e-01 1.7755484248e+00 -3.0753400831e+00 1.7755484248e+00 3.0753400831e+00 
7100 5.0679201065e+00 -1.3397479774e-01 1.7793359635e+00 -3.0819002925e+00 1.7793359635e+00 3.0819002925e+00 
7200 5.0669021185e+00 -1.3348019457e-01 1.7831020297e+00 -3.0884233105e+00 1.7831020297e+00 3.0884233105e+00 
7300 5.0659053335e+00 -1.3296785457e-01 1.7868462573e+00 -3.0949085029e+00 1.7868462573e+00 3.0949085029e+00 
7400 5.0649293591e+00 -1.3243800913e-01 1.7905682872e+00 -3.1013552478e+00 1.7905682872e+00 3.1013552478e+00 
7500 5.0639737566e+00 -1.3189093778e-01 1.7942677692e+00 -3.1077629387e+00 1.7942677692e+00 3.1077629387e+00 
7600 5.0630380477e+00 -1.3132696602e-01 1.7979443630e+00 -3.1141309858e+00 1.7979443630e+00 3.1141309858e+00 
7700 5.0621217204e+00 -1.3074646300e-01 1.8015977390e+00 -3.1204588187e+00 1.8015977390e+00 3.1204588187e+00 
7800 5.0612242347e+00 -1.3014983912e-01 1.8052275799e+00 -3.1267458876e+00 1.8052275799e+00 3.1267458876e+00 
7900 5.0603450290e+00 -1.2953754351e-01 1.8088335814e+00 -3.1329916655e+00 1.8088335814e+00 3.1329916655e+00 
8000 5.0594835248e+00 -1.2891006150e-01 1.8124154532e+00 -3.1391956493e+00 1.8124154532e+00 3.1391956493e+00 
8100 5.0586391329e+00 -1.2826791201e-01 1.8159729194e+00 -3.1453573616e+00 1.8159729194e+00 3.1453573616e+00 
8200 5.0578112576e+00 -1.2761164492e-01 1.8195057201e+00 -3.1514763519e+00 1.8195057201e+00 3.1514763519e+00 
8300 5.0569993021e+00 -1.2694183841e-01 1.8230136112e+00 -3.1575521974e+00 1.8230136112e+00 3.1575521974e+00 
8400 5.0562026723e+00 -1.2625909630e-01 1.8264963654e+00 -3.1635845047e+00 1.8264963654e+00 3.1635845047e+00 
8500 5.0554207813e+00 -1.2556404536e-01 1.8299537728e+00 -3.1695729100e+00 1.8299537728e+00 3.1695729100e+00 
8600 5.0546530530e+00 -1.2485733268e-01 1.8333856411e+00 -3.1755170803e+00 1.8333856411e+00 3.1755170803e+00 
8700 5.0538989255e+00 -1.2413962300e-01 1.8367917960e+00 -3.1814167136e+00 1.8367917960e+00 3.1814167136e+00 
8800 5.0531578538e+00 -1.2341159614e-01 1.8401720816e+00 -3.1872715401e+00 1.8401720816e+00 3.1872715401e+00 
8900 5.0524293129e+00 -1.2267394441e-01 1.8435263606e+00 -3.1930813216e+00 1.8435263606e+00 3.1930813216e+00 
9000 5.0517128001e+00 -1.2192737009e-01 1.8468545142e+00 -3.1988458527e+00 1.8468545142e+00 3.1988458527e+00 
9100 5.0510078364e+00 -1.2117258298e-01 1.8501564425e+00 -3.2045649604e+00 1.8501564425e+00 3.2045649604e+00 
9200 5.0503139687e+00 -1.2041029796e-01 1.8534320646e+00 -3.2102385042e+00 1.8534320646e+00 3.2102385042e+00 
9300 5.0496307708e+00 -1.1964123268e-01 1.8566813180e+00 -3.2158663762e+00 1.8566813180e+00 3.2158663762e+00 
9400 5.0489578443e+00 -1.1886610527e-01 1.8599041590e+00 -3.2214485006e+00 1.8599041590e+00 3.2214485006e+00 
9500 5.0482948192e+00 -1.1808563216e-01 1.8631005625e+00 -3.2269848339e+00 1.8631005625e+00 3.2269848339e+00 
9600 5.0476413544e+00 -1.1730052595e-01 1.8662705216e+00 -3.2324753641e+00 1.8662705216e+00 3.2324753641e+00 
9700 5.0469971374e+00 -1.1651149341e-01 1.8694140474e+00 -3.2379201105e+00 1.8694140474e+00 3.2379201105e+00 
9800 5.0463618844e+00 -1.1571923351e-01 1.8725311688e+00 -3.2433191231e+00 1.8725311688e+00 3.2433191231e+00 
9900 5.0457353395e+00 -1.1492443555e-01 1.8756219320e+00 -3.2486724819e+00 1.8756219320e+00 3.2486724819e+00 
10000 5.0451172742e+00 -1.1412777747e-01 1.8786864000e+00 -3.2539802963e+00 1.8786864000e+00 3.2539802963e+00 
10100 5.0445074863e+00 -1.1332992411e-01 1.8817246528e+00 -3.2592427044e+00 1.8817246528e+00 3.2592427044e+00 
10200 5.0439057990e+00 -1.1253152566e-01 1.8847367859e+00 -3.2644598720e+00 1.8847367859e+00 3.2644598720e+00 
10300 5.0433120593e+00 -1.1173321621e-01 1.8877229107e+00 -3.2696319919e+00 1.8877229107e+00 3.2696319919e+00 
10400 5.0427261370e+00 -1.1093561232e-01 1.8906831536e+00 -3.2747592830e+00 1.8906831536e+00 3.2747592830e+00 
10500 5.0421479225e+00 -1.1013931180e-01 1.8936176552e+00 -3.2798419890e+00 1.8936176552e+00 3.2798419890e+00 
10600 5.0415773260e+00 -1.0934489244e-01 1.8965265703e+00 -3.2848803777e+00 1.8965265703e+00 3.2848803777e+00 
10700 5.0410142751e+00 -1.0855291099e-01 1.8994100668e+00 -3.2898747400e+00 1.8994100668e+00 3.2898747400e+00 
10800 5.0404587135e+00 -1.0776390213e-01 1.9022683250e+00 -3.2948253885e+00 1.9022683250e+00 3.2948253885e+00 
10900 5.0399105986e+00 -1.0697837756e-01 1.9051015374e+00 -3.2997326564e+00 1.9051015374e+00 3.2997326564e+00 
11000 5.0393699005e+00 -1.0619682523e-01 1.9079099078e+00 -3.3045968966e+00 1.9079099078e+00 3.3045968966e+00 
11100 5.0388365996e+00 -1.0541970856e-01 1.9106936505e+00 -3.3094184804e+00 1.9106936505e+00 3.3094184804e+00 
11200 5.0383106848e+00 -1.0464746588e-01 1.9134529898e+00 -3.3141977962e+00 1.9134529898e+00 3.3141977962e+00 
11300 5.0377921523e+00 -1.0388050987e-01 1.9161881590e+00 -3.3189352483e+00 1.9161881590e+00 3.3189352483e+00 
11400 5.0372810032e+00 -1.0311922710e-01 1.9188994003e+00 -3.3236312559e+00 1.9188994003e+00 3.3236312559e+00 
11500 5.0367772426e+00 -1.0236397767e-01 1.9215869632e+00 -3.3282862515e+00 1.9215869632e+00 3.3282862515e+00 
11600 5.0362808774e+00 -1.0161509499e-01 1.9242511048e+00 -3.3329006800e+00 1.9242511048e+00 3.3329006800e+00 
11700 5.0357919155e+00 -1.0087288550e-01 1.9268920881e+00 -3.3374749973e+00 1.9268920881e+00 3.3374749973e+00 
11800 5.0353103639e+00 -1.0013762863e-01 1.9295101821e+00 -3.3420096691e+00 1.9295101821e+00 3.3420096691e+00 
11900 5.0348362280e+00 -9.9409576764e-02 1.9321056606e+00 -3.3465051697e+00 1.9321056606e+00 3.3465051697e+00 
12000 5.0343695102e+00 -9.8688955255e-02 1.9346788016e+00 -3.3509619807e+00 1.9346788016e+00 3.3509619807e+00 
12100 5.0339102088e+00 -9.7975962582e-02 1.9372298869e+00 -3.3553805900e+00 1.9372298869e+00 3.3553805900e+00 
12200 5.0334583177e+00 -9.7270770536e-02 1.9397592008e+00 -3.3597614902e+00 1.9397592008e+00 3.3597614902e+00 
12300 5.0330138250e+00 -9.6573524497e-02 1.9422670301e+00 -3.3641051779e+00 1.9422670301e+00 3.3641051779e+00 
12400 5.0325767131e+00 -9.5884343776e-02 1.9447536629e+00 -3.3684121524e+00 1.9447536629e+00 3.3684121524e+00 
12500 5.0321469574e+00 -9.5203322021e-02 1.9472193885e+00 -3.3726829143e+00 1.9472193885e+00 3.3726829143e+00 
12600 5.0317245269e+00 -9.4530527697e-02 1.9496644960e+00 -3.3769179648e+00 1.9496644960e+00 3.3769179648e+00 
12700 5.0313093833e+00 -9.3866004620e-02 1.9520892746e+00 -3.3811178045e+00 1.9520892746e+00 3.3811178045e+00 
12800 5.0309014812e+00 -9.3209772561e-02 1.9544940122e+00 -3.3852829322e+00 1.9544940122e+00 3.3852829322e+00 
12900 5.0305007678e+00 -9.2561827899e-02 1.9568789952e+00 -3.3894138440e+00 1.9568789952e+00 3.3894138440e+00 
13000 5.0301071835e+00 -9.1922144336e-02 1.9592445081e+00 -3.3935110326e+00 1.9592445081e+00 3.3935110326e+00 
13100 5.0297206615e+00 -9.1290673662e-02 1.9615908326e+00 -3.3975749857e+00 1.9615908326e+00 3.3975749857e+00 
13200 5.0293411286e+00 -9.0667346571e-02 1.9639182472e+00 -3.4016061860e+00 1.9639182472e+00 3.4016061860e+00 
13300 5.0289685051e+00 -9.0052073526e-02 1.9662270267e+00 -3.4056051095e+00 1.9662270267e+00 3.4056051095e+00 
13400 5.0286027056e+00 -8.9444745660e-02 1.9685174421e+00 -3.4095722254e+00 1.9685174421e+00 3.4095722254e+00 
13500 5.0282436392e+00 -8.8845235729e-02 1.9707897596e+00 -3.4135079946e+00 1.9707897596e+00 3.4135079946e+00 
13600 5.0278912100e+00 -8.8253399094e-02 1.9730442404e+00 -3.4174128699e+00 1.9730442404e+00 3.4174128699e+00 
13700 5.0275453178e+00 -8.7669074739e-02 1.9752811403e+00 -3.4212872943e+00 1.9752811403e+00 3.4212872943e+00 
13800 5.0272058586e+00 -8.7092086326e-02 1.9775007098e+00 -3.4251317013e+00 1.9775007098e+00 3.4251317013e+00 
13900 5.0268727252e+00 -8.6522243263e-02 1.9797031927e+00 -3.4289465137e+00 1.9797031927e+00 3.4289465137e+00 
14000 5.0265458076e+00 -8.5959341811e-02 1.9818888270e+00 -3.4327321433e+00 1.9818888270e+00 3.4327321433e+00 
14100 5.0262249941e+00 -8.5403166201e-02 1.9840578437e+00 -3.4364889905e+00 1.9840578437e+00 3.4364889905e+00 
14200 5.0259101711e+00 -8.4853489767e-02 1.9862104672e+00 -3.4402174437e+00 1.9862104672e+00 3.4402174437e+00 
14300 5.0256012246e+00 -8.4310076092e-02 1.9883469146e+00 -3.4439178791e+00 1.9883469146e+00 3.4439178791e+00 
14400 5.0252980397e+00 -8.3772680167e-02 1.9904673957e+00 -3.4475906602e+00 1.9904673957e+00 3.4475906602e+00 
14500 5.0250005021e+00 -8.3241049544e-02 1.9925721131e+00 -3.4512361376e+00 1.9925721131e+00 3.4512361376e+00 
14600 5.0247084980e+00 -8.2714925493e-02 1.9946612615e+00 -3.4548546488e+00 1.9946612615e+00 3.4548546488e+00 
14700 5.0244219146e+00 -8.2194044160e-02 1.9967350282e+00 -3.4584465180e+00 1.9967350282e+00 3.4584465180e+00 
14800 5.0241406406e+00 -8.1678137706e-02 1.9987935925e+00 -3.4620120561e+00 1.9987935925e+00 3.4620120561e+00 
14900 5.0238645667e+00 -8.1166935441e-02 2.0008371261e+00 -3.4655515602e+00 2.0008371261e+00 3.4655515602e+00 
15000 5.0235935857e+00 -8.0660164941e-02 2.0028657929e+00 -3.4690653140e+00 2.0028657929e+00 3.4690653140e+00 
15100 5.0233275926e+00 -8.0157553142e-02 2.0048797488e+00 -3.4725535880e+00 2.0048797488e+00 3.4725535880e+00 
15200 5.0230664855e+00 -7.9658827413e-02 2.0068791420e+00 -3.4760166387e+00 2.0068791420e+00 3.4760166387e+00 
15300 5.0228101649e+00 -7.9163716600e-02 2.0088641132e+00 -3.4794547095e+00 2.0088641132e+00 3.4794547095e+00 
15400 5.0225585345e+00 -7.8671952035e-02 2.0108347951e+00 -3.4828680308e+00 2.0108347951e+00 3.4828680308e+00 
15500 5.0223115011e+00 -7.8183268523e-02 2.0127913133e+00 -3.4862568196e+00 2.0127913133e+00 3.4862568196e+00 
15600 5.0220689743e+00 -7.7697405275e-02 2.0147337856e+00 -3.4896212804e+00 2.0147337856e+00 3.4896212804e+00 
15700 5.0218308672e+00 -7.7214106815e-02 2.0166623230e+00 -3.4929616051e+00 2.0166623230e+00 3.4929616051e+00 
15800 5.0215970957e+00 -7.6733123831e-02 2.0185770290e+00 -3.4962779733e+00 2.0185770290e+00 3.4962779733e+00 
15900 5.0213675789e+00 -7.6254213994e-02 2.0204780007e+00 -3.4995705528e+00 2.0204780007e+00 3.4995705528e+00 
16000 5.0211422387e+00 -7.5777142717e-02 2.0223653282e+00 -3.5028394999e+00 2.0223653282e+00 3.5028394999e+00 
16100 5.0209210000e+00 -7.5301683871e-02 2.0242390953e+00 -3.5060849596e+00 2.0242390953e+00 3.5060849596e+00 
16200 5.0207037902e+00 -7.4827620444e-02 2.0260993796e+00 -3.5093070666e+00 2.0260993796e+00 3.5093070666e+00 
16300 5.0204905393e+00 -7.4354745152e-02 2.0279462529e+00 -3.5125059450e+00 2.0279462529e+00 3.5125059450e+00 
16400 5.0202811798e+00 -7.3882860991e-02 2.0297797812e+00 -3.5156817092e+00 2.0297797812e+00 3.5156817092e+00 
16500 5.0200756463e+00 -7.3411781737e-02 2.0316000253e+00 -3.5188344644e+00 2.0316000253e+00 3.5188344644e+00 
16600 5.0198738753e+00 -7.2941332385e-02 2.0334070407e+00 -3.5219643070e+00 2.0334070407e+00 3.5219643070e+00 
16700 5.0196758054e+00 -7.2471349534e-02 2.0352008785e+00 -3.5250713251e+00 2.0352008785e+00 3.5250713251e+00 
16800 5.0194813766e+00 -7.2001681718e-02 2.0369815849e+00 -3.5281555992e+00 2.0369815849e+00 3.5281555992e+00 
16900 5.0192905305e+00 -7.1532189672e-02 2.0387492024e+00 -3.5312172024e+00 2.0387492024e+00 3.5312172024e+00 
17000 5.0191032098e+00 -7.1062746550e-02 2.0405037693e+00 -3.5342562015e+00 2.0405037693e+00 3.5342562015e+00 
17100 5.0189193585e+00 -7.0593238080e-02 2.0422453208e+00 -3.5372726571e+00 2.0422453208e+00 3.5372726571e+00 
17200 5.0187389213e+00 -7.0123562671e-02 2.0439738885e+00 -3.5402666242e+00 2.0439738885e+00 3.5402666242e+00 
17300 5.0185618439e+00 -6.9653631458e-02 2.0456895015e+00 -3.5432381531e+00 2.0456895015e+00 3.5432381531e+00 
17400 5.0183880726e+00 -6.9183368300e-02 2.0473921862e+00 -3.5461872895e+00 2.0473921862e+00 3.5461872895e+00 
17500 5.0182175541e+00 -6.8712709727e-02 2.0490819669e+00 -3.5491140755e+00 2.0490819669e+00 3.5491140755e+00 
17600 5.0180502356e+00 -6.8241604832e-02 2.0507588659e+00 -3.5520185499e+00 2.0507588659e+00 3.5520185499e+00 
17700 5.0178860646e+00 -6.7770015121e-02 2.0524229042e+00 -3.5549007487e+00 2.0524229042e+00 3.5549007487e+00 
17800 5.0177249888e+00 -6.7297914315e-02 2.0540741013e+00 -3.5577607059e+00 2.0540741013e+00 3.5577607059e+00 
17900 5.0175669560e+00 -6.6825288106e-02 2.0557124758e+00 -3.5605984538e+00 2.0557124758e+00 3.5605984538e+00 
18000 5.0174119143e+00 -6.6352133881e-02 2.0573380457e+00 -3.5634140235e+00 2.0573380457e+00 3.5634140235e+00 
18100 5.0172598118e+00 -6.5878460394e-02 2.0589508287e+00 -3.5662074455e+00 2.0589508287e+00 3.5662074455e+00 
18200 5.0171105966e+00 -6.5404287413e-02 2.0605508422e+00 -3.5689787503e+00 2.0605508422e+00 3.5689787503e+00 
18300 5.0169642169e+00 -6.4929645328e-02 2.0621381041e+00 -3.5717279686e+00 2.0621381041e+00 3.5717279686e+00 
18400 5.0168206211e+00 -6.4454574729e-02 2.0637126325e+00 -3.5744551318e+00 2.0637126325e+00 3.5744551318e+00 
18500 5.0166797574e+00 -6.3979125959e-02 2.0652744463e+00 -3.5771602726e+00 2.0652744463e+00 3.5771602726e+00 
18600 5.0165415744e+00 -6.3503358636e-02 2.0668235653e+00 -3.5798434254e+00 2.0668235653e+00 3.5798434254e+00 
18700 5.0164060208e+00 -6.3027341157e-02 2.0683600104e+00 -3.5825046264e+00 2.0683600104e+00 3.5825046264e+00 
18800 5.0162730454e+00 -6.2551150181e-02 2.0698838040e+00 -3.5851439143e+00 2.0698838040e+00 3.5851439143e+00 
18900 5.0161425974e+00 -6.2074870095e-02 2.0713949699e+00 -3.5877613303e+00 2.0713949699e+00 3.5877613303e+00 
19000 5.0160146262e+00 -6.1598592464e-02 2.0728935336e+00 -3.5903569189e+00 2.0728935336e+00 3.5903569189e+00 
19100 5.0158890816e+00 -6.1122415475e-02 2.0743795228e+00 -3.5929307276e+00 2.0743795228e+00 3.5929307276e+00 
19200 5.0157659139e+00 -6.0646443363e-02 2.0758529669e+00 -3.5954828077e+00 2.0758529669e+00 3.5954828077e+00 
19300 5.0156450739e+00 -6.0170785844e-02 2.0773138977e+00 -3.5980132141e+00 2.0773138977e+00 3.5980132141e+00 
19400 5.0155265131e+00 -5.9695557527e-02 2.0787623493e+00 -3.6005220058e+00 2.0787623493e+00 3.6005220058e+00 
19500 5.0154101834e+00 -5.9220877343e-02 2.0801983582e+00 -3.6030092462e+00 2.0801983582e+00 3.6030092462e+00 
19600 5.0152960376e+00 -5.8746867962e-02 2.0816219634e+00 -3.6054750028e+00 2.0816219634e+00 3.6054750028e+00 
19700 5.0151840293e+00 -5.8273655221e-02 2.0830332067e+00 -3.6079193479e+00 2.0830332067e+00 3.6079193479e+00 
19800 5.0150741127e+00 -5.7801367552e-02 2.0844321324e+00 -3.6103423583e+00 2.0844321324e+00 3.6103423583e+00 
19900 5.0149662431e+00 -5.7330135425e-02 2.0858187876e+00 -3.6127441155e+00 2.0858187876e+00 3.6127441155e+00 
20000 5.0148603766e+00 -5.6860090793e-02 2.0871932221e+00 -3.6151247059e+00 2.0871932221e+00 3.6151247059e+00 
20100 5.0147564705e+00 -5.6391366552e-02 2.0885554887e+00 -3.6174842208e+00 2.0885554887e+00 3.6174842208e+00 
20200 5.0146544829e+00 -5.5924096019e-02 2.0899056428e+00 -3.6198227564e+00 2.0899056428e+00 3.6198227564e+00 
20300 5.0145543730e+00 -5.5458412416e-02 2.0912437429e+00 -3.6221404138e+00 2.0912437429e+00 3.6221404138e+00 
20400 5.0144561009e+00 -5.4994448376e-02 2.0925698502e+00 -3.6244372989e+00 2.0925698502e+00 3.6244372989e+00 
20500 5.0143596282e+00 -5.4532335470e-02 2.0938840285e+00 -3.6267135226e+00 2.0938840285e+00 3.6267135226e+00 
20600 5.0142649171e+00 -5.4072203743e-02 2.0951863448e+00 -3.6289692005e+00 2.0951863448e+00 3.6289692005e+00 
20700 5.0141719311e+00 -5.3614181279e-02 2.0964768684e+00 -3.6312044530e+00 2.0964768684e+00 3.6312044530e+00 
20800 5.0140806350e+00 -5.3158393785e-02 2.0977556717e+00 -3.6334194052e+00 2.0977556717e+00 3.6334194052e+00 
20900 5.0139909944e+00 -5.2704964196e-02 2.0990228293e+00 -3.6356141866e+00 2.0990228293e+00 3.6356141866e+00 
21000 5.0139029761e+00 -5.2254012303e-02 2.1002784187e+00 -3.6377889312e+00 2.1002784187e+00 3.6377889312e+00 
21100 5.0138165478e+00 -5.1805654405e-02 2.1015225196e+00 -3.6399437772e+00 2.1015225196e+00 3.6399437772e+00 
21200 5.0137316784e+00 -5.1360002984e-02 2.1027552144e+00 -3.6420788672e+00 2.1027552144e+00 3.6420788672e+00 
21300 5.0136483378e+00 -5.0917166405e-02 2.1039765874e+00 -3.6441943474e+00 2.1039765874e+00 3.6441943474e+00 
21400 5.0135664967e+00 -5.0477248643e-02 2.1051867255e+00 -3.6462903680e+00 2.1051867255e+00 3.6462903680e+00 
21500 5.0134861269e+00 -5.0040349030e-02 2.1063857174e+00 -3.6483670829e+00 2.1063857174e+00 3.6483670829e+00 
21600 5.0134072010e+00 -4.9606562029e-02 2.1075736539e+00 -3.6504246493e+00 2.1075736539e+00 3.6504246493e+00 
21700 5.0133296925e+00 -4.9175977036e-02 2.1087506277e+00 -3.6524632276e+00 2.1087506277e+00 3.6524632276e+00 
21800 5.0132535758e+00 -4.8748678200e-02 2.1099167330e+00 -3.6544829813e+00 2.1099167330e+00 3.6544829813e+00 
21900 5.0131788258e+00 -4.8324744277e-02 2.1110720659e+00 -3.6564840765e+00 2.1110720659e+00 3.6564840765e+00 
22000 5.0131054183e+00 -4.7904248498e-02 2.1122167238e+00 -3.6584666823e+00 2.1122167238e+00 3.6584666823e+00 
22100 5.0130333300e+00 -4.7487258467e-02 2.1133508057e+00 -3.6604309696e+00 2.1133508057e+00 3.6604309696e+00 
22200 5.0129625378e+00 -4.7073836084e-02 2.1144744114e+00 -3.6623771119e+00 2.1144744114e+00 3.6623771119e+00 
22300 5.0128930195e+00 -4.6664037483e-02 2.1155876423e+00 -3.6643052844e+00 2.1155876423e+00 3.6643052844e+00 
22400 5.0128247534e+00 -4.6257913004e-02 2.1166906004e+00 -3.6662156638e+00 2.1166906004e+00 3.6662156638e+00 
22500 5.0127577182e+00 -4.5855507174e-02 2.1177833886e+00 -3.6681084285e+00 2.1177833886e+00 3.6681084285e+00 
22600 5.0126918932e+00 -4.5456858717e-02 2.1188661106e+00 -3.6699837580e+00 2.1188661106e+00 3.6699837580e+00 
22700 5.0126272582e+00 -4.5062000585e-02 2.1199388705e+00 -3.6718418326e+00 2.1199388705e+00 3.6718418326e+00 
22800 5.0125637931e+00 -4.4670960004e-02 2.1210017729e+00 -3.6736828337e+00 2.1210017729e+00 3.6736828337e+00 
22900 5.0125014786e+00 -4.4283758538e-02 2.1220549228e+00 -3.6755069428e+00 2.1220549228e+00 3.6755069428e+00 
23000 5.0124402954e+00 -4.3900412179e-02 2.1230984252e+00 -3.6773143418e+00 2.1230984252e+00 3.6773143418e+00 
23100 5.0123802246e+00 -4.3520931441e-02 2.1241323851e+00 -3.6791052129e+00 2.1241323851e+00 3.6791052129e+00 
23200 5.0123212478e+00 -4.3145321481e-02 2.1251569076e+00 -3.6808797380e+00 2.1251569076e+00 3.6808797380e+00 
23300 5.0122633465e+00 -4.2773582232e-02 2.1261720974e+00 -3.6826380984e+00 2.1261720974e+00 3.6826380984e+00 
23400 5.0122065027e+00 -4.2405708542e-02 2.1271780591e+00 -3.6843804751e+00 2.1271780591e+00 3.6843804751e+00 
23500 5.0121506986e+00 -4.2041690341e-02 2.1281748966e+00 -3.6861070484e+00 2.1281748966e+00 3.6861070484e+00 
23600 5.0120959166e+00 -4.1681512803e-02 2.1291627135e+00 -3.6878179974e+00 2.1291627135e+00 3.6878179974e+00 
23700 5.0120421393e+00 -4.1325156532e-02 2.1301416125e+00 -3.6895135002e+00 2.1301416125e+00 3.6895135002e+00 
23800 5.0119893494e+00 -4.0972597754e-02 2.1311116957e+00 -3.6911937335e+00 2.1311116957e+00 3.6911937335e+00 
23900 5.0119375300e+00 -4.0623808512e-02 2.1320730643e+00 -3.6928588728e+00 2.1320730643e+00 3.6928588728e+00 
24000 5.0118866642e+00 -4.0278756876e-02 2.1330258185e+00 -3.6945090915e+00 2.1330258185e+00 3.6945090915e+00 
24100 5.0118367354e+00 -3.9937407158e-02 2.1339700576e+00 -3.6961445616e+00 2.1339700576e+00 3.6961445616e+00 
24200 5.0117877271e+00 -3.9599720131e-02 2.1349058796e+00 -3.6977654529e+00 2.1349058796e+00 3.6977654529e+00 
24300 5.0117396229e+00 -3.9265653254e-02 2.1358333816e+00 -3.6993719334e+00 2.1358333816e+00 3.6993719334e+00 
24400 5.0116924068e+00 -3.8935160899e-02 2.1367526590e+00 -3.7009641686e+00 2.1367526590e+00 3.7009641686e+00 
24500 5.0116460628e+00 -3.8608194586e-02 2.1376638063e+00 -3.7025423219e+00 2.1376638063e+00 3.7025423219e+00 
24600 5.0116005751e+00 -3.8284703211e-02 2.1385669163e+00 -3.7041065544e+00 2.1385669163e+00 3.7041065544e+00 
24700 5.0115559282e+00 -3.7964633288e-02 2.1394620805e+00 -3.7056570243e+00 2.1394620805e+00 3.7056570243e+00 
24800 5.0115121068e+00 -3.7647929174e-02 2.1403493890e+00 -3.7071938876e+00 2.1403493890e+00 3.7071938876e+00 
24900 5.0114690955e+00 -3.7334533310e-02 2.1412289301e+00 -3.7087172976e+00 2.1412289301e+00 3.7087172976e+00 
25000 5.0114268795e+00 -3.7024386452e-02 2.1421007908e+00 -3.7102274045e+00 2.1421007908e+00 3.7102274045e+00 
25100 5.0113854440e+00 -3.6717427898e-02 2.1429650562e+00 -3.7117243563e+00 2.1429650562e+00 3.7117243563e+00 
25200 5.0113447743e+00 -3.6413595716e-02 2.1438218101e+00 -3.7132082975e+00 2.1438218101e+00 3.7132082975e+00 
25300 5.0113048562e+00 -3.6112826970e-02 2.1446711344e+00 -3.7146793704e+00 2.1446711344e+00 3.7146793704e+00 
25400 5.0112656756e+00 -3.5815057936e-02 2.1455131094e+00 -3.7161377138e+00 2.1455131094e+00 3.7161377138e+00 
25500 5.0112272185e+00 -3.5520224314e-02 2.1463478137e+00 -3.7175834640e+00 2.1463478137e+00 3.7175834640e+00 
25600 5.0111894712e+00 -3.5228261441e-02 2.1471753242e+00 -3.7190167542e+00 2.1471753242e+00 3.7190167542e+00 
25700 5.0111524203e+00 -3.4939104489e-02 2.1479957160e+00 -3.7204377146e+00 2.1479957160e+00 3.7204377146e+00 
25800 5.0111160527e+00 -3.4652688660e-02 2.1488090628e+00 -3.7218464726e+00 2.1488090628e+00 3.7218464726e+00 
25900 5.0110803553e+00 -3.4368949377e-02 2.1496154364e+00 -3.7232431525e+00 2.1496154364e+00 3.7232431525e+00 
26000 5.0110453154e+00 -3.4087822461e-02 2.1504149068e+00 -3.7246278759e+00 2.1504149068e+00 3.7246278759e+00 
26100 5.0110109206e+00 -3.3809244306e-02 2.1512075425e+00 -3.7260007613e+00 2.1512075425e+00 3.7260007613e+00 
26200 5.0109771586e+00 -3.3533152040e-02 2.1519934105e+00 -3.7273619246e+00 2.1519934105e+00 3.7273619246e+00 
26300 5.0109440174e+00 -3.3259483684e-02 2.1527725759e+00 -3.7287114786e+00 2.1527725759e+00 3.7287114786e+00 
26400 5.0109114852e+00 -3.2988178296e-02 2.1535451023e+00 -3.7300495335e+00 2.1535451023e+00 3.7300495335e+00 
26500 5.0108795504e+00 -3.2719176109e-02 2.1543110517e+00 -3.7313761968e+00 2.1543110517e+00 3.7313761968e+00 
26600 5.0108482019e+00 -3.2452418660e-02 2.1550704847e+00 -3.7326915734e+00 2.1550704847e+00 3.7326915734e+00 
26700 5.0108174285e+00 -3.2187848910e-02 2.1558234602e+00 -3.7339957653e+00 2.1558234602e+00 3.7339957653e+00 
26800 5.0107872195e+00 -3.1925411348e-02 2.1565700359e+00 -3.7352888722e+00 2.1565700359e+00 3.7352888722e+00 
26900 5.0107575641e+00 -3.1665052099e-02 2.1573102677e+00 -3.7365709914e+00 2.1573102677e+00 3.7365709914e+00 
27000 5.0107284521e+00 -3.1406719006e-02 2.1580442105e+00 -3.7378422176e+00 2.1580442105e+00 3.7378422176e+00 
27100 5.0106998731e+00 -3.1150361716e-02 2.1587719177e+00 -3.7391026434e+00 2.1587719177e+00 3.7391026434e+00 
27200 5.0106718174e+00 -3.0895931751e-02 2.1594934412e+00 -3.7403523588e+00 2.1594934412e+00 3.7403523588e+00 
27300 5.0106442751e+00 -3.0643382568e-02 2.1602088321e+00 -3.7415914521e+00 2.1602088321e+00 3.7415914521e+00 
27400 5.0106172367e+00 -3.0392669610e-02 2.1609181399e+00 -3.7428200093e+00 2.1609181399e+00 3.7428200093e+00 
27500 5.0105906929e+00 -3.0143750355e-02 2.1616214131e+00 -3.7440381142e+00 2.1616214131e+00 3.7440381142e+00 
27600 5.0105646344e+00 -2.9896584344e-02 2.1623186992e+00 -3.7452458491e+00 2.1623186992e+00 3.7452458491e+00 
27700 5.0105390523e+00 -2.9651133212e-02 2.1630100445e+00 -3.7464432943e+00 2.1630100445e+00 3.7464432943e+00 
27800 5.0105139378e+00 -2.9407360702e-02 2.1636954943e+00 -3.7476305283e+00 2.1636954943e+00 3.7476305283e+00 
27900 5.0104892824e+00 -2.9165232674e-02 2.1643750932e+00 -3.7488076280e+00 2.1643750932e+00 3.7488076280e+00 
28000 5.0104650774e+00 -2.8924717107e-02 2.1650488846e+00 -3.7499746689e+00 2.1650488846e+00 3.7499746689e+00 
28100 5.0104413148e+00 -2.8685784091e-02 2.1657169111e+00 -3.7511317249e+00 2.1657169111e+00 3.7511317249e+00 
28200 5.0104179863e+00 -2.8448405816e-02 2.1663792148e+00 -3.7522788685e+00 2.1663792148e+00 3.7522788685e+00 
28300 5.0103950839e+00 -2.8212556544e-02 2.1670358368e+00 -3.7534161711e+00 2.1670358368e+00 3.7534161711e+00 
28400 5.0103726000e+00 -2.7978212587e-02 2.1676868174e+00 -3.7545437027e+00 2.1676868174e+00 3.7545437027e+00 
28500 5.0103505267e+00 -2.7745352271e-02 2.1683321966e+00 -3.7556615323e+00 2.1683321966e+00 3.7556615323e+00 
28600 5.0103288565e+00 -2.7513955895e-02 2.1689720136e+00 -3.7567697278e+00 2.1689720136e+00 3.7567697278e+00 
28700 5.0103075822e+00 -2.7284005681e-02 2.1696063071e+00 -3.7578683564e+00 2.1696063071e+00 3.7578683564e+00 
28800 5.0102866963e+00 -2.7055485731e-02 2.1702351153e+00 -3.7589574841e+00 2.1702351153e+00 3.7589574841e+00 
28900 5.0102661919e+00 -2.6828381964e-02 2.1708584759e+00 -3.7600371763e+00 2.1708584759e+00 3.7600371763e+00 
29000 5.0102460618e+00 -2.6602682057e-02 2.1714764262e+00 -3.7611074976e+00 2.1714764262e+00 3.7611074976e+00 
29100 5.0102262993e+00 -2.6378375381e-02 2.1720890033e+00 -3.7621685122e+00 2.1720890033e+00 3.7621685122e+00 
29200 5.0102068975e+00 -2.6155452931e-02 2.1726962437e+00 -3.7632202834e+00 2.1726962437e+00 3.7632202834e+00 
29300 5.0101878499e+00 -2.5933907257e-02 2.1732981838e+00 -3.7642628743e+00 2.1732981838e+00 3.7642628743e+00 
29400 5.0101691500e+00 -2.5713732384e-02 2.1738948597e+00 -3.7652963473e+00 2.1738948597e+00 3.7652963473e+00 
29500 5.0101507912e+00 -2.5494923740e-02 2.1744863073e+00 -3.7663207646e+00 2.1744863073e+00 3.7663207646e+00 
29600 5.0101327674e+00 -2.5277478076e-02 2.1750725623e+00 -3.7673361880e+00 2.1750725623e+00 3.7673361880e+00 
29700 5.0101150724e+00 -2.5061393381e-02 2.1756536602e+00 -3.7683426792e+00 2.1756536602e+00 3.7683426792e+00 
29800 5.0100977001e+00 -2.4846668802e-02 2.1762296365e+00 -3.7693402994e+00 2.1762296365e+00 3.7693402994e+00 
29900 5.0100806446e+00 -2.4633304562e-02 2.1768005265e+00 -3.7703291099e+00 2.1768005265e+00 3.7703291099e+00 
30000 5.0100639000e+00 -2.4421301874e-02 2.1773663655e+00 -3.7713091717e+00 2.1773663655e+00 3.7713091717e+00 
30100 5.0100474605e+00 -2.4210662853e-02 2.1779271886e+00 -3.7722805459e+00 2.1779271886e+00 3.7722805459e+00 
30200 5.0100313206e+00 -2.4001390441e-02 2.1784830312e+00 -3.7732432935e+00 2.1784830312e+00 3.7732432935e+00 
30300 5.0100154747e+00 -2.3793488311e-02 2.1790339284e+00 -3.7741974753e+00 2.1790339284e+00 3.7741974753e+00 
30400 5.0099999173e+00 -2.3586960793e-02 2.1795799153e+00 -3.7751431525e+00 2.1795799153e+00 3.7751431525e+00 
30500 5.0099846431e+00 -2.3381812785e-02 2.1801210273e+00 -3.7760803859e+00 2.1801210273e+00 3.7760803859e+00 
30600 5.0099696469e+00 -2.3178049676e-02 2.1806572996e+00 -3.7770092368e+00 2.1806572996e+00 3.7770092368e+00 
30700 5.0099549236e+00 -2.2975677263e-02 2.1811887676e+00 -3.7779297664e+00 2.1811887676e+00 3.7779297664e+00 
30800 5.0099404680e+00 -2.2774701672e-02 2.1817154667e+00 -3.7788420359e+00 2.1817154667e+00 3.7788420359e+00 
30900 5.0099262753e+00 -2.2575129286e-02 2.1822374323e+00 -3.7797461069e+00 2.1822374323e+00 3.7797461069e+00 
31000 5.0099123406e+00 -2.2376966665e-02 2.1827547000e+00 -3.7806420409e+00 2.1827547000e+00 3.7806420409e+00 
31100 5.0098986591e+00 -2.2180220478e-02 2.1832673056e+00 -3.7815298997e+00 2.1832673056e+00 3.7815298997e+00 
31200 5.0098852262e+00 -2.1984897434e-02 2.1837752846e+00 -3.7824097452e+00 2.1837752846e+00 3.7824097452e+00 
31300 5.0098720373e+00 -2.1791004211e-02 2.1842786730e+00 -3.7832816395e+00 2.1842786730e+00 3.7832816395e+00 
31400 5.0098590878e+00 -2.1598547396e-02 2.1847775066e+00 -3.7841456447e+00 2.1847775066e+00 3.7841456447e+00 
31500 5.0098463735e+00 -2.1407533423e-02 2.1852718215e+00 -3.7850018232e+00 2.1852718215e+00 3.7850018232e+00 
31600 5.0098338899e+00 -2.1217968516e-02 2.1857616538e+00 -3.7858502376e+00 2.1857616538e+00 3.7858502376e+00 
31700 5.0098216328e+00 -2.1029858631e-02 2.1862470396e+00 -3.7866909504e+00 2.1862470396e+00 3.7866909504e+00 
31800 5.0098095981e+00 -2.0843209410e-02 2.1867280152e+00 -3.7875240246e+00 2.1867280152e+00 3.7875240246e+00 
31900 5.0097977817e+00 -2.0658026128e-02 2.1872046169e+00 -3.7883495230e+00 2.1872046169e+00 3.7883495230e+00 
32000 5.0097861797e+00 -2.0474313651e-02 2.1876768811e+00 -3.7891675086e+00 2.1876768811e+00 3.7891675086e+00 
32100 5.0097747880e+00 -2.0292076396e-02 2.1881448442e+00 -3.7899780446e+00 2.1881448442e+00 3.7899780446e+00 
32200 5.0097636029e+00 -2.0111318288e-02 2.1886085428e+00 -3.7907811941e+00 2.1886085428e+00 3.7907811941e+00 
32300 5.0097526206e+00 -1.9932042734e-02 2.1890680133e+00 -3.7915770203e+00 2.1890680133e+00 3.7915770203e+00 
32400 5.0097418374e+00 -1.9754252584e-02 2.1895232923e+00 -3.7923655867e+00 2.1895232923e+00 3.7923655867e+00 
32500 5.0097312497e+00 -1.9577950108e-02 2.1899744163e+00 -3.7931469564e+00 2.1899744163e+00 3.7931469564e+00 
32600 5.0097208540e+00 -1.9403136974e-02 2.1904214219e+00 -3.7939211928e+00 2.1904214219e+00 3.7939211928e+00 
32700 5.0097106467e+00 -1.9229814221e-02 2.1908643456e+00 -3.7946883591e+00 2.1908643456e+00 3.7946883591e+00 
32800 5.0097006245e+00 -1.9057982250e-02 2.1913032239e+00 -3.7954485186e+00 2.1913032239e+00 3.7954485186e+00 
32900 5.0096907840e+00 -1.8887640802e-02 2.1917380933e+00 -3.7962017344e+00 2.1917380933e+00 3.7962017344e+00 
33000 5.0096811219e+00 -1.8718788955e-02 2.1921689901e+00 -3.7969480696e+00 2.1921689901e+00 3.7969480696e+00 
33100 5.0096716350e+00 -1.8551425109e-02 2.1925959507e+00 -3.7976875871e+00 2.1925959507e+00 3.7976875871e+00 
33200 5.0096623202e+00 -1.8385546987e-02 2.1930190114e+00 -3.7984203496e+00 2.1930190114e+00 3.7984203496e+00 
33300 5.0096531743e+00 -1.8221151633e-02 2.1934382082e+00 -3.7991464199e+00 2.1934382082e+00 3.7991464199e+00 
33400 5.0096441942e+00 -1.8058235409e-02 2.1938535772e+00 -3.7998658601e+00 2.1938535772e+00 3.7998658601e+00 
33500 5.0096353770e+00 -1.7896794003e-02 2.1942651544e+00 -3.8005787327e+00 2.1942651544e+00 3.8005787327e+00 
33600 5.0096267198e+00 -1.7736822434e-02 2.1946729754e+00 -3.8012850994e+00 2.1946729754e+00 3.8012850994e+00 
33700 5.0096182197e+00 -1.7578315062e-02 2.1950770758e+00 -3.8019850219e+00 2.1950770758e+00 3.8019850219e+00 
33800 5.0096098737e+00 -1.7421265596e-02 2.1954774911e+00 -3.8026785615e+00 2.1954774911e+00 3.8026785615e+00 
33900 5.0096016793e+00 -1.7265667114e-02 2.1958742565e+00 -3.8033657794e+00 2.1958742565e+00 3.8033657794e+00 
34000 5.0095936335e+00 -1.7111512070e-02 2.1962674071e+00 -3.8040467361e+00 2.1962674071e+00 3.8040467361e+00 
34100 5.0095857338e+00 -1.6958792320e-02 2.1966569775e+00 -3.8047214919e+00 2.1966569775e+00 3.8047214919e+00 
34200 5.0095779775e+00 -1.6807499135e-02 2.1970430025e+00 -3.8053901067e+00 2.1970430025e+00 3.8053901067e+00 
34300 5.0095703621e+00 -1.6657623226e-02 2.1974255163e+00 -3.8060526401e+00 2.1974255163e+00 3.8060526401e+00 
34400 5.0095628849e+00 -1.6509154763e-02 2.1978045531e+00 -3.8067091511e+00 2.1978045531e+00 3.8067091511e+00 
34500 5.0095555434e+00 -1.6362083404e-02 2.1981801467e+00 -3.8073596982e+00 2.1981801467e+00 3.8073596982e+00 
34600 5.0095483353e+00 -1.6216398313e-02 2.1985523306e+00 -3.8080043396e+00 2.1985523306e+00 3.8080043396e+00 
34700 5.0095412581e+00 -1.6072088193e-02 2.1989211381e+00 -3.8086431330e+00 2.1989211381e+00 3.8086431330e+00 
34800 5.0095343094e+00 -1.5929141308e-02 2.1992866021e+00 -3.8092761353e+00 2.1992866021e+00 3.8092761353e+00 
34900 5.0095274870e+00 -1.5787545515e-02 2.1996487554e+00 -3.8099034032e+00 2.1996487554e+00 3.8099034032e+00 
35000 5.0095207885e+00 -1.5647288288e-02 2.2000076303e+00 -3.8105249928e+00 2.2000076303e+00 3.8105249928e+00 
35100 5.0095142116e+00 -1.5508356752e-02 2.2003632589e+00 -3.8111409595e+00 2.2003632589e+00 3.8111409595e+00 
35200 5.0095077543e+00 -1.5370737709e-02 2.2007156728e+00 -3.8117513582e+00 2.2007156728e+00 3.8117513582e+00 
35300 5.0095014142e+00 -1.5234417669e-02 2.2010649033e+00 -3.8123562433e+00 2.2010649033e+00 3.8123562433e+00 
35400 5.0094951893e+00 -1.5099382878e-02 2.2014109816e+00 -3.8129556686e+00 2.2014109816e+00 3.8129556686e+00 
35500 5.0094890775e+00 -1.4965619353e-02 2.2017539384e+00 -3.8135496871e+00 2.2017539384e+00 3.8135496871e+00 
35600 5.0094830767e+00 -1.4833112907e-02 2.2020938039e+00 -3.8141383514e+00 2.2020938039e+00 3.8141383514e+00 
35700 5.0094771850e+00 -1.4701849178e-02 2.2024306081e+00 -3.8147217135e+00 2.2024306081e+00 3.8147217135e+00 
35800 5.0094714002e+00 -1.4571813664e-02 2.2027643808e+00 -3.8152998246e+00 2.2027643808e+00 3.8152998246e+00 
35900 5.0094657206e+00 -1.4442991746e-02 2.2030951510e+00 -3.8158727355e+00 2.2030951510e+00 3.8158727355e+00 
36000 5.0094601441e+00 -1.4315368721e-02 2.2034229478e+00 -3.8164404961e+00 2.2034229478e+00 3.8164404961e+00 
36100 5.0094546689e+00 -1.4188929825e-02 2.2037477996e+00 -3.8170031560e+00 2.2037477996e+00 3.8170031560e+00 
36200 5.0094492931e+00 -1.4063660264e-02 2.2040697347e+00 -3.8175607640e+00 2.2040697347e+00 3.8175607640e+00 
36300 5.0094440150e+00 -1.3939545242e-02 2.2043887809e+00 -3.8181133681e+00 2.2043887809e+00 3.8181133681e+00 
36400 5.0094388328e+00 -1.3816569980e-02 2.2047049655e+00 -3.8186610160e+00 2.2047049655e+00 3.8186610160e+00 
36500 5.0094337446e+00 -1.3694719748e-02 2.2050183158e+00 -3.8192037546e+00 2.2050183158e+00 3.8192037546e+00 
36600 5.0094287489e+00 -1.3573979883e-02 2.2053288584e+00 -3.8197416301e+00 2.2053288584e+00 3.8197416301e+00 
36700 5.0094238438e+00 -1.3454335816e-02 2.2056366196e+00 -3.8202746882e+00 2.2056366196e+00 3.8202746882e+00 
36800 5.0094190279e+00 -1.3335773093e-02 2.2059416256e+00 -3.8208029740e+00 2.2059416256e+00 3.8208029740e+00 
36900 5.0094142993e+00 -1.3218277392e-02 2.2062439019e+00 -3.8213265319e+00 2.2062439019e+00 3.8213265319e+00 
37000 5.0094096566e+00 -1.3101834549e-02 2.2065434738e+00 -3.8218454058e+00 2.2065434738e+00 3.8218454058e+00 
37100 5.0094050983e+00 -1.2986430569e-02 2.2068403664e+00 -3.8223596389e+00 2.2068403664e+00 3.8223596389e+00 
37200 5.0094006226e+00 -1.2872051650e-02 2.2071346043e+00 -3.8228692738e+00 2.2071346043e+00 3.8228692738e+00 
37300 5.0093962282e+00 -1.2758684194e-02 2.2074262117e+00 -3.8233743526e+00 2.2074262117e+00 3.8233743526e+00 
37400 5.0093919136e+00 -1.2646314827e-02 2.2077152126e+00 -3.8238749168e+00 2.2077152126e+00 3.8238749168e+00 
37500 5.0093876773e+00 -1.2534930405e-02 2.2080016306e+00 -3.8243710074e+00 2.2080016306e+00 3.8243710074e+00 
37600 5.0093835180e+00 -1.2424518033e-02 2.2082854890e+00 -3.8248626646e+00 2.2082854890e+00 3.8248626646e+00 
37700 5.0093794341e+00 -1.2315065075e-02 2.2085668109e+00 -3.8253499285e+00 2.2085668109e+00 3.8253499285e+00 
37800 5.0093754243e+00 -1.2206559160e-02 2.2088456190e+00 -3.8258328382e+00 2.2088456190e+00 3.8258328382e+00 
37900 5.0093714874e+00 -1.2098988196e-02 2.2091219356e+00 -3.8263114325e+00 2.2091219356e+00 3.8263114325e+00 
38000 5.0093676219e+00 -1.1992340374e-02 2.2093957828e+00 -3.8267857498e+00 2.2093957828e+00 3.8267857498e+00 
38100 5.0093638266e+00 -1.1886604173e-02 2.2096671825e+00 -3.8272558279e+00 2.2096671825e+00 3.8272558279e+00 
38200 5.0093601001e+00 -1.1781768371e-02 2.2099361561e+00 -3.8277217039e+00 2.2099361561e+00 3.8277217039e+00 
38300 5.0093564414e+00 -1.1677822043e-02 2.2102027250e+00 -3.8281834148e+00 2.2102027250e+00 3.8281834148e+00 
38400 5.0093528490e+00 -1.1574754567e-02 2.2104669102e+00 -3.8286409969e+00 2.2104669102e+00 3.8286409969e+00 
38500 5.0093493219e+00 -1.1472555624e-02 2.2107287323e+00 -3.8290944861e+00 2.2107287323e+00 3.8290944861e+00 
38600 5.0093458588e+00 -1.1371215200e-02 2.2109882119e+00 -3.8295439180e+00 2.2109882119e+00 3.8295439180e+00 
38700 5.0093424585e+00 -1.1270723587e-02 2.2112453692e+00 -3.8299893275e+00 2.2112453692e+00 3.8299893275e+00 
38800 5.0093391201e+00 -1.1171071378e-02 2.2115002243e+00 -3.8304307494e+00 2.2115002243e+00 3.8304307494e+00 
38900 5.0093358422e+00 -1.1072249470e-02 2.2117527968e+00 -3.8308682178e+00 2.2117527968e+00 3.8308682178e+00 
39000 5.0093326238e+00 -1.0974249054e-02 2.2120031064e+00 -3.8313017667e+00 2.2120031064e+00 3.8313017667e+00 
39100 5.0093294640e+00 -1.0877061620e-02 2.2122511723e+00 -3.8317314296e+00 2.2122511723e+00 3.8317314296e+00 
39200 5.0093263614e+00 -1.0780678945e-02 2.2124970138e+00 -3.8321572396e+00 2.2124970138e+00 3.8321572396e+00 
39300 5.0093233153e+00 -1.0685093091e-02 2.2127406498e+00 -3.8325792294e+00 2.2127406498e+00 3.8325792294e+00 
39400 5.0093203244e+00 -1.0590296397e-02 2.2129820990e+00 -3.8329974316e+00 2.2129820990e+00 3.8329974316e+00 
39500 5.0093173879e+00 -1.0496281477e-02 2.2132213799e+00 -3.8334118783e+00 2.2132213799e+00 3.8334118783e+00 
39600 5.0093145048e+00 -1.0403041205e-02 2.2134585109e+00 -3.8338226013e+00 2.2134585109e+00 3.8338226013e+00 
39700 5.0093116740e+00 -1.0310568714e-02 2.2136935102e+00 -3.8342296321e+00 2.2136935102e+00 3.8342296321e+00 
39800 5.0093088946e+00 -1.0218857385e-02 2.2139263959e+00 -3.8346330019e+00 2.2139263959e+00 3.8346330019e+00 
39900 5.0093061658e+00 -1.0127900839e-02 2.2141571857e+00 -3.8350327416e+00 2.2141571857e+00 3.8350327416e+00 
40000 5.0093034865e+00 -1.0037692925e-02 2.2143858975e+00 -3.8354288820e+00 2.2143858975e+00 3.8354288820e+00 
40100 5.0093008559e+00 -9.9482277140e-03 2.2146125487e+00 -3.8358214534e+00 2.2146125487e+00 3.8358214534e+00 
40200 5.0092982731e+00 -9.8594994885e-03 2.2148371567e+00 -3.8362104859e+00 2.2148371567e+00 3.8362104859e+00 
40300 5.0092957372e+00 -9.7715027311e-03 2.2150597389e+00 -3.8365960095e+00 2.2150597389e+00 3.8365960095e+00 
40400 5.0092932475e+00 -9.6842321152e-03 2.2152803123e+00 -3.8369780538e+00 2.2152803123e+00 3.8369780538e+00 
40500 5.0092908029e+00 -9.5976824947e-03 2.2154988939e+00 -3.8373566483e+00 2.2154988939e+00 3.8373566483e+00 
40600 5.0092884028e+00 -9.5118488931e-03 2.2157155006e+00 -3.8377318222e+00 2.2157155006e+00 3.8377318222e+00 
40700 5.0092860464e+00 -9.4267264933e-03 2.2159301492e+00 -3.8381036044e+00 2.2159301492e+00 3.8381036044e+00 
40800 5.0092837327e+00 -9.3423106266e-03 2.2161428562e+00 -3.8384720237e+00 2.2161428562e+00 3.8384720237e+00 
40900 5.0092814612e+00 -9.2585967627e-03 2.2163536381e+00 -3.8388371088e+00 2.2163536381e+00 3.8388371088e+00 
41000 5.0092792309e+00 -9.1755804986e-03 2.2165625114e+00 -3.8391988879e+00 2.2165625114e+00 3.8391988879e+00 
41100 5.0092770411e+00 -9.0932575488e-03 2.2167694924e+00 -3.8395573894e+00 2.2167694924e+00 3.8395573894e+00 
41200 5.0092748912e+00 -9.0116237344e-03 2.2169745971e+00 -3.8399126412e+00 2.2169745971e+00 3.8399126412e+00 
41300 5.0092727804e+00 -8.9306749737e-03 2.2171778417e+00 -3.8402646712e+00 2.2171778417e+00 3.8402646712e+00 
41400 5.0092707079e+00 -8.8504072715e-03 2.2173792421e+00 -3.8406135069e+00 2.2173792421e+00 3.8406135069e+00 
41500 5.0092686731e+00 -8.7708167099e-03 2.2175788141e+00 -3.8409591759e+00 2.2175788141e+00 3.8409591759e+00 
41600 5.0092666753e+00 -8.6918994390e-03 2.2177765737e+00 -3.8413017054e+00 2.2177765737e+00 3.8413017054e+00 
41700 5.0092647139e+00 -8.6136516671e-03 2.2179725363e+00 -3.8416411227e+00 2.2179725363e+00 3.8416411227e+00 
41800 5.0092627881e+00 -8.5360696524e-03 2.2181667177e+00 -3.8419774546e+00 2.2181667177e+00 3.8419774546e+00 
41900 5.0092608973e+00 -8.4591496943e-03 2.2183591332e+00 -3.8423107281e+00 2.2183591332e+00 3.8423107281e+00 
42000 5.0092590410e+00 -8.3828881251e-03 2.2185497982e+00 -3.8426409696e+00 2.2185497982e+00 3.8426409696e+00 
42100 5.0092572183e+00 -8.3072813021e-03 2.2187387281e+00 -3.8429682058e+00 2.2187387281e+00 3.8429682058e+00 
42200 5.0092554289e+00 -8.2323256004e-03 2.2189259380e+00 -3.8432924629e+00 2.2189259380e+00 3.8432924629e+00 
42300 5.0092536719e+00 -8.1580174054e-03 2.2191114431e+00 -3.8436137671e+00 2.2191114431e+00 3.8436137671e+00 
42400 5.0092519470e+00 -8.0843531066e-03 2.2192952583e+00 -3.8439321444e+00 2.2192952583e+00 3.8439321444e+00 
42500 5.0092502534e+00 -8.0113290909e-03 2.2194773987e+00 -3.8442476207e+00 2.2194773987e+00 3.8442476207e+00 
42600 5.0092485906e+00 -7.9389417367e-03 2.2196578789e+00 -3.8445602217e+00 2.2196578789e+00 3.8445602217e+00 
42700 5.0092469580e+00 -7.8671874089e-03 2.2198367139e+00 -3.8448699729e+00 2.2198367139e+00 3.8448699729e+00 
42800 5.0092453552e+00 -7.7960624532e-03 2.2200139182e+00 -3.8451768998e+00 2.2200139182e+00 3.8451768998e+00 
42900 5.0092437815e+00 -7.7255631922e-03 2.2201895064e+00 -3.8454810275e+00 2.2201895064e+00 3.8454810275e+00 
43000 5.0092422364e+00 -7.6556859205e-03 2.2203634930e+00 -3.8457823811e+00 2.2203634930e+00 3.8457823811e+00 
43100 5.0092407195e+00 -7.5864269015e-03 2.2205358923e+00 -3.8460809855e+00 2.2205358923e+00 3.8460809855e+00 
43200 5.0092392301e+00 -7.5177823638e-03 2.2207067188e+00 -3.8463768656e+00 2.2207067188e+00 3.8463768656e+00 
43300 5.0092377679e+00 -7.4497484979e-03 2.2208759864e+00 -3.8466700458e+00 2.2208759864e+00 3.8466700458e+00 
43400 5.0092363322e+00 -7.3823214546e-03 2.2210437095e+00 -3.8469605507e+00 2.2210437095e+00 3.8469605507e+00 
43500 5.0092349227e+00 -7.3154973419e-03 2.2212099019e+00 -3.8472484044e+00 2.2212099019e+00 3.8472484044e+00 
43600 5.0092335388e+00 -7.2492722238e-03 2.2213745777e+00 -3.8475336312e+00 2.2213745777e+00 3.8475336312e+00 
43700 5.0092321802e+00 -7.1836421188e-03 2.2215377505e+00 -3.8478162549e+00 2.2215377505e+00 3.8478162549e+00 
43800 5.0092308462e+00 -7.1186029989e-03 2.2216994343e+00 -3.8480962993e+00 2.2216994343e+00 3.8480962993e+00 
43900 5.0092295365e+00 -7.0541507891e-03 2.2218596424e+00 -3.8483737880e+00 2.2218596424e+00 3.8483737880e+00 
44000 5.0092282507e+00 -6.9902813668e-03 2.2220183886e+00 -3.8486487444e+00 2.2220183886e+00 3.8486487444e+00 
44100 5.0092269883e+00 -6.9269905624e-03 2.2221756862e+00 -3.8489211919e+00 2.2221756862e+00 3.8489211919e+00 
44200 5.0092257488e+00 -6.8642741592e-03 2.2223315486e+00 -3.8491911535e+00 2.2223315486e+00 3.8491911535e+00 
44300 5.0092245319e+00 -6.8021278941e-03 2.2224859890e+00 -3.8494586520e+00 2.2224859890e+00 3.8494586520e+00 
44400 5.0092233372e+00 -6.7405474589e-03 2.2226390204e+00 -3.8497237103e+00 2.2226390204e+00 3.8497237103e+00 
44500 5.0092221642e+00 -6.6795285013e-03 2.2227906560e+00 -3.8499863509e+00 2.2227906560e+00 3.8499863509e+00 
44600 5.0092210126e+00 -6.6190666266e-03 2.2229409087e+00 -3.8502465961e+00 2.2229409087e+00 3.8502465961e+00 
44700 5.0092198819e+00 -6.5591573991e-03 2.2230897912e+00 -3.8505044682e+00 2.2230897912e+00 3.8505044682e+00 
44800 5.0092187719e+00 -6.4997963445e-03 2.2232373163e+00 -3.8507599891e+00 2.2232373163e+00 3.8507599891e+00 
44900 5.0092176820e+00 -6.4409789515e-03 2.2233834965e+00 -3.8510131807e+00 2.2233834965e+00 3.8510131807e+00 
45000 5.0092166120e+00 -6.3827006749e-03 2.2235283444e+00 -3.8512640646e+00 2.2235283444e+00 3.8512640646e+00 
45100 5.0092155615e+00 -6.3249569376e-03 2.2236718724e+00 -3.8515126623e+00 2.2236718724e+00 3.8515126623e+00 
45200 5.0092145302e+00 -6.2677431333e-03 2.2238140927e+00 -3.8517589951e+00 2.2238140927e+00 3.8517589951e+00 
45300 5.0092135176e+00 -6.2110546297e-03 2.2239550174e+00 -3.8520030839e+00 2.2239550174e+00 3.8520030839e+00 
45400 5.0092125234e+00 -6.1548867710e-03 2.2240946587e+00 -3.8522449497e+00 2.2240946587e+00 3.8522449497e+00 
45500 5.0092115474e+00 -6.0992348813e-03 2.2242330285e+00 -3.8524846133e+00 2.2242330285e+00 3.8524846133e+00 
45600 5.0092105892e+00 -6.0440942675e-03 2.2243701386e+00 -3.8527220950e+00 2.2243701386e+00 3.8527220950e+00 
45700 5.0092096484e+00 -5.9894602225e-03 2.2245060008e+00 -3.8529574152e+00 2.2245060008e+00 3.8529574152e+00 
45800 5.0092087247e+00 -5.9353280289e-03 2.2246406267e+00 -3.8531905940e+00 2.2246406267e+00 3.8531905940e+00 
45900 5.0092078179e+00 -5.8816929616e-03 2.2247740277e+00 -3.8534216514e+00 2.2247740277e+00 3.8534216514e+00 
46000 5.0092069276e+00 -5.8285502916e-03 2.2249062153e+00 -3.8536506070e+00 2.2249062153e+00 3.8536506070e+00 
46100 5.0092060535e+00 -5.7758952893e-03 2.2250372008e+00 -3.8538774805e+00 2.2250372008e+00 3.8538774805e+00 
46200 5.0092051954e+00 -5.7237232276e-03 2.2251669953e+00 -3.8541022912e+00 2.2251669953e+00 3.8541022912e+00 
46300 5.0092043529e+00 -5.6720293854e-03 2.2252956099e+00 -3.8543250582e+00 2.2252956099e+00 3.8543250582e+00 
46400 5.0092035258e+00 -5.6208090509e-03 2.2254230555e+00 -3.8545458005e+00 2.2254230555e+00 3.8545458005e+00 
46500 5.0092027137e+00 -5.5700575247e-03 2.2255493430e+00 -3.8547645368e+00 2.2255493430e+00 3.8547645368e+00 
46600 5.0092019164e+00 -5.5197701230e-03 2.2256744831e+00 -3.8549812858e+00 2.2256744831e+00 3.8549812858e+00 
46700 5.0092011337e+00 -5.4699421809e-03 2.2257984864e+00 -3.8551960659e+00 2.2257984864e+00 3.8551960659e+00 
46800 5.0092003652e+00 -5.4205690552e-03 2.2259213635e+00 -3.8554088953e+00 2.2259213635e+00 3.8554088953e+00 
46900 5.0091996108e+00 -5.3716461275e-03 2.2260431248e+00 -3.8556197919e+00 2.2260431248e+00 3.8556197919e+00 
47000 5.0091988701e+00 -5.3231688071e-03 2.2261637804e+00 -3.8558287737e+00 2.2261637804e+00 3.8558287737e+00 
47100 5.0091981429e+00 -5.2751325336e-03 2.2262833407e+00 -3.8560358582e+00 2.2262833407e+00 3.8560358582e+00 
47200 5.0091974289e+00 -5.2275327797e-03 2.2264018158e+00 -3.8562410630e+00 2.2264018158e+00 3.8562410630e+00 
47300 5.0091967280e+00 -5.1803650537e-03 2.2265192155e+00 -3.8564444052e+00 2.2265192155e+00 3.8564444052e+00 
47400 5.0091960399e+00 -5.1336249019e-03 2.2266355497e+00 -3.8566459021e+00 2.2266355497e+00 3.8566459021e+00 
47500 5.0091953643e+00 -5.0873079108e-03 2.2267508284e+00 -3.8568455705e+00 2.2267508284e+00 3.8568455705e+00 
47600 5.0091947010e+00 -5.0414097093e-03 2.2268650610e+00 -3.8570434272e+00 2.2268650610e+00 3.8570434272e+00 
47700 5.0091940499e+00 -4.9959259711e-03 2.2269782572e+00 -3.8572394887e+00 2.2269782572e+00 3.8572394887e+00 
47800 5.0091934106e+00 -4.9508524159e-03 2.2270904264e+00 -3.8574337715e+00 2.2270904264e+00 3.8574337715e+00 
47900 5.0091927829e+00 -4.9061848116e-03 2.2272015780e+00 -3.8576262918e+00 2.2272015780e+00 3.8576262918e+00 
48000 5.0091921667e+00 -4.8619189758e-03 2.2273117212e+00 -3.8578170655e+00 2.2273117212e+00 3.8578170655e+00 
48100 5.0091915618e+00 -4.8180507772e-03 2.2274208653e+00 -3.8580061086e+00 2.2274208653e+00 3.8580061086e+00 
48200 5.0091909679e+00 -4.7745761370e-03 2.2275290194e+00 -3.8581934369e+00 2.2275290194e+00 3.8581934369e+00 
48300 5.0091903848e+00 -4.7314910299e-03 2.2276361922e+00 -3.8583790657e+00 2.2276361922e+00 3.8583790657e+00 
48400 5.0091898124e+00 -4.6887914854e-03 2.2277423929e+00 -3.8585630107e+00 2.2277423929e+00 3.8585630107e+00 
48500 5.0091892504e+00 -4.6464735883e-03 2.2278476301e+00 -3.8587452869e+00 2.2278476301e+00 3.8587452869e+00 
48600 5.0091886987e+00 -4.6045334796e-03 2.2279519126e+00 -3.8589259095e+00 2.2279519126e+00 3.8589259095e+00 
48700 5.0091881570e+00 -4.5629673574e-03 2.2280552490e+00 -3.8591048933e+00 2.2280552490e+00 3.8591048933e+00 
48800 5.0091876252e+00 -4.5217714768e-03 2.2281576477e+00 -3.8592822532e+00 2.2281576477e+00 3.8592822532e+00 
48900 5.0091871032e+00 -4.4809421506e-03 2.2282591174e+00 -3.8594580037e+00 2.2282591174e+00 3.8594580037e+00 
49000 5.0091865906e+00 -4.4404757492e-03 2.2283596662e+00 -3.8596321593e+00 2.2283596662e+00 3.8596321593e+00 
49100 5.0091860874e+00 -4.4003687010e-03 2.2284593024e+00 -3.8598047344e+00 2.2284593024e+00 3.8598047344e+00 
49200 5.0091855934e+00 -4.3606174921e-03 2.2285580343e+00 -3.8599757431e+00 2.2285580343e+00 3.8599757431e+00 
49300 5.0091851084e+00 -4.3212186661e-03 2.2286558700e+00 -3.8601451995e+00 2.2286558700e+00 3.8601451995e+00 
49400 5.0091846323e+00 -4.2821688240e-03 2.2287528175e+00 -3.8603131174e+00 2.2287528175e+00 3.8603131174e+00 
49500 5.0091841649e+00 -4.2434646236e-03 2.2288488846e+00 -3.8604795106e+00 2.2288488846e+00 3.8604795106e+00 
49600 5.0091837060e+00 -4.2051027788e-03 2.2289440794e+00 -3.8606443927e+00 2.2289440794e+00 3.8606443927e+00 
49700 5.0091832554e+00 -4.1670800596e-03 2.2290384095e+00 -3.8608077774e+00 2.2290384095e+00 3.8608077774e+00 
49800 5.0091828132e+00 -4.1293932907e-03 2.2291318828e+00 -3.8609696778e+00 2.2291318828e+00 3.8609696778e+00 
49900 5.0091823789e+00 -4.0920393511e-03 2.2292245068e+00 -3.8611301072e+00 2.2292245068e+00 3.8611301072e+00 
50000 5.0091819527e+00 -4.0550151732e-03 2.2293162891e+00 -3.8612890789e+00 2.2293162891e+00 3.8612890789e+00 
50100 5.0091815342e+00 -4.0183177415e-03 2.2294072372e+00 -3.8614466056e+00 2.2294072372e+00 3.8614466056e+00 
50200 5.0091811233e+00 -3.9819440922e-03 2.2294973586e+00 -3.8616027004e+00 2.2294973586e+00 3.8616027004e+00 
50300 5.0091807200e+00 -3.9458913113e-03 2.2295866606e+00 -3.8617573760e+00 2.2295866606e+00 3.8617573760e+00 
50400 5.0091803240e+00 -3.9101565342e-03 2.2296751505e+00 -3.8619106450e+00 2.2296751505e+00 3.8619106450e+00 
50500 5.0091799352e+00 -3.8747369440e-03 2.2297628355e+00 -3.8620625199e+00 2.2297628355e+00 3.8620625199e+00 
50600 5.0091795536e+00 -3.8396297704e-03 2.2298497228e+00 -3.8622130131e+00 2.2298497228e+00 3.8622130131e+00 
50700 5.0091791789e+00 -3.8048322884e-03 2.2299358195e+00 -3.8623621370e+00 2.2299358195e+00 3.8623621370e+00 
50800 5.0091788111e+00 -3.7703418170e-03 2.2300211326e+00 -3.8625099037e+00 2.2300211326e+00 3.8625099037e+00 
50900 5.0091784500e+00 -3.7361557178e-03 2.2301056692e+00 -3.8626563253e+00 2.2301056692e+00 3.8626563253e+00 
51000 5.0091780956e+00 -3.7022713937e-03 2.2301894361e+00 -3.8628014137e+00 2.2301894361e+00 3.8628014137e+00 
51100 5.0091777475e+00 -3.6686862871e-03 2.2302724401e+00 -3.8629451809e+00 2.2302724401e+00 3.8629451809e+00 
51200 5.0091774059e+00 -3.6353978791e-03 2.2303546881e+00 -3.8630876387e+00 2.2303546881e+00 3.8630876387e+00 
51300 5.0091770705e+00 -3.6024036876e-03 2.2304361868e+00 -3.8632287985e+00 2.2304361868e+00 3.8632287985e+00 
51400 5.0091767412e+00 -3.5697012661e-03 2.2305169429e+00 -3.8633686722e+00 2.2305169429e+00 3.8633686722e+00 
51500 5.0091764180e+00 -3.5372882022e-03 2.2305969629e+00 -3.8635072710e+00 2.2305969629e+00 3.8635072710e+00 
51600 5.0091761006e+00 -3.5051621161e-03 2.2306762536e+00 -3.8636446064e+00 2.2306762536e+00 3.8636446064e+00 
51700 5.0091757891e+00 -3.4733206594e-03 2.2307548213e+00 -3.8637806897e+00 2.2307548213e+00 3.8637806897e+00 
51800 5.0091754833e+00 -3.4417615134e-03 2.2308326725e+00 -3.8639155320e+00 2.2308326725e+00 3.8639155320e+00 
51900 5.0091751830e+00 -3.4104823879e-03 2.2309098137e+00 -3.8640491444e+00 2.2309098137e+00 3.8640491444e+00 
52000 5.0091748883e+00 -3.3794810201e-03 2.2309862512e+00 -3.8641815380e+00 2.2309862512e+00 3.8641815380e+00 
52100 5.0091745989e+00 -3.3487551727e-03 2.2310619912e+00 -3.8643127236e+00 2.2310619912e+00 3.8643127236e+00 
52200 5.0091743149e+00 -3.3183026331e-03 2.2311370401e+00 -3.8644427121e+00 2.2311370401e+00 3.8644427121e+00 
52300 5.0091740360e+00 -3.2881212119e-03 2.2312114040e+00 -3.8645715142e+00 2.2312114040e+00 3.8645715142e+00 
52400 5.0091737622e+00 -3.2582087416e-03 2.2312850891e+00 -3.8646991404e+00 2.2312850891e+00 3.8646991404e+00 
52500 5.0091734935e+00 -3.2285630758e-03 2.2313581014e+00 -3.8648256015e+00 2.2313581014e+00 3.8648256015e+00 
52600 5.0091732296e+00 -3.1991820876e-03 2.2314304470e+00 -3.8649509078e+00 2.2314304470e+00 3.8649509078e+00 
52700 5.0091729706e+00 -3.1700636687e-03 2.2315021320e+00 -3.8650750698e+00 2.2315021320e+00 3.8650750698e+00 
52800 5.0091727164e+00 -3.1412057284e-03 2.2315731622e+00 -3.8651980977e+00 2.2315731622e+00 3.8651980977e+00 
52900 5.0091724668e+00 -3.1126061924e-03 2.2316435435e+00 -3.8653200017e+00 2.2316435435e+00 3.8653200017e+00 
53000 5.0091722217e+00 -3.0842630020e-03 2.2317132819e+00 -3.8654407921e+00 2.2317132819e+00 3.8654407921e+00 
53100 5.0091719812e+00 -3.0561741132e-03 2.2317823830e+00 -3.8655604788e+00 2.2317823830e+00 3.8655604788e+00 
53200 5.0091717450e+00 -3.0283374957e-03 2.2318508527e+00 -3.8656790718e+00 2.2318508527e+00 3.8656790718e+00 
53300 5.0091715132e+00 -3.0007511322e-03 2.2319186967e+00 -3.8657965810e+00 2.2319186967e+00 3.8657965810e+00 
53400 5.0091712856e+00 -2.9734130174e-03 2.2319859206e+00 -3.8659130163e+00 2.2319859206e+00 3.8659130163e+00 
53500 5.0091710622e+00 -2.9463211578e-03 2.2320525301e+00 -3.8660283872e+00 2.2320525301e+00 3.8660283872e+00 
53600 5.0091708429e+00 -2.9194735704e-03 2.2321185307e+00 -3.8661427036e+00 2.2321185307e+00 3.8661427036e+00 
53700 5.0091706276e+00 -2.8928682826e-03 2.2321839279e+00 -3.8662559750e+00 2.2321839279e+00 3.8662559750e+00 
53800 5.0091704162e+00 -2.8665033314e-03 2.2322487273e+00 -3.8663682108e+00 2.2322487273e+00 3.8663682108e+00 
53900 5.0091702087e+00 -2.8403767629e-03 2.2323129342e+00 -3.8664794204e+00 2.2323129342e+00 3.8664794204e+00 
54000 5.0091700051e+00 -2.8144866320e-03 2.2323765541e+00 -3.8665896133e+00 2.2323765541e+00 3.8665896133e+00 
54100 5.0091698051e+00 -2.7888310019e-03 2.2324395923e+00 -3.8666987987e+00 2.2324395923e+00 3.8666987987e+00 
54200 5.0091696088e+00 -2.7634079435e-03 2.2325020541e+00 -3.8668069857e+00 2.2325020541e+00 3.8668069857e+00 
54300 5.0091694161e+00 -2.7382155355e-03 2.2325639448e+00 -3.8669141835e+00 2.2325639448e+00 3.8669141835e+00 
54400 5.0091692270e+00 -2.7132518640e-03 2.2326252695e+00 -3.8670204010e+00 2.2326252695e+00 3.8670204010e+00 
54500 5.0091690413e+00 -2.6885150221e-03 2.2326860335e+00 -3.8671256474e+00 2.2326860335e+00 3.8671256474e+00 
54600 5.0091688590e+00 -2.6640031100e-03 2.2327462418e+00 -3.8672299313e+00 2.2327462418e+00 3.8672299313e+00 
54700 5.0091686800e+00 -2.6397142346e-03 2.2328058997e+00 -3.8673332616e+00 2.2328058997e+00 3.8673332616e+00 
54800 5.0091685044e+00 -2.6156465096e-03 2.2328650120e+00 -3.8674356471e+00 2.2328650120e+00 3.8674356471e+00 
54900 5.0091683319e+00 -2.5917980553e-03 2.2329235837e+00 -3.8675370965e+00 2.2329235837e+00 3.8675370965e+00 
55000 5.0091681627e+00 -2.5681669989e-03 2.2329816200e+00 -3.8676376182e+00 2.2329816200e+00 3.8676376182e+00 
55100 5.0091679965e+00 -2.5447514740e-03 2.2330391256e+00 -3.8677372207e+00 2.2330391256e+00 3.8677372207e+00 
55200 5.0091678333e+00 -2.5215496211e-03 2.2330961053e+00 -3.8678359126e+00 2.2330961053e+00 3.8678359126e+00 
55300 5.0091676732e+00 -2.4985595875e-03 2.2331525642e+00 -3.8679337022e+00 2.2331525642e+00 3.8679337022e+00 
55400 5.0091675160e+00 -2.4757795272e-03 2.2332085068e+00 -3.8680305978e+00 2.2332085068e+00 3.8680305978e+00 
55500 5.0091673617e+00 -2.4532076016e-03 2.2332639381e+00 -3.8681266075e+00 2.2332639381e+00 3.8681266075e+00 
55600 5.0091672102e+00 -2.4308419791e-03 2.2333188626e+00 -3.8682217395e+00 2.2333188626e+00 3.8682217395e+00 
55700 5.0091670615e+00 -2.4086808356e-03 2.2333732850e+00 -3.8683160018e+00 2.2333732850e+00 3.8683160018e+00 
55800 5.0091669155e+00 -2.3867223545e-03 2.2334272099e+00 -3.8684094026e+00 2.2334272099e+00 3.8684094026e+00 
55900 5.0091667722e+00 -2.3649647272e-03 2.2334806420e+00 -3.8685019496e+00 2.2334806420e+00 3.8685019496e+00 
56000 5.0091666315e+00 -2.3434061529e-03 2.2335335857e+00 -3.8685936508e+00 2.2335335857e+00 3.8685936508e+00 
56100 5.0091664934e+00 -2.3220448394e-03 2.2335860455e+00 -3.8686845138e+00 2.2335860455e+00 3.8686845138e+00 
56200 5.0091663579e+00 -2.3008790030e-03 2.2336380259e+00 -3.8687745465e+00 2.2336380259e+00 3.8687745465e+00 
56300 5.0091662248e+00 -2.2799068688e-03 2.2336895313e+00 -3.8688637565e+00 2.2336895313e+00 3.8688637565e+00 
56400 5.0091660942e+00 -2.2591266711e-03 2.2337405660e+00 -3.8689521513e+00 2.2337405660e+00 3.8689521513e+00 
56500 5.0091659660e+00 -2.2385366537e-03 2.2337911344e+00 -3.8690397383e+00 2.2337911344e+00 3.8690397383e+00 
56600 5.0091658401e+00 -2.2181350701e-03 2.2338412408e+00 -3.8691265252e+00 2.2338412408e+00 3.8691265252e+00 
56700 5.0091657165e+00 -2.1979201839e-03 2.2338908895e+00 -3.8692125191e+00 2.2338908895e+00 3.8692125191e+00 
56800 5.0091655952e+00 -2.1778902689e-03 2.2339400845e+00 -3.8692977275e+00 2.2339400845e+00 3.8692977275e+00 
56900 5.0091654762e+00 -2.1580436099e-03 2.2339888302e+00 -3.8693821575e+00 2.2339888302e+00 3.8693821575e+00 
57000 5.0091653593e+00 -2.1383785022e-03 2.2340371306e+00 -3.8694658162e+00 2.2340371306e+00 3.8694658162e+00 
57100 5.0091652445e+00 -2.1188932527e-03 2.2340849899e+00 -3.8695487109e+00 2.2340849899e+00 3.8695487109e+00 
57200 5.0091651319e+00 -2.0995861797e-03 2.2341324120e+00 -3.8696308484e+00 2.2341324120e+00 3.8696308484e+00 
57300 5.0091650214e+00 -2.0804556134e-03 2.2341794010e+00 -3.8697122357e+00 2.2341794010e+00 3.8697122357e+00 
57400 5.0091649128e+00 -2.0614998962e-03 2.2342259609e+00 -3.8697928798e+00 2.2342259609e+00 3.8697928798e+00 
57500 5.0091648063e+00 -2.0427173828e-03 2.2342720956e+00 -3.8698727875e+00 2.2342720956e+00 3.8698727875e+00 
57600 5.0091647017e+00 -2.0241064404e-03 2.2343178090e+00 -3.8699519654e+00 2.2343178090e+00 3.8699519654e+00 
57700 5.0091645991e+00 -2.0056654494e-03 2.2343631050e+00 -3.8700304204e+00 2.2343631050e+00 3.8700304204e+00 
57800 5.0091644983e+00 -1.9873928033e-03 2.2344079874e+00 -3.8701081590e+00 2.2344079874e+00 3.8701081590e+00 
57900 5.0091643994e+00 -1.9692869088e-03 2.2344524600e+00 -3.8701851879e+00 2.2344524600e+00 3.8701851879e+00 
58000 5.0091643023e+00 -1.9513461863e-03 2.2344965266e+00 -3.8702615134e+00 2.2344965266e+00 3.8702615134e+00 
58100 5.0091642070e+00 -1.9335690702e-03 2.2345401909e+00 -3.8703371421e+00 2.2345401909e+00 3.8703371421e+00 
58200 5.0091641134e+00 -1.9159540086e-03 2.2345834565e+00 -3.8704120804e+00 2.2345834565e+00 3.8704120804e+00 
58300 5.0091640216e+00 -1.8984994638e-03 2.2346263271e+00 -3.8704863345e+00 2.2346263271e+00 3.8704863345e+00 
58400 5.0091639314e+00 -1.8812039127e-03 2.2346688064e+00 -3.8705599107e+00 2.2346688064e+00 3.8705599107e+00 
58500 5.0091638429e+00 -1.8640658464e-03 2.2347108978e+00 -3.8706328153e+00 2.2347108978e+00 3.8706328153e+00 
58600 5.0091637561e+00 -1.8470837706e-03 2.2347526051e+00 -3.8707050543e+00 2.2347526051e+00 3.8707050543e+00 
58700 5.0091636708e+00 -1.8302562059e-03 2.2347939316e+00 -3.8707766339e+00 2.2347939316e+00 3.8707766339e+00 
58800 5.0091635871e+00 -1.8135816875e-03 2.2348348808e+00 -3.8708475600e+00 2.2348348808e+00 3.8708475600e+00 
58900 5.0091635049e+00 -1.7970587656e-03 2.2348754562e+00 -3.8709178387e+00 2.2348754562e+00 3.8709178387e+00 
59000 5.0091634243e+00 -1.7806860053e-03 2.2349156612e+00 -3.8709874759e+00 2.2349156612e+00 3.8709874759e+00 
59100 5.0091633451e+00 -1.7644619867e-03 2.2349554992e+00 -3.8710564773e+00 2.2349554992e+00 3.8710564773e+00 
59200 5.0091632674e+00 -1.7483853050e-03 2.2349949735e+00 -3.8711248488e+00 2.2349949735e+00 3.8711248488e+00 
59300 5.0091631911e+00 -1.7324545702e-03 2.2350340875e+00 -3.8711925962e+00 2.2350340875e+00 3.8711925962e+00 
59400 5.0091631162e+00 -1.7166684075e-03 2.2350728444e+00 -3.8712597251e+00 2.2350728444e+00 3.8712597251e+00 
59500 5.0091630427e+00 -1.7010254572e-03 2.2351112475e+00 -3.8713262412e+00 2.2351112475e+00 3.8713262412e+00 
59600 5.0091629706e+00 -1.6855243744e-03 2.2351492999e+00 -3.8713921500e+00 2.2351492999e+00 3.8713921500e+00 
59700 5.0091628998e+00 -1.6701638292e-03 2.2351870050e+00 -3.8714574571e+00 2.2351870050e+00 3.8714574571e+00 
59800 5.0091628302e+00 -1.6549425066e-03 2.2352243658e+00 -3.8715221679e+00 2.2352243658e+00 3.8715221679e+00 
59900 5.0091627620e+00 -1.6398591063e-03 2.2352613855e+00 -3.8715862880e+00 2.2352613855e+00 3.8715862880e+00 
60000 5.0091626950e+00 -1.6249123428e-03 2.2352980672e+00 -3.8716498225e+00 2.2352980672e+00 3.8716498225e+00 
60100 5.0091626293e+00 -1.6101009453e-03 2.2353344140e+00 -3.8717127770e+00 2.2353344140e+00 3.8717127770e+00 
60200 5.0091625647e+00 -1.5954236572e-03 2.2353704289e+00 -3.8717751565e+00 2.2353704289e+00 3.8717751565e+00 
60300 5.0091625014e+00 -1.5808792366e-03 2.2354061148e+00 -3.8718369665e+00 2.2354061148e+00 3.8718369665e+00 
60400 5.0091624392e+00 -1.5664664555e-03 2.2354414749e+00 -3.8718982119e+00 2.2354414749e+00 3.8718982119e+00 
60500 5.0091623782e+00 -1.5521841002e-03 2.2354765121e+00 -3.8719588981e+00 2.2354765121e+00 3.8719588981e+00 
60600 5.0091623182e+00 -1.5380309710e-03 2.2355112293e+00 -3.8720190300e+00 2.2355112293e+00 3.8720190300e+00 
60700 5.0091622594e+00 -1.5240058817e-03 2.2355456293e+00 -3.8720786127e+00 2.2355456293e+00 3.8720786127e+00 
60800 5.0091622017e+00 -1.5101076598e-03 2.2355797152e+00 -3.8721376511e+00 2.2355797152e+00 3.8721376511e+00 
60900 5.0091621450e+00 -1.4963351464e-03 2.2356134897e+00 -3.8721961502e+00 2.2356134897e+00 3.8721961502e+00 
61000 5.0091620894e+00 -1.4826871954e-03 2.2356469556e+00 -3.8722541150e+00 2.2356469556e+00 3.8722541150e+00 
61100 5.0091620348e+00 -1.4691626742e-03 2.2356801159e+00 -3.8723115502e+00 2.2356801159e+00 3.8723115502e+00 
61200 5.0091619812e+00 -1.4557604626e-03 2.2357129731e+00 -3.8723684606e+00 2.2357129731e+00 3.8723684606e+00 
61300 5.0091619286e+00 -1.4424794533e-03 2.2357455302e+00 -3.8724248510e+00 2.2357455302e+00 3.8724248510e+00 
61400 5.0091618770e+00 -1.4293185512e-03 2.2357777897e+00 -3.8724807262e+00 2.2357777897e+00 3.8724807262e+00 
61500 5.0091618263e+00 -1.4162766736e-03 2.2358097545e+00 -3.8725360908e+00 2.2358097545e+00 3.8725360908e+00 
61600 5.0091617766e+00 -1.4033527495e-03 2.2358414271e+00 -3.8725909494e+00 2.2358414271e+00 3.8725909494e+00 
61700 5.0091617277e+00 -1.3905457199e-03 2.2358728103e+00 -3.8726453067e+00 2.2358728103e+00 3.8726453067e+00 
61800 5.0091616798e+00 -1.3778545373e-03 2.2359039066e+00 -3.8726991671e+00 2.2359039066e+00 3.8726991671e+00 
61900 5.0091616328e+00 -1.3652781653e-03 2.2359347187e+00 -3.8727525352e+00 2.2359347187e+00 3.8727525352e+00 
62000 5.0091615866e+00 -1.3528155789e-03 2.2359652492e+00 -3.8728054155e+00 2.2359652492e+00 3.8728054155e+00 
62100 5.0091615413e+00 -1.3404657636e-03 2.2359955005e+00 -3.8728578123e+00 2.2359955005e+00 3.8728578123e+00 
62200 5.0091614968e+00 -1.3282277159e-03 2.2360254753e+00 -3.8729097302e+00 2.2360254753e+00 3.8729097302e+00 
62300 5.0091614531e+00 -1.3161004425e-03 2.2360551760e+00 -3.8729611733e+00 2.2360551760e+00 3.8729611733e+00 
62400 5.0091614102e+00 -1.3040829603e-03 2.2360846051e+00 -3.8730121460e+00 2.2360846051e+00 3.8730121460e+00 
62500 5.0091613682e+00 -1.2921742964e-03 2.2361137651e+00 -3.8730626527e+00 2.2361137651e+00 3.8730626527e+00 
62600 5.0091613269e+00 -1.2803734874e-03 2.2361426585e+00 -3.8731126975e+00 2.2361426585e+00 3.8731126975e+00 
62700 5.0091612863e+00 -1.2686795797e-03 2.2361712876e+00 -3.8731622846e+00 2.2361712876e+00 3.8731622846e+00 
62800 5.0091612465e+00 -1.2570916288e-03 2.2361996549e+00 -3.8732114182e+00 2.2361996549e+00 3.8732114182e+00 
62900 5.0091612075e+00 -1.2456086996e-03 2.2362277627e+00 -3.8732601023e+00 2.2362277627e+00 3.8732601023e+00 
63000 5.0091611691e+00 -1.2342298657e-03 2.2362556135e+00 -3.8733083412e+00 2.2362556135e+00 3.8733083412e+00 
63100 5.0091611315e+00 -1.2229542097e-03 2.2362832094e+00 -3.8733561388e+00 2.2362832094e+00 3.8733561388e+00 
63200 5.0091610946e+00 -1.2117808226e-03 2.2363105529e+00 -3.8734034992e+00 2.2363105529e+00 3.8734034992e+00 
63300 5.0091610583e+00 -1.2007088039e-03 2.2363376463e+00 -3.8734504262e+00 2.2363376463e+00 3.8734504262e+00 
63400 5.0091610227e+00 -1.1897372611e-03 2.2363644918e+00 -3.8734969240e+00 2.2363644918e+00 3.8734969240e+00 
63500 5.0091609878e+00 -1.1788653099e-03 2.2363910916e+00 -3.8735429963e+00 2.2363910916e+00 3.8735429963e+00 
63600 5.0091609535e+00 -1.1680920739e-03 2.2364174481e+00 -3.8735886470e+00 2.2364174481e+00 3.8735886470e+00 
63700 5.0091609199e+00 -1.1574166841e-03 2.2364435634e+00 -3.8736338801e+00 2.2364435634e+00 3.8736338801e+00 
63800 5.0091608869e+00 -1.1468382793e-03 2.2364694397e+00 -3.8736786992e+00 2.2364694397e+00 3.8736786992e+00 
63900 5.0091608544e+00 -1.1363560057e-03 2.2364950793e+00 -3.8737231081e+00 2.2364950793e+00 3.8737231081e+00 
64000 5.0091608226e+00 -1.1259690165e-03 2.2365204841e+00 -3.8737671107e+00 2.2365204841e+00 3.8737671107e+00 
64100 5.0091607914e+00 -1.1156764722e-03 2.2365456565e+00 -3.8738107106e+00 2.2365456565e+00 3.8738107106e+00 
64200 5.0091607607e+00 -1.1054775401e-03 2.2365705985e+00 -3.8738539114e+00 2.2365705985e+00 3.8738539114e+00 
64300 5.0091607307e+00 -1.0953713947e-03 2.2365953123e+00 -3.8738967168e+00 2.2365953123e+00 3.8738967168e+00 
64400 5.0091607011e+00 -1.0853572167e-03 2.2366197998e+00 -3.8739391304e+00 2.2366197998e+00 3.8739391304e+00 
64500 5.0091606721e+00 -1.0754341938e-03 2.2366440632e+00 -3.8739811558e+00 2.2366440632e+00 3.8739811558e+00 
64600 5.0091606437e+00 -1.0656015200e-03 2.2366681044e+00 -3.8740227966e+00 2.2366681044e+00 3.8740227966e+00 
64700 5.0091606158e+00 -1.0558583959e-03 2.2366919257e+00 -3.8740640561e+00 2.2366919257e+00 3.8740640561e+00 
64800 5.0091605884e+00 -1.0462040281e-03 2.2367155288e+00 -3.8741049380e+00 2.2367155288e+00 3.8741049380e+00 
64900 5.0091605615e+00 -1.0366376296e-03 2.2367389159e+00 -3.8741454457e+00 2.2367389159e+00 3.8741454457e+00 
65000 5.0091605351e+00 -1.0271584195e-03 2.2367620889e+00 -3.8741855825e+00 2.2367620889e+00 3.8741855825e+00 
65100 5.0091605091e+00 -1.0177656231e-03 2.2367850498e+00 -3.8742253519e+00 2.2367850498e+00 3.8742253519e+00 
65200 5.0091604837e+00 -1.0084584713e-03 2.2368078005e+00 -3.8742647572e+00 2.2368078005e+00 3.8742647572e+00 
65300 5.0091604587e+00 -9.9923620126e-04 2.2368303429e+00 -3.8743038018e+00 2.2368303429e+00 3.8743038018e+00 
65400 5.0091604342e+00 -9.9009805583e-04 2.2368526789e+00 -3.8743424889e+00 2.2368526789e+00 3.8743424889e+00 
65500 5.0091604102e+00 -9.8104328369e-04 2.2368748104e+00 -3.8743808219e+00 2.2368748104e+00 3.8743808219e+00 
65600 5.0091603866e+00 -9.7207113921e-04 2.2368967394e+00 -3.8744188039e+00 2.2368967394e+00 3.8744188039e+00 
65700 5.0091603634e+00 -9.6318088249e-04 2.2369184675e+00 -3.8744564381e+00 2.2369184675e+00 3.8744564381e+00 
65800 5.0091603407e+00 -9.5437177925e-04 2.2369399967e+00 -3.8744937278e+00 2.2369399967e+00 3.8744937278e+00 
65900 5.0091603183e+00 -9.4564310083e-04 2.2369613289e+00 -3.8745306761e+00 2.2369613289e+00 3.8745306761e+00 
66000 5.0091602964e+00 -9.3699412410e-04 2.2369824657e+00 -3.8745672862e+00 2.2369824657e+00 3.8745672862e+00 
66100 5.0091602749e+00 -9.2842413151e-04 2.2370034090e+00 -3.8746035610e+00 2.2370034090e+00 3.8746035610e+00 
66200 5.0091602538e+00 -9.1993241097e-04 2.2370241605e+00 -3.8746395038e+00 2.2370241605e+00 3.8746395038e+00 
66300 5.0091602331e+00 -9.1151825591e-04 2.2370447221e+00 -3.8746751174e+00 2.2370447221e+00 3.8746751174e+00 
66400 5.0091602128e+00 -9.0318096516e-04 2.2370650954e+00 -3.8747104050e+00 2.2370650954e+00 3.8747104050e+00 
66500 5.0091601928e+00 -8.9491984304e-04 2.2370852821e+00 -3.8747453695e+00 2.2370852821e+00 3.8747453695e+00 
66600 5.0091601732e+00 -8.8673419925e-04 2.2371052841e+00 -3.8747800139e+00 2.2371052841e+00 3.8747800139e+00 
66700 5.0091601540e+00 -8.7862334891e-04 2.2371251029e+00 -3.8748143411e+00 2.2371251029e+00 3.8748143411e+00 
66800 5.0091601352e+00 -8.7058661250e-04 2.2371447402e+00 -3.8748483540e+00 2.2371447402e+00 3.8748483540e+00 
66900 5.0091601166e+00 -8.6262331590e-04 2.2371641978e+00 -3.8748820555e+00 2.2371641978e+00 3.8748820555e+00 
67000 5.0091600985e+00 -8.5473279034e-04 2.2371834772e+00 -3.8749154484e+00 2.2371834772e+00 3.8749154484e+00 
67100 5.0091600806e+00 -8.4691437241e-04 2.2372025801e+00 -3.8749485356e+00 2.2372025801e+00 3.8749485356e+00 
67200 5.0091600631e+00 -8.3916740405e-04 2.2372215081e+00 -3.8749813199e+00 2.2372215081e+00 3.8749813199e+00 
67300 5.0091600459e+00 -8.3149123252e-04 2.2372402628e+00 -3.8750138040e+00 2.2372402628e+00 3.8750138040e+00 
67400 5.0091600291e+00 -8.2388521045e-04 2.2372588458e+00 -3.8750459907e+00 2.2372588458e+00 3.8750459907e+00 
67500 5.0091600125e+00 -8.1634869575e-04 2.2372772587e+00 -3.8750778827e+00 2.2372772587e+00 3.8750778827e+00 
67600 5.0091599963e+00 -8.0888105168e-04 2.2372955030e+00 -3.8751094827e+00 2.2372955030e+00 3.8751094827e+00 
67700 5.0091599803e+00 -8.0148164682e-04 2.2373135802e+00 -3.8751407934e+00 2.2373135802e+00 3.8751407934e+00 
67800 5.0091599647e+00 -7.9414985504e-04 2.2373314919e+00 -3.8751718174e+00 2.2373314919e+00 3.8751718174e+00 
67900 5.0091599493e+00 -7.8688505554e-04 2.2373492396e+00 -3.8752025573e+00 2.2373492396e+00 3.8752025573e+00 
68000 5.0091599342e+00 -7.7968663279e-04 2.2373668249e+00 -3.8752330158e+00 2.2373668249e+00 3.8752330158e+00 
68100 5.0091599194e+00 -7.7255397658e-04 2.2373842491e+00 -3.8752631955e+00 2.2373842491e+00 3.8752631955e+00 
68200 5.0091599049e+00 -7.6548648196e-04 2.2374015138e+00 -3.8752930988e+00 2.2374015138e+00 3.8752930988e+00 
68300 5.0091598907e+00 -7.5848354929e-04 2.2374186204e+00 -3.8753227283e+00 2.2374186204e+00 3.8753227283e+00 
68400 5.0091598767e+00 -7.5154458417e-04 2.2374355704e+00 -3.8753520866e+00 2.2374355704e+00 3.8753520866e+00 
68500 5.0091598630e+00 -7.4466899747e-04 2.2374523652e+00 -3.8753811760e+00 2.2374523652e+00 3.8753811760e+00 
68600 5.0091598495e+00 -7.3785620533e-04 2.2374690062e+00 -3.8754099991e+00 2.2374690062e+00 3.8754099991e+00 
68700 5.0091598363e+00 -7.3110562909e-04 2.2374854949e+00 -3.8754385583e+00 2.2374854949e+00 3.8754385583e+00 
68800 5.0091598233e+00 -7.2441669535e-04 2.2375018326e+00 -3.8754668560e+00 2.2375018326e+00 3.8754668560e+00 
68900 5.0091598105e+00 -7.1778883591e-04 2.2375180206e+00 -3.8754948946e+00 2.2375180206e+00 3.8754948946e+00 
69000 5.0091597980e+00 -7.1122148775e-04 2.2375340605e+00 -3.8755226765e+00 2.2375340605e+00 3.8755226765e+00 
69100 5.0091597858e+00 -7.0471409306e-04 2.2375499535e+00 -3.8755502039e+00 2.2375499535e+00 3.8755502039e+00 
69200 5.0091597737e+00 -6.9826609916e-04 2.2375657010e+00 -3.8755774793e+00 2.2375657010e+00 3.8755774793e+00 
69300 5.0091597619e+00 -6.9187695854e-04 2.2375813042e+00 -3.8756045050e+00 2.2375813042e+00 3.8756045050e+00 
69400 5.0091597503e+00 -6.8554612880e-04 2.2375967646e+00 -3.8756312832e+00 2.2375967646e+00 3.8756312832e+00 
69500 5.0091597389e+00 -6.7927307262e-04 2.2376120835e+00 -3.8756578162e+00 2.2376120835e+00 3.8756578162e+00 
69600 5.0091597277e+00 -6.7305725778e-04 2.2376272620e+00 -3.8756841062e+00 2.2376272620e+00 3.8756841062e+00 
69700 5.0091597168e+00 -6.6689815711e-04 2.2376423015e+00 -3.8757101554e+00 2.2376423015e+00 3.8757101554e+00 
69800 5.0091597060e+00 -6.6079524843e-04 2.2376572034e+00 -3.8757359661e+00 2.2376572034e+00 3.8757359661e+00 
69900 5.0091596955e+00 -6.5474801458e-04 2.2376719687e+00 -3.8757615405e+00 2.2376719687e+00 3.8757615405e+00 
70000 5.0091596851e+00 -6.4875594337e-04 2.2376865988e+00 -3.8757868806e+00 2.2376865988e+00 3.8757868806e+00 
70100 5.0091596749e+00 -6.4281852750e-04 2.2377010950e+00 -3.8758119887e+00 2.2377010950e+00 3.8758119887e+00 
70200 5.0091596649e+00 -6.3693526462e-04 2.2377154584e+00 -3.8758368668e+00 2.2377154584e+00 3.8758368668e+00 
70300 5.0091596551e+00 -6.3110565721e-04 2.2377296902e+00 -3.8758615171e+00 2.2377296902e+00 3.8758615171e+00 
70400 5.0091596455e+00 -6.2532921258e-04 2.2377437917e+00 -3.8758859415e+00 2.2377437917e+00 3.8758859415e+00 
70500 5.0091596361e+00 -6.1960544286e-04 2.2377577640e+00 -3.8759101423e+00 2.2377577640e+00 3.8759101423e+00 
70600 5.0091596268e+00 -6.1393386489e-04 2.2377716084e+00 -3.8759341215e+00 2.2377716084e+00 3.8759341215e+00 
70700 5.0091596177e+00 -6.0831400027e-04 2.2377853259e+00 -3.8759578809e+00 2.2377853259e+00 3.8759578809e+00 
70800 5.0091596088e+00 -6.0274537523e-04 2.2377989178e+00 -3.8759814228e+00 2.2377989178e+00 3.8759814228e+00 
70900 5.0091596001e+00 -5.9722752067e-04 2.2378123852e+00 -3.8760047490e+00 2.2378123852e+00 3.8760047490e+00 
71000 5.0091595915e+00 -5.9175997205e-04 2.2378257292e+00 -3.8760278615e+00 2.2378257292e+00 3.8760278615e+00 
71100 5.0091595830e+00 -5.8634226940e-04 2.2378389510e+00 -3.8760507623e+00 2.2378389510e+00 3.8760507623e+00 
71200 5.0091595747e+00 -5.8097395725e-04 2.2378520516e+00 -3.8760734533e+00 2.2378520516e+00 3.8760734533e+00 
71300 5.0091595666e+00 -5.7565458456e-04 2.2378650323e+00 -3.8760959364e+00 2.2378650323e+00 3.8760959364e+00 
71400 5.0091595587e+00 -5.7038370473e-04 2.2378778940e+00 -3.8761182135e+00 2.2378778940e+00 3.8761182135e+00 
71500 5.0091595508e+00 -5.6516087551e-04 2.2378906378e+00 -3.8761402865e+00 2.2378906378e+00 3.8761402865e+00 
71600 5.0091595431e+00 -5.5998565898e-04 2.2379032649e+00 -3.8761621573e+00 2.2379032649e+00 3.8761621573e+00 
71700 5.0091595356e+00 -5.5485762149e-04 2.2379157763e+00 -3.8761838277e+00 2.2379157763e+00 3.8761838277e+00 
71800 5.0091595282e+00 -5.4977633358e-04 2.2379281731e+00 -3.8762052995e+00 2.2379281731e+00 3.8762052995e+00 
71900 5.0091595210e+00 -5.4474137002e-04 2.2379404563e+00 -3.8762265746e+00 2.2379404563e+00 3.8762265746e+00 
72000 5.0091595138e+00 -5.3975230966e-04 2.2379526269e+00 -3.8762476547e+00 2.2379526269e+00 3.8762476547e+00 
72100 5.0091595068e+00 -5.3480873544e-04 2.2379646859e+00 -3.8762685416e+00 2.2379646859e+00 3.8762685416e+00 
72200 5.0091595000e+00 -5.2991023434e-04 2.2379766345e+00 -3.8762892371e+00 2.2379766345e+00 3.8762892371e+00 
72300 5.0091594933e+00 -5.2505639730e-04 2.2379884736e+00 -3.8763097430e+00 2.2379884736e+00 3.8763097430e+00 
72400 5.0091594866e+00 -5.2024681921e-04 2.2380002041e+00 -3.8763300609e+00 2.2380002041e+00 3.8763300609e+00 
72500 5.0091594802e+00 -5.1548109882e-04 2.2380118272e+00 -3.8763501926e+00 2.2380118272e+00 3.8763501926e+00 
72600 5.0091594738e+00 -5.1075883873e-04 2.2380233437e+00 -3.8763701398e+00 2.2380233437e+00 3.8763701398e+00 
72700 5.0091594676e+00 -5.0607964532e-04 2.2380347546e+00 -3.8763899041e+00 2.2380347546e+00 3.8763899041e+00 
72800 5.0091594614e+00 -5.0144312870e-04 2.2380460610e+00 -3.8764094873e+00 2.2380460610e+00 3.8764094873e+00 
72900 5.0091594554e+00 -4.9684890267e-04 2.2380572637e+00 -3.8764288909e+00 2.2380572637e+00 3.8764288909e+00 
73000 5.0091594495e+00 -4.9229658467e-04 2.2380683637e+00 -3.8764481167e+00 2.2380683637e+00 3.8764481167e+00 
73100 5.0091594437e+00 -4.8778579573e-04 2.2380793619e+00 -3.8764671662e+00 2.2380793619e+00 3.8764671662e+00 
73200 5.0091594380e+00 -4.8331616045e-04 2.2380902594e+00 -3.8764860411e+00 2.2380902594e+00 3.8764860411e+00 
73300 5.0091594325e+00 -4.7888730690e-04 2.2381010569e+00 -3.8765047430e+00 2.2381010569e+00 3.8765047430e+00 
73400 5.0091594270e+00 -4.7449886661e-04 2.2381117554e+00 -3.8765232734e+00 2.2381117554e+00 3.8765232734e+00 
73500 5.0091594216e+00 -4.7015047455e-04 2.2381223559e+00 -3.8765416339e+00 2.2381223559e+00 3.8765416339e+00 
73600 5.0091594163e+00 -4.6584176901e-04 2.2381328591e+00 -3.8765598260e+00 2.2381328591e+00 3.8765598260e+00 
73700 5.0091594112e+00 -4.6157239164e-04 2.2381432660e+00 -3.8765778514e+00 2.2381432660e+00 3.8765778514e+00 
73800 5.0091594061e+00 -4.5734198735e-04 2.2381535775e+00 -3.8765957114e+00 2.2381535775e+00 3.8765957114e+00 
73900 5.0091594011e+00 -4.5315020430e-04 2.2381637945e+00 -3.8766134077e+00 2.2381637945e+00 3.8766134077e+00 
74000 5.0091593962e+00 -4.4899669384e-04 2.2381739178e+00 -3.8766309417e+00 2.2381739178e+00 3.8766309417e+00 
74100 5.0091593914e+00 -4.4488111046e-04 2.2381839482e+00 -3.8766483150e+00 2.2381839482e+00 3.8766483150e+00 
74200 5.0091593867e+00 -4.4080311181e-04 2.2381938866e+00 -3.8766655289e+00 2.2381938866e+00 3.8766655289e+00 
74300 5.0091593821e+00 -4.3676235857e-04 2.2382037339e+00 -3.8766825849e+00 2.2382037339e+00 3.8766825849e+00 
74400 5.0091593775e+00 -4.3275851449e-04 2.2382134909e+00 -3.8766994845e+00 2.2382134909e+00 3.8766994845e+00 
74500 5.0091593731e+00 -4.2879124630e-04 2.2382231584e+00 -3.8767162291e+00 2.2382231584e+00 3.8767162291e+00 
74600 5.0091593687e+00 -4.2486022373e-04 2.2382327373e+00 -3.8767328201e+00 2.2382327373e+00 3.8767328201e+00 
74700 5.0091593644e+00 -4.2096511940e-04 2.2382422283e+00 -3.8767492590e+00 2.2382422283e+00 3.8767492590e+00 
74800 5.0091593602e+00 -4.1710560887e-04 2.2382516322e+00 -3.8767655471e+00 2.2382516322e+00 3.8767655471e+00 
74900 5.0091593561e+00 -4.1328137052e-04 2.2382609499e+00 -3.8767816858e+00 2.2382609499e+00 3.8767816858e+00 
75000 5.0091593520e+00 -4.0949208560e-04 2.2382701821e+00 -3.8767976764e+00 2.2382701821e+00 3.8767976764e+00 
75100 5.0091593481e+00 -4.0573743812e-04 2.2382793296e+00 -3.8768135204e+00 2.2382793296e+00 3.8768135204e+00 
75200 5.0091593442e+00 -4.0201711490e-04 2.2382883932e+00 -3.8768292190e+00 2.2382883932e+00 3.8768292190e+00 
75300 5.0091593403e+00 -3.9833080546e-04 2.2382973737e+00 -3.8768447736e+00 2.2382973737e+00 3.8768447736e+00 
75400 5.0091593366e+00 -3.9467820206e-04 2.2383062717e+00 -3.8768601856e+00 2.2383062717e+00 3.8768601856e+00 
75500 5.0091593329e+00 -3.9105899962e-04 2.2383150882e+00 -3.8768754561e+00 2.2383150882e+00 3.8768754561e+00 
75600 5.0091593293e+00 -3.8747289572e-04 2.2383238238e+00 -3.8768905866e+00 2.2383238238e+00 3.8768905866e+00 
75700 5.0091593257e+00 -3.8391959057e-04 2.2383324792e+00 -3.8769055782e+00 2.2383324792e+00 3.8769055782e+00 
75800 5.0091593222e+00 -3.8039878697e-04 2.2383410552e+00 -3.8769204323e+00 2.2383410552e+00 3.8769204323e+00 
75900 5.0091593188e+00 -3.7691019031e-04 2.2383495526e+00 -3.8769351501e+00 2.2383495526e+00 3.8769351501e+00 
76000 5.0091593155e+00 -3.7345350853e-04 2.2383579719e+00 -3.8769497329e+00 2.2383579719e+00 3.8769497329e+00 
76100 5.0091593122e+00 -3.7002845207e-04 2.2383663141e+00 -3.8769641819e+00 2.2383663141e+00 3.8769641819e+00 
76200 5.0091593090e+00 -3.6663473391e-04 2.2383745797e+00 -3.8769784984e+00 2.2383745797e+00 3.8769784984e+00 
76300 5.0091593058e+00 -3.6327206949e-04 2.2383827694e+00 -3.8769926835e+00 2.2383827694e+00 3.8769926835e+00 
76400 5.0091593027e+00 -3.5994017673e-04 2.2383908841e+00 -3.8770067384e+00 2.2383908841e+00 3.8770067384e+00 
76500 5.0091592996e+00 -3.5663877597e-04 2.2383989242e+00 -3.8770206643e+00 2.2383989242e+00 3.8770206643e+00 
76600 5.0091592966e+00 -3.5336758997e-04 2.2384068906e+00 -3.8770344625e+00 2.2384068906e+00 3.8770344625e+00 
76700 5.0091592937e+00 -3.5012634391e-04 2.2384147839e+00 -3.8770481341e+00 2.2384147839e+00 3.8770481341e+00 
76800 5.0091592908e+00 -3.4691476532e-04 2.2384226047e+00 -3.8770616802e+00 2.2384226047e+00 3.8770616802e+00 
76900 5.0091592880e+00 -3.4373258411e-04 2.2384303538e+00 -3.8770751021e+00 2.2384303538e+00 3.8770751021e+00 
77000 5.0091592852e+00 -3.4057953254e-04 2.2384380318e+00 -3.8770884007e+00 2.2384380318e+00 3.8770884007e+00 
77100 5.0091592825e+00 -3.3745534517e-04 2.2384456394e+00 -3.8771015773e+00 2.2384456394e+00 3.8771015773e+00 
77200 5.0091592798e+00 -3.3435975889e-04 2.2384531771e+00 -3.8771146331e+00 2.2384531771e+00 3.8771146331e+00 
77300 5.0091592772e+00 -3.3129251286e-04 2.2384606456e+00 -3.8771275690e+00 2.2384606456e+00 3.8771275690e+00 
77400 5.0091592746e+00 -3.2825334855e-04 2.2384680456e+00 -3.8771403862e+00 2.2384680456e+00 3.8771403862e+00 
77500 5.0091592721e+00 -3.2524200963e-04 2.2384753777e+00 -3.8771530857e+00 2.2384753777e+00 3.8771530857e+00 
77600 5.0091592696e+00 -3.2225824207e-04 2.2384826426e+00 -3.8771656688e+00 2.2384826426e+00 3.8771656688e+00 
77700 5.0091592671e+00 -3.1930179404e-04 2.2384898407e+00 -3.8771781363e+00 2.2384898407e+00 3.8771781363e+00 
77800 5.0091592648e+00 -3.1637241590e-04 2.2384969728e+00 -3.8771904894e+00 2.2384969728e+00 3.8771904894e+00 
77900 5.0091592624e+00 -3.1346986024e-04 2.2385040394e+00 -3.8772027292e+00 2.2385040394e+00 3.8772027292e+00 
78000 5.0091592601e+00 -3.1059388181e-04 2.2385110412e+00 -3.8772148566e+00 2.2385110412e+00 3.8772148566e+00 
78100 5.0091592579e+00 -3.0774423753e-04 2.2385179787e+00 -3.8772268728e+00 2.2385179787e+00 3.8772268728e+00 
78200 5.0091592556e+00 -3.0492068647e-04 2.2385248525e+00 -3.8772387786e+00 2.2385248525e+00 3.8772387786e+00 
78300 5.0091592535e+00 -3.0212298985e-04 2.2385316633e+00 -3.8772505752e+00 2.2385316633e+00 3.8772505752e+00 
78400 5.0091592513e+00 -2.9935091099e-04 2.2385384115e+00 -3.8772622635e+00 2.2385384115e+00 3.8772622635e+00 
78500 5.0091592492e+00 -2.9660421532e-04 2.2385450978e+00 -3.8772738445e+00 2.2385450978e+00 3.8772738445e+00 
78600 5.0091592472e+00 -2.9388267039e-04 2.2385517228e+00 -3.8772853192e+00 2.2385517228e+00 3.8772853192e+00 
78700 5.0091592452e+00 -2.9118604580e-04 2.2385582869e+00 -3.8772966886e+00 2.2385582869e+00 3.8772966886e+00 
78800 5.0091592432e+00 -2.8851411322e-04 2.2385647908e+00 -3.8773079537e+00 2.2385647908e+00 3.8773079537e+00 
78900 5.0091592413e+00 -2.8586664639e-04 2.2385712350e+00 -3.8773191153e+00 2.2385712350e+00 3.8773191153e+00 
79000 5.0091592394e+00 -2.8324342107e-04 2.2385776200e+00 -3.8773301745e+00 2.2385776200e+00 3.8773301745e+00 
79100 5.0091592375e+00 -2.8064421506e-04 2.2385839464e+00 -3.8773411322e+00 2.2385839464e+00 3.8773411322e+00 
79200 5.0091592357e+00 -2.7806880814e-04 2.2385902148e+00 -3.8773519893e+00 2.2385902148e+00 3.8773519893e+00 
79300 5.0091592339e+00 -2.7551698212e-04 2.2385964256e+00 -3.8773627467e+00 2.2385964256e+00 3.8773627467e+00 
79400 5.0091592321e+00 -2.7298852077e-04 2.2386025794e+00 -3.8773734054e+00 2.2386025794e+00 3.8773734054e+00 
79500 5.0091592304e+00 -2.7048320984e-04 2.2386086767e+00 -3.8773839662e+00 2.2386086767e+00 3.8773839662e+00 
79600 5.0091592287e+00 -2.6800083704e-04 2.2386147180e+00 -3.8773944301e+00 2.2386147180e+00 3.8773944301e+00 
79700 5.0091592270e+00 -2.6554119199e-04 2.2386207038e+00 -3.8774047979e+00 2.2386207038e+00 3.8774047979e+00 
79800 5.0091592254e+00 -2.6310406627e-04 2.2386266348e+00 -3.8774150706e+00 2.2386266348e+00 3.8774150706e+00 
79900 5.0091592238e+00 -2.6068925335e-04 2.2386325112e+00 -3.8774252489e+00 2.2386325112e+00 3.8774252489e+00 
80000 5.0091592222e+00 -2.5829654860e-04 2.2386383337e+00 -3.8774353338e+00 2.2386383337e+00 3.8774353338e+00 
80100 5.0091592206e+00 -2.5592574930e-04 2.2386441028e+00 -3.8774453261e+00 2.2386441028e+00 3.8774453261e+00 
80200 5.0091592191e+00 -2.5357665455e-04 2.2386498189e+00 -3.8774552267e+00 2.2386498189e+00 3.8774552267e+00 
80300 5.0091592176e+00 -2.5124906535e-04 2.2386554825e+00 -3.8774650363e+00 2.2386554825e+00 3.8774650363e+00 
80400 5.0091592162e+00 -2.4894278452e-04 2.2386610941e+00 -3.8774747559e+00 2.2386610941e+00 3.8774747559e+00 
80500 5.0091592147e+00 -2.4665761669e-04 2.2386666542e+00 -3.8774843863e+00 2.2386666542e+00 3.8774843863e+00 
80600 5.0091592133e+00 -2.4439336834e-04 2.2386721632e+00 -3.8774939282e+00 2.2386721632e+00 3.8774939282e+00 
80700 5.0091592120e+00 -2.4214984770e-04 2.2386776217e+00 -3.8775033825e+00 2.2386776217e+00 3.8775033825e+00 
80800 5.0091592106e+00 -2.3992686482e-04 2.2386830300e+00 -3.8775127500e+00 2.2386830300e+00 3.8775127500e+00 
80900 5.0091592093e+00 -2.3772423149e-04 2.2386883887e+00 -3.8775220315e+00 2.2386883887e+00 3.8775220315e+00 
81000 5.0091592080e+00 -2.3554176127e-04 2.2386936981e+00 -3.8775312277e+00 2.2386936981e+00 3.8775312277e+00 
81100 5.0091592067e+00 -2.3337926945e-04 2.2386989588e+00 -3.8775403395e+00 2.2386989588e+00 3.8775403395e+00 
81200 5.0091592054e+00 -2.3123657302e-04 2.2387041712e+00 -3.8775493676e+00 2.2387041712e+00 3.8775493676e+00 
81300 5.0091592042e+00 -2.2911349072e-04 2.2387093357e+00 -3.8775583128e+00 2.2387093357e+00 3.8775583128e+00 
81400 5.0091592030e+00 -2.2700984293e-04 2.2387144528e+00 -3.8775671759e+00 2.2387144528e+00 3.8775671759e+00 
81500 5.0091592018e+00 -2.2492545176e-04 2.2387195229e+00 -3.8775759576e+00 2.2387195229e+00 3.8775759576e+00 
81600 5.0091592007e+00 -2.2286014093e-04 2.2387245464e+00 -3.8775846586e+00 2.2387245464e+00 3.8775846586e+00 
81700 5.0091591995e+00 -2.2081373584e-04 2.2387295238e+00 -3.8775932797e+00 2.2387295238e+00 3.8775932797e+00 
81800 5.0091591984e+00 -2.1878606351e-04 2.2387344555e+00 -3.8776018216e+00 2.2387344555e+00 3.8776018216e+00 
81900 5.0091591973e+00 -2.1677695257e-04 2.2387393419e+00 -3.8776102851e+00 2.2387393419e+00 3.8776102851e+00 
82000 5.0091591962e+00 -2.1478623325e-04 2.2387441834e+00 -3.8776186708e+00 2.2387441834e+00 3.8776186708e+00 
82100 5.0091591952e+00 -2.1281373738e-04 2.2387489804e+00 -3.8776269795e+00 2.2387489804e+00 3.8776269795e+00 
82200 5.0091591941e+00 -2.1085929835e-04 2.2387537334e+00 -3.8776352118e+00 2.2387537334e+00 3.8776352118e+00 
82300 5.0091591931e+00 -2.0892275109e-04 2.2387584427e+00 -3.8776433686e+00 2.2387584427e+00 3.8776433686e+00 
82400 5.0091591921e+00 -2.0700393209e-04 2.2387631087e+00 -3.8776514504e+00 2.2387631087e+00 3.8776514504e+00 
82500 5.0091591911e+00 -2.0510267936e-04 2.2387677319e+00 -3.8776594580e+00 2.2387677319e+00 3.8776594580e+00 
82600 5.0091591902e+00 -2.0321883241e-04 2.2387723126e+00 -3.8776673920e+00 2.2387723126e+00 3.8776673920e+00 
82700 5.0091591892e+00 -2.0135223226e-04 2.2387768512e+00 -3.8776752531e+00 2.2387768512e+00 3.8776752531e+00 
82800 5.0091591883e+00 -1.9950272139e-04 2.2387813482e+00 -3.8776830420e+00 2.2387813482e+00 3.8776830420e+00 
82900 5.0091591874e+00 -1.9767014375e-04 2.2387858038e+00 -3.8776907594e+00 2.2387858038e+00 3.8776907594e+00 
83000 5.0091591865e+00 -1.9585434477e-04 2.2387902184e+00 -3.8776984058e+00 2.2387902184e+00 3.8776984058e+00 
83100 5.0091591856e+00 -1.9405517126e-04 2.2387945926e+00 -3.8777059820e+00 2.2387945926e+00 3.8777059820e+00 
83200 5.0091591848e+00 -1.9227247149e-04 2.2387989265e+00 -3.8777134886e+00 2.2387989265e+00 3.8777134886e+00 
83300 5.0091591839e+00 -1.9050609514e-04 2.2388032206e+00 -3.8777209262e+00 2.2388032206e+00 3.8777209262e+00 
83400 5.0091591831e+00 -1.8875589325e-04 2.2388074752e+00 -3.8777282954e+00 2.2388074752e+00 3.8777282954e+00 
83500 5.0091591823e+00 -1.8702171826e-04 2.2388116908e+00 -3.8777355970e+00 2.2388116908e+00 3.8777355970e+00 
83600 5.0091591815e+00 -1.8530342396e-04 2.2388158676e+00 -3.8777428314e+00 2.2388158676e+00 3.8777428314e+00 
83700 5.0091591807e+00 -1.8360086552e-04 2.2388200060e+00 -3.8777499994e+00 2.2388200060e+00 3.8777499994e+00 
83800 5.0091591800e+00 -1.8191389940e-04 2.2388241064e+00 -3.8777571015e+00 2.2388241064e+00 3.8777571015e+00 
83900 5.0091591792e+00 -1.8024238341e-04 2.2388281691e+00 -3.8777641383e+00 2.2388281691e+00 3.8777641383e+00 
84000 5.0091591785e+00 -1.7858617666e-04 2.2388321945e+00 -3.8777711105e+00 2.2388321945e+00 3.8777711105e+00 
84100 5.0091591777e+00 -1.7694513957e-04 2.2388361829e+00 -3.8777780185e+00 2.2388361829e+00 3.8777780185e+00 
84200 5.0091591770e+00 -1.7531913381e-04 2.2388401346e+00 -3.8777848631e+00 2.2388401346e+00 3.8777848631e+00 
84300 5.0091591763e+00 -1.7370802234e-04 2.2388440500e+00 -3.8777916448e+00 2.2388440500e+00 3.8777916448e+00 
84400 5.0091591757e+00 -1.7211166937e-04 2.2388479294e+00 -3.8777983641e+00 2.2388479294e+00 3.8777983641e+00 
84500 5.0091591750e+00 -1.7052994036e-04 2.2388517732e+00 -3.8778050217e+00 2.2388517732e+00 3.8778050217e+00 
84600 5.0091591743e+00 -1.6896270197e-04 2.2388555816e+00 -3.8778116181e+00 2.2388555816e+00 3.8778116181e+00 
84700 5.0091591737e+00 -1.6740982212e-04 2.2388593550e+00 -3.8778181539e+00 2.2388593550e+00 3.8778181539e+00 
84800 5.0091591731e+00 -1.6587116990e-04 2.2388630937e+00 -3.8778246295e+00 2.2388630937e+00 3.8778246295e+00 
84900 5.0091591724e+00 -1.6434661561e-04 2.2388667981e+00 -3.8778310457e+00 2.2388667981e+00 3.8778310457e+00 
85000 5.0091591718e+00 -1.6283603072e-04 2.2388704684e+00 -3.8778374028e+00 2.2388704684e+00 3.8778374028e+00 
85100 5.0091591712e+00 -1.6133928787e-04 2.2388741050e+00 -3.8778437016e+00 2.2388741050e+00 3.8778437016e+00 
85200 5.0091591706e+00 -1.5985626085e-04 2.2388777081e+00 -3.8778499424e+00 2.2388777081e+00 3.8778499424e+00 
85300 5.0091591701e+00 -1.5838682462e-04 2.2388812781e+00 -3.8778561258e+00 2.2388812781e+00 3.8778561258e+00 
85400 5.0091591695e+00 -1.5693085525e-04 2.2388848153e+00 -3.8778622524e+00 2.2388848153e+00 3.8778622524e+00 
85500 5.0091591690e+00 -1.5548822994e-04 2.2388883200e+00 -3.8778683227e+00 2.2388883200e+00 3.8778683227e+00 
85600 5.0091591684e+00 -1.5405882699e-04 2.2388917924e+00 -3.8778743371e+00 2.2388917924e+00 3.8778743371e+00 
85700 5.0091591679e+00 -1.5264252581e-04 2.2388952329e+00 -3.8778802963e+00 2.2388952329e+00 3.8778802963e+00 
85800 5.0091591674e+00 -1.5123920691e-04 2.2388986418e+00 -3.8778862006e+00 2.2388986418e+00 3.8778862006e+00 
85900 5.0091591668e+00 -1.4984875187e-04 2.2389020193e+00 -3.8778920507e+00 2.2389020193e+00 3.8778920507e+00 
86000 5.0091591663e+00 -1.4847104332e-04 2.2389053658e+00 -3.8778978469e+00 2.2389053658e+00 3.8778978469e+00 
86100 5.0091591659e+00 -1.4710596498e-04 2.2389086815e+00 -3.8779035899e+00 2.2389086815e+00 3.8779035899e+00 
86200 5.0091591654e+00 -1.4575340160e-04 2.2389119667e+00 -3.8779092801e+00 2.2389119667e+00 3.8779092801e+00 
86300 5.0091591649e+00 -1.4441323896e-04 2.2389152218e+00 -3.8779149179e+00 2.2389152218e+00 3.8779149179e+00 
86400 5.0091591644e+00 -1.4308536389e-04 2.2389184468e+00 -3.8779205039e+00 2.2389184468e+00 3.8779205039e+00 
86500 5.0091591640e+00 -1.4176966424e-04 2.2389216422e+00 -3.8779260385e+00 2.2389216422e+00 3.8779260385e+00 
86600 5.0091591635e+00 -1.4046602884e-04 2.2389248083e+00 -3.8779315222e+00 2.2389248083e+00 3.8779315222e+00 
86700 5.0091591631e+00 -1.3917434754e-04 2.2389279452e+00 -3.8779369555e+00 2.2389279452e+00 3.8779369555e+00 
86800 5.0091591627e+00 -1.3789451119e-04 2.2389310532e+00 -3.8779423388e+00 2.2389310532e+00 3.8779423388e+00 
86900 5.0091591622e+00 -1.3662641161e-04 2.2389341327e+00 -3.8779476726e+00 2.2389341327e+00 3.8779476726e+00 
87000 5.0091591618e+00 -1.3536994159e-04 2.2389371839e+00 -3.8779529574e+00 2.2389371839e+00 3.8779529574e+00 
87100 5.0091591614e+00 -1.3412499489e-04 2.2389402069e+00 -3.8779581935e+00 2.2389402069e+00 3.8779581935e+00 
87200 5.0091591610e+00 -1.3289146623e-04 2.2389432022e+00 -3.8779633815e+00 2.2389432022e+00 3.8779633815e+00 
87300 5.0091591606e+00 -1.3166925126e-04 2.2389461699e+00 -3.8779685218e+00 2.2389461699e+00 3.8779685218e+00 
87400 5.0091591602e+00 -1.3045824658e-04 2.2389491104e+00 -3.8779736147e+00 2.2389491104e+00 3.8779736147e+00 
87500 5.0091591599e+00 -1.2925834974e-04 2.2389520238e+00 -3.8779786609e+00 2.2389520238e+00 3.8779786609e+00 
87600 5.0091591595e+00 -1.2806945917e-04 2.2389549103e+00 -3.8779836606e+00 2.2389549103e+00 3.8779836606e+00 
87700 5.0091591591e+00 -1.2689147425e-04 2.2389577704e+00 -3.8779886143e+00 2.2389577704e+00 3.8779886143e+00 
87800 5.0091591588e+00 -1.2572429525e-04 2.2389606041e+00 -3.8779935224e+00 2.2389606041e+00 3.8779935224e+00 
87900 5.0091591584e+00 -1.2456782334e-04 2.2389634117e+00 -3.8779983854e+00 2.2389634117e+00 3.8779983854e+00 
88000 5.0091591581e+00 -1.2342196059e-04 2.2389661936e+00 -3.8780032037e+00 2.2389661936e+00 3.8780032037e+00 
88100 5.0091591577e+00 -1.2228660993e-04 2.2389689498e+00 -3.8780079776e+00 2.2389689498e+00 3.8780079776e+00 
88200 5.0091591574e+00 -1.2116167519e-04 2.2389716807e+00 -3.8780127076e+00 2.2389716807e+00 3.8780127076e+00 
88300 5.0091591571e+00 -1.2004706106e-04 2.2389743864e+00 -3.8780173941e+00 2.2389743864e+00 3.8780173941e+00 
88400 5.0091591568e+00 -1.1894267308e-04 2.2389770672e+00 -3.8780220375e+00 2.2389770672e+00 3.8780220375e+00 
88500 5.0091591565e+00 -1.1784841767e-04 2.2389797234e+00 -3.8780266381e+00 2.2389797234e+00 3.8780266381e+00 
88600 5.0091591562e+00 -1.1676420206e-04 2.2389823552e+00 -3.8780311964e+00 2.2389823552e+00 3.8780311964e+00 
88700 5.0091591559e+00 -1.1568993434e-04 2.2389849627e+00 -3.8780357128e+00 2.2389849627e+00 3.8780357128e+00 
88800 5.0091591556e+00 -1.1462552343e-04 2.2389875462e+00 -3.8780401876e+00 2.2389875462e+00 3.8780401876e+00 
88900 5.0091591553e+00 -1.1357087908e-04 2.2389901060e+00 -3.8780446212e+00 2.2389901060e+00 3.8780446212e+00 
89000 5.0091591550e+00 -1.1252591185e-04 2.2389926422e+00 -3.8780490141e+00 2.2389926422e+00 3.8780490141e+00 
89100 5.0091591547e+00 -1.1149053310e-04 2.2389951551e+00 -3.8780533665e+00 2.2389951551e+00 3.8780533665e+00 
89200 5.0091591544e+00 -1.1046465502e-04 2.2389976448e+00 -3.8780576789e+00 2.2389976448e+00 3.8780576789e+00 
89300 5.0091591542e+00 -1.0944819057e-04 2.2390001117e+00 -3.8780619515e+00 2.2390001117e+00 3.8780619515e+00 
89400 5.0091591539e+00 -1.0844105352e-04 2.2390025558e+00 -3.8780661849e+00 2.2390025558e+00 3.8780661849e+00 
89500 5.0091591537e+00 -1.0744315843e-04 2.2390049774e+00 -3.8780703793e+00 2.2390049774e+00 3.8780703793e+00 
89600 5.0091591534e+00 -1.0645442060e-04 2.2390073768e+00 -3.8780745351e+00 2.2390073768e+00 3.8780745351e+00 
89700 5.0091591532e+00 -1.0547475615e-04 2.2390097540e+00 -3.8780786527e+00 2.2390097540e+00 3.8780786527e+00 
89800 5.0091591529e+00 -1.0450408192e-04 2.2390121094e+00 -3.8780827323e+00 2.2390121094e+00 3.8780827323e+00 
89900 5.0091591527e+00 -1.0354231554e-04 2.2390144431e+00 -3.8780867744e+00 2.2390144431e+00 3.8780867744e+00 
90000 5.0091591524e+00 -1.0258937537e-04 2.2390167554e+00 -3.8780907793e+00 2.2390167554e+00 3.8780907793e+00 
90100 5.0091591522e+00 -1.0164518053e-04 2.2390190463e+00 -3.8780947474e+00 2.2390190463e+00 3.8780947474e+00 
90200 5.0091591520e+00 -1.0070965088e-04 2.2390213162e+00 -3.8780986789e+00 2.2390213162e+00 3.8780986789e+00 
90300 5.0091591518e+00 -9.9782706991e-05 2.2390235652e+00 -3.8781025742e+00 2.2390235652e+00 3.8781025742e+00 
90400 5.0091591516e+00 -9.8864270180e-05 2.2390257934e+00 -3.8781064337e+00 2.2390257934e+00 3.8781064337e+00 
90500 5.0091591513e+00 -9.7954262477e-05 2.2390280012e+00 -3.8781102576e+00 2.2390280012e+00 3.8781102576e+00 
90600 5.0091591511e+00 -9.7052606628e-05 2.2390301886e+00 -3.8781140463e+00 2.2390301886e+00 3.8781140463e+00 
90700 5.0091591509e+00 -9.6159226081e-05 2.2390323559e+00 -3.8781178002e+00 2.2390323559e+00 3.8781178002e+00 
90800 5.0091591507e+00 -9.5274044992e-05 2.2390345032e+00 -3.8781215195e+00 2.2390345032e+00 3.8781215195e+00 
90900 5.0091591505e+00 -9.4396988208e-05 2.2390366308e+00 -3.8781252045e+00 2.2390366308e+00 3.8781252045e+00 
91000 5.0091591503e+00 -9.3527981266e-05 2.2390387388e+00 -3.8781288557e+00 2.2390387388e+00 3.8781288557e+00 
91100 5.0091591502e+00 -9.2666950388e-05 2.2390408274e+00 -3.8781324732e+00 2.2390408274e+00 3.8781324732e+00 
91200 5.0091591500e+00 -9.1813822471e-05 2.2390428967e+00 -3.8781360574e+00 2.2390428967e+00 3.8781360574e+00 
91300 5.0091591498e+00 -9.0968525084e-05 2.2390449470e+00 -3.8781396086e+00 2.2390449470e+00 3.8781396086e+00 
91400 5.0091591496e+00 -9.0130986461e-05 2.2390469784e+00 -3.8781431271e+00 2.2390469784e+00 3.8781431271e+00 
91500 5.0091591494e+00 -8.9301135498e-05 2.2390489911e+00 -3.8781466132e+00 2.2390489911e+00 3.8781466132e+00 
91600 5.0091591493e+00 -8.8478901739e-05 2.2390509853e+00 -3.8781500673e+00 2.2390509853e+00 3.8781500673e+00 
91700 5.0091591491e+00 -8.7664215378e-05 2.2390529611e+00 -3.8781534895e+00 2.2390529611e+00 3.8781534895e+00 
91800 5.0091591489e+00 -8.6857007255e-05 2.2390549187e+00 -3.8781568802e+00 2.2390549187e+00 3.8781568802e+00 
91900 5.0091591488e+00 -8.6057208839e-05 2.2390568583e+00 -3.8781602396e+00 2.2390568583e+00 3.8781602396e+00 
92000 5.0091591486e+00 -8.5264752237e-05 2.2390587800e+00 -3.8781635682e+00 2.2390587800e+00 3.8781635682e+00 
92100 5.0091591485e+00 -8.4479570175e-05 2.2390606841e+00 -3.8781668660e+00 2.2390606841e+00 3.8781668660e+00 
92200 5.0091591483e+00 -8.3701595999e-05 2.2390625706e+00 -3.8781701336e+00 2.2390625706e+00 3.8781701336e+00 
92300 5.0091591482e+00 -8.2930763672e-05 2.2390644397e+00 -3.8781733710e+00 2.2390644397e+00 3.8781733710e+00 
92400 5.0091591480e+00 -8.2167007758e-05 2.2390662916e+00 -3.8781765786e+00 2.2390662916e+00 3.8781765786e+00 
92500 5.0091591479e+00 -8.1410263428e-05 2.2390681264e+00 -3.8781797566e+00 2.2390681264e+00 3.8781797566e+00 
92600 5.0091591477e+00 -8.0660466449e-05 2.2390699444e+00 -3.8781829054e+00 2.2390699444e+00 3.8781829054e+00 
92700 5.0091591476e+00 -7.9917553178e-05 2.2390717456e+00 -3.8781860252e+00 2.2390717456e+00 3.8781860252e+00 
92800 5.0091591474e+00 -7.9181460561e-05 2.2390735302e+00 -3.8781891162e+00 2.2390735302e+00 3.8781891162e+00 
92900 5.0091591473e+00 -7.8452126121e-05 2.2390752984e+00 -3.8781921788e+00 2.2390752984e+00 3.8781921788e+00 
93000 5.0091591472e+00 -7.7729487954e-05 2.2390770503e+00 -3.8781952131e+00 2.2390770503e+00 3.8781952131e+00 
93100 5.0091591471e+00 -7.7013484733e-05 2.2390787860e+00 -3.8781982195e+00 2.2390787860e+00 3.8781982195e+00 
93200 5.0091591469e+00 -7.6304055684e-05 2.2390805058e+00 -3.8782011983e+00 2.2390805058e+00 3.8782011983e+00 
93300 5.0091591468e+00 -7.5601140603e-05 2.2390822097e+00 -3.8782041495e+00 2.2390822097e+00 3.8782041495e+00 
93400 5.0091591467e+00 -7.4904679831e-05 2.2390838979e+00 -3.8782070736e+00 2.2390838979e+00 3.8782070736e+00 
93500 5.0091591466e+00 -7.4214614266e-05 2.2390855706e+00 -3.8782099707e+00 2.2390855706e+00 3.8782099707e+00 
93600 5.0091591465e+00 -7.3530885338e-05 2.2390872278e+00 -3.8782128412e+00 2.2390872278e+00 3.8782128412e+00 
93700 5.0091591463e+00 -7.2900169157e-05 2.2390888698e+00 -3.8782156852e+00 2.2390888698e+00 3.8782156852e+00 
93800 5.0091591462e+00 -7.2288376032e-05 2.2390904977e+00 -3.8782185048e+00 2.2390904977e+00 3.8782185048e+00 
93900 5.0091591461e+00 -7.1680954613e-05 2.2390921120e+00 -3.8782213007e+00 2.2390921120e+00 3.8782213007e+00 
94000 5.0091591460e+00 -7.1069718212e-05 2.2390937126e+00 -3.8782240732e+00 2.2390937126e+00 3.8782240732e+00 
94100 5.0091591459e+00 -7.0462587559e-05 2.2390952996e+00 -3.8782268220e+00 2.2390952996e+00 3.8782268220e+00 
94100 5.0091591459e+00 -7.0462587559e-05 2.2390952996e+00 -3.8782268220e+00 2.2390952996e+00 3.8782268220e+00 
