# step Hamiltonian StressXX CellTensor1 CellTensor2 CellTensor3 CellTensor4 
0 5.0310305813e+00 3.3470573575e-02 1.7438352029e+00 -3.0204111715e+00 1.7438352029e+00 3.0204111715e+00 
100 5.0260335262e+00 3.2234010205e-02 1.7438352029e+00 -3.0204111715e+00 1.7438352029e+00 3.0204111715e+00 
200 5.0211687085e+00 3.0370728863e-02 1.7429110571e+00 -3.0188105039e+00 1.7429110571e+00 3.0188105039e+00 
300 5.0164706165e+00 2.8727000006e-02 1.7420398652e+00 -3.0173015554e+00 1.7420398652e+00 3.0173015554e+00 
400 5.0119359876e+00 2.7292755897e-02 1.7412154084e+00 -3.0158735543e+00 1.7412154084e+00 3.0158735543e+00 
500 5.0075619403e+00 2.6058173733e-02 1.7404317401e+00 -3.0145162009e+00 1.7404317401e+00 3.0145162009e+00 
600 5.0033458819e+00 2.5013667858e-02 1.7396831814e+00 -3.0132196593e+00 1.7396831814e+00 3.0132196593e+00 
700 4.9992854217e+00 2.4149879046e-02 1.7389643165e+00 -3.0119745488e+00 1.7389643165e+00 3.0119745488e+00 
800 4.9953782905e+00 2.3457661739e-02 1.7382699874e+00 -3.0107719354e+00 1.7382699874e+00 3.0107719354e+00 
900 4.9916222673e+00 2.2928070097e-02 1.7375952895e+00 -3.0096033243e+00 1.7375952895e+00 3.0096033243e+00 
1000 4.9880151151e+00 2.2552343551e-02 1.7369355668e+00 -3.0084606512e+00 1.7369355668e+00 3.0084606512e+00 
1100 4.9845545245e+00 2.2321892499e-02 1.7362864081e+00 -3.0073362753e+00 1.7362864081e+00 3.0073362753e+00 
1200 4.9812380671e+00 2.2228284681e-02 1.7356436422e+00 -3.0062229721e+00 1.7356436422e+00 3.0062229721e+00 
1300 4.9780631582e+00 2.2263232671e-02 1.7350033345e+00 -3.0051139267e+00 1.7350033345e+00 3.0051139267e+00 
1400 4.9750270280e+00 2.2418582873e-02 1.7343617836e+00 -3.0040027279e+00 1.7343617836e+00 3.0040027279e+00 
1500 4.9721267015e+00 2.2686306289e-02 1.7337155174e+00 -3.0028833619e+00 1.7337155174e+00 3.0028833619e+00 
1600 4.9693589872e+00 2.3058491300e-02 1.7330612901e+00 -3.0017502071e+00 1.7330612901e+00 3.0017502071e+00 
1700 4.9667204731e+00 2.3527338595e-02 1.7323960795e+00 -3.0005980285e+00 1.7323960795e+00 3.0005980285e+00 
1800 4.9642075293e+00 2.4085158343e-02 1.7317170835e+00 -2.9994219729e+00 1.7317170835e+00 2.9994219729e+00 
1900 4.9618163178e+00 2.4724369623e-02 1.7310217174e+00 -2.9982175635e+00 1.7310217174e+00 2.9982175635e+00 
2000 4.9595428067e+00 2.5437502100e-02 1.7303076111e+00 -2.9969806952e+00 1.7303076111e+00 2.9969806952e+00 
2100 4.9573827901e+00 2.6217199845e-02 1.7295726060e+00 -2.9957076289e+00 1.7295726060e+00 2.9957076289e+00 
2200 4.9553319108e+00 2.7056227190e-02 1.7288147516e+00 -2.9943949866e+00 1.7288147516e+00 2.9943949866e+00 
2300 4.9533856869e+00 2.7947476447e-02 1.7280323026e+00 -2.9930397453e+00 1.7280323026e+00 2.9930397453e+00 
2400 4.9515395402e+00 2.8883977288e-02 1.7272237154e+00 -2.9916392312e+00 1.7272237154e+00 2.9916392312e+00 
2500 4.9497888256e+00 2.9858907553e-02 1.7263876441e+00 -2.9901911131e+00 1.7263876441e+00 2.9901911131e+00 
2600 4.9481288623e+00 3.0865605242e-02 1.7255229364e+00 -2.9886933955e+00 1.7255229364e+00 2.9886933955e+00 
2700 4.9465549642e+00 3.1897581410e-02 1.7246286296e+00 -2.9871444107e+00 1.7246286296e+00 2.9871444107e+00 
2800 4.9450624695e+00 3.2948533682e-02 1.7237039456e+00 -2.9855428110e+00 1.7237039456e+00 2.9855428110e+00 
2900 4.9436467703e+00 3.4012360110e-02 1.7227482860e+00 -2.9838875599e+00 1.7227482860e+00 2.9838875599e+00 
3000 4.9423033395e+00 3.5083173071e-02 1.7217612262e+00 -2.9821779223e+00 1.7217612262e+00 2.9821779223e+00 
3100 4.9410277562e+00 3.6155312934e-02 1.7207425103e+00 -2.9804134546e+00 1.7207425103e+00 2.9804134546e+00 
3200 4.9398157288e+00 3.7223361222e-02 1.7196920442e+00 -2.9785939940e+00 1.7196920442e+00 2.9785939940e+00 
3300 4.9386631156e+00 3.8282153023e-02 1.7186098896e+00 -2.9767196472e+00 1.7186098896e+00 2.9767196472e+00 
3400 4.9375659420e+00 3.9326788413e-02 1.7174962566e+00 -2.9747907782e+00 1.7174962566e+00 2.9747907782e+00 
3500 4.9365204159e+00 4.0352642689e-02 1.7163514967e+00 -2.9728079959e+00 1.7163514967e+00 2.9728079959e+00 
3600 4.9355229394e+00 4.1355375241e-02 1.7151760954e+00 -2.9707721412e+00 1.7151760954e+00 2.9707721412e+00 
3700 4.9345701176e+00 4.2330936916e-02 1.7139706645e+00 -2.9686842736e+00 1.7139706645e+00 2.9686842736e+00 
3800 4.9336587653e+00 4.3275575759e-02 1.7127359336e+00 -2.9665456569e+00 1.7127359336e+00 2.9665456569e+00 
3900 4.9327859099e+00 4.4185841067e-02 1.7114727426e+00 -2.9643577460e+00 1.7114727426e+00 2.9643577460e+00 
4000 4.9319487931e+00 4.5058585696e-02 1.7101820331e+00 -2.9621221716e+00 1.7101820331e+00 2.9621221716e+00 
4100 4.9311448684e+00 4.5890966626e-02 1.7088648401e+00 -2.9598407263e+00 1.7088648401e+00 2.9598407263e+00 
4200 4.9303717987e+00 4.6680443789e-02 1.7075222836e+00 -2.9575153503e+00 1.7075222836e+00 2.9575153503e+00 
4300 4.9296274499e+00 4.7424777223e-02 1.7061555603e+00 -2.9551481160e+00 1.7061555603e+00 2.9551481160e+00 
4400 4.9289098838e+00 4.8122022614e-02 1.7047659351e+00 -2.9527412147e+00 1.7047659351e+00 2.9527412147e+00 
4500 4.9282173503e+00 4.8770525324e-02 1.7033547333e+00 -2.9502969414e+00 1.7033547333e+00 2.9502969414e+00 
4600 4.9275482764e+00 4.9368913021e-02 1.7019233319e+00 -2.9478176814e+00 1.7019233319e+00 2.9478176814e+00 
4700 4.9269012564e+00 4.9916087036e-02 1.7004731521e+00 -2.9453058964e+00 1.7004731521e+00 2.9453058964e+00 
4800 4.9262750404e+00 5.0411212587e-02 1.6990056517e+00 -2.9427641111e+00 1.6990056517e+00 2.9427641111e+00 
4900 4.9256685220e+00 5.0853708008e-02 1.6975223173e+00 -2.9401949006e+00 1.6975223173e+00 2.9401949006e+00 
5000 4.9250807268e+00 5.1243233142e-02 1.6960246574e+00 -2.9376008776e+00 1.6960246574e+00 2.9376008776e+00 
5100 4.9245107998e+00 5.1579677038e-02 1.6945141953e+00 -2.9349846805e+00 1.6945141953e+00 2.9349846805e+00 
5200 4.9239579937e+00 5.1863145096e-02 1.6929924628e+00 -2.9323489623e+00 1.6929924628e+00 2.9323489623e+00 
5300 4.9234216570e+00 5.2093945807e-02 1.6914609935e+00 -2.9296963798e+00 1.6914609935e+00 2.9296963798e+00 
5400 4.9229012226e+00 5.2272577219e-02 1.6899213176e+00 -2.9270295829e+00 1.6899213176e+00 2.9270295829e+00 
5500 4.9223961970e+00 5.2399713246e-02 1.6883749558e+00 -2.9243512057e+00 1.6883749558e+00 2.9243512057e+00 
5600 4.9219061502e+00 5.2476189951e-02 1.6868234142e+00 -2.9216638568e+00 1.6868234142e+00 2.9216638568e+00 
5700 4.9214307055e+00 5.2502991885e-02 1.6852681798e+00 -2.9189701117e+00 1.6852681798e+00 2.9189701117e+00 
5800 4.9209695313e+00 5.2481238601e-02 1.6837107156e+00 -2.9162725046e+00 1.6837107156e+00 2.9162725046e+00 
5900 4.9205223324e+00 5.2412171402e-02 1.6821524570e+00 -2.9135735215e+00 1.6821524570e+00 2.9135735215e+00 
6000 4.9200888426e+00 5.2297140416e-02 1.6805948076e+00 -2.9108755937e+00 1.6805948076e+00 2.9108755937e+00 
6100 4.9196688183e+00 5.2137592035e-02 1.6790391363e+00 -2.9081810919e+00 1.6790391363e+00 2.9081810919e+00 
6200 4.9192620323e+00 5.1935056797e-02 1.6774867737e+00 -2.9054923211e+00 1.6774867737e+00 2.9054923211e+00 
6300 4.9188682688e+00 5.1691137731e-02 1.6759390101e+00 -2.9028115158e+00 1.6759390101e+00 2.9028115158e+00 
6400 4.9184873185e+00 5.1407499210e-02 1.6743970923e+00 -2.9001408359e+00 1.6743970923e+00 2.9001408359e+00 
6500 4.9181189753e+00 5.1085856330e-02 1.6728622223e+00 -2.8974823631e+00 1.6728622223e+00 2.8974823631e+00 
6600 4.9177630326e+00 5.0727964842e-02 1.6713355551e+00 -2.8948380979e+00 1.6713355551e+00 2.8948380979e+00 
6700 4.9174192811e+00 5.0335611642e-02 1.6698181973e+00 -2.8922099571e+00 1.6698181973e+00 2.8922099571e+00 
6800 4.9170875064e+00 4.9910605824e-02 1.6683112059e+00 -2.8895997715e+00 1.6683112059e+00 2.8895997715e+00 
6900 4.9167674878e+00 4.9454770309e-02 1.6668155875e+00 -2.8870092843e+00 1.6668155875e+00 2.8870092843e+00 
7000 4.9164589967e+00 4.8969934032e-02 1.6653322972e+00 -2.8844401502e+00 1.6653322972e+00 2.8844401502e+00 
7100 4.9161617963e+00 4.8457924685e-02 1.6638622385e+00 -2.8818939340e+00 1.6638622385e+00 2.8818939340e+00 
7200 4.9158756412e+00 4.7920562020e-02 1.6624062631e+00 -2.8793721106e+00 1.6624062631e+00 2.8793721106e+00 
7300 4.9156002774e+00 4.7359651672e-02 1.6609651704e+00 -2.8768760647e+00 1.6609651704e+00 2.8768760647e+00 
7400 4.9153354420e+00 4.6776979515e-02 1.6595397079e+00 -2.8744070913e+00 1.6595397079e+00 2.8744070913e+00 
7500 4.9150808647e+00 4.6174306520e-02 1.6581305716e+00 -2.8719663956e+00 1.6581305716e+00 2.8719663956e+00 
7600 4.9148362676e+00 4.5553364089e-02 1.6567384063e+00 -2.8695550945e+00 1.6567384063e+00 2.8695550945e+00 
7700 4.9146013661e+00 4.4915849877e-02 1.6553638061e+00 -2.8671742171e+00 1.6553638061e+00 2.8671742171e+00 
7800 4.9143758705e+00 4.4263424037e-02 1.6540073154e+00 -2.8648247064e+00 1.6540073154e+00 2.8648247064e+00 
7900 4.9141594863e+00 4.3597705916e-02 1.6526694298e+00 -2.8625074206e+00 1.6526694298e+00 2.8625074206e+00 
8000 4.9139519155e+00 4.2920271135e-02 1.6513505968e+00 -2.8602231347e+00 1.6513505968e+00 2.8602231347e+00 
8100 4.9137528579e+00 4.2232649072e-02 1.6500512168e+00 -2.8579725426e+00 1.6500512168e+00 2.8579725426e+00 
8200 4.9135620121e+00 4.1536320694e-02 1.6487716448e+00 -2.8557562590e+00 1.6487716448e+00 2.8557562590e+00 
8300 4.9133790767e+00 4.0832716744e-02 1.6475121912e+00 -2.8535748213e+00 1.6475121912e+00 2.8535748213e+00 
8400 4.9132037513e+00 4.0123216242e-02 1.6462731232e+00 -2.8514286925e+00 1.6462731232e+00 2.8514286925e+00 
8500 4.9130357376e+00 3.9409145287e-02 1.6450546661e+00 -2.8493182630e+00 1.6450546661e+00 2.8493182630e+00 
8600 4.9128747407e+00 3.8691776148e-02 1.6438570050e+00 -2.8472438531e+00 1.6438570050e+00 2.8472438531e+00 
8700 4.9127204694e+00 3.7972326606e-02 1.6426802860e+00 -2.8452057160e+00 1.6426802860e+00 2.8452057160e+00 
8800 4.9125726378e+00 3.7251959546e-02 1.6415246177e+00 -2.8432040398e+00 1.6415246177e+00 2.8432040398e+00 
8900 4.9124309657e+00 3.6531782773e-02 1.6403900729e+00 -2.8412389505e+00 1.6403900729e+00 2.8412389505e+00 
9000 4.9122951796e+00 3.5812849027e-02 1.6392766899e+00 -2.8393105146e+00 1.6392766899e+00 2.8393105146e+00 
9100 4.9121650131e+00 3.5096156200e-02 1.6381844744e+00 -2.8374187419e+00 1.6381844744e+00 2.8374187419e+00 
9200 4.9120402075e+00 3.4382647712e-02 1.6371134006e+00 -2.8355635877e+00 1.6371134006e+00 2.8355635877e+00 
9300 4.9119205124e+00 3.3673213055e-02 1.6360634132e+00 -2.8337449561e+00 1.6360634132e+00 2.8337449561e+00 
9400 4.9118056862e+00 3.2968688475e-02 1.6350344286e+00 -2.8319627025e+00 1.6350344286e+00 2.8319627025e+00 
9500 4.9116954963e+00 3.2269857779e-02 1.6340263368e+00 -2.8302166362e+00 1.6340263368e+00 2.8302166362e+00 
9600 4.9115897190e+00 3.1577453267e-02 1.6330390024e+00 -2.8285065230e+00 1.6330390024e+00 2.8285065230e+00 
9700 4.9114881404e+00 3.0892156754e-02 1.6320722669e+00 -2.8268320880e+00 1.6320722669e+00 2.8268320880e+00 
9800 4.9113905559e+00 3.0214600689e-02 1.6311259495e+00 -2.8251930180e+00 1.6311259495e+00 2.8251930180e+00 
9900 4.9112967705e+00 2.9545369354e-02 1.6301998487e+00 -2.8235889645e+00 1.6301998487e+00 2.8235889645e+00 
10000 4.9112065987e+00 2.8885000125e-02 1.6292937442e+00 -2.8220195453e+00 1.6292937442e+00 2.8220195453e+00 
10100 4.9111198644e+00 2.8233984800e-02 1.6284073976e+00 -2.8204843480e+00 1.6284073976e+00 2.8204843480e+00 
10200 4.9110364007e+00 2.7592770969e-02 1.6275405543e+00 -2.8189829315e+00 1.6275405543e+00 2.8189829315e+00 
10300 4.9109560501e+00 2.6961763428e-02 1.6266929449e+00 -2.8175148289e+00 1.6266929449e+00 2.8175148289e+00 
10400 4.9108786636e+00 2.6341325626e-02 1.6258642860e+00 -2.8160795495e+00 1.6258642860e+00 2.8160795495e+00 
10500 4.9108041011e+00 2.5731781139e-02 1.6250542818e+00 -2.8146765811e+00 1.6250542818e+00 2.8146765811e+00 
10600 4.9107322307e+00 2.5133415154e-02 1.6242626254e+00 -2.8133053921e+00 1.6242626254e+00 2.8133053921e+00 
10700 4.9106629287e+00 2.4546475980e-02 1.6234890000e+00 -2.8119654335e+00 1.6234890000e+00 2.8119654335e+00 
10800 4.9105960788e+00 2.3971176552e-02 1.6227330795e+00 -2.8106561409e+00 1.6227330795e+00 2.8106561409e+00 
10900 4.9105315723e+00 2.3407695945e-02 1.6219945306e+00 -2.8093769365e+00 1.6219945306e+00 2.8093769365e+00 
11000 4.9104693074e+00 2.2856180878e-02 1.6212730127e+00 -2.8081272310e+00 1.6212730127e+00 2.8081272310e+00 
11100 4.9104091888e+00 2.2316747216e-02 1.6205681800e+00 -2.8069064250e+00 1.6205681800e+00 2.8069064250e+00 
11200 4.9103511275e+00 2.1789481460e-02 1.6198796818e+00 -2.8057139111e+00 1.6198796818e+00 2.8057139111e+00 
11300 4.9102950405e+00 2.1274442212e-02 1.6192071636e+00 -2.8045490753e+00 1.6192071636e+00 2.8045490753e+00 
11400 4.9102408500e+00 2.0771661637e-02 1.6185502679e+00 -2.8034112986e+00 1.6185502679e+00 2.8034112986e+00 
11500 4.9101884836e+00 2.0281146886e-02 1.6179086354e+00 -2.8022999586e+00 1.6179086354e+00 2.8022999586e+00 
11600 4.9101378734e+00 1.9802881514e-02 1.6172819054e+00 -2.8012144304e+00 1.6172819054e+00 2.8012144304e+00 
11700 4.9100889562e+00 1.9336826852e-02 1.6166697168e+00 -2.8001540886e+00 1.6166697168e+00 2.8001540886e+00 
11800 4.9100416725e+00 1.8882923364e-02 1.6160717086e+00 -2.7991183080e+00 1.6160717086e+00 2.7991183080e+00 
11900 4.9099959668e+00 1.8441091970e-02 1.6154875209e+00 -2.7981064652e+00 1.6154875209e+00 2.7981064652e+00 
12000 4.9099517870e+00 1.8011235333e-02 1.6149167952e+00 -2.7971179393e+00 1.6149167952e+00 2.7971179393e+00 
12100 4.9099090841e+00 1.7593239120e-02 1.6143591752e+00 -2.7961521131e+00 1.6143591752e+00 2.7961521131e+00 
12200 4.9098678117e+00 1.7186973222e-02 1.6138143073e+00 -2.7952083742e+00 1.6138143073e+00 2.7952083742e+00 
12300 4.9098279264e+00 1.6792292944e-02 1.6132818412e+00 -2.7942861159e+00 1.6132818412e+00 2.7942861159e+00 
12400 4.9097893868e+00 1.6409040153e-02 1.6127614303e+00 -2.7933847378e+00 1.6127614303e+00 2.7933847378e+00 
12500 4.9097521538e+00 1.6037044397e-02 1.6122527321e+00 -2.7925036466e+00 1.6122527321e+00 2.7925036466e+00 
12600 4.9097161899e+00 1.5676123979e-02 1.6117554087e+00 -2.7916422572e+00 1.6117554087e+00 2.7916422572e+00 
12700 4.9096814596e+00 1.5326086999e-02 1.6112691272e+00 -2.7907999931e+00 1.6112691272e+00 2.7907999931e+00 
12800 4.9096479288e+00 1.4986732355e-02 1.6107935601e+00 -2.7899762866e+00 1.6107935601e+00 2.7899762866e+00 
12900 4.9096155645e+00 1.4657850709e-02 1.6103283853e+00 -2.7891705803e+00 1.6103283853e+00 2.7891705803e+00 
13000 4.9095843352e+00 1.4339225413e-02 1.6098732868e+00 -2.7883823266e+00 1.6098732868e+00 2.7883823266e+00 
13100 4.9095542103e+00 1.4030633397e-02 1.6094279548e+00 -2.7876109888e+00 1.6094279548e+00 2.7876109888e+00 
13200 4.9095251601e+00 1.3731846020e-02 1.6089920856e+00 -2.7868560413e+00 1.6089920856e+00 2.7868560413e+00 
13300 4.9094971558e+00 1.3442629888e-02 1.6085653825e+00 -2.7861169698e+00 1.6085653825e+00 2.7861169698e+00 
13400 4.9094701692e+00 1.3162747624e-02 1.6081475553e+00 -2.7853932718e+00 1.6081475553e+00 2.7853932718e+00 
13500 4.9094441730e+00 1.2891958616e-02 1.6077383208e+00 -2.7846844569e+00 1.6077383208e+00 2.7846844569e+00 
13600 4.9094191402e+00 1.2630019717e-02 1.6073374029e+00 -2.7839900467e+00 1.6073374029e+00 2.7839900467e+00 
13700 4.9093950445e+00 1.2376685915e-02 1.6069445325e+00 -2.7833095752e+00 1.6069445325e+00 2.7833095752e+00 
13800 4.9093718599e+00 1.2131710965e-02 1.6065594479e+00 -2.7826425891e+00 1.6065594479e+00 2.7826425891e+00 
13900 4.9093495610e+00 1.1894847994e-02 1.6061818946e+00 -2.7819886477e+00 1.6061818946e+00 2.7819886477e+00 
14000 4.9093281227e+00 1.1665850060e-02 1.6058116255e+00 -2.7813473228e+00 1.6058116255e+00 2.7813473228e+00 
14100 4.9093075202e+00 1.1444470690e-02 1.6054484008e+00 -2.7807181991e+00 1.6054484008e+00 2.7807181991e+00 
14200 4.9092877293e+00 1.1230464378e-02 1.6050919880e+00 -2.7801008740e+00 1.6050919880e+00 2.7801008740e+00 
14300 4.9092687258e+00 1.1023587055e-02 1.6047421620e+00 -2.7794949577e+00 1.6047421620e+00 2.7794949577e+00 
14400 4.9092504860e+00 1.0823596528e-02 1.6043987052e+00 -2.7789000730e+00 1.6043987052e+00 2.7789000730e+00 
14500 4.9092329867e+00 1.0630252886e-02 1.6040614069e+00 -2.7783158553e+00 1.6040614069e+00 2.7783158553e+00 
14600 4.9092162046e+00 1.0443318883e-02 1.6037300640e+00 -2.7777419526e+00 1.6037300640e+00 2.7777419526e+00 
14700 4.9092001172e+00 1.0262560284e-02 1.6034044804e+00 -2.7771780252e+00 1.6034044804e+00 2.7771780252e+00 
14800 4.9091847020e+00 1.0087746196e-02 1.6030844670e+00 -2.7766237457e+00 1.6030844670e+00 2.7766237457e+00 
14900 4.9091699369e+00 9.9186493568e-03 1.6027698418e+00 -2.7760787988e+00 1.6027698418e+00 2.7760787988e+00 
15000 4.9091558004e+00 9.7550464141e-03 1.6024604296e+00 -2.7755428812e+00 1.6024604296e+00 2.7755428812e+00 
15100 4.9091422709e+00 9.5967181676e-03 1.6021560621e+00 -2.7750157012e+00 1.6021560621e+00 2.7750157012e+00 
15200 4.9091293276e+00 9.4434497935e-03 1.6018565776e+00 -2.7744969788e+00 1.6018565776e+00 2.7744969788e+00 
15300 4.9091169500e+00 9.2950310448e-03 1.6015618208e+00 -2.7739864451e+00 1.6015618208e+00 2.7739864451e+00 
15400 4.9091051177e+00 9.1512564285e-03 1.6012716431e+00 -2.7734838426e+00 1.6012716431e+00 2.7734838426e+00 
15500 4.9090938112e+00 9.0119253631e-03 1.6009859020e+00 -2.7729889244e+00 1.6009859020e+00 2.7729889244e+00 
15600 4.9090830109e+00 8.8768423140e-03 1.6007044610e+00 -2.7725014543e+00 1.6007044610e+00 2.7725014543e+00 
15700 4.9090726981e+00 8.7458169116e-03 1.6004271898e+00 -2.7720212065e+00 1.6004271898e+00 2.7720212065e+00 
15800 4.9090628542e+00 8.6186640489e-03 1.6001539637e+00 -2.7715479651e+00 1.6001539637e+00 2.7715479651e+00 
15900 4.9090534612e+00 8.4952039626e-03 1.5998846639e+00 -2.7710815242e+00 1.5998846639e+00 2.7710815242e+00 
16000 4.9090445016e+00 8.3752622966e-03 1.5996191770e+00 -2.7706216873e+00 1.5996191770e+00 2.7706216873e+00 
16100 4.9090359584e+00 8.2586701504e-03 1.5993573949e+00 -2.7701682674e+00 1.5993573949e+00 2.7701682674e+00 
16200 4.9090278147e+00 8.1452641116e-03 1.5990992147e+00 -2.7697210862e+00 1.5990992147e+00 2.7697210862e+00 
16300 4.9090200547e+00 8.0348862738e-03 1.5988445386e+00 -2.7692799742e+00 1.5988445386e+00 2.7692799742e+00 
16400 4.9090126625e+00 7.9273842421e-03 1.5985932735e+00 -2.7688447703e+00 1.5985932735e+00 2.7688447703e+00 
16500 4.9090056230e+00 7.8226111246e-03 1.5983453312e+00 -2.7684153216e+00 1.5983453312e+00 2.7684153216e+00 
16600 4.9089989215e+00 7.7204255128e-03 1.5981006277e+00 -2.7679914828e+00 1.5981006277e+00 2.7679914828e+00 
16700 4.9089925439e+00 7.6206914497e-03 1.5978590838e+00 -2.7675731164e+00 1.5978590838e+00 2.7675731164e+00 
16800 4.9089864763e+00 7.5232783891e-03 1.5976206240e+00 -2.7671600920e+00 1.5976206240e+00 2.7671600920e+00 
16900 4.9089807055e+00 7.4280611429e-03 1.5973851772e+00 -2.7667522862e+00 1.5973851772e+00 2.7667522862e+00 
17000 4.9089752188e+00 7.3349198214e-03 1.5971526760e+00 -2.7663495822e+00 1.5971526760e+00 2.7663495822e+00 
17100 4.9089700038e+00 7.2437397634e-03 1.5969230566e+00 -2.7659518698e+00 1.5969230566e+00 2.7659518698e+00 
17200 4.9089650487e+00 7.1544114602e-03 1.5966962589e+00 -2.7655590447e+00 1.5966962589e+00 2.7655590447e+00 
17300 4.9089603420e+00 7.0668304708e-03 1.5964722262e+00 -2.7651710087e+00 1.5964722262e+00 2.7651710087e+00 
17400 4.9089558729e+00 6.9808973317e-03 1.5962509049e+00 -2.7647876689e+00 1.5962509049e+00 2.7647876689e+00 
17500 4.9089516308e+00 6.8965174607e-03 1.5960322445e+00 -2.7644089379e+00 1.5960322445e+00 2.7644089379e+00 
17600 4.9089476056e+00 6.8136010546e-03 1.5958161974e+00 -2.7640347334e+00 1.5958161974e+00 2.7640347334e+00 
17700 4.9089437876e+00 6.7320629829e-03 1.5956027189e+00 -2.7636649778e+00 1.5956027189e+00 2.7636649778e+00 
17800 4.9089401676e+00 6.6518226770e-03 1.5953917668e+00 -2.7632995980e+00 1.5953917668e+00 2.7632995980e+00 
17900 4.9089367367e+00 6.5728040151e-03 1.5951833014e+00 -2.7629385255e+00 1.5951833014e+00 2.7629385255e+00 
18000 4.9089334864e+00 6.4949352045e-03 1.5949772855e+00 -2.7625816955e+00 1.5949772855e+00 2.7625816955e+00 
18100 4.9089304086e+00 6.4181486610e-03 1.5947736840e+00 -2.7622290472e+00 1.5947736840e+00 2.7622290472e+00 
18200 4.9089274956e+00 6.3423808856e-03 1.5945724638e+00 -2.7618805236e+00 1.5945724638e+00 2.7618805236e+00 
18300 4.9089247398e+00 6.2675723393e-03 1.5943735939e+00 -2.7615360709e+00 1.5943735939e+00 2.7615360709e+00 
18400 4.9089221343e+00 6.1936673166e-03 1.5941770451e+00 -2.7611956384e+00 1.5941770451e+00 2.7611956384e+00 
18500 4.9089196723e+00 6.1206138179e-03 1.5939827900e+00 -2.7608591786e+00 1.5939827900e+00 2.7608591786e+00 
18600 4.9089173472e+00 6.0483634204e-03 1.5937908026e+00 -2.7605266468e+00 1.5937908026e+00 2.7605266468e+00 
18700 4.9089151531e+00 5.9768711497e-03 1.5936010587e+00 -2.7601980006e+00 1.5936010587e+00 2.7601980006e+00 
18800 4.9089130840e+00 5.9060953501e-03 1.5934135351e+00 -2.7598732003e+00 1.5934135351e+00 2.7598732003e+00 
18900 4.9089111343e+00 5.8359975560e-03 1.5932282103e+00 -2.7595522084e+00 1.5932282103e+00 2.7595522084e+00 
19000 4.9089092987e+00 5.7665423631e-03 1.5930450638e+00 -2.7592349892e+00 1.5930450638e+00 2.7592349892e+00 
19100 4.9089075720e+00 5.6976973008e-03 1.5928640760e+00 -2.7589215092e+00 1.5928640760e+00 2.7589215092e+00 
19200 4.9089059495e+00 5.6294327053e-03 1.5926852287e+00 -2.7586117365e+00 1.5926852287e+00 2.7586117365e+00 
19300 4.9089044266e+00 5.5617215941e-03 1.5925085042e+00 -2.7583056408e+00 1.5925085042e+00 2.7583056408e+00 
19400 4.9089029987e+00 5.4945395416e-03 1.5923338860e+00 -2.7580031931e+00 1.5923338860e+00 2.7580031931e+00 
19500 4.9089016618e+00 5.4278645569e-03 1.5921613581e+00 -2.7577043660e+00 1.5921613581e+00 2.7577043660e+00 
19600 4.9089004117e+00 5.3616769631e-03 1.5919909053e+00 -2.7574091331e+00 1.5919909053e+00 2.7574091331e+00 
19700 4.9088992448e+00 5.2959592781e-03 1.5918225129e+00 -2.7571174690e+00 1.5918225129e+00 2.7571174690e+00 
19800 4.9088981572e+00 5.2306960988e-03 1.5916561669e+00 -2.7568293492e+00 1.5916561669e+00 2.7568293492e+00 
19900 4.9088971456e+00 5.1658739863e-03 1.5914918536e+00 -2.7565447502e+00 1.5914918536e+00 2.7565447502e+00 
20000 4.9088962066e+00 5.1014813541e-03 1.5913295597e+00 -2.7562636490e+00 1.5913295597e+00 2.7562636490e+00 
20100 4.9088953371e+00 5.0375083592e-03 1.5911692725e+00 -2.7559860234e+00 1.5911692725e+00 2.7559860234e+00 
20200 4.9088945339e+00 4.9739467948e-03 1.5910109793e+00 -2.7557118516e+00 1.5910109793e+00 2.7557118516e+00 
20300 4.9088937943e+00 4.9107899869e-03 1.5908546679e+00 -2.7554411122e+00 1.5908546679e+00 2.7554411122e+00 
20400 4.9088931154e+00 4.8480326927e-03 1.5907003260e+00 -2.7551737842e+00 1.5907003260e+00 2.7551737842e+00 
20500 4.9088924945e+00 4.7856710026e-03 1.5905479417e+00 -2.7549098468e+00 1.5905479417e+00 2.7549098468e+00 
20600 4.9088919292e+00 4.7237022449e-03 1.5903975031e+00 -2.7546492796e+00 1.5903975031e+00 2.7546492796e+00 
20700 4.9088914170e+00 4.6621248931e-03 1.5902489984e+00 -2.7543920619e+00 1.5902489984e+00 2.7543920619e+00 
20800 4.9088909555e+00 4.6009384768e-03 1.5901024159e+00 -2.7541381736e+00 1.5901024159e+00 2.7541381736e+00 
20900 4.9088905426e+00 4.5401434952e-03 1.5899577438e+00 -2.7538875942e+00 1.5899577438e+00 2.7538875942e+00 
21000 4.9088901760e+00 4.4797413339e-03 1.5898149704e+00 -2.7536403033e+00 1.5898149704e+00 2.7536403033e+00 
21100 4.9088898537e+00 4.4197341846e-03 1.5896740837e+00 -2.7533962804e+00 1.5896740837e+00 2.7533962804e+00 
21200 4.9088895738e+00 4.3601249683e-03 1.5895350719e+00 -2.7531555049e+00 1.5895350719e+00 2.7531555049e+00 
21300 4.9088893343e+00 4.3009172607e-03 1.5893979229e+00 -2.7529179559e+00 1.5893979229e+00 2.7529179559e+00 
21400 4.9088891335e+00 4.2421152215e-03 1.5892626246e+00 -2.7526836124e+00 1.5892626246e+00 2.7526836124e+00 
21500 4.9088889695e+00 4.1837235265e-03 1.5891291647e+00 -2.7524524531e+00 1.5891291647e+00 2.7524524531e+00 
21600 4.9088888406e+00 4.1257473024e-03 1.5889975308e+00 -2.7522244565e+00 1.5889975308e+00 2.7522244565e+00 
21700 4.9088887453e+00 4.0681920650e-03 1.5888677103e+00 -2.7519996007e+00 1.5888677103e+00 2.7519996007e+00 
21800 4.9088886820e+00 4.0110636603e-03 1.5887396902e+00 -2.7517778635e+00 1.5887396902e+00 2.7517778635e+00 
21900 4.9088886492e+00 3.9543682082e-03 1.5886134578e+00 -2.7515592224e+00 1.5886134578e+00 2.7515592224e+00 
22000 4.9088886454e+00 3.8981120493e-03 1.5884889997e+00 -2.7513436547e+00 1.5884889997e+00 2.7513436547e+00 
22100 4.9088886693e+00 3.8423016948e-03 1.5883663025e+00 -2.7511311370e+00 1.5883663025e+00 2.7511311370e+00 
22200 4.9088887194e+00 3.7869437786e-03 1.5882453527e+00 -2.7509216457e+00 1.5882453527e+00 2.7509216457e+00 
22300 4.9088887945e+00 3.7320450125e-03 1.5881261363e+00 -2.7507151569e+00 1.5881261363e+00 2.7507151569e+00 
22400 4.9088888934e+00 3.6776121443e-03 1.5880086394e+00 -2.7505116463e+00 1.5880086394e+00 2.7505116463e+00 
22500 4.9088890148e+00 3.6236519176e-03 1.5878928476e+00 -2.7503110890e+00 1.5878928476e+00 2.7503110890e+00 
22600 4.9088891576e+00 3.5701710354e-03 1.5877787464e+00 -2.7501134600e+00 1.5877787464e+00 2.7501134600e+00 
22700 4.9088893207e+00 3.5171761251e-03 1.5876663211e+00 -2.7499187337e+00 1.5876663211e+00 2.7499187337e+00 
22800 4.9088895029e+00 3.4646737066e-03 1.5875555568e+00 -2.7497268843e+00 1.5875555568e+00 2.7497268843e+00 
22900 4.9088897033e+00 3.4126701624e-03 1.5874464383e+00 -2.7495378855e+00 1.5874464383e+00 2.7495378855e+00 
23000 4.9088899208e+00 3.3611717102e-03 1.5873389502e+00 -2.7493517106e+00 1.5873389502e+00 2.7493517106e+00 
23100 4.9088901546e+00 3.3101843775e-03 1.5872330770e+00 -2.7491683328e+00 1.5872330770e+00 2.7491683328e+00 
23200 4.9088904035e+00 3.2597139783e-03 1.5871288028e+00 -2.7489877247e+00 1.5871288028e+00 2.7489877247e+00 
23300 4.9088906669e+00 3.2097660925e-03 1.5870261118e+00 -2.7488098585e+00 1.5870261118e+00 2.7488098585e+00 
23400 4.9088909437e+00 3.1603460461e-03 1.5869249877e+00 -2.7486347064e+00 1.5869249877e+00 2.7486347064e+00 
23500 4.9088912332e+00 3.1114588948e-03 1.5868254142e+00 -2.7484622401e+00 1.5868254142e+00 2.7484622401e+00 
23600 4.9088915346e+00 3.0631094081e-03 1.5867273748e+00 -2.7482924310e+00 1.5867273748e+00 2.7482924310e+00 
23700 4.9088918471e+00 3.0153020559e-03 1.5866308529e+00 -2.7481252501e+00 1.5866308529e+00 2.7481252501e+00 
23800 4.9088921699e+00 2.9680409968e-03 1.5865358317e+00 -2.7479606686e+00 1.5865358317e+00 2.7479606686e+00 
23900 4.9088925024e+00 2.9213300679e-03 1.5864422942e+00 -2.7477986569e+00 1.5864422942e+00 2.7477986569e+00 
24000 4.9088928438e+00 2.8751727760e-03 1.5863502234e+00 -2.7476391855e+00 1.5863502234e+00 2.7476391855e+00 
24100 4.9088931936e+00 2.8295722903e-03 1.5862596020e+00 -2.7474822246e+00 1.5862596020e+00 2.7474822246e+00 
24200 4.9088935511e+00 2.7845314373e-03 1.5861704127e+00 -2.7473277443e+00 1.5861704127e+00 2.7473277443e+00 
24300 4.9088939156e+00 2.7400526955e-03 1.5860826383e+00 -2.7471757145e+00 1.5860826383e+00 2.7471757145e+00 
24400 4.9088942867e+00 2.6961381931e-03 1.5859962610e+00 -2.7470261047e+00 1.5859962610e+00 2.7470261047e+00 
24500 4.9088946637e+00 2.6527897057e-03 1.5859112635e+00 -2.7468788848e+00 1.5859112635e+00 2.7468788848e+00 
24600 4.9088950461e+00 2.6100086556e-03 1.5858276282e+00 -2.7467340240e+00 1.5858276282e+00 2.7467340240e+00 
24700 4.9088954335e+00 2.5677961121e-03 1.5857453372e+00 -2.7465914919e+00 1.5857453372e+00 2.7465914919e+00 
24800 4.9088958252e+00 2.5261527930e-03 1.5856643729e+00 -2.7464512576e+00 1.5856643729e+00 2.7464512576e+00 
24900 4.9088962209e+00 2.4850790667e-03 1.5855847176e+00 -2.7463132906e+00 1.5855847176e+00 2.7463132906e+00 
25000 4.9088966202e+00 2.4445749557e-03 1.5855063535e+00 -2.7461775600e+00 1.5855063535e+00 2.7461775600e+00 
25100 4.9088970225e+00 2.4046401401e-03 1.5854292628e+00 -2.7460440350e+00 1.5854292628e+00 2.7460440350e+00 
25200 4.9088974274e+00 2.3652739629e-03 1.5853534278e+00 -2.7459126849e+00 1.5853534278e+00 2.7459126849e+00 
25300 4.9088978347e+00 2.3264754355e-03 1.5852788307e+00 -2.7457834789e+00 1.5852788307e+00 2.7457834789e+00 
25400 4.9088982439e+00 2.2882432433e-03 1.5852054538e+00 -2.7456563864e+00 1.5852054538e+00 2.7456563864e+00 
25500 4.9088986546e+00 2.2505757533e-03 1.5851332794e+00 -2.7455313766e+00 1.5851332794e+00 2.7455313766e+00 
25600 4.9088990666e+00 2.2134710208e-03 1.5850622898e+00 -2.7454084191e+00 1.5850622898e+00 2.7454084191e+00 
25700 4.9088994795e+00 2.1769267976e-03 1.5849924674e+00 -2.7452874832e+00 1.5849924674e+00 2.7452874832e+00 
25800 4.9088998930e+00 2.1409405403e-03 1.5849237948e+00 -2.7451685388e+00 1.5849237948e+00 2.7451685388e+00 
25900 4.9089003068e+00 2.1055094188e-03 1.5848562545e+00 -2.7450515555e+00 1.5848562545e+00 2.7450515555e+00 
26000 4.9089007207e+00 2.0706303257e-03 1.5847898291e+00 -2.7449365033e+00 1.5847898291e+00 2.7449365033e+00 
26100 4.9089011343e+00 2.0362998852e-03 1.5847245013e+00 -2.7448233523e+00 1.5847245013e+00 2.7448233523e+00 
26200 4.9089015475e+00 2.0025144635e-03 1.5846602540e+00 -2.7447120727e+00 1.5846602540e+00 2.7447120727e+00 
26300 4.9089019599e+00 1.9692701784e-03 1.5845970701e+00 -2.7446026349e+00 1.5845970701e+00 2.7446026349e+00 
26400 4.9089023715e+00 1.9365629091e-03 1.5845349326e+00 -2.7444950096e+00 1.5845349326e+00 2.7444950096e+00 
26500 4.9089027819e+00 1.9043883070e-03 1.5844738247e+00 -2.7443891677e+00 1.5844738247e+00 2.7443891677e+00 
26600 4.9089031910e+00 1.8727418062e-03 1.5844137298e+00 -2.7442850803e+00 1.5844137298e+00 2.7442850803e+00 
26700 4.9089035986e+00 1.8416186334e-03 1.5843546313e+00 -2.7441827186e+00 1.5843546313e+00 2.7441827186e+00 
26800 4.9089040045e+00 1.8110138193e-03 1.5842965128e+00 -2.7440820544e+00 1.5842965128e+00 2.7440820544e+00 
26900 4.9089044086e+00 1.7809222087e-03 1.5842393580e+00 -2.7439830594e+00 1.5842393580e+00 2.7439830594e+00 
27000 4.9089048106e+00 1.7513384712e-03 1.5841831508e+00 -2.7438857057e+00 1.5841831508e+00 2.7438857057e+00 
27100 4.9089052105e+00 1.7222571122e-03 1.5841278754e+00 -2.7437899659e+00 1.5841278754e+00 2.7437899659e+00 
27200 4.9089056081e+00 1.6936724833e-03 1.5840735159e+00 -2.7436958125e+00 1.5840735159e+00 2.7436958125e+00 
27300 4.9089060033e+00 1.6655787924e-03 1.5840200568e+00 -2.7436032186e+00 1.5840200568e+00 2.7436032186e+00 
27400 4.9089063959e+00 1.6379701151e-03 1.5839674827e+00 -2.7435121575e+00 1.5839674827e+00 2.7435121575e+00 
27500 4.9089067859e+00 1.6108404040e-03 1.5839157783e+00 -2.7434226029e+00 1.5839157783e+00 2.7434226029e+00 
27600 4.9089071731e+00 1.5841834996e-03 1.5838649286e+00 -2.7433345287e+00 1.5838649286e+00 2.7433345287e+00 
27700 4.9089075575e+00 1.5579931400e-03 1.5838149188e+00 -2.7432479092e+00 1.5838149188e+00 2.7432479092e+00 
27800 4.9089079389e+00 1.5322629711e-03 1.5837657343e+00 -2.7431627191e+00 1.5837657343e+00 2.7431627191e+00 
27900 4.9089083173e+00 1.5069865560e-03 1.5837173605e+00 -2.7430789332e+00 1.5837173605e+00 2.7430789332e+00 
28000 4.9089086926e+00 1.4821573847e-03 1.5836697832e+00 -2.7429965269e+00 1.5836697832e+00 2.7429965269e+00 
28100 4.9089090647e+00 1.4577688834e-03 1.5836229884e+00 -2.7429154760e+00 1.5836229884e+00 2.7429154760e+00 
28200 4.9089094336e+00 1.4338144234e-03 1.5835769622e+00 -2.7428357563e+00 1.5835769622e+00 2.7428357563e+00 
28300 4.9089097991e+00 1.4102873305e-03 1.5835316911e+00 -2.7427573443e+00 1.5835316911e+00 2.7427573443e+00 
28400 4.9089101613e+00 1.3871808929e-03 1.5834871615e+00 -2.7426802168e+00 1.5834871615e+00 2.7426802168e+00 
28500 4.9089105201e+00 1.3644883701e-03 1.5834433602e+00 -2.7426043508e+00 1.5834433602e+00 2.7426043508e+00 
28600 4.9089108754e+00 1.3422030011e-03 1.5834002743e+00 -2.7425297238e+00 1.5834002743e+00 2.7425297238e+00 
28700 4.9089112272e+00 1.3203180117e-03 1.5833578909e+00 -2.7424563137e+00 1.5833578909e+00 2.7424563137e+00 
28800 4.9089115755e+00 1.2988266227e-03 1.5833161975e+00 -2.7423840985e+00 1.5833161975e+00 2.7423840985e+00 
28900 4.9089119202e+00 1.2777220570e-03 1.5832751817e+00 -2.7423130570e+00 1.5832751817e+00 2.7423130570e+00 
29000 4.9089122613e+00 1.2569975468e-03 1.5832348312e+00 -2.7422431680e+00 1.5832348312e+00 2.7422431680e+00 
29100 4.9089125988e+00 1.2366463399e-03 1.5831951343e+00 -2.7421744109e+00 1.5831951343e+00 2.7421744109e+00 
29200 4.9089129327e+00 1.2166617070e-03 1.5831560790e+00 -2.7421067652e+00 1.5831560790e+00 2.7421067652e+00 
29300 4.9089132628e+00 1.1970369472e-03 1.5831176540e+00 -2.7420402111e+00 1.5831176540e+00 2.7420402111e+00 
29400 4.9089135893e+00 1.1777653946e-03 1.5830798478e+00 -2.7419747289e+00 1.5830798478e+00 2.7419747289e+00 
29500 4.9089139121e+00 1.1588404234e-03 1.5830426494e+00 -2.7419102993e+00 1.5830426494e+00 2.7419102993e+00 
29600 4.9089142312e+00 1.1402554535e-03 1.5830060479e+00 -2.7418469036e+00 1.5830060479e+00 2.7418469036e+00 
29700 4.9089145466e+00 1.1220039559e-03 1.5829700325e+00 -2.7417845232e+00 1.5829700325e+00 2.7417845232e+00 
29800 4.9089148583e+00 1.1040794570e-03 1.5829345928e+00 -2.7417231398e+00 1.5829345928e+00 2.7417231398e+00 
29900 4.9089151662e+00 1.0864755437e-03 1.5828997185e+00 -2.7416627357e+00 1.5828997185e+00 2.7416627357e+00 
30000 4.9089154705e+00 1.0691858673e-03 1.5828653995e+00 -2.7416032934e+00 1.5828653995e+00 2.7416032934e+00 
30100 4.9089157710e+00 1.0522041477e-03 1.5828316258e+00 -2.7415447958e+00 1.5828316258e+00 2.7415447958e+00 
30200 4.9089160678e+00 1.0355241773e-03 1.5827983879e+00 -2.7414872260e+00 1.5827983879e+00 2.7414872260e+00 
30300 4.9089163610e+00 1.0191398241e-03 1.5827656762e+00 -2.7414305677e+00 1.5827656762e+00 2.7414305677e+00 
30400 4.9089166504e+00 1.0030450354e-03 1.5827334814e+00 -2.7413748047e+00 1.5827334814e+00 2.7413748047e+00 
30500 4.9089169361e+00 9.8723384062e-04 1.5827017944e+00 -2.7413199211e+00 1.5827017944e+00 2.7413199211e+00 
30600 4.9089172182e+00 9.7170035383e-04 1.5826706063e+00 -2.7412659017e+00 1.5826706063e+00 2.7412659017e+00 
30700 4.9089174966e+00 9.5643877665e-04 1.5826399082e+00 -2.7412127312e+00 1.5826399082e+00 2.7412127312e+00 
30800 4.9089177714e+00 9.4144340031e-04 1.5826096918e+00 -2.7411603947e+00 1.5826096918e+00 2.7411603947e+00 
30900 4.9089180426e+00 9.2670860777e-04 1.5825799485e+00 -2.7411088778e+00 1.5825799485e+00 2.7411088778e+00 
31000 4.9089183101e+00 9.1222887553e-04 1.5825506702e+00 -2.7410581663e+00 1.5825506702e+00 2.7410581663e+00 
31100 4.9089185741e+00 8.9799877526e-04 1.5825218488e+00 -2.7410082462e+00 1.5825218488e+00 2.7410082462e+00 
31200 4.9089188345e+00 8.8401297523e-04 1.5824934765e+00 -2.7409591039e+00 1.5824934765e+00 2.7409591039e+00 
31300 4.9089190914e+00 8.7026624150e-04 1.5824655455e+00 -2.7409107261e+00 1.5824655455e+00 2.7409107261e+00 
31400 4.9089193447e+00 8.5675343893e-04 1.5824380484e+00 -2.7408630997e+00 1.5824380484e+00 2.7408630997e+00 
31500 4.9089195945e+00 8.4346953203e-04 1.5824109778e+00 -2.7408162121e+00 1.5824109778e+00 2.7408162121e+00 
31600 4.9089198409e+00 8.3040958559e-04 1.5823843265e+00 -2.7407700506e+00 1.5823843265e+00 2.7407700506e+00 
31700 4.9089200838e+00 8.1756876516e-04 1.5823580874e+00 -2.7407246031e+00 1.5823580874e+00 2.7407246031e+00 
31800 4.9089203233e+00 8.0494233734e-04 1.5823322536e+00 -2.7406798577e+00 1.5823322536e+00 2.7406798577e+00 
31900 4.9089205594e+00 7.9252566993e-04 1.5823068183e+00 -2.7406358025e+00 1.5823068183e+00 2.7406358025e+00 
32000 4.9089207922e+00 7.8031423195e-04 1.5822817751e+00 -2.7405924263e+00 1.5822817751e+00 2.7405924263e+00 
32100 4.9089210215e+00 7.6830359344e-04 1.5822571172e+00 -2.7405497177e+00 1.5822571172e+00 2.7405497177e+00 
32200 4.9089212476e+00 7.5648942516e-04 1.5822328386e+00 -2.7405076658e+00 1.5822328386e+00 2.7405076658e+00 
32300 4.9089214704e+00 7.4486749823e-04 1.5822089329e+00 -2.7404662599e+00 1.5822089329e+00 2.7404662599e+00 
32400 4.9089216900e+00 7.3343368349e-04 1.5821853941e+00 -2.7404254896e+00 1.5821853941e+00 2.7404254896e+00 
32500 4.9089219063e+00 7.2218395089e-04 1.5821622163e+00 -2.7403853444e+00 1.5821622163e+00 2.7403853444e+00 
32600 4.9089221195e+00 7.1111436867e-04 1.5821393936e+00 -2.7403458145e+00 1.5821393936e+00 2.7403458145e+00 
32700 4.9089223295e+00 7.0022110247e-04 1.5821169205e+00 -2.7403068898e+00 1.5821169205e+00 2.7403068898e+00 
32800 4.9089225363e+00 6.8950041436e-04 1.5820947913e+00 -2.7402685610e+00 1.5820947913e+00 2.7402685610e+00 
32900 4.9089227401e+00 6.7894866175e-04 1.5820730006e+00 -2.7402308184e+00 1.5820730006e+00 2.7402308184e+00 
33000 4.9089229408e+00 6.6856229620e-04 1.5820515431e+00 -2.7401936529e+00 1.5820515431e+00 2.7401936529e+00 
33100 4.9089231385e+00 6.5833786218e-04 1.5820304136e+00 -2.7401570554e+00 1.5820304136e+00 2.7401570554e+00 
33200 4.9089233332e+00 6.4827199575e-04 1.5820096069e+00 -2.7401210172e+00 1.5820096069e+00 2.7401210172e+00 
33300 4.9089235249e+00 6.3836142315e-04 1.5819891180e+00 -2.7400855295e+00 1.5819891180e+00 2.7400855295e+00 
33400 4.9089237137e+00 6.2860295938e-04 1.5819689422e+00 -2.7400505838e+00 1.5819689422e+00 2.7400505838e+00 
33500 4.9089238996e+00 6.1899350662e-04 1.5819490745e+00 -2.7400161720e+00 1.5819490745e+00 2.7400161720e+00 
33600 4.9089240826e+00 6.0953005273e-04 1.5819295102e+00 -2.7399822857e+00 1.5819295102e+00 2.7399822857e+00 
33700 4.9089242628e+00 6.0020966958e-04 1.5819102449e+00 -2.7399489171e+00 1.5819102449e+00 2.7399489171e+00 
33800 4.9089244402e+00 5.9102951142e-04 1.5818912739e+00 -2.7399160584e+00 1.5818912739e+00 2.7399160584e+00 
33900 4.9089246148e+00 5.8198681321e-04 1.5818725928e+00 -2.7398837018e+00 1.5818725928e+00 2.7398837018e+00 
34000 4.9089247868e+00 5.7307888882e-04 1.5818541973e+00 -2.7398518400e+00 1.5818541973e+00 2.7398518400e+00 
34100 4.9089249560e+00 5.6430312936e-04 1.5818360832e+00 -2.7398204654e+00 1.5818360832e+00 2.7398204654e+00 
34200 4.9089251225e+00 5.5565700136e-04 1.5818182463e+00 -2.7397895709e+00 1.5818182463e+00 2.7397895709e+00 
34300 4.9089252865e+00 5.4713804498e-04 1.5818006825e+00 -2.7397591495e+00 1.5818006825e+00 2.7397591495e+00 
34400 4.9089254478e+00 5.3874387218e-04 1.5817833877e+00 -2.7397291941e+00 1.5817833877e+00 2.7397291941e+00 
34500 4.9089256066e+00 5.3047216496e-04 1.5817663581e+00 -2.7396996979e+00 1.5817663581e+00 2.7396996979e+00 
34600 4.9089257628e+00 5.2232067346e-04 1.5817495898e+00 -2.7396706544e+00 1.5817495898e+00 2.7396706544e+00 
34700 4.9089259166e+00 5.1428721416e-04 1.5817330790e+00 -2.7396420568e+00 1.5817330790e+00 2.7396420568e+00 
34800 4.9089260679e+00 5.0636966806e-04 1.5817168219e+00 -2.7396138987e+00 1.5817168219e+00 2.7396138987e+00 
34900 4.9089262167e+00 4.9856597882e-04 1.5817008150e+00 -2.7395861739e+00 1.5817008150e+00 2.7395861739e+00 
35000 4.9089263632e+00 4.9087415096e-04 1.5816850546e+00 -2.7395588761e+00 1.5816850546e+00 2.7395588761e+00 
35100 4.9089265073e+00 4.8329224804e-04 1.5816695371e+00 -2.7395319991e+00 1.5816695371e+00 2.7395319991e+00 
35200 4.9089266491e+00 4.7581839083e-04 1.5816542592e+00 -2.7395055370e+00 1.5816542592e+00 2.7395055370e+00 
35300 4.9089267885e+00 4.6845075558e-04 1.5816392175e+00 -2.7394794839e+00 1.5816392175e+00 2.7394794839e+00 
35400 4.9089269257e+00 4.6118757219e-04 1.5816244085e+00 -2.7394538340e+00 1.5816244085e+00 2.7394538340e+00 
35500 4.9089270607e+00 4.5402712249e-04 1.5816098289e+00 -2.7394285815e+00 1.5816098289e+00 2.7394285815e+00 
35600 4.9089271935e+00 4.4696773847e-04 1.5815954756e+00 -2.7394037208e+00 1.5815954756e+00 2.7394037208e+00 
35700 4.9089273240e+00 4.4000780062e-04 1.5815813454e+00 -2.7393792465e+00 1.5815813454e+00 2.7393792465e+00 
35800 4.9089274525e+00 4.3314573623e-04 1.5815674350e+00 -2.7393551531e+00 1.5815674350e+00 2.7393551531e+00 
35900 4.9089275788e+00 4.2638001770e-04 1.5815537415e+00 -2.7393314352e+00 1.5815537415e+00 2.7393314352e+00 
36000 4.9089277031e+00 4.1970916095e-04 1.5815402617e+00 -2.7393080875e+00 1.5815402617e+00 2.7393080875e+00 
36100 4.9089278253e+00 4.1313172382e-04 1.5815269927e+00 -2.7392851050e+00 1.5815269927e+00 2.7392851050e+00 
36200 4.9089279455e+00 4.0664630444e-04 1.5815139316e+00 -2.7392624824e+00 1.5815139316e+00 2.7392624824e+00 
36300 4.9089280637e+00 4.0025153979e-04 1.5815010754e+00 -2.7392402148e+00 1.5815010754e+00 2.7392402148e+00 
36400 4.9089281799e+00 3.9394610411e-04 1.5814884212e+00 -2.7392182971e+00 1.5814884212e+00 2.7392182971e+00 
36500 4.9089282942e+00 3.8772870748e-04 1.5814759663e+00 -2.7391967246e+00 1.5814759663e+00 2.7391967246e+00 
36600 4.9089284066e+00 3.8159809436e-04 1.5814637079e+00 -2.7391754924e+00 1.5814637079e+00 2.7391754924e+00 
36700 4.9089285172e+00 3.7555304222e-04 1.5814516432e+00 -2.7391545957e+00 1.5814516432e+00 2.7391545957e+00 
36800 4.9089286258e+00 3.6959236013e-04 1.5814397695e+00 -2.7391340299e+00 1.5814397695e+00 2.7391340299e+00 
36900 4.9089287327e+00 3.6371488748e-04 1.5814280842e+00 -2.7391137904e+00 1.5814280842e+00 2.7391137904e+00 
37000 4.9089288378e+00 3.5791949266e-04 1.5814165847e+00 -2.7390938726e+00 1.5814165847e+00 2.7390938726e+00 
37100 4.9089289411e+00 3.5220507182e-04 1.5814052683e+00 -2.7390742720e+00 1.5814052683e+00 2.7390742720e+00 
37200 4.9089290427e+00 3.4657054765e-04 1.5813941325e+00 -2.7390549842e+00 1.5813941325e+00 2.7390549842e+00 
37300 4.9089291425e+00 3.4101486822e-04 1.5813831747e+00 -2.7390360049e+00 1.5813831747e+00 2.7390360049e+00 
37400 4.9089292407e+00 3.3553700583e-04 1.5813723926e+00 -2.7390173296e+00 1.5813723926e+00 2.7390173296e+00 
37500 4.9089293373e+00 3.3013595587e-04 1.5813617835e+00 -2.7389989542e+00 1.5813617835e+00 2.7389989542e+00 
37600 4.9089294322e+00 3.2481073585e-04 1.5813513452e+00 -2.7389808745e+00 1.5813513452e+00 2.7389808745e+00 
37700 4.9089295255e+00 3.1956038427e-04 1.5813410752e+00 -2.7389630863e+00 1.5813410752e+00 2.7389630863e+00 
37800 4.9089296172e+00 3.1438395972e-04 1.5813309711e+00 -2.7389455855e+00 1.5813309711e+00 2.7389455855e+00 
37900 4.9089297073e+00 3.0928053985e-04 1.5813210306e+00 -2.7389283681e+00 1.5813210306e+00 2.7389283681e+00 
38000 4.9089297960e+00 3.0424922052e-04 1.5813112514e+00 -2.7389114301e+00 1.5813112514e+00 2.7389114301e+00 
38100 4.9089298831e+00 2.9928911490e-04 1.5813016313e+00 -2.7388947675e+00 1.5813016313e+00 2.7388947675e+00 
38200 4.9089299687e+00 2.9439935261e-04 1.5812921679e+00 -2.7388783765e+00 1.5812921679e+00 2.7388783765e+00 
38300 4.9089300529e+00 2.8957907894e-04 1.5812828591e+00 -2.7388622531e+00 1.5812828591e+00 2.7388622531e+00 
38400 4.9089301357e+00 2.8482745406e-04 1.5812737027e+00 -2.7388463937e+00 1.5812737027e+00 2.7388463937e+00 
38500 4.9089302170e+00 2.8014365230e-04 1.5812646964e+00 -2.7388307944e+00 1.5812646964e+00 2.7388307944e+00 
38600 4.9089302970e+00 2.7552686141e-04 1.5812558382e+00 -2.7388154515e+00 1.5812558382e+00 2.7388154515e+00 
38700 4.9089303756e+00 2.7097628195e-04 1.5812471259e+00 -2.7388003614e+00 1.5812471259e+00 2.7388003614e+00 
38800 4.9089304528e+00 2.6649112659e-04 1.5812385575e+00 -2.7387855205e+00 1.5812385575e+00 2.7387855205e+00 
38900 4.9089305287e+00 2.6207061955e-04 1.5812301308e+00 -2.7387709251e+00 1.5812301308e+00 2.7387709251e+00 
39000 4.9089306034e+00 2.5771399599e-04 1.5812218439e+00 -2.7387565717e+00 1.5812218439e+00 2.7387565717e+00 
39100 4.9089306767e+00 2.5342050151e-04 1.5812136947e+00 -2.7387424569e+00 1.5812136947e+00 2.7387424569e+00 
39200 4.9089307488e+00 2.4918939156e-04 1.5812056813e+00 -2.7387285772e+00 1.5812056813e+00 2.7387285772e+00 
39300 4.9089308196e+00 2.4501993103e-04 1.5811978015e+00 -2.7387149291e+00 1.5811978015e+00 2.7387149291e+00 
39400 4.9089308893e+00 2.4091139377e-04 1.5811900536e+00 -2.7387015093e+00 1.5811900536e+00 2.7387015093e+00 
39500 4.9089309577e+00 2.3686306211e-04 1.5811824356e+00 -2.7386883145e+00 1.5811824356e+00 2.7386883145e+00 
39600 4.9089310249e+00 2.3287422651e-04 1.5811749455e+00 -2.7386753413e+00 1.5811749455e+00 2.7386753413e+00 
39700 4.9089310910e+00 2.2894418518e-04 1.5811675816e+00 -2.7386625866e+00 1.5811675816e+00 2.7386625866e+00 
39800 4.9089311560e+00 2.2507224368e-04 1.5811603419e+00 -2.7386500470e+00 1.5811603419e+00 2.7386500470e+00 
39900 4.9089312198e+00 2.2125771461e-04 1.5811532246e+00 -2.7386377195e+00 1.5811532246e+00 2.7386377195e+00 
40000 4.9089312826e+00 2.1749991734e-04 1.5811462278e+00 -2.7386256008e+00 1.5811462278e+00 2.7386256008e+00 
40100 4.9089313442e+00 2.1379817764e-04 1.5811393499e+00 -2.7386136879e+00 1.5811393499e+00 2.7386136879e+00 
40200 4.9089314048e+00 2.1015182750e-04 1.5811325890e+00 -2.7386019777e+00 1.5811325890e+00 2.7386019777e+00 
40300 4.9089314644e+00 2.0656020482e-04 1.5811259434e+00 -2.7385904672e+00 1.5811259434e+00 2.7385904672e+00 
40400 4.9089315229e+00 2.0302265324e-04 1.5811194114e+00 -2.7385791533e+00 1.5811194114e+00 2.7385791533e+00 
40500 4.9089315804e+00 1.9953852187e-04 1.5811129912e+00 -2.7385680332e+00 1.5811129912e+00 2.7385680332e+00 
40600 4.9089316369e+00 1.9610716515e-04 1.5811066811e+00 -2.7385571039e+00 1.5811066811e+00 2.7385571039e+00 
40700 4.9089316924e+00 1.9272794266e-04 1.5811004795e+00 -2.7385463624e+00 1.5811004795e+00 2.7385463624e+00 
40800 4.9089317470e+00 1.8940021898e-04 1.5810943848e+00 -2.7385358060e+00 1.5810943848e+00 2.7385358060e+00 
40900 4.9089318006e+00 1.8612336350e-04 1.5810883953e+00 -2.7385254319e+00 1.5810883953e+00 2.7385254319e+00 
41000 4.9089318533e+00 1.8289675038e-04 1.5810825093e+00 -2.7385152371e+00 1.5810825093e+00 2.7385152371e+00 
41100 4.9089319051e+00 1.7971975833e-04 1.5810767254e+00 -2.7385052191e+00 1.5810767254e+00 2.7385052191e+00 
41200 4.9089319560e+00 1.7659177063e-04 1.5810710420e+00 -2.7384953751e+00 1.5810710420e+00 2.7384953751e+00 
41300 4.9089320060e+00 1.7351217493e-04 1.5810654574e+00 -2.7384857024e+00 1.5810654574e+00 2.7384857024e+00 
41400 4.9089320551e+00 1.7048036328e-04 1.5810599702e+00 -2.7384761983e+00 1.5810599702e+00 2.7384761983e+00 
41500 4.9089321034e+00 1.6749573197e-04 1.5810545789e+00 -2.7384668602e+00 1.5810545789e+00 2.7384668602e+00 
41600 4.9089321509e+00 1.6455768156e-04 1.5810492820e+00 -2.7384576856e+00 1.5810492820e+00 2.7384576856e+00 
41700 4.9089321975e+00 1.6166561679e-04 1.5810440779e+00 -2.7384486719e+00 1.5810440779e+00 2.7384486719e+00 
41800 4.9089322433e+00 1.5881894657e-04 1.5810389653e+00 -2.7384398166e+00 1.5810389653e+00 2.7384398166e+00 
41900 4.9089322883e+00 1.5601708391e-04 1.5810339427e+00 -2.7384311172e+00 1.5810339427e+00 2.7384311172e+00 
42000 4.9089323326e+00 1.5325944596e-04 1.5810290086e+00 -2.7384225712e+00 1.5810290086e+00 2.7384225712e+00 
42100 4.9089323760e+00 1.5054545399e-04 1.5810241618e+00 -2.7384141763e+00 1.5810241618e+00 2.7384141763e+00 
42200 4.9089324187e+00 1.4787453334e-04 1.5810194008e+00 -2.7384059300e+00 1.5810194008e+00 2.7384059300e+00 
42300 4.9089324607e+00 1.4524611348e-04 1.5810147243e+00 -2.7383978299e+00 1.5810147243e+00 2.7383978299e+00 
42400 4.9089325019e+00 1.4265962797e-04 1.5810101308e+00 -2.7383898738e+00 1.5810101308e+00 2.7383898738e+00 
42500 4.9089325425e+00 1.4011451452e-04 1.5810056192e+00 -2.7383820594e+00 1.5810056192e+00 2.7383820594e+00 
42600 4.9089325823e+00 1.3761021497e-04 1.5810011880e+00 -2.7383743844e+00 1.5810011880e+00 2.7383743844e+00 
42700 4.9089326214e+00 1.3514617533e-04 1.5809968360e+00 -2.7383668465e+00 1.5809968360e+00 2.7383668465e+00 
42800 4.9089326599e+00 1.3272184581e-04 1.5809925619e+00 -2.7383594436e+00 1.5809925619e+00 2.7383594436e+00 
42900 4.9089326976e+00 1.3033668082e-04 1.5809883645e+00 -2.7383521735e+00 1.5809883645e+00 2.7383521735e+00 
43000 4.9089327348e+00 1.2799013904e-04 1.5809842425e+00 -2.7383450339e+00 1.5809842425e+00 2.7383450339e+00 
43100 4.9089327712e+00 1.2568168343e-04 1.5809801947e+00 -2.7383380229e+00 1.5809801947e+00 2.7383380229e+00 
43200 4.9089328071e+00 1.2341078128e-04 1.5809762199e+00 -2.7383311384e+00 1.5809762199e+00 2.7383311384e+00 
43300 4.9089328423e+00 1.2117690423e-04 1.5809723169e+00 -2.7383243782e+00 1.5809723169e+00 2.7383243782e+00 
43400 4.9089328769e+00 1.1897952832e-04 1.5809684845e+00 -2.7383177404e+00 1.5809684845e+00 2.7383177404e+00 
43500 4.9089329109e+00 1.1681813405e-04 1.5809647217e+00 -2.7383112229e+00 1.5809647217e+00 2.7383112229e+00 
43600 4.9089329443e+00 1.1469220636e-04 1.5809610272e+00 -2.7383048238e+00 1.5809610272e+00 2.7383048238e+00 
43700 4.9089329772e+00 1.1260123476e-04 1.5809573999e+00 -2.7382985412e+00 1.5809573999e+00 2.7382985412e+00 
43800 4.9089330094e+00 1.1054471327e-04 1.5809538387e+00 -2.7382923730e+00 1.5809538387e+00 2.7382923730e+00 
43900 4.9089330411e+00 1.0852214054e-04 1.5809503425e+00 -2.7382863175e+00 1.5809503425e+00 2.7382863175e+00 
44000 4.9089330723e+00 1.0653301988e-04 1.5809469104e+00 -2.7382803728e+00 1.5809469104e+00 2.7382803728e+00 
44100 4.9089331029e+00 1.0457685925e-04 1.5809435411e+00 -2.7382745371e+00 1.5809435411e+00 2.7382745371e+00 
44200 4.9089331330e+00 1.0265317134e-04 1.5809402337e+00 -2.7382688085e+00 1.5809402337e+00 2.7382688085e+00 
44300 4.9089331626e+00 1.0076147361e-04 1.5809369871e+00 -2.7382631852e+00 1.5809369871e+00 2.7382631852e+00 
44400 4.9089331916e+00 9.8901288317e-05 1.5809338003e+00 -2.7382576656e+00 1.5809338003e+00 2.7382576656e+00 
44500 4.9089332201e+00 9.7072142534e-05 1.5809306724e+00 -2.7382522478e+00 1.5809306724e+00 2.7382522478e+00 
44600 4.9089332482e+00 9.5273568212e-05 1.5809276023e+00 -2.7382469303e+00 1.5809276023e+00 2.7382469303e+00 
44700 4.9089332758e+00 9.3505102194e-05 1.5809245891e+00 -2.7382417112e+00 1.5809245891e+00 2.7382417112e+00 
44800 4.9089333028e+00 9.1766286255e-05 1.5809216318e+00 -2.7382365890e+00 1.5809216318e+00 2.7382365890e+00 
44900 4.9089333294e+00 9.0056667121e-05 1.5809187295e+00 -2.7382315621e+00 1.5809187295e+00 2.7382315621e+00 
45000 4.9089333556e+00 8.8375796502e-05 1.5809158812e+00 -2.7382266288e+00 1.5809158812e+00 2.7382266288e+00 
45100 4.9089333813e+00 8.6723231113e-05 1.5809130862e+00 -2.7382217876e+00 1.5809130862e+00 2.7382217876e+00 
45200 4.9089334065e+00 8.5098532702e-05 1.5809103433e+00 -2.7382170369e+00 1.5809103433e+00 2.7382170369e+00 
45300 4.9089334314e+00 8.3501268057e-05 1.5809076519e+00 -2.7382123752e+00 1.5809076519e+00 2.7382123752e+00 
45400 4.9089334557e+00 8.1931009040e-05 1.5809050110e+00 -2.7382078010e+00 1.5809050110e+00 2.7382078010e+00 
45500 4.9089334797e+00 8.0387332586e-05 1.5809024197e+00 -2.7382033127e+00 1.5809024197e+00 2.7382033127e+00 
45600 4.9089335033e+00 7.8869820724e-05 1.5808998773e+00 -2.7381989091e+00 1.5808998773e+00 2.7381989091e+00 
45700 4.9089335264e+00 7.7378060593e-05 1.5808973828e+00 -2.7381945886e+00 1.5808973828e+00 2.7381945886e+00 
45800 4.9089335491e+00 7.5911644434e-05 1.5808949355e+00 -2.7381903497e+00 1.5808949355e+00 2.7381903497e+00 
45900 4.9089335715e+00 7.4470169611e-05 1.5808925346e+00 -2.7381861913e+00 1.5808925346e+00 2.7381861913e+00 
46000 4.9089335935e+00 7.3053238600e-05 1.5808901793e+00 -2.7381821117e+00 1.5808901793e+00 2.7381821117e+00 
46100 4.9089336150e+00 7.1660459003e-05 1.5808878688e+00 -2.7381781098e+00 1.5808878688e+00 2.7381781098e+00 
46200 4.9089336362e+00 7.0291443535e-05 1.5808856023e+00 -2.7381741842e+00 1.5808856023e+00 2.7381741842e+00 
46300 4.9089336573e+00 7.0605798758e-05 1.5808856023e+00 -2.7381741842e+00 1.5808856023e+00 2.7381741842e+00 
46400 4.9089336780e+00 7.0921220616e-05 1.5808856023e+00 -2.7381741842e+00 1.5808856023e+00 2.7381741842e+00 
46500 4.9089336981e+00 6.9563020387e-05 1.5808833592e+00 -2.7381702990e+00 1.5808833592e+00 2.7381702990e+00 
46600 4.9089337180e+00 6.9871097306e-05 1.5808833592e+00 -2.7381702990e+00 1.5808833592e+00 2.7381702990e+00 
46700 4.9089337377e+00 7.0180431516e-05 1.5808833592e+00 -2.7381702990e+00 1.5808833592e+00 2.7381702990e+00 
46800 4.9089337569e+00 7.0491110645e-05 1.5808833592e+00 -2.7381702990e+00 1.5808833592e+00 2.7381702990e+00 
46900 4.9089337759e+00 7.0803188324e-05 1.5808833592e+00 -2.7381702990e+00 1.5808833592e+00 2.7381702990e+00 
47000 4.9089337943e+00 6.9444638008e-05 1.5808811199e+00 -2.7381664204e+00 1.5808811199e+00 2.7381664204e+00 
47100 4.9089338126e+00 6.9749638482e-05 1.5808811199e+00 -2.7381664204e+00 1.5808811199e+00 2.7381664204e+00 
47200 4.9089338306e+00 7.0055836343e-05 1.5808811199e+00 -2.7381664204e+00 1.5808811199e+00 2.7381664204e+00 
47300 4.9089338482e+00 7.0363208250e-05 1.5808811199e+00 -2.7381664204e+00 1.5808811199e+00 2.7381664204e+00 
47400 4.9089338656e+00 7.0671706173e-05 1.5808811199e+00 -2.7381664204e+00 1.5808811199e+00 2.7381664204e+00 
47500 4.9089338826e+00 7.0981259402e-05 1.5808811199e+00 -2.7381664204e+00 1.5808811199e+00 2.7381664204e+00 
47600 4.9089338992e+00 6.9615537861e-05 1.5808788749e+00 -2.7381625319e+00 1.5808788749e+00 2.7381625319e+00 
47700 4.9089339157e+00 6.9916972455e-05 1.5808788749e+00 -2.7381625319e+00 1.5808788749e+00 2.7381625319e+00 
47800 4.9089339319e+00 7.0218951272e-05 1.5808788749e+00 -2.7381625319e+00 1.5808788749e+00 2.7381625319e+00 
47900 4.9089339478e+00 7.0521367670e-05 1.5808788749e+00 -2.7381625319e+00 1.5808788749e+00 2.7381625319e+00 
48000 4.9089339634e+00 7.0824099480e-05 1.5808788749e+00 -2.7381625319e+00 1.5808788749e+00 2.7381625319e+00 
48100 4.9089339786e+00 6.9454491235e-05 1.5808766349e+00 -2.7381586521e+00 1.5808766349e+00 2.7381586521e+00 
48200 4.9089339937e+00 6.9747519161e-05 1.5808766349e+00 -2.7381586521e+00 1.5808766349e+00 2.7381586521e+00 
48300 4.9089340085e+00 7.0040236964e-05 1.5808766349e+00 -2.7381586521e+00 1.5808766349e+00 2.7381586521e+00 
48400 4.9089340231e+00 7.0332511713e-05 1.5808766349e+00 -2.7381586521e+00 1.5808766349e+00 2.7381586521e+00 
48500 4.9089340374e+00 7.0624200455e-05 1.5808766349e+00 -2.7381586521e+00 1.5808766349e+00 2.7381586521e+00 
48600 4.9089340515e+00 7.0915151511e-05 1.5808766349e+00 -2.7381586521e+00 1.5808766349e+00 2.7381586521e+00 
48700 4.9089340652e+00 6.9530542860e-05 1.5808743920e+00 -2.7381547673e+00 1.5808743920e+00 2.7381547673e+00 
48800 4.9089340788e+00 6.9809607909e-05 1.5808743920e+00 -2.7381547673e+00 1.5808743920e+00 2.7381547673e+00 
48900 4.9089340922e+00 7.0087258022e-05 1.5808743920e+00 -2.7381547673e+00 1.5808743920e+00 2.7381547673e+00 
49000 4.9089341053e+00 7.0363354328e-05 1.5808743920e+00 -2.7381547673e+00 1.5808743920e+00 2.7381547673e+00 
49100 4.9089341182e+00 7.0637752945e-05 1.5808743920e+00 -2.7381547673e+00 1.5808743920e+00 2.7381547673e+00 
49200 4.9089341309e+00 7.0910305942e-05 1.5808743920e+00 -2.7381547673e+00 1.5808743920e+00 2.7381547673e+00 
49300 4.9089341432e+00 6.9506316899e-05 1.5808721492e+00 -2.7381508827e+00 1.5808721492e+00 2.7381508827e+00 
49400 4.9089341555e+00 6.9764797227e-05 1.5808721492e+00 -2.7381508827e+00 1.5808721492e+00 2.7381508827e+00 
49500 4.9089341676e+00 7.0020790898e-05 1.5808721492e+00 -2.7381508827e+00 1.5808721492e+00 2.7381508827e+00 
49600 4.9089341794e+00 7.0274178419e-05 1.5808721492e+00 -2.7381508827e+00 1.5808721492e+00 2.7381508827e+00 
49700 4.9089341911e+00 7.0524838471e-05 1.5808721492e+00 -2.7381508827e+00 1.5808721492e+00 2.7381508827e+00 
49800 4.9089342025e+00 7.0772648598e-05 1.5808721492e+00 -2.7381508827e+00 1.5808721492e+00 2.7381508827e+00 
49900 4.9089342136e+00 6.9346191275e-05 1.5808699108e+00 -2.7381470057e+00 1.5808699108e+00 2.7381470057e+00 
50000 4.9089342246e+00 6.9578026361e-05 1.5808699108e+00 -2.7381470057e+00 1.5808699108e+00 2.7381470057e+00 
50100 4.9089342355e+00 6.9806462169e-05 1.5808699108e+00 -2.7381470057e+00 1.5808699108e+00 2.7381470057e+00 
50200 4.9089342462e+00 7.0031413752e-05 1.5808699108e+00 -2.7381470057e+00 1.5808699108e+00 2.7381470057e+00 
50300 4.9089342567e+00 7.0252796050e-05 1.5808699108e+00 -2.7381470057e+00 1.5808699108e+00 2.7381470057e+00 
50400 4.9089342670e+00 7.0470524369e-05 1.5808699108e+00 -2.7381470057e+00 1.5808699108e+00 2.7381470057e+00 
50500 4.9089342772e+00 7.0684514818e-05 1.5808699108e+00 -2.7381470057e+00 1.5808699108e+00 2.7381470057e+00 
50600 4.9089342872e+00 7.0894684727e-05 1.5808699108e+00 -2.7381470057e+00 1.5808699108e+00 2.7381470057e+00 
50700 4.9089342968e+00 6.9426774702e-05 1.5808676685e+00 -2.7381431219e+00 1.5808676685e+00 2.7381431219e+00 
50800 4.9089343064e+00 6.9619138995e-05 1.5808676685e+00 -2.7381431219e+00 1.5808676685e+00 2.7381431219e+00 
50900 4.9089343159e+00 6.9807263941e-05 1.5808676685e+00 -2.7381431219e+00 1.5808676685e+00 2.7381431219e+00 
51000 4.9089343252e+00 6.9991111313e-05 1.5808676685e+00 -2.7381431219e+00 1.5808676685e+00 2.7381431219e+00 
51100 4.9089343344e+00 7.0170643912e-05 1.5808676685e+00 -2.7381431219e+00 1.5808676685e+00 2.7381431219e+00 
51200 4.9089343434e+00 7.0345825829e-05 1.5808676685e+00 -2.7381431219e+00 1.5808676685e+00 2.7381431219e+00 
51300 4.9089343523e+00 7.0516622694e-05 1.5808676685e+00 -2.7381431219e+00 1.5808676685e+00 2.7381431219e+00 
51400 4.9089343610e+00 7.0683001895e-05 1.5808676685e+00 -2.7381431219e+00 1.5808676685e+00 2.7381431219e+00 
51500 4.9089343695e+00 7.0844932782e-05 1.5808676685e+00 -2.7381431219e+00 1.5808676685e+00 2.7381431219e+00 
51600 4.9089343778e+00 6.9329378102e-05 1.5808654278e+00 -2.7381392409e+00 1.5808654278e+00 2.7381392409e+00 
51700 4.9089343860e+00 6.9472413255e-05 1.5808654278e+00 -2.7381392409e+00 1.5808654278e+00 2.7381392409e+00 
51800 4.9089343942e+00 6.9610740002e-05 1.5808654278e+00 -2.7381392409e+00 1.5808654278e+00 2.7381392409e+00 
51900 4.9089344022e+00 6.9744373224e-05 1.5808654278e+00 -2.7381392409e+00 1.5808654278e+00 2.7381392409e+00 
52000 4.9089344100e+00 6.9873328693e-05 1.5808654278e+00 -2.7381392409e+00 1.5808654278e+00 2.7381392409e+00 
52100 4.9089344177e+00 6.9997623192e-05 1.5808654278e+00 -2.7381392409e+00 1.5808654278e+00 2.7381392409e+00 
52200 4.9089344253e+00 7.0117274628e-05 1.5808654278e+00 -2.7381392409e+00 1.5808654278e+00 2.7381392409e+00 
52300 4.9089344328e+00 7.0232302122e-05 1.5808654278e+00 -2.7381392409e+00 1.5808654278e+00 2.7381392409e+00 
52400 4.9089344402e+00 7.0342726100e-05 1.5808654278e+00 -2.7381392409e+00 1.5808654278e+00 2.7381392409e+00 
52500 4.9089344474e+00 7.0448568364e-05 1.5808654278e+00 -2.7381392409e+00 1.5808654278e+00 2.7381392409e+00 
52600 4.9089344545e+00 7.0549852152e-05 1.5808654278e+00 -2.7381392409e+00 1.5808654278e+00 2.7381392409e+00 
52700 4.9089344615e+00 7.0646602197e-05 1.5808654278e+00 -2.7381392409e+00 1.5808654278e+00 2.7381392409e+00 
52800 4.9089344683e+00 7.0738844765e-05 1.5808654278e+00 -2.7381392409e+00 1.5808654278e+00 2.7381392409e+00 
52900 4.9089344749e+00 6.9156094229e-05 1.5808631905e+00 -2.7381353658e+00 1.5808631905e+00 2.7381353658e+00 
53000 4.9089344815e+00 6.9229506505e-05 1.5808631905e+00 -2.7381353658e+00 1.5808631905e+00 2.7381353658e+00 
53100 4.9089344880e+00 6.9298318195e-05 1.5808631905e+00 -2.7381353658e+00 1.5808631905e+00 2.7381353658e+00 
53200 4.9089344945e+00 6.9362597959e-05 1.5808631905e+00 -2.7381353658e+00 1.5808631905e+00 2.7381353658e+00 
53300 4.9089345008e+00 6.9422414285e-05 1.5808631905e+00 -2.7381353658e+00 1.5808631905e+00 2.7381353658e+00 
53400 4.9089345070e+00 6.9477835513e-05 1.5808631905e+00 -2.7381353658e+00 1.5808631905e+00 2.7381353658e+00 
53500 4.9089345131e+00 6.9528929854e-05 1.5808631905e+00 -2.7381353658e+00 1.5808631905e+00 2.7381353658e+00 
53600 4.9089345191e+00 6.9575765409e-05 1.5808631905e+00 -2.7381353658e+00 1.5808631905e+00 2.7381353658e+00 
53700 4.9089345250e+00 6.9618410181e-05 1.5808631905e+00 -2.7381353658e+00 1.5808631905e+00 2.7381353658e+00 
53800 4.9089345308e+00 6.9656932077e-05 1.5808631905e+00 -2.7381353658e+00 1.5808631905e+00 2.7381353658e+00 
53900 4.9089345365e+00 6.9691398927e-05 1.5808631905e+00 -2.7381353658e+00 1.5808631905e+00 2.7381353658e+00 
54000 4.9089345421e+00 6.9721878472e-05 1.5808631905e+00 -2.7381353658e+00 1.5808631905e+00 2.7381353658e+00 
54100 4.9089345476e+00 6.9748438379e-05 1.5808631905e+00 -2.7381353658e+00 1.5808631905e+00 2.7381353658e+00 
54200 4.9089345531e+00 6.9771146225e-05 1.5808631905e+00 -2.7381353658e+00 1.5808631905e+00 2.7381353658e+00 
54300 4.9089345584e+00 6.9790069506e-05 1.5808631905e+00 -2.7381353658e+00 1.5808631905e+00 2.7381353658e+00 
54400 4.9089345637e+00 6.9805275619e-05 1.5808631905e+00 -2.7381353658e+00 1.5808631905e+00 2.7381353658e+00 
54500 4.9089345688e+00 6.9816831858e-05 1.5808631905e+00 -2.7381353658e+00 1.5808631905e+00 2.7381353658e+00 
54600 4.9089345739e+00 6.9824805406e-05 1.5808631905e+00 -2.7381353658e+00 1.5808631905e+00 2.7381353658e+00 
54700 4.9089345789e+00 6.9829263319e-05 1.5808631905e+00 -2.7381353658e+00 1.5808631905e+00 2.7381353658e+00 
54800 4.9089345838e+00 6.9830272512e-05 1.5808631905e+00 -2.7381353658e+00 1.5808631905e+00 2.7381353658e+00 
54900 4.9089345886e+00 6.9827899749e-05 1.5808631905e+00 -2.7381353658e+00 1.5808631905e+00 2.7381353658e+00 
55000 4.9089345934e+00 6.9822211620e-05 1.5808631905e+00 -2.7381353658e+00 1.5808631905e+00 2.7381353658e+00 
55100 4.9089345981e+00 6.9813274531e-05 1.5808631905e+00 -2.7381353658e+00 1.5808631905e+00 2.7381353658e+00 
55200 4.9089346027e+00 6.9801154681e-05 1.5808631905e+00 -2.7381353658e+00 1.5808631905e+00 2.7381353658e+00 
55300 4.9089346072e+00 6.9785918043e-05 1.5808631905e+00 -2.7381353658e+00 1.5808631905e+00 2.7381353658e+00 
55400 4.9089346116e+00 6.9767630350e-05 1.5808631905e+00 -2.7381353658e+00 1.5808631905e+00 2.7381353658e+00 
55500 4.9089346160e+00 6.9746357067e-05 1.5808631905e+00 -2.7381353658e+00 1.5808631905e+00 2.7381353658e+00 
55600 4.9089346203e+00 6.9722163377e-05 1.5808631905e+00 -2.7381353658e+00 1.5808631905e+00 2.7381353658e+00 
55700 4.9089346246e+00 6.9695114157e-05 1.5808631905e+00 -2.7381353658e+00 1.5808631905e+00 2.7381353658e+00 
55800 4.9089346287e+00 6.9665273956e-05 1.5808631905e+00 -2.7381353658e+00 1.5808631905e+00 2.7381353658e+00 
55900 4.9089346328e+00 6.9632706976e-05 1.5808631905e+00 -2.7381353658e+00 1.5808631905e+00 2.7381353658e+00 
56000 4.9089346369e+00 6.9597477051e-05 1.5808631905e+00 -2.7381353658e+00 1.5808631905e+00 2.7381353658e+00 
56100 4.9089346408e+00 6.9559647624e-05 1.5808631905e+00 -2.7381353658e+00 1.5808631905e+00 2.7381353658e+00 
56200 4.9089346447e+00 6.9519281726e-05 1.5808631905e+00 -2.7381353658e+00 1.5808631905e+00 2.7381353658e+00 
56300 4.9089346486e+00 6.9476441955e-05 1.5808631905e+00 -2.7381353658e+00 1.5808631905e+00 2.7381353658e+00 
56400 4.9089346523e+00 6.9431190457e-05 1.5808631905e+00 -2.7381353658e+00 1.5808631905e+00 2.7381353658e+00 
56500 4.9089346561e+00 6.9383588901e-05 1.5808631905e+00 -2.7381353658e+00 1.5808631905e+00 2.7381353658e+00 
56600 4.9089346597e+00 6.9333698467e-05 1.5808631905e+00 -2.7381353658e+00 1.5808631905e+00 2.7381353658e+00 
56700 4.9089346633e+00 6.9281579818e-05 1.5808631905e+00 -2.7381353658e+00 1.5808631905e+00 2.7381353658e+00 
56800 4.9089346668e+00 6.9227293082e-05 1.5808631905e+00 -2.7381353658e+00 1.5808631905e+00 2.7381353658e+00 
56900 4.9089346703e+00 6.9170897840e-05 1.5808631905e+00 -2.7381353658e+00 1.5808631905e+00 2.7381353658e+00 
57000 4.9089346738e+00 6.9112453099e-05 1.5808631905e+00 -2.7381353658e+00 1.5808631905e+00 2.7381353658e+00 
57100 4.9089346771e+00 6.9052017280e-05 1.5808631905e+00 -2.7381353658e+00 1.5808631905e+00 2.7381353658e+00 
57200 4.9089346804e+00 6.8989648200e-05 1.5808631905e+00 -2.7381353658e+00 1.5808631905e+00 2.7381353658e+00 
57300 4.9089346837e+00 6.8925403054e-05 1.5808631905e+00 -2.7381353658e+00 1.5808631905e+00 2.7381353658e+00 
57400 4.9089346869e+00 6.8859338400e-05 1.5808631905e+00 -2.7381353658e+00 1.5808631905e+00 2.7381353658e+00 
57500 4.9089346901e+00 6.8791510145e-05 1.5808631905e+00 -2.7381353658e+00 1.5808631905e+00 2.7381353658e+00 
57600 4.9089346932e+00 6.8721973530e-05 1.5808631905e+00 -2.7381353658e+00 1.5808631905e+00 2.7381353658e+00 
57700 4.9089346962e+00 6.8650783116e-05 1.5808631905e+00 -2.7381353658e+00 1.5808631905e+00 2.7381353658e+00 
57800 4.9089346992e+00 6.8577992771e-05 1.5808631905e+00 -2.7381353658e+00 1.5808631905e+00 2.7381353658e+00 
57900 4.9089347022e+00 6.8503655659e-05 1.5808631905e+00 -2.7381353658e+00 1.5808631905e+00 2.7381353658e+00 
58000 4.9089347051e+00 6.8427824230e-05 1.5808631905e+00 -2.7381353658e+00 1.5808631905e+00 2.7381353658e+00 
58100 4.9089347080e+00 6.8350550204e-05 1.5808631905e+00 -2.7381353658e+00 1.5808631905e+00 2.7381353658e+00 
58200 4.9089347108e+00 6.8271884566e-05 1.5808631905e+00 -2.7381353658e+00 1.5808631905e+00 2.7381353658e+00 
58300 4.9089347136e+00 6.8191877559e-05 1.5808631905e+00 -2.7381353658e+00 1.5808631905e+00 2.7381353658e+00 
58400 4.9089347163e+00 6.8110578668e-05 1.5808631905e+00 -2.7381353658e+00 1.5808631905e+00 2.7381353658e+00 
58500 4.9089347190e+00 6.8028036619e-05 1.5808631905e+00 -2.7381353658e+00 1.5808631905e+00 2.7381353658e+00 
58600 4.9089347217e+00 6.7944299371e-05 1.5808631905e+00 -2.7381353658e+00 1.5808631905e+00 2.7381353658e+00 
58700 4.9089347243e+00 6.7859414109e-05 1.5808631905e+00 -2.7381353658e+00 1.5808631905e+00 2.7381353658e+00 
58800 4.9089347268e+00 6.7773427239e-05 1.5808631905e+00 -2.7381353658e+00 1.5808631905e+00 2.7381353658e+00 
58900 4.9089347293e+00 6.7686384383e-05 1.5808631905e+00 -2.7381353658e+00 1.5808631905e+00 2.7381353658e+00 
59000 4.9089347318e+00 6.7598330376e-05 1.5808631905e+00 -2.7381353658e+00 1.5808631905e+00 2.7381353658e+00 
59100 4.9089347343e+00 6.7509309266e-05 1.5808631905e+00 -2.7381353658e+00 1.5808631905e+00 2.7381353658e+00 
59200 4.9089347367e+00 6.7419364303e-05 1.5808631905e+00 -2.7381353658e+00 1.5808631905e+00 2.7381353658e+00 
59300 4.9089347390e+00 6.7328537947e-05 1.5808631905e+00 -2.7381353658e+00 1.5808631905e+00 2.7381353658e+00 
59400 4.9089347414e+00 6.7236871864e-05 1.5808631905e+00 -2.7381353658e+00 1.5808631905e+00 2.7381353658e+00 
59500 4.9089347437e+00 6.7144406920e-05 1.5808631905e+00 -2.7381353658e+00 1.5808631905e+00 2.7381353658e+00 
59600 4.9089347459e+00 6.7051183190e-05 1.5808631905e+00 -2.7381353658e+00 1.5808631905e+00 2.7381353658e+00 
59700 4.9089347481e+00 6.6957239952e-05 1.5808631905e+00 -2.7381353658e+00 1.5808631905e+00 2.7381353658e+00 
59800 4.9089347503e+00 6.6862615695e-05 1.5808631905e+00 -2.7381353658e+00 1.5808631905e+00 2.7381353658e+00 
59900 4.9089347525e+00 6.6767348113e-05 1.5808631905e+00 -2.7381353658e+00 1.5808631905e+00 2.7381353658e+00 
60000 4.9089347546e+00 6.6671474117e-05 1.5808631905e+00 -2.7381353658e+00 1.5808631905e+00 2.7381353658e+00 
60100 4.9089347567e+00 6.6575029830e-05 1.5808631905e+00 -2.7381353658e+00 1.5808631905e+00 2.7381353658e+00 
60200 4.9089347587e+00 6.6478050595e-05 1.5808631905e+00 -2.7381353658e+00 1.5808631905e+00 2.7381353658e+00 
60300 4.9089347608e+00 6.6380570980e-05 1.5808631905e+00 -2.7381353658e+00 1.5808631905e+00 2.7381353658e+00 
60400 4.9089347628e+00 6.6282624780e-05 1.5808631905e+00 -2.7381353658e+00 1.5808631905e+00 2.7381353658e+00 
60500 4.9089347647e+00 6.6184245023e-05 1.5808631905e+00 -2.7381353658e+00 1.5808631905e+00 2.7381353658e+00 
60600 4.9089347666e+00 6.6085463977e-05 1.5808631905e+00 -2.7381353658e+00 1.5808631905e+00 2.7381353658e+00 
60700 4.9089347685e+00 6.5986313155e-05 1.5808631905e+00 -2.7381353658e+00 1.5808631905e+00 2.7381353658e+00 
60800 4.9089347704e+00 6.5886823322e-05 1.5808631905e+00 -2.7381353658e+00 1.5808631905e+00 2.7381353658e+00 
60900 4.9089347722e+00 6.5787024500e-05 1.5808631905e+00 -2.7381353658e+00 1.5808631905e+00 2.7381353658e+00 
61000 4.9089347741e+00 6.5686945979e-05 1.5808631905e+00 -2.7381353658e+00 1.5808631905e+00 2.7381353658e+00 
61100 4.9089347758e+00 6.5586616321e-05 1.5808631905e+00 -2.7381353658e+00 1.5808631905e+00 2.7381353658e+00 
61200 4.9089347776e+00 6.5486063369e-05 1.5808631905e+00 -2.7381353658e+00 1.5808631905e+00 2.7381353658e+00 
61300 4.9089347793e+00 6.5385314256e-05 1.5808631905e+00 -2.7381353658e+00 1.5808631905e+00 2.7381353658e+00 
61400 4.9089347810e+00 6.5284395412e-05 1.5808631905e+00 -2.7381353658e+00 1.5808631905e+00 2.7381353658e+00 
61500 4.9089347827e+00 6.5183332574e-05 1.5808631905e+00 -2.7381353658e+00 1.5808631905e+00 2.7381353658e+00 
61600 4.9089347844e+00 6.5082150796e-05 1.5808631905e+00 -2.7381353658e+00 1.5808631905e+00 2.7381353658e+00 
61700 4.9089347860e+00 6.4980874453e-05 1.5808631905e+00 -2.7381353658e+00 1.5808631905e+00 2.7381353658e+00 
61800 4.9089347876e+00 6.4879527259e-05 1.5808631905e+00 -2.7381353658e+00 1.5808631905e+00 2.7381353658e+00 
61900 4.9089347892e+00 6.4778132267e-05 1.5808631905e+00 -2.7381353658e+00 1.5808631905e+00 2.7381353658e+00 
62000 4.9089347907e+00 6.4676711885e-05 1.5808631905e+00 -2.7381353658e+00 1.5808631905e+00 2.7381353658e+00 
62100 4.9089347922e+00 6.4575287886e-05 1.5808631905e+00 -2.7381353658e+00 1.5808631905e+00 2.7381353658e+00 
62200 4.9089347937e+00 6.4473881415e-05 1.5808631905e+00 -2.7381353658e+00 1.5808631905e+00 2.7381353658e+00 
62300 4.9089347952e+00 6.4372513000e-05 1.5808631905e+00 -2.7381353658e+00 1.5808631905e+00 2.7381353658e+00 
62400 4.9089347967e+00 6.4271202562e-05 1.5808631905e+00 -2.7381353658e+00 1.5808631905e+00 2.7381353658e+00 
62500 4.9089347981e+00 6.4169969428e-05 1.5808631905e+00 -2.7381353658e+00 1.5808631905e+00 2.7381353658e+00 
62600 4.9089347995e+00 6.4068832341e-05 1.5808631905e+00 -2.7381353658e+00 1.5808631905e+00 2.7381353658e+00 
62700 4.9089348009e+00 6.3967809463e-05 1.5808631905e+00 -2.7381353658e+00 1.5808631905e+00 2.7381353658e+00 
62800 4.9089348023e+00 6.3866918398e-05 1.5808631905e+00 -2.7381353658e+00 1.5808631905e+00 2.7381353658e+00 
62900 4.9089348036e+00 6.3766176192e-05 1.5808631905e+00 -2.7381353658e+00 1.5808631905e+00 2.7381353658e+00 
63000 4.9089348050e+00 6.3665599350e-05 1.5808631905e+00 -2.7381353658e+00 1.5808631905e+00 2.7381353658e+00 
63100 4.9089348063e+00 6.3565203843e-05 1.5808631905e+00 -2.7381353658e+00 1.5808631905e+00 2.7381353658e+00 
63200 4.9089348076e+00 6.3465005119e-05 1.5808631905e+00 -2.7381353658e+00 1.5808631905e+00 2.7381353658e+00 
63300 4.9089348088e+00 6.3365018118e-05 1.5808631905e+00 -2.7381353658e+00 1.5808631905e+00 2.7381353658e+00 
63400 4.9089348101e+00 6.3265257273e-05 1.5808631905e+00 -2.7381353658e+00 1.5808631905e+00 2.7381353658e+00 
63500 4.9089348113e+00 6.3165736533e-05 1.5808631905e+00 -2.7381353658e+00 1.5808631905e+00 2.7381353658e+00 
63600 4.9089348125e+00 6.3066469362e-05 1.5808631905e+00 -2.7381353658e+00 1.5808631905e+00 2.7381353658e+00 
63700 4.9089348137e+00 6.2967468757e-05 1.5808631905e+00 -2.7381353658e+00 1.5808631905e+00 2.7381353658e+00 
63800 4.9089348149e+00 6.2868747255e-05 1.5808631905e+00 -2.7381353658e+00 1.5808631905e+00 2.7381353658e+00 
63900 4.9089348161e+00 6.2770316943e-05 1.5808631905e+00 -2.7381353658e+00 1.5808631905e+00 2.7381353658e+00 
64000 4.9089348172e+00 6.2672189471e-05 1.5808631905e+00 -2.7381353658e+00 1.5808631905e+00 2.7381353658e+00 
64100 4.9089348183e+00 6.2574376057e-05 1.5808631905e+00 -2.7381353658e+00 1.5808631905e+00 2.7381353658e+00 
64200 4.9089348194e+00 6.2476887505e-05 1.5808631905e+00 -2.7381353658e+00 1.5808631905e+00 2.7381353658e+00 
64300 4.9089348205e+00 6.2379734206e-05 1.5808631905e+00 -2.7381353658e+00 1.5808631905e+00 2.7381353658e+00 
64400 4.9089348216e+00 6.2282926154e-05 1.5808631905e+00 -2.7381353658e+00 1.5808631905e+00 2.7381353658e+00 
64500 4.9089348227e+00 6.2186472952e-05 1.5808631905e+00 -2.7381353658e+00 1.5808631905e+00 2.7381353658e+00 
64600 4.9089348237e+00 6.2090383826e-05 1.5808631905e+00 -2.7381353658e+00 1.5808631905e+00 2.7381353658e+00 
64700 4.9089348247e+00 6.1994667628e-05 1.5808631905e+00 -2.7381353658e+00 1.5808631905e+00 2.7381353658e+00 
64800 4.9089348257e+00 6.1899332852e-05 1.5808631905e+00 -2.7381353658e+00 1.5808631905e+00 2.7381353658e+00 
64900 4.9089348267e+00 6.1804387639e-05 1.5808631905e+00 -2.7381353658e+00 1.5808631905e+00 2.7381353658e+00 
65000 4.9089348277e+00 6.1709839787e-05 1.5808631905e+00 -2.7381353658e+00 1.5808631905e+00 2.7381353658e+00 
65100 4.9089348287e+00 6.1615696760e-05 1.5808631905e+00 -2.7381353658e+00 1.5808631905e+00 2.7381353658e+00 
65200 4.9089348296e+00 6.1521965698e-05 1.5808631905e+00 -2.7381353658e+00 1.5808631905e+00 2.7381353658e+00 
65300 4.9089348306e+00 6.1428653424e-05 1.5808631905e+00 -2.7381353658e+00 1.5808631905e+00 2.7381353658e+00 
65400 4.9089348315e+00 6.1335766452e-05 1.5808631905e+00 -2.7381353658e+00 1.5808631905e+00 2.7381353658e+00 
65500 4.9089348324e+00 6.1243310997e-05 1.5808631905e+00 -2.7381353658e+00 1.5808631905e+00 2.7381353658e+00 
65600 4.9089348333e+00 6.1151292984e-05 1.5808631905e+00 -2.7381353658e+00 1.5808631905e+00 2.7381353658e+00 
65700 4.9089348342e+00 6.1059718051e-05 1.5808631905e+00 -2.7381353658e+00 1.5808631905e+00 2.7381353658e+00 
65800 4.9089348350e+00 6.0968591564e-05 1.5808631905e+00 -2.7381353658e+00 1.5808631905e+00 2.7381353658e+00 
65900 4.9089348359e+00 6.0877918620e-05 1.5808631905e+00 -2.7381353658e+00 1.5808631905e+00 2.7381353658e+00 
66000 4.9089348368e+00 6.0787704054e-05 1.5808631905e+00 -2.7381353658e+00 1.5808631905e+00 2.7381353658e+00 
66100 4.9089348376e+00 6.0697952451e-05 1.5808631905e+00 -2.7381353658e+00 1.5808631905e+00 2.7381353658e+00 
66200 4.9089348384e+00 6.0608668149e-05 1.5808631905e+00 -2.7381353658e+00 1.5808631905e+00 2.7381353658e+00 
66300 4.9089348392e+00 6.0519855247e-05 1.5808631905e+00 -2.7381353658e+00 1.5808631905e+00 2.7381353658e+00 
66400 4.9089348400e+00 6.0431517614e-05 1.5808631905e+00 -2.7381353658e+00 1.5808631905e+00 2.7381353658e+00 
66500 4.9089348408e+00 6.0343658893e-05 1.5808631905e+00 -2.7381353658e+00 1.5808631905e+00 2.7381353658e+00 
66600 4.9089348416e+00 6.0256282510e-05 1.5808631905e+00 -2.7381353658e+00 1.5808631905e+00 2.7381353658e+00 
66700 4.9089348423e+00 6.0169391677e-05 1.5808631905e+00 -2.7381353658e+00 1.5808631905e+00 2.7381353658e+00 
66800 4.9089348431e+00 6.0082989403e-05 1.5808631905e+00 -2.7381353658e+00 1.5808631905e+00 2.7381353658e+00 
66900 4.9089348438e+00 5.9997078499e-05 1.5808631905e+00 -2.7381353658e+00 1.5808631905e+00 2.7381353658e+00 
67000 4.9089348445e+00 5.9911661580e-05 1.5808631905e+00 -2.7381353658e+00 1.5808631905e+00 2.7381353658e+00 
67100 4.9089348453e+00 5.9826741075e-05 1.5808631905e+00 -2.7381353658e+00 1.5808631905e+00 2.7381353658e+00 
67200 4.9089348460e+00 5.9742319234e-05 1.5808631905e+00 -2.7381353658e+00 1.5808631905e+00 2.7381353658e+00 
67300 4.9089348467e+00 5.9658398127e-05 1.5808631905e+00 -2.7381353658e+00 1.5808631905e+00 2.7381353658e+00 
67400 4.9089348473e+00 5.9574979657e-05 1.5808631905e+00 -2.7381353658e+00 1.5808631905e+00 2.7381353658e+00 
67500 4.9089348480e+00 5.9492065561e-05 1.5808631905e+00 -2.7381353658e+00 1.5808631905e+00 2.7381353658e+00 
67600 4.9089348487e+00 5.9409657417e-05 1.5808631905e+00 -2.7381353658e+00 1.5808631905e+00 2.7381353658e+00 
67700 4.9089348493e+00 5.9327756646e-05 1.5808631905e+00 -2.7381353658e+00 1.5808631905e+00 2.7381353658e+00 
67800 4.9089348500e+00 5.9246364522e-05 1.5808631905e+00 -2.7381353658e+00 1.5808631905e+00 2.7381353658e+00 
67900 4.9089348506e+00 5.9165482172e-05 1.5808631905e+00 -2.7381353658e+00 1.5808631905e+00 2.7381353658e+00 
68000 4.9089348513e+00 5.9085110582e-05 1.5808631905e+00 -2.7381353658e+00 1.5808631905e+00 2.7381353658e+00 
68100 4.9089348519e+00 5.9005250606e-05 1.5808631905e+00 -2.7381353658e+00 1.5808631905e+00 2.7381353658e+00 
68200 4.9089348525e+00 5.8925902962e-05 1.5808631905e+00 -2.7381353658e+00 1.5808631905e+00 2.7381353658e+00 
68300 4.9089348531e+00 5.8847068244e-05 1.5808631905e+00 -2.7381353658e+00 1.5808631905e+00 2.7381353658e+00 
68400 4.9089348537e+00 5.8768746920e-05 1.5808631905e+00 -2.7381353658e+00 1.5808631905e+00 2.7381353658e+00 
68500 4.9089348543e+00 5.8690939342e-05 1.5808631905e+00 -2.7381353658e+00 1.5808631905e+00 2.7381353658e+00 
68600 4.9089348548e+00 5.8613645745e-05 1.5808631905e+00 -2.7381353658e+00 1.5808631905e+00 2.7381353658e+00 
68700 4.9089348554e+00 5.8536866253e-05 1.5808631905e+00 -2.7381353658e+00 1.5808631905e+00 2.7381353658e+00 
68800 4.9089348560e+00 5.8460600883e-05 1.5808631905e+00 -2.7381353658e+00 1.5808631905e+00 2.7381353658e+00 
68900 4.9089348565e+00 5.8384849547e-05 1.5808631905e+00 -2.7381353658e+00 1.5808631905e+00 2.7381353658e+00 
69000 4.9089348571e+00 5.8309612058e-05 1.5808631905e+00 -2.7381353658e+00 1.5808631905e+00 2.7381353658e+00 
69100 4.9089348576e+00 5.8234888129e-05 1.5808631905e+00 -2.7381353658e+00 1.5808631905e+00 2.7381353658e+00 
69200 4.9089348581e+00 5.8160677382e-05 1.5808631905e+00 -2.7381353658e+00 1.5808631905e+00 2.7381353658e+00 
69300 4.9089348586e+00 5.8086979348e-05 1.5808631905e+00 -2.7381353658e+00 1.5808631905e+00 2.7381353658e+00 
69400 4.9089348591e+00 5.8013793470e-05 1.5808631905e+00 -2.7381353658e+00 1.5808631905e+00 2.7381353658e+00 
69500 4.9089348597e+00 5.7941119103e-05 1.5808631905e+00 -2.7381353658e+00 1.5808631905e+00 2.7381353658e+00 
69600 4.9089348601e+00 5.7868955526e-05 1.5808631905e+00 -2.7381353658e+00 1.5808631905e+00 2.7381353658e+00 
69700 4.9089348606e+00 5.7797301935e-05 1.5808631905e+00 -2.7381353658e+00 1.5808631905e+00 2.7381353658e+00 
69800 4.9089348611e+00 5.7726157452e-05 1.5808631905e+00 -2.7381353658e+00 1.5808631905e+00 2.7381353658e+00 
69900 4.9089348616e+00 5.7655521124e-05 1.5808631905e+00 -2.7381353658e+00 1.5808631905e+00 2.7381353658e+00 
70000 4.9089348621e+00 5.7585391927e-05 1.5808631905e+00 -2.7381353658e+00 1.5808631905e+00 2.7381353658e+00 
70100 4.9089348625e+00 5.7515768768e-05 1.5808631905e+00 -2.7381353658e+00 1.5808631905e+00 2.7381353658e+00 
70200 4.9089348630e+00 5.7446650491e-05 1.5808631905e+00 -2.7381353658e+00 1.5808631905e+00 2.7381353658e+00 
70300 4.9089348634e+00 5.7378035872e-05 1.5808631905e+00 -2.7381353658e+00 1.5808631905e+00 2.7381353658e+00 
70400 4.9089348639e+00 5.7309923629e-05 1.5808631905e+00 -2.7381353658e+00 1.5808631905e+00 2.7381353658e+00 
70500 4.9089348643e+00 5.7242312417e-05 1.5808631905e+00 -2.7381353658e+00 1.5808631905e+00 2.7381353658e+00 
70600 4.9089348647e+00 5.7175200837e-05 1.5808631905e+00 -2.7381353658e+00 1.5808631905e+00 2.7381353658e+00 
70700 4.9089348652e+00 5.7108587434e-05 1.5808631905e+00 -2.7381353658e+00 1.5808631905e+00 2.7381353658e+00 
70800 4.9089348656e+00 5.7042470698e-05 1.5808631905e+00 -2.7381353658e+00 1.5808631905e+00 2.7381353658e+00 
70900 4.9089348660e+00 5.6976849070e-05 1.5808631905e+00 -2.7381353658e+00 1.5808631905e+00 2.7381353658e+00 
71000 4.9089348664e+00 5.6911720941e-05 1.5808631905e+00 -2.7381353658e+00 1.5808631905e+00 2.7381353658e+00 
71100 4.9089348668e+00 5.6847084654e-05 1.5808631905e+00 -2.7381353658e+00 1.5808631905e+00 2.7381353658e+00 
71200 4.9089348672e+00 5.6782938505e-05 1.5808631905e+00 -2.7381353658e+00 1.5808631905e+00 2.7381353658e+00 
71300 4.9089348676e+00 5.6719280748e-05 1.5808631905e+00 -2.7381353658e+00 1.5808631905e+00 2.7381353658e+00 
71400 4.9089348680e+00 5.6656109594e-05 1.5808631905e+00 -2.7381353658e+00 1.5808631905e+00 2.7381353658e+00 
71500 4.9089348683e+00 5.6593423212e-05 1.5808631905e+00 -2.7381353658e+00 1.5808631905e+00 2.7381353658e+00 
71600 4.9089348687e+00 5.6531219733e-05 1.5808631905e+00 -2.7381353658e+00 1.5808631905e+00 2.7381353658e+00 
71700 4.9089348691e+00 5.6469497250e-05 1.5808631905e+00 -2.7381353658e+00 1.5808631905e+00 2.7381353658e+00 
71800 4.9089348694e+00 5.6408253818e-05 1.5808631905e+00 -2.7381353658e+00 1.5808631905e+00 2.7381353658e+00 
71900 4.9089348698e+00 5.6347487459e-05 1.5808631905e+00 -2.7381353658e+00 1.5808631905e+00 2.7381353658e+00 
72000 4.9089348702e+00 5.6287196160e-05 1.5808631905e+00 -2.7381353658e+00 1.5808631905e+00 2.7381353658e+00 
72100 4.9089348705e+00 5.6227377878e-05 1.5808631905e+00 -2.7381353658e+00 1.5808631905e+00 2.7381353658e+00 
72200 4.9089348708e+00 5.6168030536e-05 1.5808631905e+00 -2.7381353658e+00 1.5808631905e+00 2.7381353658e+00 
72300 4.9089348712e+00 5.6109152030e-05 1.5808631905e+00 -2.7381353658e+00 1.5808631905e+00 2.7381353658e+00 
72400 4.9089348715e+00 5.6050740225e-05 1.5808631905e+00 -2.7381353658e+00 1.5808631905e+00 2.7381353658e+00 
72500 4.9089348718e+00 5.5992792961e-05 1.5808631905e+00 -2.7381353658e+00 1.5808631905e+00 2.7381353658e+00 
72600 4.9089348722e+00 5.5935308051e-05 1.5808631905e+00 -2.7381353658e+00 1.5808631905e+00 2.7381353658e+00 
72700 4.9089348725e+00 5.5878283282e-05 1.5808631905e+00 -2.7381353658e+00 1.5808631905e+00 2.7381353658e+00 
72800 4.9089348728e+00 5.5821716419e-05 1.5808631905e+00 -2.7381353658e+00 1.5808631905e+00 2.7381353658e+00 
72900 4.9089348731e+00 5.5765605203e-05 1.5808631905e+00 -2.7381353658e+00 1.5808631905e+00 2.7381353658e+00 
73000 4.9089348734e+00 5.5709947353e-05 1.5808631905e+00 -2.7381353658e+00 1.5808631905e+00 2.7381353658e+00 
73100 4.9089348737e+00 5.5654740567e-05 1.5808631905e+00 -2.7381353658e+00 1.5808631905e+00 2.7381353658e+00 
73200 4.9089348740e+00 5.5599982523e-05 1.5808631905e+00 -2.7381353658e+00 1.5808631905e+00 2.7381353658e+00 
73300 4.9089348743e+00 5.5545670881e-05 1.5808631905e+00 -2.7381353658e+00 1.5808631905e+00 2.7381353658e+00 
73400 4.9089348746e+00 5.5491803283e-05 1.5808631905e+00 -2.7381353658e+00 1.5808631905e+00 2.7381353658e+00 
73500 4.9089348749e+00 5.5438377353e-05 1.5808631905e+00 -2.7381353658e+00 1.5808631905e+00 2.7381353658e+00 
73600 4.9089348752e+00 5.5385390700e-05 1.5808631905e+00 -2.7381353658e+00 1.5808631905e+00 2.7381353658e+00 
73700 4.9089348754e+00 5.5332840914e-05 1.5808631905e+00 -2.7381353658e+00 1.5808631905e+00 2.7381353658e+00 
73800 4.9089348757e+00 5.5280725575e-05 1.5808631905e+00 -2.7381353658e+00 1.5808631905e+00 2.7381353658e+00 
73900 4.9089348760e+00 5.5229042247e-05 1.5808631905e+00 -2.7381353658e+00 1.5808631905e+00 2.7381353658e+00 
74000 4.9089348762e+00 5.5177788481e-05 1.5808631905e+00 -2.7381353658e+00 1.5808631905e+00 2.7381353658e+00 
74100 4.9089348765e+00 5.5126961816e-05 1.5808631905e+00 -2.7381353658e+00 1.5808631905e+00 2.7381353658e+00 
74200 4.9089348768e+00 5.5076559780e-05 1.5808631905e+00 -2.7381353658e+00 1.5808631905e+00 2.7381353658e+00 
74300 4.9089348770e+00 5.5026579887e-05 1.5808631905e+00 -2.7381353658e+00 1.5808631905e+00 2.7381353658e+00 
74400 4.9089348773e+00 5.4977019647e-05 1.5808631905e+00 -2.7381353658e+00 1.5808631905e+00 2.7381353658e+00 
74500 4.9089348775e+00 5.4927876554e-05 1.5808631905e+00 -2.7381353658e+00 1.5808631905e+00 2.7381353658e+00 
74600 4.9089348778e+00 5.4879148099e-05 1.5808631905e+00 -2.7381353658e+00 1.5808631905e+00 2.7381353658e+00 
74700 4.9089348780e+00 5.4830831761e-05 1.5808631905e+00 -2.7381353658e+00 1.5808631905e+00 2.7381353658e+00 
74800 4.9089348782e+00 5.4782925013e-05 1.5808631905e+00 -2.7381353658e+00 1.5808631905e+00 2.7381353658e+00 
74900 4.9089348785e+00 5.4735425320e-05 1.5808631905e+00 -2.7381353658e+00 1.5808631905e+00 2.7381353658e+00 
75000 4.9089348787e+00 5.4688330144e-05 1.5808631905e+00 -2.7381353658e+00 1.5808631905e+00 2.7381353658e+00 
75100 4.9089348789e+00 5.4641636937e-05 1.5808631905e+00 -2.7381353658e+00 1.5808631905e+00 2.7381353658e+00 
75200 4.9089348791e+00 5.4595343149e-05 1.5808631905e+00 -2.7381353658e+00 1.5808631905e+00 2.7381353658e+00 
75300 4.9089348794e+00 5.4549446225e-05 1.5808631905e+00 -2.7381353658e+00 1.5808631905e+00 2.7381353658e+00 
75400 4.9089348796e+00 5.4503943606e-05 1.5808631905e+00 -2.7381353658e+00 1.5808631905e+00 2.7381353658e+00 
75500 4.9089348798e+00 5.4458832728e-05 1.5808631905e+00 -2.7381353658e+00 1.5808631905e+00 2.7381353658e+00 
75600 4.9089348800e+00 5.4414111027e-05 1.5808631905e+00 -2.7381353658e+00 1.5808631905e+00 2.7381353658e+00 
75700 4.9089348802e+00 5.4369775934e-05 1.5808631905e+00 -2.7381353658e+00 1.5808631905e+00 2.7381353658e+00 
75800 4.9089348804e+00 5.4325824880e-05 1.5808631905e+00 -2.7381353658e+00 1.5808631905e+00 2.7381353658e+00 
75900 4.9089348806e+00 5.4282255294e-05 1.5808631905e+00 -2.7381353658e+00 1.5808631905e+00 2.7381353658e+00 
76000 4.9089348808e+00 5.4239064604e-05 1.5808631905e+00 -2.7381353658e+00 1.5808631905e+00 2.7381353658e+00 
76100 4.9089348810e+00 5.4196250237e-05 1.5808631905e+00 -2.7381353658e+00 1.5808631905e+00 2.7381353658e+00 
76200 4.9089348812e+00 5.4153809622e-05 1.5808631905e+00 -2.7381353658e+00 1.5808631905e+00 2.7381353658e+00 
76300 4.9089348814e+00 5.4111740187e-05 1.5808631905e+00 -2.7381353658e+00 1.5808631905e+00 2.7381353658e+00 
76400 4.9089348816e+00 5.4070039360e-05 1.5808631905e+00 -2.7381353658e+00 1.5808631905e+00 2.7381353658e+00 
76500 4.9089348818e+00 5.4028704572e-05 1.5808631905e+00 -2.7381353658e+00 1.5808631905e+00 2.7381353658e+00 
76600 4.9089348820e+00 5.3987733256e-05 1.5808631905e+00 -2.7381353658e+00 1.5808631905e+00 2.7381353658e+00 
76700 4.9089348821e+00 5.3947122846e-05 1.5808631905e+00 -2.7381353658e+00 1.5808631905e+00 2.7381353658e+00 
76800 4.9089348823e+00 5.3906870778e-05 1.5808631905e+00 -2.7381353658e+00 1.5808631905e+00 2.7381353658e+00 
76900 4.9089348825e+00 5.3866974494e-05 1.5808631905e+00 -2.7381353658e+00 1.5808631905e+00 2.7381353658e+00 
77000 4.9089348827e+00 5.3827431436e-05 1.5808631905e+00 -2.7381353658e+00 1.5808631905e+00 2.7381353658e+00 
77100 4.9089348828e+00 5.3788239052e-05 1.5808631905e+00 -2.7381353658e+00 1.5808631905e+00 2.7381353658e+00 
77200 4.9089348830e+00 5.3749394793e-05 1.5808631905e+00 -2.7381353658e+00 1.5808631905e+00 2.7381353658e+00 
77300 4.9089348832e+00 5.3710896114e-05 1.5808631905e+00 -2.7381353658e+00 1.5808631905e+00 2.7381353658e+00 
77400 4.9089348833e+00 5.3672740476e-05 1.5808631905e+00 -2.7381353658e+00 1.5808631905e+00 2.7381353658e+00 
77500 4.9089348835e+00 5.3634925344e-05 1.5808631905e+00 -2.7381353658e+00 1.5808631905e+00 2.7381353658e+00 
77600 4.9089348837e+00 5.3597448189e-05 1.5808631905e+00 -2.7381353658e+00 1.5808631905e+00 2.7381353658e+00 
77700 4.9089348838e+00 5.3560306487e-05 1.5808631905e+00 -2.7381353658e+00 1.5808631905e+00 2.7381353658e+00 
77800 4.9089348840e+00 5.3523497721e-05 1.5808631905e+00 -2.7381353658e+00 1.5808631905e+00 2.7381353658e+00 
77900 4.9089348841e+00 5.3487019381e-05 1.5808631905e+00 -2.7381353658e+00 1.5808631905e+00 2.7381353658e+00 
78000 4.9089348843e+00 5.3450868961e-05 1.5808631905e+00 -2.7381353658e+00 1.5808631905e+00 2.7381353658e+00 
78100 4.9089348844e+00 5.3415043966e-05 1.5808631905e+00 -2.7381353658e+00 1.5808631905e+00 2.7381353658e+00 
78200 4.9089348846e+00 5.3379541903e-05 1.5808631905e+00 -2.7381353658e+00 1.5808631905e+00 2.7381353658e+00 
78300 4.9089348847e+00 5.3344360291e-05 1.5808631905e+00 -2.7381353658e+00 1.5808631905e+00 2.7381353658e+00 
78400 4.9089348849e+00 5.3309496656e-05 1.5808631905e+00 -2.7381353658e+00 1.5808631905e+00 2.7381353658e+00 
78500 4.9089348850e+00 5.3274948528e-05 1.5808631905e+00 -2.7381353658e+00 1.5808631905e+00 2.7381353658e+00 
78600 4.9089348852e+00 5.3240713449e-05 1.5808631905e+00 -2.7381353658e+00 1.5808631905e+00 2.7381353658e+00 
78700 4.9089348853e+00 5.3206788972e-05 1.5808631905e+00 -2.7381353658e+00 1.5808631905e+00 2.7381353658e+00 
78800 4.9089348854e+00 5.3173172652e-05 1.5808631905e+00 -2.7381353658e+00 1.5808631905e+00 2.7381353658e+00 
78900 4.9089348856e+00 5.3139862057e-05 1.5808631905e+00 -2.7381353658e+00 1.5808631905e+00 2.7381353658e+00 
79000 4.9089348857e+00 5.3106854766e-05 1.5808631905e+00 -2.7381353658e+00 1.5808631905e+00 2.7381353658e+00 
79100 4.9089348858e+00 5.3074148362e-05 1.5808631905e+00 -2.7381353658e+00 1.5808631905e+00 2.7381353658e+00 
79200 4.9089348860e+00 5.3041740443e-05 1.5808631905e+00 -2.7381353658e+00 1.5808631905e+00 2.7381353658e+00 
79300 4.9089348861e+00 5.3009628614e-05 1.5808631905e+00 -2.7381353658e+00 1.5808631905e+00 2.7381353658e+00 
79400 4.9089348862e+00 5.2977810490e-05 1.5808631905e+00 -2.7381353658e+00 1.5808631905e+00 2.7381353658e+00 
79500 4.9089348863e+00 5.2946283695e-05 1.5808631905e+00 -2.7381353658e+00 1.5808631905e+00 2.7381353658e+00 
79600 4.9089348865e+00 5.2915045869e-05 1.5808631905e+00 -2.7381353658e+00 1.5808631905e+00 2.7381353658e+00 
79700 4.9089348866e+00 5.2884094655e-05 1.5808631905e+00 -2.7381353658e+00 1.5808631905e+00 2.7381353658e+00 
79800 4.9089348867e+00 5.2853427712e-05 1.5808631905e+00 -2.7381353658e+00 1.5808631905e+00 2.7381353658e+00 
79900 4.9089348868e+00 5.2823042708e-05 1.5808631905e+00 -2.7381353658e+00 1.5808631905e+00 2.7381353658e+00 
80000 4.9089348869e+00 5.2792937322e-05 1.5808631905e+00 -2.7381353658e+00 1.5808631905e+00 2.7381353658e+00 
80100 4.9089348870e+00 5.2763109245e-05 1.5808631905e+00 -2.7381353658e+00 1.5808631905e+00 2.7381353658e+00 
80200 4.9089348871e+00 5.2733556177e-05 1.5808631905e+00 -2.7381353658e+00 1.5808631905e+00 2.7381353658e+00 
80300 4.9089348873e+00 5.2704275833e-05 1.5808631905e+00 -2.7381353658e+00 1.5808631905e+00 2.7381353658e+00 
80400 4.9089348874e+00 5.2675265937e-05 1.5808631905e+00 -2.7381353658e+00 1.5808631905e+00 2.7381353658e+00 
80500 4.9089348875e+00 5.2646524227e-05 1.5808631905e+00 -2.7381353658e+00 1.5808631905e+00 2.7381353658e+00 
80600 4.9089348876e+00 5.2618048450e-05 1.5808631905e+00 -2.7381353658e+00 1.5808631905e+00 2.7381353658e+00 
80700 4.9089348877e+00 5.2589836366e-05 1.5808631905e+00 -2.7381353658e+00 1.5808631905e+00 2.7381353658e+00 
80800 4.9089348878e+00 5.2561885750e-05 1.5808631905e+00 -2.7381353658e+00 1.5808631905e+00 2.7381353658e+00 
80900 4.9089348879e+00 5.2534194385e-05 1.5808631905e+00 -2.7381353658e+00 1.5808631905e+00 2.7381353658e+00 
81000 4.9089348880e+00 5.2506760068e-05 1.5808631905e+00 -2.7381353658e+00 1.5808631905e+00 2.7381353658e+00 
81100 4.9089348881e+00 5.2479580611e-05 1.5808631905e+00 -2.7381353658e+00 1.5808631905e+00 2.7381353658e+00 
81200 4.9089348882e+00 5.2452653833e-05 1.5808631905e+00 -2.7381353658e+00 1.5808631905e+00 2.7381353658e+00 
81300 4.9089348883e+00 5.2425977570e-05 1.5808631905e+00 -2.7381353658e+00 1.5808631905e+00 2.7381353658e+00 
81400 4.9089348884e+00 5.2399549669e-05 1.5808631905e+00 -2.7381353658e+00 1.5808631905e+00 2.7381353658e+00 
81500 4.9089348885e+00 5.2373367991e-05 1.5808631905e+00 -2.7381353658e+00 1.5808631905e+00 2.7381353658e+00 
81600 4.9089348886e+00 5.2347430408e-05 1.5808631905e+00 -2.7381353658e+00 1.5808631905e+00 2.7381353658e+00 
81700 4.9089348887e+00 5.2321734806e-05 1.5808631905e+00 -2.7381353658e+00 1.5808631905e+00 2.7381353658e+00 
81800 4.9089348887e+00 5.2296279085e-05 1.5808631905e+00 -2.7381353658e+00 1.5808631905e+00 2.7381353658e+00 
81900 4.9089348888e+00 5.2271061155e-05 1.5808631905e+00 -2.7381353658e+00 1.5808631905e+00 2.7381353658e+00 
82000 4.9089348889e+00 5.2246078943e-05 1.5808631905e+00 -2.7381353658e+00 1.5808631905e+00 2.7381353658e+00 
82100 4.9089348890e+00 5.2221330386e-05 1.5808631905e+00 -2.7381353658e+00 1.5808631905e+00 2.7381353658e+00 
82200 4.9089348891e+00 5.2196813436e-05 1.5808631905e+00 -2.7381353658e+00 1.5808631905e+00 2.7381353658e+00 
82300 4.9089348892e+00 5.2172526058e-05 1.5808631905e+00 -2.7381353658e+00 1.5808631905e+00 2.7381353658e+00 
82400 4.9089348893e+00 5.2148466228e-05 1.5808631905e+00 -2.7381353658e+00 1.5808631905e+00 2.7381353658e+00 
82500 4.9089348893e+00 5.2124631939e-05 1.5808631905e+00 -2.7381353658e+00 1.5808631905e+00 2.7381353658e+00 
82600 4.9089348894e+00 5.2101021195e-05 1.5808631905e+00 -2.7381353658e+00 1.5808631905e+00 2.7381353658e+00 
82700 4.9089348895e+00 5.2077632013e-05 1.5808631905e+00 -2.7381353658e+00 1.5808631905e+00 2.7381353658e+00 
82800 4.9089348896e+00 5.2054462426e-05 1.5808631905e+00 -2.7381353658e+00 1.5808631905e+00 2.7381353658e+00 
82900 4.9089348897e+00 5.2031510479e-05 1.5808631905e+00 -2.7381353658e+00 1.5808631905e+00 2.7381353658e+00 
83000 4.9089348897e+00 5.2008774228e-05 1.5808631905e+00 -2.7381353658e+00 1.5808631905e+00 2.7381353658e+00 
83100 4.9089348898e+00 5.1986251747e-05 1.5808631905e+00 -2.7381353658e+00 1.5808631905e+00 2.7381353658e+00 
83200 4.9089348899e+00 5.1963941119e-05 1.5808631905e+00 -2.7381353658e+00 1.5808631905e+00 2.7381353658e+00 
83300 4.9089348900e+00 5.1941840446e-05 1.5808631905e+00 -2.7381353658e+00 1.5808631905e+00 2.7381353658e+00 
83400 4.9089348900e+00 5.1919947838e-05 1.5808631905e+00 -2.7381353658e+00 1.5808631905e+00 2.7381353658e+00 
83500 4.9089348901e+00 5.1898261421e-05 1.5808631905e+00 -2.7381353658e+00 1.5808631905e+00 2.7381353658e+00 
83600 4.9089348902e+00 5.1876779333e-05 1.5808631905e+00 -2.7381353658e+00 1.5808631905e+00 2.7381353658e+00 
83700 4.9089348903e+00 5.1855499729e-05 1.5808631905e+00 -2.7381353658e+00 1.5808631905e+00 2.7381353658e+00 
83800 4.9089348903e+00 5.1834420774e-05 1.5808631905e+00 -2.7381353658e+00 1.5808631905e+00 2.7381353658e+00 
83900 4.9089348904e+00 5.1813540648e-05 1.5808631905e+00 -2.7381353658e+00 1.5808631905e+00 2.7381353658e+00 
84000 4.9089348905e+00 5.1792857545e-05 1.5808631905e+00 -2.7381353658e+00 1.5808631905e+00 2.7381353658e+00 
84100 4.9089348905e+00 5.1772369669e-05 1.5808631905e+00 -2.7381353658e+00 1.5808631905e+00 2.7381353658e+00 
84200 4.9089348906e+00 5.1752075242e-05 1.5808631905e+00 -2.7381353658e+00 1.5808631905e+00 2.7381353658e+00 
84300 4.9089348907e+00 5.1731972498e-05 1.5808631905e+00 -2.7381353658e+00 1.5808631905e+00 2.7381353658e+00 
84400 4.9089348907e+00 5.1712059681e-05 1.5808631905e+00 -2.7381353658e+00 1.5808631905e+00 2.7381353658e+00 
84500 4.9089348908e+00 5.1692335055e-05 1.5808631905e+00 -2.7381353658e+00 1.5808631905e+00 2.7381353658e+00 
84600 4.9089348908e+00 5.1672796891e-05 1.5808631905e+00 -2.7381353658e+00 1.5808631905e+00 2.7381353658e+00 
84700 4.9089348909e+00 5.1653443478e-05 1.5808631905e+00 -2.7381353658e+00 1.5808631905e+00 2.7381353658e+00 
84800 4.9089348910e+00 5.1634273114e-05 1.5808631905e+00 -2.7381353658e+00 1.5808631905e+00 2.7381353658e+00 
84900 4.9089348910e+00 5.1615284113e-05 1.5808631905e+00 -2.7381353658e+00 1.5808631905e+00 2.7381353658e+00 
85000 4.9089348911e+00 5.1596474802e-05 1.5808631905e+00 -2.7381353658e+00 1.5808631905e+00 2.7381353658e+00 
85100 4.9089348911e+00 5.1577843522e-05 1.5808631905e+00 -2.7381353658e+00 1.5808631905e+00 2.7381353658e+00 
85200 4.9089348912e+00 5.1559388623e-05 1.5808631905e+00 -2.7381353658e+00 1.5808631905e+00 2.7381353658e+00 
85300 4.9089348912e+00 5.1541108475e-05 1.5808631905e+00 -2.7381353658e+00 1.5808631905e+00 2.7381353658e+00 
85400 4.9089348913e+00 5.1523001455e-05 1.5808631905e+00 -2.7381353658e+00 1.5808631905e+00 2.7381353658e+00 
85500 4.9089348914e+00 5.1505065954e-05 1.5808631905e+00 -2.7381353658e+00 1.5808631905e+00 2.7381353658e+00 
85600 4.9089348914e+00 5.1487300379e-05 1.5808631905e+00 -2.7381353658e+00 1.5808631905e+00 2.7381353658e+00 
85700 4.9089348915e+00 5.1469703147e-05 1.5808631905e+00 -2.7381353658e+00 1.5808631905e+00 2.7381353658e+00 
85800 4.9089348915e+00 5.1452272692e-05 1.5808631905e+00 -2.7381353658e+00 1.5808631905e+00 2.7381353658e+00 
85900 4.9089348916e+00 5.1435007453e-05 1.5808631905e+00 -2.7381353658e+00 1.5808631905e+00 2.7381353658e+00 
86000 4.9089348916e+00 5.1417905889e-05 1.5808631905e+00 -2.7381353658e+00 1.5808631905e+00 2.7381353658e+00 
86100 4.9089348917e+00 5.1400966470e-05 1.5808631905e+00 -2.7381353658e+00 1.5808631905e+00 2.7381353658e+00 
86200 4.9089348917e+00 5.1384187677e-05 1.5808631905e+00 -2.7381353658e+00 1.5808631905e+00 2.7381353658e+00 
86300 4.9089348917e+00 5.1379851315e-05 1.5808631905e+00 -2.7381353658e+00 1.5808631905e+00 2.7381353658e+00 
86300 4.9089348917e+00 5.1379851315e-05 1.5808631905e+00 -2.7381353658e+00 1.5808631905e+00 2.7381353658e+00 
