# step Hamiltonian StressXX CellTensor1 CellTensor2 CellTensor3 CellTensor4 
0 3.9735238250e+00 -2.8278081070e-01 1.7865676565e+00 -3.0944259522e+00 1.7865676565e+00 3.0944259522e+00 
100 3.9782986880e+00 -2.7680359745e-01 1.7865676565e+00 -3.0944259522e+00 1.7865676565e+00 3.0944259522e+00 
200 3.9815169780e+00 -2.6673128803e-01 1.7943200295e+00 -3.1078534561e+00 1.7943200295e+00 3.1078534561e+00 
300 3.9855470250e+00 -2.5768730407e-01 1.8017577962e+00 -3.1207360459e+00 1.8017577962e+00 3.1207360459e+00 
400 3.9901039678e+00 -2.4949087212e-01 1.8089135051e+00 -3.1331300973e+00 1.8089135051e+00 3.1331300973e+00 
500 3.9948815216e+00 -2.4202161992e-01 1.8158140228e+00 -3.1450821446e+00 1.8158140228e+00 3.1450821446e+00 
600 3.9995761019e+00 -2.3519794192e-01 1.8224823577e+00 -3.1566320394e+00 1.8224823577e+00 3.1566320394e+00 
700 4.0039043960e+00 -2.2896222930e-01 1.8289388329e+00 -3.1678149825e+00 1.8289388329e+00 3.1678149825e+00 
800 4.0076158540e+00 -2.2327073148e-01 1.8352018194e+00 -3.1786627933e+00 1.8352018194e+00 3.1786627933e+00 
900 4.0105010345e+00 -2.1808667490e-01 1.8412881709e+00 -3.1892046634e+00 1.8412881709e+00 3.1892046634e+00 
1000 4.0123964679e+00 -2.1337574512e-01 1.8472134576e+00 -3.1994675609e+00 1.8472134576e+00 3.1994675609e+00 
1100 4.0131865830e+00 -2.0910331359e-01 1.8529920694e+00 -3.2094764102e+00 1.8529920694e+00 3.2094764102e+00 
1200 4.0128031861e+00 -2.0523295386e-01 1.8586372395e+00 -3.2192541317e+00 1.8586372395e+00 3.2192541317e+00 
1300 4.0112229653e+00 -2.0172589476e-01 1.8641610248e+00 -3.2288216084e+00 1.8641610248e+00 3.2288216084e+00 
1400 4.0084634736e+00 -1.9854112937e-01 1.8695742695e+00 -3.2381976233e+00 1.8695742695e+00 3.2381976233e+00 
1500 4.0045780268e+00 -1.9563595255e-01 1.8748865710e+00 -3.2473987993e+00 1.8748865710e+00 3.2473987993e+00 
1600 3.9996499196e+00 -1.9296674533e-01 1.8801062583e+00 -3.2564395630e+00 1.8801062583e+00 3.2564395630e+00 
1700 3.9937863184e+00 -1.9048986524e-01 1.8852403908e+00 -3.2653321413e+00 1.8852403908e+00 3.2653321413e+00 
1800 3.9871121406e+00 -1.8816253750e-01 1.8902947785e+00 -3.2740865976e+00 1.8902947785e+00 3.2740865976e+00 
1900 3.9797641700e+00 -1.8594367454e-01 1.8952740255e+00 -3.2827109064e+00 1.8952740255e+00 3.2827109064e+00 
2000 3.9718856009e+00 -1.8379457834e-01 1.9001815923e+00 -3.2912110615e+00 1.9001815923e+00 3.2912110615e+00 
2100 3.9636211443e+00 -1.8167950284e-01 1.9050198758e+00 -3.2995912143e+00 1.9050198758e+00 3.2995912143e+00 
2200 3.9551127833e+00 -1.7956607038e-01 1.9097903013e+00 -3.3078538336e+00 1.9097903013e+00 3.3078538336e+00 
2300 3.9464962151e+00 -1.7742554891e-01 1.9144934239e+00 -3.3159998810e+00 1.9144934239e+00 3.3159998810e+00 
2400 3.9378979845e+00 -1.7523300396e-01 1.9191290352e+00 -3.3240289953e+00 1.9191290352e+00 3.3240289953e+00 
2500 3.9294332852e+00 -1.7296734421e-01 1.9236962716e+00 -3.3319396807e+00 1.9236962716e+00 3.3319396807e+00 
2600 3.9212043846e+00 -1.7061128047e-01 1.9281937216e+00 -3.3397294927e+00 1.9281937216e+00 3.3397294927e+00 
2700 3.9132996141e+00 -1.6815121745e-01 1.9326195314e+00 -3.3473952201e+00 1.9326195314e+00 3.3473952201e+00 
2800 3.9057928620e+00 -1.6557709585e-01 1.9369715044e+00 -3.3549330585e+00 1.9369715044e+00 3.3549330585e+00 
2900 3.8987434990e+00 -1.6288219928e-01 1.9412471960e+00 -3.3623387736e+00 1.9412471960e+00 3.3623387736e+00 
3000 3.8921966704e+00 -1.6006293812e-01 1.9454440016e+00 -3.3696078541e+00 1.9454440016e+00 3.3696078541e+00 
3100 3.8861838903e+00 -1.5711861876e-01 1.9495592378e+00 -3.3767356522e+00 1.9495592378e+00 3.3767356522e+00 
3200 3.8807238773e+00 -1.5405120475e-01 1.9535902164e+00 -3.3837175120e+00 1.9535902164e+00 3.3837175120e+00 
3300 3.8758235785e+00 -1.5086507345e-01 1.9575343117e+00 -3.3905488854e+00 1.9575343117e+00 3.3905488854e+00 
3400 3.8714793303e+00 -1.4756677043e-01 1.9613890199e+00 -3.3972254359e+00 1.9613890199e+00 3.3972254359e+00 
3500 3.8676781150e+00 -1.4416476215e-01 1.9651520126e+00 -3.4037431304e+00 1.9651520126e+00 3.4037431304e+00 
3600 3.8643988727e+00 -1.4066918680e-01 1.9688211823e+00 -3.4100983188e+00 1.9688211823e+00 3.4100983188e+00 
3700 3.8616138369e+00 -1.3709160283e-01 1.9723946824e+00 -3.4162878024e+00 1.9723946824e+00 3.4162878024e+00 
3800 3.8592898617e+00 -1.3344473434e-01 1.9758709590e+00 -3.4223088901e+00 1.9758709590e+00 3.4223088901e+00 
3900 3.8573897182e+00 -1.2974221335e-01 1.9792487777e+00 -3.4281594439e+00 1.9792487777e+00 3.4281594439e+00 
4000 3.8558733342e+00 -1.2599831940e-01 1.9825272429e+00 -3.4338379120e+00 1.9825272429e+00 3.4338379120e+00 
4100 3.8546989604e+00 -1.2222771776e-01 1.9857058102e+00 -3.4393433521e+00 1.9857058102e+00 3.4393433521e+00 
4200 3.8538242438e+00 -1.1844519886e-01 1.9887842934e+00 -3.4446754415e+00 1.9887842934e+00 3.4446754415e+00 
4300 3.8532071966e+00 -1.1466542238e-01 1.9917628647e+00 -3.4498344782e+00 1.9917628647e+00 3.4498344782e+00 
4400 3.8528070474e+00 -1.1090267055e-01 1.9946420478e+00 -3.4548213697e+00 1.9946420478e+00 3.4548213697e+00 
4500 3.8525849661e+00 -1.0717061596e-01 1.9974227070e+00 -3.4596376128e+00 1.9974227070e+00 3.4596376128e+00 
4600 3.8525046586e+00 -1.0348210952e-01 2.0001060292e+00 -3.4642852632e+00 2.0001060292e+00 3.4642852632e+00 
4700 3.8525328280e+00 -9.9848994479e-02 2.0026935018e+00 -3.4687668970e+00 2.0026935018e+00 3.4687668970e+00 
4800 3.8526395035e+00 -9.6281951664e-02 2.0051868859e+00 -3.4730855650e+00 2.0051868859e+00 3.4730855650e+00 
4900 3.8527982431e+00 -9.2790380429e-02 2.0075881868e+00 -3.4772447402e+00 2.0075881868e+00 3.4772447402e+00 
5000 3.8529862166e+00 -8.9382318380e-02 2.0098996210e+00 -3.4812482618e+00 2.0098996210e+00 3.4812482618e+00 
5100 3.8531841824e+00 -8.6064401262e-02 2.0121235824e+00 -3.4851002758e+00 2.0121235824e+00 3.4851002758e+00 
5200 3.8533763700e+00 -8.2841862599e-02 2.0142626068e+00 -3.4888051748e+00 2.0142626068e+00 3.4888051748e+00 
5300 3.8535502845e+00 -7.9718570792e-02 2.0163193382e+00 -3.4923675381e+00 2.0163193382e+00 3.4923675381e+00 
5400 3.8536964509e+00 -7.6697099693e-02 2.0182964949e+00 -3.4957920739e+00 2.0182964949e+00 3.4957920739e+00 
5500 3.8538081142e+00 -7.3778827254e-02 2.0201968382e+00 -3.4990835650e+00 2.0201968382e+00 3.4990835650e+00 
5600 3.8538809121e+00 -7.0964055889e-02 2.0220231437e+00 -3.5022468189e+00 2.0220231437e+00 3.5022468189e+00 
5700 3.8539125368e+00 -6.8252147657e-02 2.0237781758e+00 -3.5052866237e+00 2.0237781758e+00 3.5052866237e+00 
5800 3.8539023972e+00 -6.5641667380e-02 2.0254646654e+00 -3.5082077094e+00 2.0254646654e+00 3.5082077094e+00 
5900 3.8538512951e+00 -6.3130527226e-02 2.0270852914e+00 -3.5110147159e+00 2.0270852914e+00 3.5110147159e+00 
6000 3.8537611228e+00 -6.0716127075e-02 2.0286426655e+00 -3.5137121670e+00 2.0286426655e+00 3.5137121670e+00 
6100 3.8536345888e+00 -5.8395486014e-02 2.0301393211e+00 -3.5163044505e+00 2.0301393211e+00 3.5163044505e+00 
6200 3.8534749749e+00 -5.6165361498e-02 2.0315777045e+00 -3.5187958037e+00 2.0315777045e+00 3.5187958037e+00 
6300 3.8532859282e+00 -5.4022353869e-02 2.0329601701e+00 -3.5211903044e+00 2.0329601701e+00 3.5211903044e+00 
6400 3.8530712853e+00 -5.1962995069e-02 2.0342889771e+00 -3.5234918657e+00 2.0342889771e+00 3.5234918657e+00 
6500 3.8528349304e+00 -4.9983821336e-02 2.0355662890e+00 -3.5257042347e+00 2.0355662890e+00 3.5257042347e+00 
6600 3.8525806821e+00 -4.8081430479e-02 2.0367941744e+00 -3.5278309946e+00 2.0367941744e+00 3.5278309946e+00 
6700 3.8523122077e+00 -4.6252524892e-02 2.0379746096e+00 -3.5298755684e+00 2.0379746096e+00 3.5298755684e+00 
6800 3.8520329607e+00 -4.4493941888e-02 2.0391094818e+00 -3.5318412247e+00 2.0391094818e+00 3.5318412247e+00 
6900 3.8517461385e+00 -4.2802673121e-02 2.0402005931e+00 -3.5337310849e+00 2.0402005931e+00 3.5337310849e+00 
7000 3.8514546559e+00 -4.1175874957e-02 2.0412496649e+00 -3.5355481306e+00 2.0412496649e+00 3.5355481306e+00 
7100 3.8511611329e+00 -3.9610871573e-02 2.0422583427e+00 -3.5372952118e+00 2.0422583427e+00 3.5372952118e+00 
7200 3.8508678922e+00 -3.8105152479e-02 2.0432282006e+00 -3.5389750548e+00 2.0432282006e+00 3.5389750548e+00 
7300 3.8505769649e+00 -3.6656365924e-02 2.0441607457e+00 -3.5405902704e+00 2.0441607457e+00 3.5405902704e+00 
7400 3.8502901016e+00 -3.5262309481e-02 2.0450574228e+00 -3.5421433607e+00 2.0450574228e+00 3.5421433607e+00 
7500 3.8500087885e+00 -3.3920918873e-02 2.0459196183e+00 -3.5436367271e+00 2.0459196183e+00 3.5436367271e+00 
7600 3.8497342652e+00 -3.2630255882e-02 2.0467486638e+00 -3.5450726761e+00 2.0467486638e+00 3.5450726761e+00 
7700 3.8494675443e+00 -3.1388496015e-02 2.0475458397e+00 -3.5464534252e+00 2.0475458397e+00 3.5464534252e+00 
7800 3.8492094317e+00 -3.0193916425e-02 2.0483123782e+00 -3.5477811088e+00 2.0483123782e+00 3.5477811088e+00 
7900 3.8489605470e+00 -2.9044884424e-02 2.0490494661e+00 -3.5490577825e+00 2.0490494661e+00 3.5490577825e+00 
8000 3.8487213430e+00 -2.7939846842e-02 2.0497582474e+00 -3.5502854277e+00 2.0497582474e+00 3.5502854277e+00 
8100 3.8484921250e+00 -2.6877320353e-02 2.0504398252e+00 -3.5514659551e+00 2.0504398252e+00 3.5514659551e+00 
8200 3.8482730683e+00 -2.5855882846e-02 2.0510952639e+00 -3.5526012082e+00 2.0510952639e+00 3.5526012082e+00 
8300 3.8480642350e+00 -2.4874165850e-02 2.0517255907e+00 -3.5536929663e+00 2.0517255907e+00 3.5536929663e+00 
8400 3.8478655900e+00 -2.3930847977e-02 2.0523317973e+00 -3.5547429468e+00 2.0523317973e+00 3.5547429468e+00 
8500 3.8476770144e+00 -2.3024649336e-02 2.0529148409e+00 -3.5557528081e+00 2.0529148409e+00 3.5557528081e+00 
8600 3.8474983195e+00 -2.2154326840e-02 2.0534756459e+00 -3.5567241508e+00 2.0534756459e+00 3.5567241508e+00 
8700 3.8473292576e+00 -2.1318670327e-02 2.0540151044e+00 -3.5576585203e+00 2.0540151044e+00 3.5576585203e+00 
8800 3.8471695337e+00 -2.0516499402e-02 2.0545340774e+00 -3.5585574079e+00 2.0545340774e+00 3.5585574079e+00 
8900 3.8470188142e+00 -1.9746660914e-02 2.0550333957e+00 -3.5594222526e+00 2.0550333957e+00 3.5594222526e+00 
9000 3.8468767362e+00 -1.9008026995e-02 2.0555138606e+00 -3.5602544423e+00 2.0555138606e+00 3.5602544423e+00 
9100 3.8467429145e+00 -1.8299493566e-02 2.0559762447e+00 -3.5610553151e+00 2.0559762447e+00 3.5610553151e+00 
9200 3.8466169489e+00 -1.7619979249e-02 2.0564212925e+00 -3.5618261604e+00 2.0564212925e+00 3.5618261604e+00 
9300 3.8464984299e+00 -1.6968424613e-02 2.0568497211e+00 -3.5625682204e+00 2.0568497211e+00 3.5625682204e+00 
9400 3.8463869439e+00 -1.6343791698e-02 2.0572622206e+00 -3.5632826906e+00 2.0572622206e+00 3.5632826906e+00 
9500 3.8462820777e+00 -1.5745063761e-02 2.0576594553e+00 -3.5639707212e+00 2.0576594553e+00 3.5639707212e+00 
9600 3.8461834224e+00 -1.5171245200e-02 2.0580420636e+00 -3.5646334182e+00 2.0580420636e+00 3.5646334182e+00 
9700 3.8460905766e+00 -1.4621361616e-02 2.0584106590e+00 -3.5652718442e+00 2.0584106590e+00 3.5652718442e+00 
9800 3.8460031494e+00 -1.4094459975e-02 2.0587658307e+00 -3.5658870196e+00 2.0587658307e+00 3.5658870196e+00 
9900 3.8459207625e+00 -1.3589608842e-02 2.0591081438e+00 -3.5664799233e+00 2.0591081438e+00 3.5664799233e+00 
10000 3.8458430520e+00 -1.3105898664e-02 2.0594381403e+00 -3.5670514941e+00 2.0594381403e+00 3.5670514941e+00 
10100 3.8457696698e+00 -1.2642442076e-02 2.0597563396e+00 -3.5676026314e+00 2.0597563396e+00 3.5676026314e+00 
10200 3.8457002850e+00 -1.2198374212e-02 2.0600632389e+00 -3.5681341966e+00 2.0600632389e+00 3.5681341966e+00 
10300 3.8456345845e+00 -1.1772853015e-02 2.0603593140e+00 -3.5686470137e+00 2.0603593140e+00 3.5686470137e+00 
10400 3.8455722734e+00 -1.1365059517e-02 2.0606450196e+00 -3.5691418703e+00 2.0606450196e+00 3.5691418703e+00 
10500 3.8455130752e+00 -1.0974198100e-02 2.0609207904e+00 -3.5696195193e+00 2.0609207904e+00 3.5696195193e+00 
10600 3.8454567322e+00 -1.0599496712e-02 2.0611870411e+00 -3.5700806791e+00 2.0611870411e+00 3.5700806791e+00 
10700 3.8454030048e+00 -1.0240207043e-02 2.0614441677e+00 -3.5705260353e+00 2.0614441677e+00 3.5705260353e+00 
10800 3.8453516718e+00 -9.8956046545e-03 2.0616925472e+00 -3.5709562414e+00 2.0616925472e+00 3.5709562414e+00 
10900 3.8453025292e+00 -9.5649890564e-03 2.0619325393e+00 -3.5713719198e+00 2.0619325393e+00 3.5713719198e+00 
11000 3.8452553902e+00 -9.2476837329e-03 2.0621644860e+00 -3.5717736633e+00 2.0621644860e+00 3.5717736633e+00 
11100 3.8452100843e+00 -8.9430361155e-03 2.0623887128e+00 -3.5721620355e+00 2.0623887128e+00 3.5721620355e+00 
11200 3.8451664566e+00 -8.6504175030e-03 2.0626055292e+00 -3.5725375725e+00 2.0626055292e+00 3.5725375725e+00 
11300 3.8451243668e+00 -8.3692229295e-03 2.0628152291e+00 -3.5729007834e+00 2.0628152291e+00 3.5729007834e+00 
11400 3.8450836887e+00 -8.0988709810e-03 2.0630180916e+00 -3.5732521517e+00 2.0630180916e+00 3.5732521517e+00 
11500 3.8450443088e+00 -7.8388035639e-03 2.0632143817e+00 -3.5735921360e+00 2.0632143817e+00 3.5735921360e+00 
11600 3.8450061261e+00 -7.5884856258e-03 2.0634043504e+00 -3.5739211715e+00 2.0634043504e+00 3.5739211715e+00 
11700 3.8449690506e+00 -7.3474048327e-03 2.0635882358e+00 -3.5742396703e+00 2.0635882358e+00 3.5742396703e+00 
11800 3.8449330026e+00 -7.1150712045e-03 2.0637662634e+00 -3.5745480231e+00 2.0637662634e+00 3.5745480231e+00 
11900 3.8448979120e+00 -6.8910167122e-03 2.0639386465e+00 -3.5748465994e+00 2.0639386465e+00 3.5748465994e+00 
12000 3.8448637172e+00 -6.6747948395e-03 2.0641055873e+00 -3.5751357493e+00 2.0641055873e+00 3.5751357493e+00 
12100 3.8448303645e+00 -6.4659801130e-03 2.0642672767e+00 -3.5754158037e+00 2.0642672767e+00 3.5754158037e+00 
12200 3.8447978073e+00 -6.2641676033e-03 2.0644238955e+00 -3.5756870754e+00 2.0644238955e+00 3.5756870754e+00 
12300 3.8447660049e+00 -6.0689723999e-03 2.0645756145e+00 -3.5759498603e+00 2.0645756145e+00 3.5759498603e+00 
12400 3.8447349226e+00 -5.8800290654e-03 2.0647225949e+00 -3.5762044379e+00 2.0647225949e+00 3.5762044379e+00 
12500 3.8447045303e+00 -5.6969910693e-03 2.0648649892e+00 -3.5764510721e+00 2.0648649892e+00 3.5764510721e+00 
12600 3.8446748023e+00 -5.5195302066e-03 2.0650029415e+00 -3.5766900124e+00 2.0650029415e+00 3.5766900124e+00 
12700 3.8446457166e+00 -5.3473360039e-03 2.0651365875e+00 -3.5769214942e+00 2.0651365875e+00 3.5769214942e+00 
12800 3.8446172545e+00 -5.1801151147e-03 2.0652660558e+00 -3.5771457397e+00 2.0652660558e+00 3.5771457397e+00 
12900 3.8445893998e+00 -5.0175907084e-03 2.0653914674e+00 -3.5773629590e+00 2.0653914674e+00 3.5773629590e+00 
13000 3.8445621388e+00 -4.8595018550e-03 2.0655129369e+00 -3.5775733503e+00 2.0655129369e+00 3.5775733503e+00 
13100 3.8445354594e+00 -4.7056029073e-03 2.0656305722e+00 -3.5777771008e+00 2.0656305722e+00 3.5777771008e+00 
13200 3.8445093514e+00 -4.5556628838e-03 2.0657444756e+00 -3.5779743872e+00 2.0657444756e+00 3.5779743872e+00 
13300 3.8444838055e+00 -4.4094648549e-03 2.0658547435e+00 -3.5781653767e+00 2.0658547435e+00 3.5781653767e+00 
13400 3.8444588135e+00 -4.2668053328e-03 2.0659614669e+00 -3.5783502271e+00 2.0659614669e+00 3.5783502271e+00 
13500 3.8444343680e+00 -4.1274936689e-03 2.0660647322e+00 -3.5785290878e+00 2.0660647322e+00 3.5785290878e+00 
13600 3.8444104619e+00 -3.9913514588e-03 2.0661646208e+00 -3.5787021000e+00 2.0661646208e+00 3.5787021000e+00 
13700 3.8443870885e+00 -3.8582119579e-03 2.0662612099e+00 -3.5788693973e+00 2.0662612099e+00 3.5788693973e+00 
13800 3.8443642413e+00 -3.7279195071e-03 2.0663545728e+00 -3.5790311065e+00 2.0663545728e+00 3.5790311065e+00 
13900 3.8443419138e+00 -3.6003289722e-03 2.0664447787e+00 -3.5791873477e+00 2.0664447787e+00 3.5791873477e+00 
14000 3.8443200997e+00 -3.4753051958e-03 2.0665318934e+00 -3.5793382348e+00 2.0665318934e+00 3.5793382348e+00 
14100 3.8442987921e+00 -3.3527224646e-03 2.0666159794e+00 -3.5794838760e+00 2.0666159794e+00 3.5794838760e+00 
14200 3.8442779843e+00 -3.2324639903e-03 2.0666970962e+00 -3.5796243744e+00 2.0666970962e+00 3.5796243744e+00 
14300 3.8442576694e+00 -3.1144214085e-03 2.0667753003e+00 -3.5797598279e+00 2.0667753003e+00 3.5797598279e+00 
14400 3.8442378398e+00 -2.9984942922e-03 2.0668506457e+00 -3.5798903300e+00 2.0668506457e+00 3.5798903300e+00 
14500 3.8442184881e+00 -2.8845896832e-03 2.0669231839e+00 -3.5800159698e+00 2.0669231839e+00 3.5800159698e+00 
14600 3.8441996065e+00 -2.7726216396e-03 2.0669929641e+00 -3.5801368326e+00 2.0669929641e+00 3.5801368326e+00 
14700 3.8441811866e+00 -2.6625108020e-03 2.0670600334e+00 -3.5802530001e+00 2.0670600334e+00 3.5802530001e+00 
14800 3.8441632201e+00 -2.5541839753e-03 2.0671244371e+00 -3.5803645505e+00 2.0671244371e+00 3.5803645505e+00 
14900 3.8441456984e+00 -2.4475737299e-03 2.0671862184e+00 -3.5804715591e+00 2.0671862184e+00 3.5804715591e+00 
15000 3.8441286125e+00 -2.3426180181e-03 2.0672454193e+00 -3.5805740980e+00 2.0672454193e+00 3.5805740980e+00 
15100 3.8441119532e+00 -2.2392598097e-03 2.0673020800e+00 -3.5806722371e+00 2.0673020800e+00 3.5806722371e+00 
15200 3.8440957112e+00 -2.1374467433e-03 2.0673562392e+00 -3.5807660436e+00 2.0673562392e+00 3.5807660436e+00 
15300 3.8440798771e+00 -2.0371307948e-03 2.0674079346e+00 -3.5808555827e+00 2.0674079346e+00 3.5808555827e+00 
15400 3.8440644414e+00 -1.9382679624e-03 2.0674572025e+00 -3.5809409173e+00 2.0674572025e+00 3.5809409173e+00 
15500 3.8440493942e+00 -1.8408179676e-03 2.0675040784e+00 -3.5810221086e+00 2.0675040784e+00 3.5810221086e+00 
15600 3.8440347259e+00 -1.7447439719e-03 2.0675485964e+00 -3.5810992161e+00 2.0675485964e+00 3.5810992161e+00 
15700 3.8440204267e+00 -1.6500123089e-03 2.0675907901e+00 -3.5811722977e+00 2.0675907901e+00 3.5811722977e+00 
15800 3.8440064869e+00 -1.5565922314e-03 2.0676306920e+00 -3.5812414099e+00 2.0676306920e+00 3.5812414099e+00 
15900 3.8439928967e+00 -1.4644556721e-03 2.0676683341e+00 -3.5813066078e+00 2.0676683341e+00 3.5813066078e+00 
16000 3.8439796464e+00 -1.3735770197e-03 2.0677037474e+00 -3.5813679455e+00 2.0677037474e+00 3.5813679455e+00 
16100 3.8439667266e+00 -1.2839329069e-03 2.0677369625e+00 -3.5814254758e+00 2.0677369625e+00 3.5814254758e+00 
16200 3.8439541276e+00 -1.1955020122e-03 2.0677680094e+00 -3.5814792505e+00 2.0677680094e+00 3.5814792505e+00 
16300 3.8439418402e+00 -1.1082648739e-03 2.0677969175e+00 -3.5815293208e+00 2.0677969175e+00 3.5815293208e+00 
16400 3.8439298551e+00 -1.0222037160e-03 2.0678237158e+00 -3.5815757368e+00 2.0678237158e+00 3.5815757368e+00 
16500 3.8439181634e+00 -9.3730228573e-04 2.0678484327e+00 -3.5816185478e+00 2.0678484327e+00 3.5816185478e+00 
16600 3.8439067562e+00 -8.5354570135e-04 2.0678710965e+00 -3.5816578026e+00 2.0678710965e+00 3.5816578026e+00 
16700 3.8438956248e+00 -7.7092031115e-04 2.0678917348e+00 -3.5816935492e+00 2.0678917348e+00 3.5816935492e+00 
16800 3.8438847607e+00 -6.8941356185e-04 2.0679103750e+00 -3.5817258351e+00 2.0679103750e+00 3.5817258351e+00 
16900 3.8438741559e+00 -6.0901387662e-04 2.0679270444e+00 -3.5817547072e+00 2.0679270444e+00 3.5817547072e+00 
17000 3.8438638021e+00 -5.2971054196e-04 2.0679417696e+00 -3.5817802121e+00 2.0679417696e+00 3.5817802121e+00 
17100 3.8438536917e+00 -4.5149360318e-04 2.0679545773e+00 -3.5818023957e+00 2.0679545773e+00 3.5818023957e+00 
17200 3.8438438171e+00 -3.7435376790e-04 2.0679654938e+00 -3.5818213035e+00 2.0679654938e+00 3.5818213035e+00 
17300 3.8438341710e+00 -2.9828231710e-04 2.0679745450e+00 -3.5818369807e+00 2.0679745450e+00 3.5818369807e+00 
17400 3.8438247463e+00 -2.2327102349e-04 2.0679817570e+00 -3.5818494722e+00 2.0679817570e+00 3.5818494722e+00 
17500 3.8438155361e+00 -1.4931207656e-04 2.0679871553e+00 -3.5818588223e+00 2.0679871553e+00 3.5818588223e+00 
17600 3.8438065339e+00 -7.6398014109e-05 2.0679907653e+00 -3.5818650752e+00 2.0679907653e+00 3.5818650752e+00 
17700 3.8437977333e+00 -4.5216597421e-06 2.0679926125e+00 -3.5818682745e+00 2.0679926125e+00 3.5818682745e+00 
17800 3.8437891280e+00 6.6304537484e-05 2.0679926125e+00 -3.5818682745e+00 2.0679926125e+00 3.5818682745e+00 
17900 3.8437807126e+00 1.3641048366e-04 2.0679926125e+00 -3.5818682745e+00 2.0679926125e+00 3.5818682745e+00 
18000 3.8437724808e+00 2.0521262532e-04 2.0679893144e+00 -3.5818625620e+00 2.0679893144e+00 3.5818625620e+00 
18100 3.8437644274e+00 2.7300400619e-04 2.0679843527e+00 -3.5818539682e+00 2.0679843527e+00 3.5818539682e+00 
18200 3.8437565469e+00 3.3979112590e-04 2.0679777520e+00 -3.5818425354e+00 2.0679777520e+00 3.5818425354e+00 
18300 3.8437488344e+00 4.0558046534e-04 2.0679695365e+00 -3.5818283057e+00 2.0679695365e+00 3.5818283057e+00 
18400 3.8437412849e+00 4.7037851637e-04 2.0679597302e+00 -3.5818113207e+00 2.0679597302e+00 3.5818113207e+00 
18500 3.8437338938e+00 5.3419180797e-04 2.0679483572e+00 -3.5817916221e+00 2.0679483572e+00 3.5817916221e+00 
18600 3.8437266564e+00 5.9702692906e-04 2.0679354412e+00 -3.5817692510e+00 2.0679354412e+00 3.5817692510e+00 
18700 3.8437195686e+00 6.5889054830e-04 2.0679210059e+00 -3.5817442483e+00 2.0679210059e+00 3.5817442483e+00 
18800 3.8437126262e+00 7.1978943106e-04 2.0679050747e+00 -3.5817166546e+00 2.0679050747e+00 3.5817166546e+00 
18900 3.8437058250e+00 7.7973045374e-04 2.0678876709e+00 -3.5816865104e+00 2.0678876709e+00 3.5816865104e+00 
19000 3.8436991614e+00 8.3872061568e-04 2.0678688176e+00 -3.5816538555e+00 2.0678688176e+00 3.5816538555e+00 
19100 3.8436926315e+00 8.9676704886e-04 2.0678485378e+00 -3.5816187299e+00 2.0678485378e+00 3.5816187299e+00 
19200 3.8436862318e+00 9.5387702552e-04 2.0678268543e+00 -3.5815811729e+00 2.0678268543e+00 3.5815811729e+00 
19300 3.8436799589e+00 1.0100579639e-03 2.0678037896e+00 -3.5815412237e+00 2.0678037896e+00 3.5815412237e+00 
19400 3.8436738094e+00 1.0653174324e-03 2.0677793662e+00 -3.5814989211e+00 2.0677793662e+00 3.5814989211e+00 
19500 3.8436677803e+00 1.1196631517e-03 2.0677536063e+00 -3.5814543037e+00 2.0677536063e+00 3.5814543037e+00 
19600 3.8436618684e+00 1.1731029961e-03 2.0677265320e+00 -3.5814074096e+00 2.0677265320e+00 3.5814074096e+00 
19700 3.8436560708e+00 1.2256449934e-03 2.0676981651e+00 -3.5813582767e+00 2.0676981651e+00 3.5813582767e+00 
19800 3.8436503846e+00 1.2772973229e-03 2.0676685273e+00 -3.5813069424e+00 2.0676685273e+00 3.5813069424e+00 
19900 3.8436448071e+00 1.3280683133e-03 2.0676376399e+00 -3.5812534440e+00 2.0676376399e+00 3.5812534440e+00 
20000 3.8436393357e+00 1.3779664393e-03 2.0676055244e+00 -3.5811978183e+00 2.0676055244e+00 3.5811978183e+00 
20100 3.8436339676e+00 1.4270003172e-03 2.0675722018e+00 -3.5811401018e+00 2.0675722018e+00 3.5811401018e+00 
20200 3.8436287006e+00 1.4751786998e-03 2.0675376928e+00 -3.5810803305e+00 2.0675376928e+00 3.5810803305e+00 
20300 3.8436235321e+00 1.5225104708e-03 2.0675020181e+00 -3.5810185401e+00 2.0675020181e+00 3.5810185401e+00 
20400 3.8436184598e+00 1.5690046387e-03 2.0674651982e+00 -3.5809547661e+00 2.0674651982e+00 3.5809547661e+00 
20500 3.8436134815e+00 1.6146703296e-03 2.0674272532e+00 -3.5808890434e+00 2.0674272532e+00 3.5808890434e+00 
20600 3.8436085950e+00 1.6595167806e-03 2.0673882030e+00 -3.5808214067e+00 2.0673882030e+00 3.5808214067e+00 
20700 3.8436037982e+00 1.7035533320e-03 2.0673480676e+00 -3.5807518900e+00 2.0673480676e+00 3.5807518900e+00 
20800 3.8435990890e+00 1.7467894195e-03 2.0673068663e+00 -3.5806805273e+00 2.0673068663e+00 3.5806805273e+00 
20900 3.8435944654e+00 1.7892345661e-03 2.0672646185e+00 -3.5806073520e+00 2.0672646185e+00 3.5806073520e+00 
21000 3.8435899255e+00 1.8308983739e-03 2.0672213432e+00 -3.5805323970e+00 2.0672213432e+00 3.5805323970e+00 
21100 3.8435854673e+00 1.8717905162e-03 2.0671770594e+00 -3.5804556951e+00 2.0671770594e+00 3.5804556951e+00 
21200 3.8435810890e+00 1.9119207283e-03 2.0671317855e+00 -3.5803772784e+00 2.0671317855e+00 3.5803772784e+00 
21300 3.8435767889e+00 1.9512987996e-03 2.0670855399e+00 -3.5802971787e+00 2.0670855399e+00 3.5802971787e+00 
21400 3.8435725652e+00 1.9899345651e-03 2.0670383408e+00 -3.5802154274e+00 2.0670383408e+00 3.5802154274e+00 
21500 3.8435684162e+00 2.0278378968e-03 2.0669902061e+00 -3.5801320556e+00 2.0669902061e+00 3.5801320556e+00 
21600 3.8435643402e+00 2.0650186953e-03 2.0669411533e+00 -3.5800470938e+00 2.0669411533e+00 3.5800470938e+00 
21700 3.8435603357e+00 2.1014868819e-03 2.0668912000e+00 -3.5799605722e+00 2.0668912000e+00 3.5799605722e+00 
21800 3.8435564010e+00 2.1372523899e-03 2.0668403634e+00 -3.5798725205e+00 2.0668403634e+00 3.5798725205e+00 
21900 3.8435525347e+00 2.1723251573e-03 2.0667886602e+00 -3.5797829680e+00 2.0667886602e+00 3.5797829680e+00 
22000 3.8435487351e+00 2.2067151182e-03 2.0667361073e+00 -3.5796919436e+00 2.0667361073e+00 3.5796919436e+00 
22100 3.8435450010e+00 2.2404321960e-03 2.0666827210e+00 -3.5795994759e+00 2.0666827210e+00 3.5795994759e+00 
22200 3.8435413308e+00 2.2734862952e-03 2.0666285177e+00 -3.5795055930e+00 2.0666285177e+00 3.5795055930e+00 
22300 3.8435377231e+00 2.3058872948e-03 2.0665735132e+00 -3.5794103224e+00 2.0665735132e+00 3.5794103224e+00 
22400 3.8435341766e+00 2.3376450409e-03 2.0665177233e+00 -3.5793136916e+00 2.0665177233e+00 3.5793136916e+00 
22500 3.8435306900e+00 2.3687693401e-03 2.0664611636e+00 -3.5792157272e+00 2.0664611636e+00 3.5792157272e+00 
22600 3.8435272620e+00 2.3992699532e-03 2.0664038492e+00 -3.5791164558e+00 2.0664038492e+00 3.5791164558e+00 
22700 3.8435238912e+00 2.4291565887e-03 2.0663457953e+00 -3.5790159034e+00 2.0663457953e+00 3.5790159034e+00 
22800 3.8435205765e+00 2.4584388969e-03 2.0662870165e+00 -3.5789140956e+00 2.0662870165e+00 3.5789140956e+00 
22900 3.8435173167e+00 2.4871264644e-03 2.0662275275e+00 -3.5788110576e+00 2.0662275275e+00 3.5788110576e+00 
23000 3.8435141106e+00 2.5152288084e-03 2.0661673426e+00 -3.5787068143e+00 2.0661673426e+00 3.5787068143e+00 
23100 3.8435109570e+00 2.5427553718e-03 2.0661064759e+00 -3.5786013900e+00 2.0661064759e+00 3.5786013900e+00 
23200 3.8435078549e+00 2.5697155183e-03 2.0660449412e+00 -3.5784948089e+00 2.0660449412e+00 3.5784948089e+00 
23300 3.8435048030e+00 2.5961185275e-03 2.0659827523e+00 -3.5783870945e+00 2.0659827523e+00 3.5783870945e+00 
23400 3.8435018004e+00 2.6219735911e-03 2.0659199225e+00 -3.5782782701e+00 2.0659199225e+00 3.5782782701e+00 
23500 3.8434988460e+00 2.6472898085e-03 2.0658564650e+00 -3.5781683586e+00 2.0658564650e+00 3.5781683586e+00 
23600 3.8434959387e+00 2.6720761832e-03 2.0657923929e+00 -3.5780573824e+00 2.0657923929e+00 3.5780573824e+00 
23700 3.8434930776e+00 2.6963416192e-03 2.0657277189e+00 -3.5779453637e+00 2.0657277189e+00 3.5779453637e+00 
23800 3.8434902617e+00 2.7200949178e-03 2.0656624555e+00 -3.5778323242e+00 2.0656624555e+00 3.5778323242e+00 
23900 3.8434874901e+00 2.7433447746e-03 2.0655966151e+00 -3.5777182853e+00 2.0655966151e+00 3.5777182853e+00 
24000 3.8434847617e+00 2.7660997771e-03 2.0655302099e+00 -3.5776032680e+00 2.0655302099e+00 3.5776032680e+00 
24100 3.8434820758e+00 2.7883684018e-03 2.0654632516e+00 -3.5774872930e+00 2.0654632516e+00 3.5774872930e+00 
24200 3.8434794314e+00 2.8101590120e-03 2.0653957522e+00 -3.5773703805e+00 2.0653957522e+00 3.5773703805e+00 
24300 3.8434768276e+00 2.8314798563e-03 2.0653277230e+00 -3.5772525505e+00 2.0653277230e+00 3.5772525505e+00 
24400 3.8434742636e+00 2.8523390664e-03 2.0652591754e+00 -3.5771338226e+00 2.0652591754e+00 3.5771338226e+00 
24500 3.8434717386e+00 2.8727446557e-03 2.0651901206e+00 -3.5770142161e+00 2.0651901206e+00 3.5770142161e+00 
24600 3.8434692518e+00 2.8927045180e-03 2.0651205694e+00 -3.5768937499e+00 2.0651205694e+00 3.5768937499e+00 
24700 3.8434668024e+00 2.9122264265e-03 2.0650505326e+00 -3.5767724426e+00 2.0650505326e+00 3.5767724426e+00 
24800 3.8434643896e+00 2.9313180327e-03 2.0649800208e+00 -3.5766503126e+00 2.0649800208e+00 3.5766503126e+00 
24900 3.8434620126e+00 2.9499868661e-03 2.0649090442e+00 -3.5765273776e+00 2.0649090442e+00 3.5765273776e+00 
25000 3.8434596708e+00 2.9682403329e-03 2.0648376133e+00 -3.5764036555e+00 2.0648376133e+00 3.5764036555e+00 
25100 3.8434573634e+00 2.9860857168e-03 2.0647657378e+00 -3.5762791636e+00 2.0647657378e+00 3.5762791636e+00 
25200 3.8434550897e+00 3.0035301779e-03 2.0646934277e+00 -3.5761539188e+00 2.0646934277e+00 3.5761539188e+00 
25300 3.8434528490e+00 3.0205807530e-03 2.0646206926e+00 -3.5760279380e+00 2.0646206926e+00 3.5760279380e+00 
25400 3.8434506408e+00 3.0372443560e-03 2.0645475421e+00 -3.5759012375e+00 2.0645475421e+00 3.5759012375e+00 
25500 3.8434484642e+00 3.0535277779e-03 2.0644739854e+00 -3.5757738336e+00 2.0644739854e+00 3.5757738336e+00 
25600 3.8434463187e+00 3.0694376873e-03 2.0644000317e+00 -3.5756457420e+00 2.0644000317e+00 3.5756457420e+00 
25700 3.8434442037e+00 3.0849806312e-03 2.0643256900e+00 -3.5755169784e+00 2.0643256900e+00 3.5755169784e+00 
25800 3.8434421186e+00 3.1001630355e-03 2.0642509692e+00 -3.5753875582e+00 2.0642509692e+00 3.5753875582e+00 
25900 3.8434400628e+00 3.1149912059e-03 2.0641758779e+00 -3.5752574963e+00 2.0641758779e+00 3.5752574963e+00 
26000 3.8434380356e+00 3.1294713288e-03 2.0641004247e+00 -3.5751268076e+00 2.0641004247e+00 3.5751268076e+00 
26100 3.8434360366e+00 3.1436094725e-03 2.0640246181e+00 -3.5749955066e+00 2.0640246181e+00 3.5749955066e+00 
26200 3.8434340652e+00 3.1574115880e-03 2.0639484661e+00 -3.5748636075e+00 2.0639484661e+00 3.5748636075e+00 
26300 3.8434321208e+00 3.1708835106e-03 2.0638719770e+00 -3.5747311245e+00 2.0638719770e+00 3.5747311245e+00 
26400 3.8434302030e+00 3.1840309610e-03 2.0637951587e+00 -3.5745980712e+00 2.0637951587e+00 3.5745980712e+00 
26500 3.8434283111e+00 3.1968595467e-03 2.0637180190e+00 -3.5744644613e+00 2.0637180190e+00 3.5744644613e+00 
26600 3.8434264448e+00 3.2093747637e-03 2.0636405656e+00 -3.5743303081e+00 2.0636405656e+00 3.5743303081e+00 
26700 3.8434246036e+00 3.2215819975e-03 2.0635628060e+00 -3.5741956246e+00 2.0635628060e+00 3.5741956246e+00 
26800 3.8434227869e+00 3.2334865253e-03 2.0634847478e+00 -3.5740604238e+00 2.0634847478e+00 3.5740604238e+00 
26900 3.8434209942e+00 3.2450935172e-03 2.0634063981e+00 -3.5739247182e+00 2.0634063981e+00 3.5739247182e+00 
27000 3.8434192252e+00 3.2564080380e-03 2.0633277643e+00 -3.5737885204e+00 2.0633277643e+00 3.5737885204e+00 
27100 3.8434174795e+00 3.2674350490e-03 2.0632488532e+00 -3.5736518424e+00 2.0632488532e+00 3.5736518424e+00 
27200 3.8434157564e+00 3.2781794096e-03 2.0631696719e+00 -3.5735146964e+00 2.0631696719e+00 3.5735146964e+00 
27300 3.8434140557e+00 3.2886458793e-03 2.0630902272e+00 -3.5733770941e+00 2.0630902272e+00 3.5733770941e+00 
27400 3.8434123769e+00 3.2988391193e-03 2.0630105258e+00 -3.5732390472e+00 2.0630105258e+00 3.5732390472e+00 
27500 3.8434107197e+00 3.3087636944e-03 2.0629305742e+00 -3.5731005670e+00 2.0629305742e+00 3.5731005670e+00 
27600 3.8434090835e+00 3.3184240749e-03 2.0628503790e+00 -3.5729616649e+00 2.0628503790e+00 3.5729616649e+00 
27700 3.8434074681e+00 3.3278246386e-03 2.0627699466e+00 -3.5728223518e+00 2.0627699466e+00 3.5728223518e+00 
27800 3.8434058731e+00 3.3369696724e-03 2.0626892831e+00 -3.5726826386e+00 2.0626892831e+00 3.5726826386e+00 
27900 3.8434042980e+00 3.3458633743e-03 2.0626083948e+00 -3.5725425360e+00 2.0626083948e+00 3.5725425360e+00 
28000 3.8434027426e+00 3.3545098552e-03 2.0625272878e+00 -3.5724020545e+00 2.0625272878e+00 3.5724020545e+00 
28100 3.8434012064e+00 3.3629131410e-03 2.0624459679e+00 -3.5722612044e+00 2.0624459679e+00 3.5722612044e+00 
28200 3.8433996892e+00 3.3710771745e-03 2.0623644412e+00 -3.5721199959e+00 2.0623644412e+00 3.5721199959e+00 
28300 3.8433981906e+00 3.3790058169e-03 2.0622827133e+00 -3.5719784390e+00 2.0622827133e+00 3.5719784390e+00 
28400 3.8433967102e+00 3.3867028498e-03 2.0622007899e+00 -3.5718365435e+00 2.0622007899e+00 3.5718365435e+00 
28500 3.8433952478e+00 3.3941719776e-03 2.0621186766e+00 -3.5716943192e+00 2.0621186766e+00 3.5716943192e+00 
28600 3.8433938029e+00 3.4014168283e-03 2.0620363790e+00 -3.5715517755e+00 2.0620363790e+00 3.5715517755e+00 
28700 3.8433923754e+00 3.4084409564e-03 2.0619539024e+00 -3.5714089219e+00 2.0619539024e+00 3.5714089219e+00 
28800 3.8433909649e+00 3.4152478439e-03 2.0618712522e+00 -3.5712657675e+00 2.0618712522e+00 3.5712657675e+00 
28900 3.8433895712e+00 3.4218409026e-03 2.0617884336e+00 -3.5711223215e+00 2.0617884336e+00 3.5711223215e+00 
29000 3.8433881938e+00 3.4282234753e-03 2.0617054519e+00 -3.5709785929e+00 2.0617054519e+00 3.5709785929e+00 
29100 3.8433868326e+00 3.4343988383e-03 2.0616223119e+00 -3.5708345903e+00 2.0616223119e+00 3.5708345903e+00 
29200 3.8433854873e+00 3.4403702023e-03 2.0615390189e+00 -3.5706903225e+00 2.0615390189e+00 3.5706903225e+00 
29300 3.8433841575e+00 3.4461407147e-03 2.0614555777e+00 -3.5705457981e+00 2.0614555777e+00 3.5705457981e+00 
29400 3.8433828431e+00 3.4517134610e-03 2.0613719931e+00 -3.5704010254e+00 2.0613719931e+00 3.5704010254e+00 
29500 3.8433815438e+00 3.4570914662e-03 2.0612882700e+00 -3.5702560126e+00 2.0612882700e+00 3.5702560126e+00 
29600 3.8433802593e+00 3.4622776970e-03 2.0612044130e+00 -3.5701107681e+00 2.0612044130e+00 3.5701107681e+00 
29700 3.8433789893e+00 3.4672750626e-03 2.0611204268e+00 -3.5699652998e+00 2.0611204268e+00 3.5699652998e+00 
29800 3.8433777337e+00 3.4720864169e-03 2.0610363160e+00 -3.5698196155e+00 2.0610363160e+00 3.5698196155e+00 
29900 3.8433764921e+00 3.4767145596e-03 2.0609520850e+00 -3.5696737231e+00 2.0609520850e+00 3.5696737231e+00 
30000 3.8433752644e+00 3.4811622378e-03 2.0608677383e+00 -3.5695276303e+00 2.0608677383e+00 3.5695276303e+00 
30100 3.8433740504e+00 3.4854321474e-03 2.0607832802e+00 -3.5693813447e+00 2.0607832802e+00 3.5693813447e+00 
30200 3.8433728497e+00 3.4895269344e-03 2.0606987150e+00 -3.5692348736e+00 2.0606987150e+00 3.5692348736e+00 
30300 3.8433716622e+00 3.4934491966e-03 2.0606140471e+00 -3.5690882243e+00 2.0606140471e+00 3.5690882243e+00 
30400 3.8433704877e+00 3.4972014846e-03 2.0605292805e+00 -3.5689414043e+00 2.0605292805e+00 3.5689414043e+00 
30500 3.8433693259e+00 3.5007863030e-03 2.0604444193e+00 -3.5687944205e+00 2.0604444193e+00 3.5687944205e+00 
30600 3.8433681767e+00 3.5042061122e-03 2.0603594677e+00 -3.5686472799e+00 2.0603594677e+00 3.5686472799e+00 
30700 3.8433670398e+00 3.5074633290e-03 2.0602744296e+00 -3.5684999896e+00 2.0602744296e+00 3.5684999896e+00 
30800 3.8433659151e+00 3.5105603282e-03 2.0601893089e+00 -3.5683525562e+00 2.0601893089e+00 3.5683525562e+00 
30900 3.8433648023e+00 3.5134994436e-03 2.0601041095e+00 -3.5682049866e+00 2.0601041095e+00 3.5682049866e+00 
31000 3.8433637013e+00 3.5162829693e-03 2.0600188353e+00 -3.5680572873e+00 2.0600188353e+00 3.5680572873e+00 
31100 3.8433626118e+00 3.5189131604e-03 2.0599334900e+00 -3.5679094649e+00 2.0599334900e+00 3.5679094649e+00 
31200 3.8433615338e+00 3.5213922345e-03 2.0598480773e+00 -3.5677615258e+00 2.0598480773e+00 3.5677615258e+00 
31300 3.8433604670e+00 3.5237223724e-03 2.0597626009e+00 -3.5676134764e+00 2.0597626009e+00 3.5676134764e+00 
31400 3.8433594112e+00 3.5259057196e-03 2.0596770644e+00 -3.5674653228e+00 2.0596770644e+00 3.5674653228e+00 
31500 3.8433583663e+00 3.5279443864e-03 2.0595914714e+00 -3.5673170713e+00 2.0595914714e+00 3.5673170713e+00 
31600 3.8433573321e+00 3.5298404496e-03 2.0595058253e+00 -3.5671687279e+00 2.0595058253e+00 3.5671687279e+00 
31700 3.8433563085e+00 3.5315959532e-03 2.0594201296e+00 -3.5670202985e+00 2.0594201296e+00 3.5670202985e+00 
31800 3.8433552952e+00 3.5332129091e-03 2.0593343877e+00 -3.5668717892e+00 2.0593343877e+00 3.5668717892e+00 
31900 3.8433542921e+00 3.5346932980e-03 2.0592486030e+00 -3.5667232057e+00 2.0592486030e+00 3.5667232057e+00 
32000 3.8433532991e+00 3.5360390706e-03 2.0591627787e+00 -3.5665745538e+00 2.0591627787e+00 3.5665745538e+00 
32100 3.8433523160e+00 3.5372521475e-03 2.0590769182e+00 -3.5664258391e+00 2.0590769182e+00 3.5664258391e+00 
32200 3.8433513427e+00 3.5383344211e-03 2.0589910247e+00 -3.5662770671e+00 2.0589910247e+00 3.5662770671e+00 
32300 3.8433503790e+00 3.5392877554e-03 2.0589051013e+00 -3.5661282434e+00 2.0589051013e+00 3.5661282434e+00 
32400 3.8433494248e+00 3.5401139870e-03 2.0588191512e+00 -3.5659793735e+00 2.0588191512e+00 3.5659793735e+00 
32500 3.8433484799e+00 3.5408149262e-03 2.0587331774e+00 -3.5658304625e+00 2.0587331774e+00 3.5658304625e+00 
32600 3.8433475441e+00 3.5413923570e-03 2.0586471830e+00 -3.5656815158e+00 2.0586471830e+00 3.5656815158e+00 
32700 3.8433466175e+00 3.5418480381e-03 2.0585611710e+00 -3.5655325387e+00 2.0585611710e+00 3.5655325387e+00 
32800 3.8433456998e+00 3.5421837034e-03 2.0584751443e+00 -3.5653835361e+00 2.0584751443e+00 3.5653835361e+00 
32900 3.8433447908e+00 3.5424010626e-03 2.0583891059e+00 -3.5652345132e+00 2.0583891059e+00 3.5652345132e+00 
33000 3.8433438906e+00 3.5425018020e-03 2.0583030586e+00 -3.5650854749e+00 2.0583030586e+00 3.5650854749e+00 
33100 3.8433429989e+00 3.5424875845e-03 2.0582170053e+00 -3.5649364261e+00 2.0582170053e+00 3.5649364261e+00 
33200 3.8433421156e+00 3.5423600507e-03 2.0581309487e+00 -3.5647873717e+00 2.0581309487e+00 3.5647873717e+00 
33300 3.8433412406e+00 3.5421208190e-03 2.0580448916e+00 -3.5646383165e+00 2.0580448916e+00 3.5646383165e+00 
33400 3.8433403738e+00 3.5417714863e-03 2.0579588367e+00 -3.5644892651e+00 2.0579588367e+00 3.5644892651e+00 
33500 3.8433395150e+00 3.5413136283e-03 2.0578727867e+00 -3.5643402221e+00 2.0578727867e+00 3.5643402221e+00 
33600 3.8433386642e+00 3.5407488003e-03 2.0577867442e+00 -3.5641911922e+00 2.0577867442e+00 3.5641911922e+00 
33700 3.8433378213e+00 3.5400785369e-03 2.0577007119e+00 -3.5640421798e+00 2.0577007119e+00 3.5640421798e+00 
33800 3.8433369861e+00 3.5393043534e-03 2.0576146923e+00 -3.5638931894e+00 2.0576146923e+00 3.5638931894e+00 
33900 3.8433361585e+00 3.5384277453e-03 2.0575286878e+00 -3.5637442253e+00 2.0575286878e+00 3.5637442253e+00 
34000 3.8433353384e+00 3.5374501891e-03 2.0574427011e+00 -3.5635952920e+00 2.0574427011e+00 3.5635952920e+00 
34100 3.8433345258e+00 3.5363731429e-03 2.0573567345e+00 -3.5634463935e+00 2.0573567345e+00 3.5634463935e+00 
34200 3.8433337204e+00 3.5351980460e-03 2.0572707906e+00 -3.5632975342e+00 2.0572707906e+00 3.5632975342e+00 
34300 3.8433329223e+00 3.5339263201e-03 2.0571848715e+00 -3.5631487181e+00 2.0571848715e+00 3.5631487181e+00 
34400 3.8433321313e+00 3.5325593690e-03 2.0570989799e+00 -3.5629999493e+00 2.0570989799e+00 3.5629999493e+00 
34500 3.8433313473e+00 3.5310985793e-03 2.0570131178e+00 -3.5628512319e+00 2.0570131178e+00 3.5628512319e+00 
34600 3.8433305703e+00 3.5295453203e-03 2.0569272877e+00 -3.5627025697e+00 2.0569272877e+00 3.5627025697e+00 
34700 3.8433298001e+00 3.5279009448e-03 2.0568414917e+00 -3.5625539668e+00 2.0568414917e+00 3.5625539668e+00 
34800 3.8433290366e+00 3.5261667889e-03 2.0567557322e+00 -3.5624054269e+00 2.0567557322e+00 3.5624054269e+00 
34900 3.8433282798e+00 3.5243441726e-03 2.0566700112e+00 -3.5622569538e+00 2.0566700112e+00 3.5622569538e+00 
35000 3.8433275295e+00 3.5224343997e-03 2.0565843309e+00 -3.5621085512e+00 2.0565843309e+00 3.5621085512e+00 
35100 3.8433267857e+00 3.5204387586e-03 2.0564986936e+00 -3.5619602229e+00 2.0564986936e+00 3.5619602229e+00 
35200 3.8433260484e+00 3.5183585219e-03 2.0564131011e+00 -3.5618119725e+00 2.0564131011e+00 3.5618119725e+00 
35300 3.8433253173e+00 3.5161949471e-03 2.0563275557e+00 -3.5616638035e+00 2.0563275557e+00 3.5616638035e+00 
35400 3.8433245925e+00 3.5139492766e-03 2.0562420594e+00 -3.5615157195e+00 2.0562420594e+00 3.5615157195e+00 
35500 3.8433238738e+00 3.5116227379e-03 2.0561566140e+00 -3.5613677238e+00 2.0561566140e+00 3.5613677238e+00 
35600 3.8433231612e+00 3.5092165441e-03 2.0560712218e+00 -3.5612198201e+00 2.0560712218e+00 3.5612198201e+00 
35700 3.8433224547e+00 3.5067318936e-03 2.0559858844e+00 -3.5610720115e+00 2.0559858844e+00 3.5610720115e+00 
35800 3.8433217540e+00 3.5041699707e-03 2.0559006040e+00 -3.5609243014e+00 2.0559006040e+00 3.5609243014e+00 
35900 3.8433210592e+00 3.5015319457e-03 2.0558153823e+00 -3.5607766931e+00 2.0558153823e+00 3.5607766931e+00 
36000 3.8433203701e+00 3.4988189749e-03 2.0557302213e+00 -3.5606291899e+00 2.0557302213e+00 3.5606291899e+00 
36100 3.8433196868e+00 3.4960322009e-03 2.0556451227e+00 -3.5604817948e+00 2.0556451227e+00 3.5604817948e+00 
36200 3.8433190091e+00 3.4931727530e-03 2.0555600883e+00 -3.5603345110e+00 2.0555600883e+00 3.5603345110e+00 
36300 3.8433183369e+00 3.4902417469e-03 2.0554751201e+00 -3.5601873416e+00 2.0554751201e+00 3.5601873416e+00 
36400 3.8433176703e+00 3.4872402851e-03 2.0553902195e+00 -3.5600402896e+00 2.0553902195e+00 3.5600402896e+00 
36500 3.8433170091e+00 3.4841694572e-03 2.0553053885e+00 -3.5598933580e+00 2.0553053885e+00 3.5598933580e+00 
36600 3.8433163532e+00 3.4810303397e-03 2.0552206287e+00 -3.5597465497e+00 2.0552206287e+00 3.5597465497e+00 
36700 3.8433157027e+00 3.4778239967e-03 2.0551359418e+00 -3.5595998677e+00 2.0551359418e+00 3.5595998677e+00 
36800 3.8433150574e+00 3.4745514792e-03 2.0550513294e+00 -3.5594533147e+00 2.0550513294e+00 3.5594533147e+00 
36900 3.8433144172e+00 3.4712138262e-03 2.0549667931e+00 -3.5593068936e+00 2.0549667931e+00 3.5593068936e+00 
37000 3.8433137822e+00 3.4678120640e-03 2.0548823346e+00 -3.5591606071e+00 2.0548823346e+00 3.5591606071e+00 
37100 3.8433131522e+00 3.4643472070e-03 2.0547979553e+00 -3.5590144579e+00 2.0547979553e+00 3.5590144579e+00 
37200 3.8433125272e+00 3.4608202573e-03 2.0547136569e+00 -3.5588684488e+00 2.0547136569e+00 3.5588684488e+00 
37300 3.8433119072e+00 3.4572322052e-03 2.0546294409e+00 -3.5587225824e+00 2.0546294409e+00 3.5587225824e+00 
37400 3.8433112920e+00 3.4535840291e-03 2.0545453087e+00 -3.5585768612e+00 2.0545453087e+00 3.5585768612e+00 
37500 3.8433106817e+00 3.4498766958e-03 2.0544612619e+00 -3.5584312878e+00 2.0544612619e+00 3.5584312878e+00 
37600 3.8433100761e+00 3.4461111605e-03 2.0543773019e+00 -3.5582858647e+00 2.0543773019e+00 3.5582858647e+00 
37700 3.8433094752e+00 3.4422883668e-03 2.0542934300e+00 -3.5581405945e+00 2.0542934300e+00 3.5581405945e+00 
37800 3.8433088790e+00 3.4384092473e-03 2.0542096478e+00 -3.5579954794e+00 2.0542096478e+00 3.5579954794e+00 
37900 3.8433082874e+00 3.4344747231e-03 2.0541259566e+00 -3.5578505220e+00 2.0541259566e+00 3.5578505220e+00 
38000 3.8433077003e+00 3.4304857043e-03 2.0540423578e+00 -3.5577057245e+00 2.0540423578e+00 3.5577057245e+00 
38100 3.8433071178e+00 3.4264430900e-03 2.0539588526e+00 -3.5575610894e+00 2.0539588526e+00 3.5575610894e+00 
38200 3.8433065397e+00 3.4223477685e-03 2.0538754425e+00 -3.5574166188e+00 2.0538754425e+00 3.5574166188e+00 
38300 3.8433059660e+00 3.4182006170e-03 2.0537921286e+00 -3.5572723150e+00 2.0537921286e+00 3.5572723150e+00 
38400 3.8433053966e+00 3.4140025026e-03 2.0537089124e+00 -3.5571281802e+00 2.0537089124e+00 3.5571281802e+00 
38500 3.8433048316e+00 3.4097542814e-03 2.0536257950e+00 -3.5569842166e+00 2.0536257950e+00 3.5569842166e+00 
38600 3.8433042708e+00 3.4054567992e-03 2.0535427776e+00 -3.5568404264e+00 2.0535427776e+00 3.5568404264e+00 
38700 3.8433037142e+00 3.4011108914e-03 2.0534598616e+00 -3.5566968115e+00 2.0534598616e+00 3.5566968115e+00 
38800 3.8433031618e+00 3.3967173833e-03 2.0533770480e+00 -3.5565533742e+00 2.0533770480e+00 3.5565533742e+00 
38900 3.8433026136e+00 3.3922770901e-03 2.0532943380e+00 -3.5564101163e+00 2.0532943380e+00 3.5564101163e+00 
39000 3.8433020694e+00 3.3877908166e-03 2.0532117328e+00 -3.5562670400e+00 2.0532117328e+00 3.5562670400e+00 
39100 3.8433015292e+00 3.3832593582e-03 2.0531292336e+00 -3.5561241471e+00 2.0531292336e+00 3.5561241471e+00 
39200 3.8433009931e+00 3.3786835000e-03 2.0530468414e+00 -3.5559814396e+00 2.0530468414e+00 3.5559814396e+00 
39300 3.8433004608e+00 3.3740640177e-03 2.0529645573e+00 -3.5558389194e+00 2.0529645573e+00 3.5558389194e+00 
39400 3.8432999325e+00 3.3694016773e-03 2.0528823825e+00 -3.5556965884e+00 2.0528823825e+00 3.5556965884e+00 
39500 3.8432994081e+00 3.3646972351e-03 2.0528003179e+00 -3.5555544483e+00 2.0528003179e+00 3.5555544483e+00 
39600 3.8432988875e+00 3.3599514382e-03 2.0527183646e+00 -3.5554125011e+00 2.0527183646e+00 3.5554125011e+00 
39700 3.8432983707e+00 3.3551650242e-03 2.0526365236e+00 -3.5552707484e+00 2.0526365236e+00 3.5552707484e+00 
39800 3.8432978576e+00 3.3503387216e-03 2.0525547960e+00 -3.5551291919e+00 2.0525547960e+00 3.5551291919e+00 
39900 3.8432973482e+00 3.3454732497e-03 2.0524731826e+00 -3.5549878335e+00 2.0524731826e+00 3.5549878335e+00 
40000 3.8432968426e+00 3.3405693187e-03 2.0523916846e+00 -3.5548466748e+00 2.0523916846e+00 3.5548466748e+00 
40100 3.8432963405e+00 3.3356276300e-03 2.0523103028e+00 -3.5547057173e+00 2.0523103028e+00 3.5547057173e+00 
40200 3.8432958421e+00 3.3306488761e-03 2.0522290381e+00 -3.5545649628e+00 2.0522290381e+00 3.5545649628e+00 
40300 3.8432953472e+00 3.3256337407e-03 2.0521478916e+00 -3.5544244128e+00 2.0521478916e+00 3.5544244128e+00 
40400 3.8432948559e+00 3.3205828988e-03 2.0520668640e+00 -3.5542840689e+00 2.0520668640e+00 3.5542840689e+00 
40500 3.8432943680e+00 3.3154970169e-03 2.0519859563e+00 -3.5541439326e+00 2.0519859563e+00 3.5541439326e+00 
40600 3.8432938836e+00 3.3103767531e-03 2.0519051693e+00 -3.5540040055e+00 2.0519051693e+00 3.5540040055e+00 
40700 3.8432934027e+00 3.3052227571e-03 2.0518245039e+00 -3.5538642889e+00 2.0518245039e+00 3.5538642889e+00 
40800 3.8432929251e+00 3.3000356702e-03 2.0517439609e+00 -3.5537247844e+00 2.0517439609e+00 3.5537247844e+00 
40900 3.8432924509e+00 3.2948161255e-03 2.0516635412e+00 -3.5535854933e+00 2.0516635412e+00 3.5535854933e+00 
41000 3.8432919800e+00 3.2895647481e-03 2.0515832455e+00 -3.5534464171e+00 2.0515832455e+00 3.5534464171e+00 
41100 3.8432915124e+00 3.2842821552e-03 2.0515030746e+00 -3.5533075571e+00 2.0515030746e+00 3.5533075571e+00 
41200 3.8432910481e+00 3.2789689557e-03 2.0514230294e+00 -3.5531689147e+00 2.0514230294e+00 3.5531689147e+00 
41300 3.8432905870e+00 3.2736257511e-03 2.0513431105e+00 -3.5530304912e+00 2.0513431105e+00 3.5530304912e+00 
41400 3.8432901291e+00 3.2682531349e-03 2.0512633188e+00 -3.5528922879e+00 2.0512633188e+00 3.5528922879e+00 
41500 3.8432896744e+00 3.2628516929e-03 2.0511836549e+00 -3.5527543060e+00 2.0511836549e+00 3.5527543060e+00 
41600 3.8432892228e+00 3.2574220036e-03 2.0511041196e+00 -3.5526165468e+00 2.0511041196e+00 3.5526165468e+00 
41700 3.8432887743e+00 3.2519646377e-03 2.0510247136e+00 -3.5524790115e+00 2.0510247136e+00 3.5524790115e+00 
41800 3.8432883289e+00 3.2464801588e-03 2.0509454375e+00 -3.5523417013e+00 2.0509454375e+00 3.5523417013e+00 
41900 3.8432878866e+00 3.2409691230e-03 2.0508662921e+00 -3.5522046174e+00 2.0508662921e+00 3.5522046174e+00 
42000 3.8432874473e+00 3.2354320793e-03 2.0507872779e+00 -3.5520677609e+00 2.0507872779e+00 3.5520677609e+00 
42100 3.8432870110e+00 3.2298695695e-03 2.0507083958e+00 -3.5519311330e+00 2.0507083958e+00 3.5519311330e+00 
42200 3.8432865777e+00 3.2242821282e-03 2.0506296462e+00 -3.5517947347e+00 2.0506296462e+00 3.5517947347e+00 
42300 3.8432861473e+00 3.2186702834e-03 2.0505510298e+00 -3.5516585671e+00 2.0505510298e+00 3.5516585671e+00 
42400 3.8432857198e+00 3.2130345560e-03 2.0504725472e+00 -3.5515226313e+00 2.0504725472e+00 3.5515226313e+00 
42500 3.8432852953e+00 3.2073754600e-03 2.0503941991e+00 -3.5513869284e+00 2.0503941991e+00 3.5513869284e+00 
42600 3.8432848735e+00 3.2016935029e-03 2.0503159860e+00 -3.5512514592e+00 2.0503159860e+00 3.5512514592e+00 
42700 3.8432844547e+00 3.1959891854e-03 2.0502379084e+00 -3.5511162250e+00 2.0502379084e+00 3.5511162250e+00 
42800 3.8432840386e+00 3.1902630017e-03 2.0501599670e+00 -3.5509812265e+00 2.0501599670e+00 3.5509812265e+00 
42900 3.8432836254e+00 3.1845154396e-03 2.0500821623e+00 -3.5508464647e+00 2.0500821623e+00 3.5508464647e+00 
43000 3.8432832149e+00 3.1787469804e-03 2.0500044948e+00 -3.5507119407e+00 2.0500044948e+00 3.5507119407e+00 
43100 3.8432828071e+00 3.1729580992e-03 2.0499269650e+00 -3.5505776552e+00 2.0499269650e+00 3.5505776552e+00 
43200 3.8432824021e+00 3.1671492646e-03 2.0498495735e+00 -3.5504436092e+00 2.0498495735e+00 3.5504436092e+00 
43300 3.8432819997e+00 3.1613209395e-03 2.0497723208e+00 -3.5503098035e+00 2.0497723208e+00 3.5503098035e+00 
43400 3.8432816001e+00 3.1554735802e-03 2.0496952073e+00 -3.5501762391e+00 2.0496952073e+00 3.5501762391e+00 
43500 3.8432812030e+00 3.1496076373e-03 2.0496182336e+00 -3.5500429167e+00 2.0496182336e+00 3.5500429167e+00 
43600 3.8432808086e+00 3.1437235555e-03 2.0495414000e+00 -3.5499098371e+00 2.0495414000e+00 3.5499098371e+00 
43700 3.8432804168e+00 3.1378217734e-03 2.0494647072e+00 -3.5497770012e+00 2.0494647072e+00 3.5497770012e+00 
43800 3.8432800276e+00 3.1319027240e-03 2.0493881554e+00 -3.5496444096e+00 2.0493881554e+00 3.5496444096e+00 
43900 3.8432796410e+00 3.1259668346e-03 2.0493117452e+00 -3.5495120633e+00 2.0493117452e+00 3.5495120633e+00 
44000 3.8432792568e+00 3.1200145268e-03 2.0492354770e+00 -3.5493799628e+00 2.0492354770e+00 3.5493799628e+00 
44100 3.8432788752e+00 3.1140462166e-03 2.0491593512e+00 -3.5492481090e+00 2.0491593512e+00 3.5492481090e+00 
44200 3.8432784961e+00 3.1080623145e-03 2.0490833681e+00 -3.5491165026e+00 2.0490833681e+00 3.5491165026e+00 
44300 3.8432781195e+00 3.1020632256e-03 2.0490075283e+00 -3.5489851441e+00 2.0490075283e+00 3.5489851441e+00 
44400 3.8432777453e+00 3.0960493498e-03 2.0489318320e+00 -3.5488540343e+00 2.0489318320e+00 3.5488540343e+00 
44500 3.8432773735e+00 3.0900210814e-03 2.0488562797e+00 -3.5487231739e+00 2.0488562797e+00 3.5487231739e+00 
44600 3.8432770042e+00 3.0839788097e-03 2.0487808718e+00 -3.5485925635e+00 2.0487808718e+00 3.5485925635e+00 
44700 3.8432766372e+00 3.0779229187e-03 2.0487056085e+00 -3.5484622036e+00 2.0487056085e+00 3.5484622036e+00 
44800 3.8432762727e+00 3.0718537876e-03 2.0486304902e+00 -3.5483320950e+00 2.0486304902e+00 3.5483320950e+00 
44900 3.8432759104e+00 3.0657717901e-03 2.0485555173e+00 -3.5482022381e+00 2.0485555173e+00 3.5482022381e+00 
45000 3.8432755506e+00 3.0596772954e-03 2.0484806901e+00 -3.5480726336e+00 2.0484806901e+00 3.5480726336e+00 
45100 3.8432751930e+00 3.0535706675e-03 2.0484060089e+00 -3.5479432820e+00 2.0484060089e+00 3.5479432820e+00 
45200 3.8432748377e+00 3.0474522658e-03 2.0483314741e+00 -3.5478141839e+00 2.0483314741e+00 3.5478141839e+00 
45300 3.8432744847e+00 3.0413224446e-03 2.0482570859e+00 -3.5476853398e+00 2.0482570859e+00 3.5476853398e+00 
45400 3.8432741340e+00 3.0351815539e-03 2.0481828446e+00 -3.5475567501e+00 2.0481828446e+00 3.5475567501e+00 
45500 3.8432737855e+00 3.0290299387e-03 2.0481087506e+00 -3.5474284155e+00 2.0481087506e+00 3.5474284155e+00 
45600 3.8432734392e+00 3.0228679396e-03 2.0480348040e+00 -3.5473003363e+00 2.0480348040e+00 3.5473003363e+00 
45700 3.8432730952e+00 3.0166958926e-03 2.0479610052e+00 -3.5471725130e+00 2.0479610052e+00 3.5471725130e+00 
45800 3.8432727533e+00 3.0105141293e-03 2.0478873545e+00 -3.5470449461e+00 2.0478873545e+00 3.5470449461e+00 
45900 3.8432724136e+00 3.0043229769e-03 2.0478138520e+00 -3.5469176361e+00 2.0478138520e+00 3.5469176361e+00 
46000 3.8432720761e+00 2.9981227580e-03 2.0477404980e+00 -3.5467905833e+00 2.0477404980e+00 3.5467905833e+00 
46100 3.8432717407e+00 2.9919137911e-03 2.0476672928e+00 -3.5466637882e+00 2.0476672928e+00 3.5466637882e+00 
46200 3.8432714074e+00 2.9856963906e-03 2.0475942366e+00 -3.5465372511e+00 2.0475942366e+00 3.5465372511e+00 
46300 3.8432710763e+00 2.9794708664e-03 2.0475213297e+00 -3.5464109725e+00 2.0475213297e+00 3.5464109725e+00 
46400 3.8432707472e+00 2.9732375244e-03 2.0474485721e+00 -3.5462849527e+00 2.0474485721e+00 3.5462849527e+00 
46500 3.8432704202e+00 2.9669966665e-03 2.0473759642e+00 -3.5461591921e+00 2.0473759642e+00 3.5461591921e+00 
46600 3.8432700953e+00 2.9607485904e-03 2.0473035061e+00 -3.5460336910e+00 2.0473035061e+00 3.5460336910e+00 
46700 3.8432697723e+00 2.9544935899e-03 2.0472311980e+00 -3.5459084498e+00 2.0472311980e+00 3.5459084498e+00 
46800 3.8432694515e+00 2.9482319550e-03 2.0471590401e+00 -3.5457834687e+00 2.0471590401e+00 3.5457834687e+00 
46900 3.8432691326e+00 2.9419639715e-03 2.0470870327e+00 -3.5456587481e+00 2.0470870327e+00 3.5456587481e+00 
47000 3.8432688158e+00 2.9356899217e-03 2.0470151758e+00 -3.5455342883e+00 2.0470151758e+00 3.5455342883e+00 
47100 3.8432685009e+00 2.9294100840e-03 2.0469434696e+00 -3.5454100896e+00 2.0469434696e+00 3.5454100896e+00 
47200 3.8432681880e+00 2.9231247330e-03 2.0468719143e+00 -3.5452861522e+00 2.0468719143e+00 3.5452861522e+00 
47300 3.8432678770e+00 2.9168341397e-03 2.0468005100e+00 -3.5451624763e+00 2.0468005100e+00 3.5451624763e+00 
47400 3.8432675680e+00 2.9105385714e-03 2.0467292569e+00 -3.5450390624e+00 2.0467292569e+00 3.5450390624e+00 
47500 3.8432672609e+00 2.9042382919e-03 2.0466581552e+00 -3.5449159105e+00 2.0466581552e+00 3.5449159105e+00 
47600 3.8432669557e+00 2.8979335613e-03 2.0465872048e+00 -3.5447930209e+00 2.0465872048e+00 3.5447930209e+00 
47700 3.8432666524e+00 2.8916246364e-03 2.0465164061e+00 -3.5446703938e+00 2.0465164061e+00 3.5446703938e+00 
47800 3.8432663509e+00 2.8853117704e-03 2.0464457590e+00 -3.5445480295e+00 2.0464457590e+00 3.5445480295e+00 
47900 3.8432660514e+00 2.8789952131e-03 2.0463752637e+00 -3.5444259281e+00 2.0463752637e+00 3.5444259281e+00 
48000 3.8432657537e+00 2.8726752109e-03 2.0463049203e+00 -3.5443040898e+00 2.0463049203e+00 3.5443040898e+00 
48100 3.8432654578e+00 2.8663520071e-03 2.0462347290e+00 -3.5441825148e+00 2.0462347290e+00 3.5441825148e+00 
48200 3.8432651638e+00 2.8600258415e-03 2.0461646897e+00 -3.5440612032e+00 2.0461646897e+00 3.5440612032e+00 
48300 3.8432648716e+00 2.8536969506e-03 2.0460948026e+00 -3.5439401553e+00 2.0460948026e+00 3.5439401553e+00 
48400 3.8432645812e+00 2.8473655679e-03 2.0460250678e+00 -3.5438193710e+00 2.0460250678e+00 3.5438193710e+00 
48500 3.8432642926e+00 2.8410319236e-03 2.0459554854e+00 -3.5436988507e+00 2.0459554854e+00 3.5436988507e+00 
48600 3.8432640057e+00 2.8346962448e-03 2.0458860553e+00 -3.5435785943e+00 2.0458860553e+00 3.5435785943e+00 
48700 3.8432637206e+00 2.8283587556e-03 2.0458167777e+00 -3.5434586020e+00 2.0458167777e+00 3.5434586020e+00 
48800 3.8432634373e+00 2.8220196769e-03 2.0457476527e+00 -3.5433388739e+00 2.0457476527e+00 3.5433388739e+00 
48900 3.8432631557e+00 2.8156792267e-03 2.0456786803e+00 -3.5432194102e+00 2.0456786803e+00 3.5432194102e+00 
49000 3.8432628758e+00 2.8093376201e-03 2.0456098605e+00 -3.5431002108e+00 2.0456098605e+00 3.5431002108e+00 
49100 3.8432625976e+00 2.8029950691e-03 2.0455411934e+00 -3.5429812759e+00 2.0455411934e+00 3.5429812759e+00 
49200 3.8432623211e+00 2.7966517829e-03 2.0454726790e+00 -3.5428626055e+00 2.0454726790e+00 3.5428626055e+00 
49300 3.8432620464e+00 2.7903079678e-03 2.0454043174e+00 -3.5427441998e+00 2.0454043174e+00 3.5427441998e+00 
49400 3.8432617733e+00 2.7839638272e-03 2.0453361086e+00 -3.5426260586e+00 2.0453361086e+00 3.5426260586e+00 
49500 3.8432615018e+00 2.7776195620e-03 2.0452680526e+00 -3.5425081821e+00 2.0452680526e+00 3.5425081821e+00 
49600 3.8432612320e+00 2.7712753701e-03 2.0452001494e+00 -3.5423905704e+00 2.0452001494e+00 3.5423905704e+00 
49700 3.8432609639e+00 2.7649314466e-03 2.0451323990e+00 -3.5422732233e+00 2.0451323990e+00 3.5422732233e+00 
49800 3.8432606974e+00 2.7585879841e-03 2.0450648016e+00 -3.5421561411e+00 2.0450648016e+00 3.5421561411e+00 
49900 3.8432604325e+00 2.7522451725e-03 2.0449973569e+00 -3.5420393235e+00 2.0449973569e+00 3.5420393235e+00 
50000 3.8432601692e+00 2.7459031990e-03 2.0449300651e+00 -3.5419227708e+00 2.0449300651e+00 3.5419227708e+00 
50100 3.8432599075e+00 2.7395622484e-03 2.0448629262e+00 -3.5418064827e+00 2.0448629262e+00 3.5418064827e+00 
50200 3.8432596474e+00 2.7332225026e-03 2.0447959401e+00 -3.5416904594e+00 2.0447959401e+00 3.5416904594e+00 
50300 3.8432593889e+00 2.7268841413e-03 2.0447291069e+00 -3.5415747008e+00 2.0447291069e+00 3.5415747008e+00 
50400 3.8432591319e+00 2.7205473415e-03 2.0446624264e+00 -3.5414592069e+00 2.0446624264e+00 3.5414592069e+00 
50500 3.8432588765e+00 2.7142122779e-03 2.0445958988e+00 -3.5413439776e+00 2.0445958988e+00 3.5413439776e+00 
50600 3.8432586226e+00 2.7078791225e-03 2.0445295238e+00 -3.5412290129e+00 2.0445295238e+00 3.5412290129e+00 
50700 3.8432583703e+00 2.7015480452e-03 2.0444633016e+00 -3.5411143127e+00 2.0444633016e+00 3.5411143127e+00 
50800 3.8432581195e+00 2.6952192134e-03 2.0443972321e+00 -3.5409998769e+00 2.0443972321e+00 3.5409998769e+00 
50900 3.8432578702e+00 2.6888927920e-03 2.0443313153e+00 -3.5408857056e+00 2.0443313153e+00 3.5408857056e+00 
51000 3.8432576223e+00 2.6825689438e-03 2.0442655510e+00 -3.5407717986e+00 2.0442655510e+00 3.5407717986e+00 
51100 3.8432573760e+00 2.6762478291e-03 2.0441999393e+00 -3.5406581558e+00 2.0441999393e+00 3.5406581558e+00 
51200 3.8432571312e+00 2.6699296061e-03 2.0441344801e+00 -3.5405447771e+00 2.0441344801e+00 3.5405447771e+00 
51300 3.8432568878e+00 2.6636144307e-03 2.0440691734e+00 -3.5404316625e+00 2.0440691734e+00 3.5404316625e+00 
51400 3.8432566459e+00 2.6573024566e-03 2.0440040190e+00 -3.5403188119e+00 2.0440040190e+00 3.5403188119e+00 
51500 3.8432564055e+00 2.6509938353e-03 2.0439390170e+00 -3.5402062250e+00 2.0439390170e+00 3.5402062250e+00 
51600 3.8432561665e+00 2.6446887160e-03 2.0438741672e+00 -3.5400939019e+00 2.0438741672e+00 3.5400939019e+00 
51700 3.8432559289e+00 2.6383872461e-03 2.0438094696e+00 -3.5399818424e+00 2.0438094696e+00 3.5399818424e+00 
51800 3.8432556928e+00 2.6320895705e-03 2.0437449242e+00 -3.5398700463e+00 2.0437449242e+00 3.5398700463e+00 
51900 3.8432554580e+00 2.6257958323e-03 2.0436805307e+00 -3.5397585136e+00 2.0436805307e+00 3.5397585136e+00 
52000 3.8432552247e+00 2.6195061725e-03 2.0436162892e+00 -3.5396472441e+00 2.0436162892e+00 3.5396472441e+00 
52100 3.8432549927e+00 2.6132207298e-03 2.0435521996e+00 -3.5395362376e+00 2.0435521996e+00 3.5395362376e+00 
52200 3.8432547622e+00 2.6069396413e-03 2.0434882617e+00 -3.5394254940e+00 2.0434882617e+00 3.5394254940e+00 
52300 3.8432545330e+00 2.6006630418e-03 2.0434244755e+00 -3.5393150131e+00 2.0434244755e+00 3.5393150131e+00 
52400 3.8432543052e+00 2.5943910643e-03 2.0433608409e+00 -3.5392047947e+00 2.0433608409e+00 3.5392047947e+00 
52500 3.8432540788e+00 2.5881238397e-03 2.0432973578e+00 -3.5390948388e+00 2.0432973578e+00 3.5390948388e+00 
52600 3.8432538537e+00 2.5818614971e-03 2.0432340261e+00 -3.5389851450e+00 2.0432340261e+00 3.5389851450e+00 
52700 3.8432536299e+00 2.5756041638e-03 2.0431708457e+00 -3.5388757133e+00 2.0431708457e+00 3.5388757133e+00 
52800 3.8432534075e+00 2.5693519650e-03 2.0431078164e+00 -3.5387665434e+00 2.0431078164e+00 3.5387665434e+00 
52900 3.8432531864e+00 2.5631050241e-03 2.0430449382e+00 -3.5386576352e+00 2.0430449382e+00 3.5386576352e+00 
53000 3.8432529666e+00 2.5568634628e-03 2.0429822110e+00 -3.5385489884e+00 2.0429822110e+00 3.5385489884e+00 
53100 3.8432527481e+00 2.5506274009e-03 2.0429196346e+00 -3.5384406028e+00 2.0429196346e+00 3.5384406028e+00 
53200 3.8432525309e+00 2.5443969565e-03 2.0428572088e+00 -3.5383324783e+00 2.0428572088e+00 3.5383324783e+00 
53300 3.8432523150e+00 2.5381722457e-03 2.0427949337e+00 -3.5382246146e+00 2.0427949337e+00 3.5382246146e+00 
53400 3.8432521004e+00 2.5319533831e-03 2.0427328090e+00 -3.5381170115e+00 2.0427328090e+00 3.5381170115e+00 
53500 3.8432518870e+00 2.5257404816e-03 2.0426708347e+00 -3.5380096688e+00 2.0426708347e+00 3.5380096688e+00 
53600 3.8432516749e+00 2.5195336521e-03 2.0426090105e+00 -3.5379025863e+00 2.0426090105e+00 3.5379025863e+00 
53700 3.8432514641e+00 2.5133330040e-03 2.0425473365e+00 -3.5377957636e+00 2.0425473365e+00 3.5377957636e+00 
53800 3.8432512545e+00 2.5071386452e-03 2.0424858123e+00 -3.5376892006e+00 2.0424858123e+00 3.5376892006e+00 
53900 3.8432510462e+00 2.5009506816e-03 2.0424244379e+00 -3.5375828971e+00 2.0424244379e+00 3.5375828971e+00 
54000 3.8432508391e+00 2.4947692178e-03 2.0423632132e+00 -3.5374768527e+00 2.0423632132e+00 3.5374768527e+00 
54100 3.8432506332e+00 2.4885943566e-03 2.0423021379e+00 -3.5373710673e+00 2.0423021379e+00 3.5373710673e+00 
54200 3.8432504286e+00 2.4824261993e-03 2.0422412120e+00 -3.5372655405e+00 2.0422412120e+00 3.5372655405e+00 
54300 3.8432502251e+00 2.4762648454e-03 2.0421804353e+00 -3.5371602722e+00 2.0421804353e+00 3.5371602722e+00 
54400 3.8432500228e+00 2.4701103933e-03 2.0421198076e+00 -3.5370552620e+00 2.0421198076e+00 3.5370552620e+00 
54500 3.8432498218e+00 2.4639629394e-03 2.0420593289e+00 -3.5369505097e+00 2.0420593289e+00 3.5369505097e+00 
54600 3.8432496219e+00 2.4578225789e-03 2.0419989988e+00 -3.5368460150e+00 2.0419989988e+00 3.5368460150e+00 
54700 3.8432494232e+00 2.4516894053e-03 2.0419388173e+00 -3.5367417776e+00 2.0419388173e+00 3.5367417776e+00 
54800 3.8432492257e+00 2.4455635108e-03 2.0418787843e+00 -3.5366377972e+00 2.0418787843e+00 3.5366377972e+00 
54900 3.8432490293e+00 2.4394449859e-03 2.0418188994e+00 -3.5365340737e+00 2.0418188994e+00 3.5365340737e+00 
55000 3.8432488341e+00 2.4333339200e-03 2.0417591627e+00 -3.5364306065e+00 2.0417591627e+00 3.5364306065e+00 
55100 3.8432486401e+00 2.4272304007e-03 2.0416995738e+00 -3.5363273956e+00 2.0416995738e+00 3.5363273956e+00 
55200 3.8432484472e+00 2.4211345144e-03 2.0416401327e+00 -3.5362244406e+00 2.0416401327e+00 3.5362244406e+00 
55300 3.8432482554e+00 2.4150463460e-03 2.0415808391e+00 -3.5361217411e+00 2.0415808391e+00 3.5361217411e+00 
55400 3.8432480648e+00 2.4089659792e-03 2.0415216929e+00 -3.5360192969e+00 2.0415216929e+00 3.5360192969e+00 
55500 3.8432478752e+00 2.4028934961e-03 2.0414626939e+00 -3.5359171076e+00 2.0414626939e+00 3.5359171076e+00 
55600 3.8432476868e+00 2.3968289776e-03 2.0414038419e+00 -3.5358151730e+00 2.0414038419e+00 3.5358151730e+00 
55700 3.8432474995e+00 2.3907725032e-03 2.0413451368e+00 -3.5357134927e+00 2.0413451368e+00 3.5357134927e+00 
55800 3.8432473133e+00 2.3847241512e-03 2.0412865783e+00 -3.5356120665e+00 2.0412865783e+00 3.5356120665e+00 
55900 3.8432471282e+00 2.3786839983e-03 2.0412281663e+00 -3.5355108939e+00 2.0412281663e+00 3.5355108939e+00 
56000 3.8432469442e+00 2.3726521203e-03 2.0411699006e+00 -3.5354099747e+00 2.0411699006e+00 3.5354099747e+00 
56100 3.8432467612e+00 2.3666285915e-03 2.0411117810e+00 -3.5353093086e+00 2.0411117810e+00 3.5353093086e+00 
56200 3.8432465793e+00 2.3606134850e-03 2.0410538073e+00 -3.5352088951e+00 2.0410538073e+00 3.5352088951e+00 
56300 3.8432463985e+00 2.3546068727e-03 2.0409959792e+00 -3.5351087341e+00 2.0409959792e+00 3.5351087341e+00 
56400 3.8432462188e+00 2.3486088251e-03 2.0409382967e+00 -3.5350088250e+00 2.0409382967e+00 3.5350088250e+00 
56500 3.8432460401e+00 2.3426194116e-03 2.0408807595e+00 -3.5349091676e+00 2.0408807595e+00 3.5349091676e+00 
56600 3.8432458624e+00 2.3366387005e-03 2.0408233674e+00 -3.5348097616e+00 2.0408233674e+00 3.5348097616e+00 
56700 3.8432456858e+00 2.3306667589e-03 2.0407661202e+00 -3.5347106066e+00 2.0407661202e+00 3.5347106066e+00 
56800 3.8432455102e+00 2.3247036525e-03 2.0407090177e+00 -3.5346117022e+00 2.0407090177e+00 3.5346117022e+00 
56900 3.8432453357e+00 2.3187494460e-03 2.0406520598e+00 -3.5345130481e+00 2.0406520598e+00 3.5345130481e+00 
57000 3.8432451621e+00 2.3128042030e-03 2.0405952461e+00 -3.5344146439e+00 2.0405952461e+00 3.5344146439e+00 
57100 3.8432449896e+00 2.3068679860e-03 2.0405385765e+00 -3.5343164893e+00 2.0405385765e+00 3.5343164893e+00 
57200 3.8432448181e+00 2.3009408562e-03 2.0404820508e+00 -3.5342185840e+00 2.0404820508e+00 3.5342185840e+00 
57300 3.8432446476e+00 2.2950228738e-03 2.0404256688e+00 -3.5341209274e+00 2.0404256688e+00 3.5341209274e+00 
57400 3.8432444781e+00 2.2891140979e-03 2.0403694302e+00 -3.5340235194e+00 2.0403694302e+00 3.5340235194e+00 
57500 3.8432443096e+00 2.2832145866e-03 2.0403133349e+00 -3.5339263594e+00 2.0403133349e+00 3.5339263594e+00 
57600 3.8432441420e+00 2.2773243969e-03 2.0402573826e+00 -3.5338294472e+00 2.0402573826e+00 3.5338294472e+00 
57700 3.8432439755e+00 2.2714435846e-03 2.0402015731e+00 -3.5337327824e+00 2.0402015731e+00 3.5337327824e+00 
57800 3.8432438099e+00 2.2655722046e-03 2.0401459063e+00 -3.5336363645e+00 2.0401459063e+00 3.5336363645e+00 
57900 3.8432436453e+00 2.2597103108e-03 2.0400903818e+00 -3.5335401932e+00 2.0400903818e+00 3.5335401932e+00 
58000 3.8432434816e+00 2.2538579560e-03 2.0400349994e+00 -3.5334442682e+00 2.0400349994e+00 3.5334442682e+00 
58100 3.8432433189e+00 2.2480151921e-03 2.0399797590e+00 -3.5333485890e+00 2.0399797590e+00 3.5333485890e+00 
58200 3.8432431572e+00 2.2421820698e-03 2.0399246603e+00 -3.5332531552e+00 2.0399246603e+00 3.5332531552e+00 
58300 3.8432429963e+00 2.2363586390e-03 2.0398697030e+00 -3.5331579665e+00 2.0398697030e+00 3.5331579665e+00 
58400 3.8432428365e+00 2.2305449486e-03 2.0398148871e+00 -3.5330630225e+00 2.0398148871e+00 3.5330630225e+00 
58500 3.8432426775e+00 2.2247410466e-03 2.0397602121e+00 -3.5329683227e+00 2.0397602121e+00 3.5329683227e+00 
58600 3.8432425195e+00 2.2189469798e-03 2.0397056780e+00 -3.5328738668e+00 2.0397056780e+00 3.5328738668e+00 
58700 3.8432423624e+00 2.2131627945e-03 2.0396512844e+00 -3.5327796544e+00 2.0396512844e+00 3.5327796544e+00 
58800 3.8432422062e+00 2.2073885356e-03 2.0395970312e+00 -3.5326856850e+00 2.0395970312e+00 3.5326856850e+00 
58900 3.8432420509e+00 2.2016242475e-03 2.0395429181e+00 -3.5325919584e+00 2.0395429181e+00 3.5325919584e+00 
59000 3.8432418966e+00 2.1958699733e-03 2.0394889449e+00 -3.5324984740e+00 2.0394889449e+00 3.5324984740e+00 
59100 3.8432417431e+00 2.1901257556e-03 2.0394351113e+00 -3.5324052315e+00 2.0394351113e+00 3.5324052315e+00 
59200 3.8432415905e+00 2.1843916359e-03 2.0393814171e+00 -3.5323122304e+00 2.0393814171e+00 3.5323122304e+00 
59300 3.8432414388e+00 2.1786676549e-03 2.0393278621e+00 -3.5322194704e+00 2.0393278621e+00 3.5322194704e+00 
59400 3.8432412880e+00 2.1729538523e-03 2.0392744460e+00 -3.5321269511e+00 2.0392744460e+00 3.5321269511e+00 
59500 3.8432411380e+00 2.1672502672e-03 2.0392211686e+00 -3.5320346719e+00 2.0392211686e+00 3.5320346719e+00 
59600 3.8432409890e+00 2.1615569377e-03 2.0391680297e+00 -3.5319426326e+00 2.0391680297e+00 3.5319426326e+00 
59700 3.8432408408e+00 2.1558739010e-03 2.0391150290e+00 -3.5318508326e+00 2.0391150290e+00 3.5318508326e+00 
59800 3.8432406934e+00 2.1502011937e-03 2.0390621662e+00 -3.5317592717e+00 2.0390621662e+00 3.5317592717e+00 
59900 3.8432405469e+00 2.1445388514e-03 2.0390094412e+00 -3.5316679492e+00 2.0390094412e+00 3.5316679492e+00 
60000 3.8432404013e+00 2.1388869090e-03 2.0389568536e+00 -3.5315768650e+00 2.0389568536e+00 3.5315768650e+00 
60100 3.8432402565e+00 2.1332454006e-03 2.0389044034e+00 -3.5314860184e+00 2.0389044034e+00 3.5314860184e+00 
60200 3.8432401126e+00 2.1276143595e-03 2.0388520901e+00 -3.5313954091e+00 2.0388520901e+00 3.5313954091e+00 
60300 3.8432399695e+00 2.1219938183e-03 2.0387999135e+00 -3.5313050367e+00 2.0387999135e+00 3.5313050367e+00 
60400 3.8432398272e+00 2.1163838086e-03 2.0387478735e+00 -3.5312149007e+00 2.0387478735e+00 3.5312149007e+00 
60500 3.8432396857e+00 2.1107843616e-03 2.0386959697e+00 -3.5311250007e+00 2.0386959697e+00 3.5311250007e+00 
60600 3.8432395451e+00 2.1051955075e-03 2.0386442019e+00 -3.5310353362e+00 2.0386442019e+00 3.5310353362e+00 
60700 3.8432394052e+00 2.0996172758e-03 2.0385925699e+00 -3.5309459069e+00 2.0385925699e+00 3.5309459069e+00 
60800 3.8432392662e+00 2.0940496955e-03 2.0385410733e+00 -3.5308567123e+00 2.0385410733e+00 3.5308567123e+00 
60900 3.8432391280e+00 2.0884927946e-03 2.0384897121e+00 -3.5307677520e+00 2.0384897121e+00 3.5307677520e+00 
61000 3.8432389906e+00 2.0829466004e-03 2.0384384858e+00 -3.5306790255e+00 2.0384384858e+00 3.5306790255e+00 
61100 3.8432388540e+00 2.0774111398e-03 2.0383873943e+00 -3.5305905325e+00 2.0383873943e+00 3.5305905325e+00 
61200 3.8432387182e+00 2.0718864387e-03 2.0383364373e+00 -3.5305022723e+00 2.0383364373e+00 3.5305022723e+00 
61300 3.8432385832e+00 2.0663725225e-03 2.0382856145e+00 -3.5304142447e+00 2.0382856145e+00 3.5304142447e+00 
61400 3.8432384489e+00 2.0608694158e-03 2.0382349258e+00 -3.5303264492e+00 2.0382349258e+00 3.5303264492e+00 
61500 3.8432383154e+00 2.0553771426e-03 2.0381843707e+00 -3.5302388853e+00 2.0381843707e+00 3.5302388853e+00 
61600 3.8432381827e+00 2.0498957262e-03 2.0381339492e+00 -3.5301515526e+00 2.0381339492e+00 3.5301515526e+00 
61700 3.8432380508e+00 2.0444251895e-03 2.0380836608e+00 -3.5300644506e+00 2.0380836608e+00 3.5300644506e+00 
61800 3.8432379196e+00 2.0389655543e-03 2.0380335055e+00 -3.5299775790e+00 2.0380335055e+00 3.5299775790e+00 
61900 3.8432377892e+00 2.0335168422e-03 2.0379834828e+00 -3.5298909372e+00 2.0379834828e+00 3.5298909372e+00 
62000 3.8432376596e+00 2.0280790740e-03 2.0379335926e+00 -3.5298045248e+00 2.0379335926e+00 3.5298045248e+00 
62100 3.8432375307e+00 2.0226522697e-03 2.0378838346e+00 -3.5297183414e+00 2.0378838346e+00 3.5297183414e+00 
62200 3.8432374025e+00 2.0172364490e-03 2.0378342085e+00 -3.5296323865e+00 2.0378342085e+00 3.5296323865e+00 
62300 3.8432372751e+00 2.0118316309e-03 2.0377847141e+00 -3.5295466597e+00 2.0377847141e+00 3.5295466597e+00 
62400 3.8432371484e+00 2.0064378337e-03 2.0377353511e+00 -3.5294611604e+00 2.0377353511e+00 3.5294611604e+00 
62500 3.8432370225e+00 2.0010550753e-03 2.0376861192e+00 -3.5293758883e+00 2.0376861192e+00 3.5293758883e+00 
62600 3.8432368973e+00 1.9956833727e-03 2.0376370182e+00 -3.5292908430e+00 2.0376370182e+00 3.5292908430e+00 
62700 3.8432367728e+00 1.9903227428e-03 2.0375880479e+00 -3.5292060239e+00 2.0375880479e+00 3.5292060239e+00 
62800 3.8432366490e+00 1.9849732015e-03 2.0375392079e+00 -3.5291214306e+00 2.0375392079e+00 3.5291214306e+00 
62900 3.8432365259e+00 1.9796347644e-03 2.0374904981e+00 -3.5290370626e+00 2.0374904981e+00 3.5290370626e+00 
63000 3.8432364036e+00 1.9743074464e-03 2.0374419180e+00 -3.5289529195e+00 2.0374419180e+00 3.5289529195e+00 
63100 3.8432362819e+00 1.9689912620e-03 2.0373934676e+00 -3.5288690009e+00 2.0373934676e+00 3.5288690009e+00 
63200 3.8432361610e+00 1.9636862251e-03 2.0373451465e+00 -3.5287853062e+00 2.0373451465e+00 3.5287853062e+00 
63300 3.8432360408e+00 1.9583923489e-03 2.0372969544e+00 -3.5287018351e+00 2.0372969544e+00 3.5287018351e+00 
63400 3.8432359212e+00 1.9531096464e-03 2.0372488911e+00 -3.5286185870e+00 2.0372488911e+00 3.5286185870e+00 
63500 3.8432358024e+00 1.9478381298e-03 2.0372009563e+00 -3.5285355615e+00 2.0372009563e+00 3.5285355615e+00 
63600 3.8432356842e+00 1.9425778111e-03 2.0371531497e+00 -3.5284527581e+00 2.0371531497e+00 3.5284527581e+00 
63700 3.8432355667e+00 1.9373287013e-03 2.0371054712e+00 -3.5283701764e+00 2.0371054712e+00 3.5283701764e+00 
63800 3.8432354499e+00 1.9320908115e-03 2.0370579203e+00 -3.5282878160e+00 2.0370579203e+00 3.5282878160e+00 
63900 3.8432353338e+00 1.9268641518e-03 2.0370104970e+00 -3.5282056763e+00 2.0370104970e+00 3.5282056763e+00 
64000 3.8432352183e+00 1.9216487322e-03 2.0369632008e+00 -3.5281237569e+00 2.0369632008e+00 3.5281237569e+00 
64100 3.8432351035e+00 1.9164445619e-03 2.0369160315e+00 -3.5280420573e+00 2.0369160315e+00 3.5280420573e+00 
64200 3.8432349894e+00 1.9112516499e-03 2.0368689889e+00 -3.5279605771e+00 2.0368689889e+00 3.5279605771e+00 
64300 3.8432348759e+00 1.9060700046e-03 2.0368220727e+00 -3.5278793158e+00 2.0368220727e+00 3.5278793158e+00 
64400 3.8432347631e+00 1.9008996339e-03 2.0367752825e+00 -3.5277982730e+00 2.0367752825e+00 3.5277982730e+00 
64500 3.8432346509e+00 1.8957405453e-03 2.0367286183e+00 -3.5277174481e+00 2.0367286183e+00 3.5277174481e+00 
64600 3.8432345394e+00 1.8905927459e-03 2.0366820796e+00 -3.5276368407e+00 2.0366820796e+00 3.5276368407e+00 
64700 3.8432344285e+00 1.8854562423e-03 2.0366356662e+00 -3.5275564504e+00 2.0366356662e+00 3.5275564504e+00 
64800 3.8432343183e+00 1.8803310406e-03 2.0365893779e+00 -3.5274762767e+00 2.0365893779e+00 3.5274762767e+00 
64900 3.8432342086e+00 1.8752171466e-03 2.0365432144e+00 -3.5273963191e+00 2.0365432144e+00 3.5273963191e+00 
65000 3.8432340997e+00 1.8701145657e-03 2.0364971753e+00 -3.5273165771e+00 2.0364971753e+00 3.5273165771e+00 
65100 3.8432339913e+00 1.8650233026e-03 2.0364512605e+00 -3.5272370503e+00 2.0364512605e+00 3.5272370503e+00 
65200 3.8432338836e+00 1.8599433620e-03 2.0364054697e+00 -3.5271577383e+00 2.0364054697e+00 3.5271577383e+00 
65300 3.8432337765e+00 1.8548747478e-03 2.0363598025e+00 -3.5270786404e+00 2.0363598025e+00 3.5270786404e+00 
65400 3.8432336700e+00 1.8498174637e-03 2.0363142588e+00 -3.5269997564e+00 2.0363142588e+00 3.5269997564e+00 
65500 3.8432335642e+00 1.8447715131e-03 2.0362688382e+00 -3.5269210857e+00 2.0362688382e+00 3.5269210857e+00 
65600 3.8432334589e+00 1.8397368987e-03 2.0362235406e+00 -3.5268426278e+00 2.0362235406e+00 3.5268426278e+00 
65700 3.8432333543e+00 1.8347136231e-03 2.0361783655e+00 -3.5267643824e+00 2.0361783655e+00 3.5267643824e+00 
65800 3.8432332502e+00 1.8297016884e-03 2.0361333128e+00 -3.5266863488e+00 2.0361333128e+00 3.5266863488e+00 
65900 3.8432331468e+00 1.8247010963e-03 2.0360883822e+00 -3.5266085266e+00 2.0360883822e+00 3.5266085266e+00 
66000 3.8432330439e+00 1.8197118481e-03 2.0360435734e+00 -3.5265309155e+00 2.0360435734e+00 3.5265309155e+00 
66100 3.8432329416e+00 1.8147339449e-03 2.0359988861e+00 -3.5264535148e+00 2.0359988861e+00 3.5264535148e+00 
66200 3.8432328400e+00 1.8097673873e-03 2.0359543201e+00 -3.5263763242e+00 2.0359543201e+00 3.5263763242e+00 
66300 3.8432327389e+00 1.8048121755e-03 2.0359098750e+00 -3.5262993432e+00 2.0359098750e+00 3.5262993432e+00 
66400 3.8432326384e+00 1.7998683095e-03 2.0358655507e+00 -3.5262225713e+00 2.0358655507e+00 3.5262225713e+00 
66500 3.8432325385e+00 1.7949357888e-03 2.0358213469e+00 -3.5261460079e+00 2.0358213469e+00 3.5261460079e+00 
66600 3.8432324391e+00 1.7900146126e-03 2.0357772632e+00 -3.5260696528e+00 2.0357772632e+00 3.5260696528e+00 
66700 3.8432323403e+00 1.7851047799e-03 2.0357332995e+00 -3.5259935053e+00 2.0357332995e+00 3.5259935053e+00 
66800 3.8432322421e+00 1.7802062891e-03 2.0356894554e+00 -3.5259175651e+00 2.0356894554e+00 3.5259175651e+00 
66900 3.8432321445e+00 1.7753191385e-03 2.0356457306e+00 -3.5258418316e+00 2.0356457306e+00 3.5258418316e+00 
67000 3.8432320474e+00 1.7704433260e-03 2.0356021250e+00 -3.5257663045e+00 2.0356021250e+00 3.5257663045e+00 
67100 3.8432319509e+00 1.7655788492e-03 2.0355586382e+00 -3.5256909831e+00 2.0355586382e+00 3.5256909831e+00 
67200 3.8432318549e+00 1.7607257053e-03 2.0355152699e+00 -3.5256158671e+00 2.0355152699e+00 3.5256158671e+00 
67300 3.8432317595e+00 1.7558838912e-03 2.0354720199e+00 -3.5255409559e+00 2.0354720199e+00 3.5255409559e+00 
67400 3.8432316647e+00 1.7510534036e-03 2.0354288880e+00 -3.5254662492e+00 2.0354288880e+00 3.5254662492e+00 
67500 3.8432315703e+00 1.7462342389e-03 2.0353858738e+00 -3.5253917464e+00 2.0353858738e+00 3.5253917464e+00 
67600 3.8432314766e+00 1.7414263929e-03 2.0353429770e+00 -3.5253174471e+00 2.0353429770e+00 3.5253174471e+00 
67700 3.8432313833e+00 1.7366298616e-03 2.0353001975e+00 -3.5252433507e+00 2.0353001975e+00 3.5252433507e+00 
67800 3.8432312906e+00 1.7318446403e-03 2.0352575349e+00 -3.5251694570e+00 2.0352575349e+00 3.5251694570e+00 
67900 3.8432311985e+00 1.7270707241e-03 2.0352149890e+00 -3.5250957652e+00 2.0352149890e+00 3.5250957652e+00 
68000 3.8432311068e+00 1.7223081081e-03 2.0351725594e+00 -3.5250222751e+00 2.0351725594e+00 3.5250222751e+00 
68100 3.8432310157e+00 1.7175567866e-03 2.0351302460e+00 -3.5249489861e+00 2.0351302460e+00 3.5249489861e+00 
68200 3.8432309251e+00 1.7128167542e-03 2.0350880485e+00 -3.5248758978e+00 2.0350880485e+00 3.5248758978e+00 
68300 3.8432308351e+00 1.7080880047e-03 2.0350459665e+00 -3.5248030097e+00 2.0350459665e+00 3.5248030097e+00 
68400 3.8432307455e+00 1.7033705320e-03 2.0350039998e+00 -3.5247303213e+00 2.0350039998e+00 3.5247303213e+00 
68500 3.8432306565e+00 1.6986643297e-03 2.0349621482e+00 -3.5246578321e+00 2.0349621482e+00 3.5246578321e+00 
68600 3.8432305680e+00 1.6939693909e-03 2.0349204113e+00 -3.5245855418e+00 2.0349204113e+00 3.5245855418e+00 
68700 3.8432304800e+00 1.6892857086e-03 2.0348787890e+00 -3.5245134497e+00 2.0348787890e+00 3.5245134497e+00 
68800 3.8432303925e+00 1.6846132756e-03 2.0348372808e+00 -3.5244415555e+00 2.0348372808e+00 3.5244415555e+00 
68900 3.8432303055e+00 1.6799520844e-03 2.0347958867e+00 -3.5243698588e+00 2.0347958867e+00 3.5243698588e+00 
69000 3.8432302190e+00 1.6753021273e-03 2.0347546062e+00 -3.5242983589e+00 2.0347546062e+00 3.5242983589e+00 
69100 3.8432301330e+00 1.6706633962e-03 2.0347134392e+00 -3.5242270555e+00 2.0347134392e+00 3.5242270555e+00 
69200 3.8432300475e+00 1.6660358829e-03 2.0346723853e+00 -3.5241559481e+00 2.0346723853e+00 3.5241559481e+00 
69300 3.8432299625e+00 1.6614195790e-03 2.0346314443e+00 -3.5240850362e+00 2.0346314443e+00 3.5240850362e+00 
69400 3.8432298779e+00 1.6568144757e-03 2.0345906159e+00 -3.5240143194e+00 2.0345906159e+00 3.5240143194e+00 
69500 3.8432297939e+00 1.6522205641e-03 2.0345498999e+00 -3.5239437971e+00 2.0345498999e+00 3.5239437971e+00 
69600 3.8432297103e+00 1.6476378351e-03 2.0345092959e+00 -3.5238734690e+00 2.0345092959e+00 3.5238734690e+00 
69700 3.8432296273e+00 1.6430662792e-03 2.0344688038e+00 -3.5238033346e+00 2.0344688038e+00 3.5238033346e+00 
69800 3.8432295447e+00 1.6385058870e-03 2.0344284232e+00 -3.5237333934e+00 2.0344284232e+00 3.5237333934e+00 
69900 3.8432294625e+00 1.6339566485e-03 2.0343881539e+00 -3.5236636449e+00 2.0343881539e+00 3.5236636449e+00 
70000 3.8432293809e+00 1.6294185538e-03 2.0343479956e+00 -3.5235940887e+00 2.0343479956e+00 3.5235940887e+00 
70100 3.8432292997e+00 1.6248915927e-03 2.0343079481e+00 -3.5235247243e+00 2.0343079481e+00 3.5235247243e+00 
70200 3.8432292190e+00 1.6203757546e-03 2.0342680110e+00 -3.5234555512e+00 2.0342680110e+00 3.5234555512e+00 
70300 3.8432291387e+00 1.6158710290e-03 2.0342281841e+00 -3.5233865691e+00 2.0342281841e+00 3.5233865691e+00 
70400 3.8432290590e+00 1.6113774050e-03 2.0341884672e+00 -3.5233177774e+00 2.0341884672e+00 3.5233177774e+00 
70500 3.8432289796e+00 1.6068948715e-03 2.0341488599e+00 -3.5232491756e+00 2.0341488599e+00 3.5232491756e+00 
70600 3.8432289007e+00 1.6024234174e-03 2.0341093621e+00 -3.5231807633e+00 2.0341093621e+00 3.5231807633e+00 
70700 3.8432288223e+00 1.5979630313e-03 2.0340699734e+00 -3.5231125401e+00 2.0340699734e+00 3.5231125401e+00 
70800 3.8432287443e+00 1.5935137014e-03 2.0340306936e+00 -3.5230445055e+00 2.0340306936e+00 3.5230445055e+00 
70900 3.8432286668e+00 1.5890754161e-03 2.0339915224e+00 -3.5229766590e+00 2.0339915224e+00 3.5229766590e+00 
71000 3.8432285897e+00 1.5846481633e-03 2.0339524595e+00 -3.5229090001e+00 2.0339524595e+00 3.5229090001e+00 
71100 3.8432285131e+00 1.5802319309e-03 2.0339135048e+00 -3.5228415285e+00 2.0339135048e+00 3.5228415285e+00 
71200 3.8432284369e+00 1.5758267066e-03 2.0338746578e+00 -3.5227742436e+00 2.0338746578e+00 3.5227742436e+00 
71300 3.8432283612e+00 1.5714324778e-03 2.0338359184e+00 -3.5227071449e+00 2.0338359184e+00 3.5227071449e+00 
71400 3.8432282858e+00 1.5670492319e-03 2.0337972863e+00 -3.5226402322e+00 2.0337972863e+00 3.5226402322e+00 
71500 3.8432282109e+00 1.5626769560e-03 2.0337587612e+00 -3.5225735048e+00 2.0337587612e+00 3.5225735048e+00 
71600 3.8432281365e+00 1.5583156371e-03 2.0337203429e+00 -3.5225069623e+00 2.0337203429e+00 3.5225069623e+00 
71700 3.8432280625e+00 1.5539652620e-03 2.0336820311e+00 -3.5224406042e+00 2.0336820311e+00 3.5224406042e+00 
71800 3.8432279888e+00 1.5496258175e-03 2.0336438255e+00 -3.5223744302e+00 2.0336438255e+00 3.5223744302e+00 
71900 3.8432279157e+00 1.5452972899e-03 2.0336057259e+00 -3.5223084398e+00 2.0336057259e+00 3.5223084398e+00 
72000 3.8432278429e+00 1.5409796657e-03 2.0335677320e+00 -3.5222426324e+00 2.0335677320e+00 3.5222426324e+00 
72100 3.8432277706e+00 1.5366729310e-03 2.0335298435e+00 -3.5221770076e+00 2.0335298435e+00 3.5221770076e+00 
72200 3.8432276986e+00 1.5323770720e-03 2.0334920602e+00 -3.5221115651e+00 2.0334920602e+00 3.5221115651e+00 
72300 3.8432276271e+00 1.5280920744e-03 2.0334543819e+00 -3.5220463043e+00 2.0334543819e+00 3.5220463043e+00 
72400 3.8432275560e+00 1.5238179241e-03 2.0334168082e+00 -3.5219812248e+00 2.0334168082e+00 3.5219812248e+00 
72500 3.8432274853e+00 1.5195546066e-03 2.0333793389e+00 -3.5219163261e+00 2.0333793389e+00 3.5219163261e+00 
72600 3.8432274150e+00 1.5153021074e-03 2.0333419738e+00 -3.5218516078e+00 2.0333419738e+00 3.5218516078e+00 
72700 3.8432273451e+00 1.5110604119e-03 2.0333047125e+00 -3.5217870694e+00 2.0333047125e+00 3.5217870694e+00 
72800 3.8432272756e+00 1.5068295052e-03 2.0332675549e+00 -3.5217227105e+00 2.0332675549e+00 3.5217227105e+00 
72900 3.8432272066e+00 1.5026093724e-03 2.0332305006e+00 -3.5216585306e+00 2.0332305006e+00 3.5216585306e+00 
73000 3.8432271379e+00 1.4983999985e-03 2.0331935495e+00 -3.5215945293e+00 2.0331935495e+00 3.5215945293e+00 
73100 3.8432270696e+00 1.4942013681e-03 2.0331567011e+00 -3.5215307061e+00 2.0331567011e+00 3.5215307061e+00 
73200 3.8432270017e+00 1.4900134661e-03 2.0331199554e+00 -3.5214670606e+00 2.0331199554e+00 3.5214670606e+00 
73300 3.8432269341e+00 1.4858362769e-03 2.0330833120e+00 -3.5214035924e+00 2.0330833120e+00 3.5214035924e+00 
73400 3.8432268670e+00 1.4816697849e-03 2.0330467706e+00 -3.5213403009e+00 2.0330467706e+00 3.5213403009e+00 
73500 3.8432268003e+00 1.4775139745e-03 2.0330103311e+00 -3.5212771858e+00 2.0330103311e+00 3.5212771858e+00 
73600 3.8432267339e+00 1.4733688298e-03 2.0329739931e+00 -3.5212142466e+00 2.0329739931e+00 3.5212142466e+00 
73700 3.8432266679e+00 1.4692343350e-03 2.0329377565e+00 -3.5211514828e+00 2.0329377565e+00 3.5211514828e+00 
73800 3.8432266023e+00 1.4651104739e-03 2.0329016208e+00 -3.5210888941e+00 2.0329016208e+00 3.5210888941e+00 
73900 3.8432265371e+00 1.4609972303e-03 2.0328655860e+00 -3.5210264799e+00 2.0328655860e+00 3.5210264799e+00 
74000 3.8432264723e+00 1.4568945881e-03 2.0328296517e+00 -3.5209642398e+00 2.0328296517e+00 3.5209642398e+00 
74100 3.8432264078e+00 1.4528025308e-03 2.0327938176e+00 -3.5209021734e+00 2.0327938176e+00 3.5209021734e+00 
74200 3.8432263437e+00 1.4487210420e-03 2.0327580836e+00 -3.5208402802e+00 2.0327580836e+00 3.5208402802e+00 
74300 3.8432262800e+00 1.4446501050e-03 2.0327224493e+00 -3.5207785599e+00 2.0327224493e+00 3.5207785599e+00 
74400 3.8432262166e+00 1.4405897031e-03 2.0326869146e+00 -3.5207170119e+00 2.0326869146e+00 3.5207170119e+00 
74500 3.8432261536e+00 1.4365398197e-03 2.0326514791e+00 -3.5206556358e+00 2.0326514791e+00 3.5206556358e+00 
74600 3.8432260909e+00 1.4325004376e-03 2.0326161426e+00 -3.5205944312e+00 2.0326161426e+00 3.5205944312e+00 
74700 3.8432260286e+00 1.4284715401e-03 2.0325809048e+00 -3.5205333976e+00 2.0325809048e+00 3.5205333976e+00 
74800 3.8432259667e+00 1.4244531099e-03 2.0325457656e+00 -3.5204725347e+00 2.0325457656e+00 3.5204725347e+00 
74900 3.8432259051e+00 1.4204451299e-03 2.0325107246e+00 -3.5204118419e+00 2.0325107246e+00 3.5204118419e+00 
75000 3.8432258439e+00 1.4164475828e-03 2.0324757815e+00 -3.5203513188e+00 2.0324757815e+00 3.5203513188e+00 
75100 3.8432257831e+00 1.4124604512e-03 2.0324409363e+00 -3.5202909650e+00 2.0324409363e+00 3.5202909650e+00 
75200 3.8432257225e+00 1.4084837178e-03 2.0324061885e+00 -3.5202307801e+00 2.0324061885e+00 3.5202307801e+00 
75300 3.8432256624e+00 1.4045173649e-03 2.0323715379e+00 -3.5201707636e+00 2.0323715379e+00 3.5201707636e+00 
75400 3.8432256025e+00 1.4005613749e-03 2.0323369844e+00 -3.5201109150e+00 2.0323369844e+00 3.5201109150e+00 
75500 3.8432255431e+00 1.3966157302e-03 2.0323025276e+00 -3.5200512341e+00 2.0323025276e+00 3.5200512341e+00 
75600 3.8432254839e+00 1.3926804129e-03 2.0322681672e+00 -3.5199917202e+00 2.0322681672e+00 3.5199917202e+00 
75700 3.8432254251e+00 1.3887554051e-03 2.0322339031e+00 -3.5199323731e+00 2.0322339031e+00 3.5199323731e+00 
75800 3.8432253666e+00 1.3848406890e-03 2.0321997350e+00 -3.5198731922e+00 2.0321997350e+00 3.5198731922e+00 
75900 3.8432253085e+00 1.3809362465e-03 2.0321656627e+00 -3.5198141771e+00 2.0321656627e+00 3.5198141771e+00 
76000 3.8432252507e+00 1.3770420594e-03 2.0321316858e+00 -3.5197553275e+00 2.0321316858e+00 3.5197553275e+00 
76100 3.8432251933e+00 1.3731581097e-03 2.0320978042e+00 -3.5196966428e+00 2.0320978042e+00 3.5196966428e+00 
76200 3.8432251361e+00 1.3692843790e-03 2.0320640176e+00 -3.5196381226e+00 2.0320640176e+00 3.5196381226e+00 
76300 3.8432250793e+00 1.3654208491e-03 2.0320303257e+00 -3.5195797666e+00 2.0320303257e+00 3.5195797666e+00 
76400 3.8432250228e+00 1.3615675016e-03 2.0319967283e+00 -3.5195215743e+00 2.0319967283e+00 3.5195215743e+00 
76500 3.8432249667e+00 1.3577243180e-03 2.0319632252e+00 -3.5194635452e+00 2.0319632252e+00 3.5194635452e+00 
76600 3.8432249108e+00 1.3538912797e-03 2.0319298162e+00 -3.5194056790e+00 2.0319298162e+00 3.5194056790e+00 
76700 3.8432248553e+00 1.3500683683e-03 2.0318965008e+00 -3.5193479752e+00 2.0318965008e+00 3.5193479752e+00 
76800 3.8432248001e+00 1.3462555651e-03 2.0318632790e+00 -3.5192904333e+00 2.0318632790e+00 3.5192904333e+00 
76900 3.8432247453e+00 1.3424528513e-03 2.0318301505e+00 -3.5192330531e+00 2.0318301505e+00 3.5192330531e+00 
77000 3.8432246907e+00 1.3386602082e-03 2.0317971151e+00 -3.5191758340e+00 2.0317971151e+00 3.5191758340e+00 
77100 3.8432246364e+00 1.3348776169e-03 2.0317641724e+00 -3.5191187756e+00 2.0317641724e+00 3.5191187756e+00 
77200 3.8432245825e+00 1.3311050587e-03 2.0317313223e+00 -3.5190618775e+00 2.0317313223e+00 3.5190618775e+00 
77300 3.8432245289e+00 1.3273425145e-03 2.0316985645e+00 -3.5190051393e+00 2.0316985645e+00 3.5190051393e+00 
77400 3.8432244755e+00 1.3235899653e-03 2.0316658987e+00 -3.5189485606e+00 2.0316658987e+00 3.5189485606e+00 
77500 3.8432244225e+00 1.3198473921e-03 2.0316333248e+00 -3.5188921409e+00 2.0316333248e+00 3.5188921409e+00 
77600 3.8432243698e+00 1.3161147758e-03 2.0316008425e+00 -3.5188358799e+00 2.0316008425e+00 3.5188358799e+00 
77700 3.8432243174e+00 1.3123920973e-03 2.0315684515e+00 -3.5187797770e+00 2.0315684515e+00 3.5187797770e+00 
77800 3.8432242653e+00 1.3086793372e-03 2.0315361516e+00 -3.5187238320e+00 2.0315361516e+00 3.5187238320e+00 
77900 3.8432242135e+00 1.3049764765e-03 2.0315039426e+00 -3.5186680443e+00 2.0315039426e+00 3.5186680443e+00 
78000 3.8432241620e+00 1.3012834957e-03 2.0314718242e+00 -3.5186124136e+00 2.0314718242e+00 3.5186124136e+00 
78100 3.8432241107e+00 1.2976003756e-03 2.0314397962e+00 -3.5185569395e+00 2.0314397962e+00 3.5185569395e+00 
78200 3.8432240598e+00 1.2939270968e-03 2.0314078583e+00 -3.5185016215e+00 2.0314078583e+00 3.5185016215e+00 
78300 3.8432240092e+00 1.2902636397e-03 2.0313760103e+00 -3.5184464592e+00 2.0313760103e+00 3.5184464592e+00 
78400 3.8432239588e+00 1.2866099851e-03 2.0313442521e+00 -3.5183914522e+00 2.0313442521e+00 3.5183914522e+00 
78500 3.8432239088e+00 1.2829661132e-03 2.0313125832e+00 -3.5183366002e+00 2.0313125832e+00 3.5183366002e+00 
78600 3.8432238590e+00 1.2793320046e-03 2.0312810036e+00 -3.5182819026e+00 2.0312810036e+00 3.5182819026e+00 
78700 3.8432238095e+00 1.2757076397e-03 2.0312495129e+00 -3.5182273591e+00 2.0312495129e+00 3.5182273591e+00 
78800 3.8432237603e+00 1.2720929989e-03 2.0312181109e+00 -3.5181729693e+00 2.0312181109e+00 3.5181729693e+00 
78900 3.8432237114e+00 1.2684880624e-03 2.0311867974e+00 -3.5181187328e+00 2.0311867974e+00 3.5181187328e+00 
79000 3.8432236628e+00 1.2648928106e-03 2.0311555722e+00 -3.5180646492e+00 2.0311555722e+00 3.5180646492e+00 
79100 3.8432236144e+00 1.2613072237e-03 2.0311244350e+00 -3.5180107180e+00 2.0311244350e+00 3.5180107180e+00 
79200 3.8432235664e+00 1.2577312820e-03 2.0310933856e+00 -3.5179569388e+00 2.0310933856e+00 3.5179569388e+00 
79300 3.8432235186e+00 1.2541649657e-03 2.0310624238e+00 -3.5179033113e+00 2.0310624238e+00 3.5179033113e+00 
79400 3.8432234710e+00 1.2506082549e-03 2.0310315493e+00 -3.5178498351e+00 2.0310315493e+00 3.5178498351e+00 
79500 3.8432234238e+00 1.2470611297e-03 2.0310007618e+00 -3.5177965097e+00 2.0310007618e+00 3.5177965097e+00 
79600 3.8432233768e+00 1.2435235703e-03 2.0309700612e+00 -3.5177433347e+00 2.0309700612e+00 3.5177433347e+00 
79700 3.8432233301e+00 1.2399955568e-03 2.0309394473e+00 -3.5176903098e+00 2.0309394473e+00 3.5176903098e+00 
79800 3.8432232836e+00 1.2364770691e-03 2.0309089197e+00 -3.5176374345e+00 2.0309089197e+00 3.5176374345e+00 
79900 3.8432232374e+00 1.2329680873e-03 2.0308784783e+00 -3.5175847085e+00 2.0308784783e+00 3.5175847085e+00 
80000 3.8432231915e+00 1.2294685915e-03 2.0308481229e+00 -3.5175321313e+00 2.0308481229e+00 3.5175321313e+00 
80100 3.8432231459e+00 1.2259785615e-03 2.0308178531e+00 -3.5174797025e+00 2.0308178531e+00 3.5174797025e+00 
80200 3.8432231005e+00 1.2224979774e-03 2.0307876688e+00 -3.5174274218e+00 2.0307876688e+00 3.5174274218e+00 
80300 3.8432230554e+00 1.2190268190e-03 2.0307575698e+00 -3.5173752888e+00 2.0307575698e+00 3.5173752888e+00 
80400 3.8432230105e+00 1.2155650663e-03 2.0307275558e+00 -3.5173233030e+00 2.0307275558e+00 3.5173233030e+00 
80500 3.8432229659e+00 1.2121126991e-03 2.0306976266e+00 -3.5172714640e+00 2.0306976266e+00 3.5172714640e+00 
80600 3.8432229215e+00 1.2086696974e-03 2.0306677819e+00 -3.5172197715e+00 2.0306677819e+00 3.5172197715e+00 
80700 3.8432228774e+00 1.2052360409e-03 2.0306380216e+00 -3.5171682251e+00 2.0306380216e+00 3.5171682251e+00 
80800 3.8432228336e+00 1.2018117095e-03 2.0306083454e+00 -3.5171168244e+00 2.0306083454e+00 3.5171168244e+00 
80900 3.8432227900e+00 1.1983966830e-03 2.0305787530e+00 -3.5170655690e+00 2.0305787530e+00 3.5170655690e+00 
81000 3.8432227466e+00 1.1949909412e-03 2.0305492443e+00 -3.5170144585e+00 2.0305492443e+00 3.5170144585e+00 
81100 3.8432227035e+00 1.1915944639e-03 2.0305198191e+00 -3.5169634925e+00 2.0305198191e+00 3.5169634925e+00 
81200 3.8432226606e+00 1.1882072308e-03 2.0304904771e+00 -3.5169126706e+00 2.0304904771e+00 3.5169126706e+00 
81300 3.8432226180e+00 1.1848292218e-03 2.0304612180e+00 -3.5168619924e+00 2.0304612180e+00 3.5168619924e+00 
81400 3.8432225757e+00 1.1814604165e-03 2.0304320417e+00 -3.5168114576e+00 2.0304320417e+00 3.5168114576e+00 
81500 3.8432225336e+00 1.1781007946e-03 2.0304029480e+00 -3.5167610658e+00 2.0304029480e+00 3.5167610658e+00 
81600 3.8432224917e+00 1.1747503359e-03 2.0303739366e+00 -3.5167108165e+00 2.0303739366e+00 3.5167108165e+00 
81700 3.8432224500e+00 1.1714090201e-03 2.0303450072e+00 -3.5166607094e+00 2.0303450072e+00 3.5166607094e+00 
81800 3.8432224086e+00 1.1680768269e-03 2.0303161597e+00 -3.5166107441e+00 2.0303161597e+00 3.5166107441e+00 
81900 3.8432223675e+00 1.1647537359e-03 2.0302873939e+00 -3.5165609203e+00 2.0302873939e+00 3.5165609203e+00 
82000 3.8432223265e+00 1.1614397269e-03 2.0302587095e+00 -3.5165112374e+00 2.0302587095e+00 3.5165112374e+00 
82100 3.8432222858e+00 1.1581347795e-03 2.0302301064e+00 -3.5164616953e+00 2.0302301064e+00 3.5164616953e+00 
82200 3.8432222454e+00 1.1548388734e-03 2.0302015842e+00 -3.5164122934e+00 2.0302015842e+00 3.5164122934e+00 
82300 3.8432222052e+00 1.1515519883e-03 2.0301731428e+00 -3.5163630314e+00 2.0301731428e+00 3.5163630314e+00 
82400 3.8432221652e+00 1.1482741037e-03 2.0301447819e+00 -3.5163139090e+00 2.0301447819e+00 3.5163139090e+00 
82500 3.8432221254e+00 1.1450051993e-03 2.0301165014e+00 -3.5162649257e+00 2.0301165014e+00 3.5162649257e+00 
82600 3.8432220859e+00 1.1417452549e-03 2.0300883010e+00 -3.5162160811e+00 2.0300883010e+00 3.5162160811e+00 
82700 3.8432220465e+00 1.1384942499e-03 2.0300601804e+00 -3.5161673749e+00 2.0300601804e+00 3.5161673749e+00 
82800 3.8432220074e+00 1.1352521642e-03 2.0300321396e+00 -3.5161188068e+00 2.0300321396e+00 3.5161188068e+00 
82900 3.8432219686e+00 1.1320189772e-03 2.0300041782e+00 -3.5160703763e+00 2.0300041782e+00 3.5160703763e+00 
83000 3.8432219299e+00 1.1287946686e-03 2.0299762961e+00 -3.5160220830e+00 2.0299762961e+00 3.5160220830e+00 
83100 3.8432218915e+00 1.1255792181e-03 2.0299484930e+00 -3.5159739267e+00 2.0299484930e+00 3.5159739267e+00 
83200 3.8432218533e+00 1.1223726053e-03 2.0299207688e+00 -3.5159259068e+00 2.0299207688e+00 3.5159259068e+00 
83300 3.8432218153e+00 1.1191748099e-03 2.0298931231e+00 -3.5158780231e+00 2.0298931231e+00 3.5158780231e+00 
83400 3.8432217776e+00 1.1159858114e-03 2.0298655558e+00 -3.5158302752e+00 2.0298655558e+00 3.5158302752e+00 
83500 3.8432217400e+00 1.1128055895e-03 2.0298380667e+00 -3.5157826627e+00 2.0298380667e+00 3.5157826627e+00 
83600 3.8432217027e+00 1.1096341239e-03 2.0298106556e+00 -3.5157351853e+00 2.0298106556e+00 3.5157351853e+00 
83700 3.8432216656e+00 1.1064713942e-03 2.0297833222e+00 -3.5156878425e+00 2.0297833222e+00 3.5156878425e+00 
83800 3.8432216287e+00 1.1033173800e-03 2.0297560664e+00 -3.5156406340e+00 2.0297560664e+00 3.5156406340e+00 
83900 3.8432215920e+00 1.1001720610e-03 2.0297288879e+00 -3.5155935594e+00 2.0297288879e+00 3.5155935594e+00 
84000 3.8432215555e+00 1.0970354168e-03 2.0297017865e+00 -3.5155466184e+00 2.0297017865e+00 3.5155466184e+00 
84100 3.8432215192e+00 1.0939074272e-03 2.0296747620e+00 -3.5154998106e+00 2.0296747620e+00 3.5154998106e+00 
84200 3.8432214832e+00 1.0907880717e-03 2.0296478142e+00 -3.5154531357e+00 2.0296478142e+00 3.5154531357e+00 
84300 3.8432214473e+00 1.0876773301e-03 2.0296209429e+00 -3.5154065932e+00 2.0296209429e+00 3.5154065932e+00 
84400 3.8432214117e+00 1.0845751820e-03 2.0295941479e+00 -3.5153601829e+00 2.0295941479e+00 3.5153601829e+00 
84500 3.8432213762e+00 1.0814816072e-03 2.0295674289e+00 -3.5153139043e+00 2.0295674289e+00 3.5153139043e+00 
84600 3.8432213410e+00 1.0783965852e-03 2.0295407858e+00 -3.5152677571e+00 2.0295407858e+00 3.5152677571e+00 
84700 3.8432213059e+00 1.0753200959e-03 2.0295142184e+00 -3.5152217409e+00 2.0295142184e+00 3.5152217409e+00 
84800 3.8432212711e+00 1.0722521190e-03 2.0294877264e+00 -3.5151758554e+00 2.0294877264e+00 3.5151758554e+00 
84900 3.8432212364e+00 1.0691926340e-03 2.0294613096e+00 -3.5151301003e+00 2.0294613096e+00 3.5151301003e+00 
85000 3.8432212020e+00 1.0661416209e-03 2.0294349679e+00 -3.5150844750e+00 2.0294349679e+00 3.5150844750e+00 
85100 3.8432211677e+00 1.0630990594e-03 2.0294087010e+00 -3.5150389794e+00 2.0294087010e+00 3.5150389794e+00 
85200 3.8432211337e+00 1.0600649291e-03 2.0293825087e+00 -3.5149936131e+00 2.0293825087e+00 3.5149936131e+00 
85300 3.8432210998e+00 1.0570392099e-03 2.0293563909e+00 -3.5149483756e+00 2.0293563909e+00 3.5149483756e+00 
85400 3.8432210662e+00 1.0540218815e-03 2.0293303472e+00 -3.5149032667e+00 2.0293303472e+00 3.5149032667e+00 
85500 3.8432210327e+00 1.0510129238e-03 2.0293043776e+00 -3.5148582860e+00 2.0293043776e+00 3.5148582860e+00 
85600 3.8432209994e+00 1.0480123166e-03 2.0292784817e+00 -3.5148134331e+00 2.0292784817e+00 3.5148134331e+00 
85700 3.8432209663e+00 1.0450200396e-03 2.0292526595e+00 -3.5147687076e+00 2.0292526595e+00 3.5147687076e+00 
85800 3.8432209334e+00 1.0420360727e-03 2.0292269107e+00 -3.5147241093e+00 2.0292269107e+00 3.5147241093e+00 
85900 3.8432209007e+00 1.0390603957e-03 2.0292012350e+00 -3.5146796378e+00 2.0292012350e+00 3.5146796378e+00 
86000 3.8432208682e+00 1.0360929886e-03 2.0291756324e+00 -3.5146352928e+00 2.0291756324e+00 3.5146352928e+00 
86100 3.8432208359e+00 1.0331338312e-03 2.0291501025e+00 -3.5145910738e+00 2.0291501025e+00 3.5145910738e+00 
86200 3.8432208037e+00 1.0301829033e-03 2.0291246453e+00 -3.5145469805e+00 2.0291246453e+00 3.5145469805e+00 
86300 3.8432207718e+00 1.0272401849e-03 2.0290992604e+00 -3.5145030127e+00 2.0290992604e+00 3.5145030127e+00 
86400 3.8432207400e+00 1.0243056559e-03 2.0290739478e+00 -3.5144591698e+00 2.0290739478e+00 3.5144591698e+00 
86500 3.8432207084e+00 1.0213792963e-03 2.0290487071e+00 -3.5144154517e+00 2.0290487071e+00 3.5144154517e+00 
86600 3.8432206770e+00 1.0184610860e-03 2.0290235382e+00 -3.5143718580e+00 2.0290235382e+00 3.5143718580e+00 
86700 3.8432206457e+00 1.0155510050e-03 2.0289984410e+00 -3.5143283882e+00 2.0289984410e+00 3.5143283882e+00 
86800 3.8432206147e+00 1.0126490333e-03 2.0289734151e+00 -3.5142850421e+00 2.0289734151e+00 3.5142850421e+00 
86900 3.8432205838e+00 1.0097551509e-03 2.0289484604e+00 -3.5142418194e+00 2.0289484604e+00 3.5142418194e+00 
87000 3.8432205531e+00 1.0068693379e-03 2.0289235768e+00 -3.5141987196e+00 2.0289235768e+00 3.5141987196e+00 
87100 3.8432205225e+00 1.0039915742e-03 2.0288987639e+00 -3.5141557425e+00 2.0288987639e+00 3.5141557425e+00 
87200 3.8432204922e+00 1.0011218400e-03 2.0288740217e+00 -3.5141128877e+00 2.0288740217e+00 3.5141128877e+00 
87300 3.8432204620e+00 9.9826011533e-04 2.0288493499e+00 -3.5140701549e+00 2.0288493499e+00 3.5140701549e+00 
87400 3.8432204320e+00 9.9540638034e-04 2.0288247483e+00 -3.5140275437e+00 2.0288247483e+00 3.5140275437e+00 
87500 3.8432204022e+00 9.9256061514e-04 2.0288002168e+00 -3.5139850538e+00 2.0288002168e+00 3.5139850538e+00 
87600 3.8432203725e+00 9.8972279988e-04 2.0287757550e+00 -3.5139426849e+00 2.0287757550e+00 3.5139426849e+00 
87700 3.8432203430e+00 9.8689291475e-04 2.0287513630e+00 -3.5139004366e+00 2.0287513630e+00 3.5139004366e+00 
87800 3.8432203137e+00 9.8407093994e-04 2.0287270404e+00 -3.5138583086e+00 2.0287270404e+00 3.5138583086e+00 
87900 3.8432202845e+00 9.8125685566e-04 2.0287027870e+00 -3.5138163005e+00 2.0287027870e+00 3.5138163005e+00 
88000 3.8432202555e+00 9.7845064217e-04 2.0286786027e+00 -3.5137744121e+00 2.0286786027e+00 3.5137744121e+00 
88100 3.8432202267e+00 9.7565227971e-04 2.0286544873e+00 -3.5137326430e+00 2.0286544873e+00 3.5137326430e+00 
88200 3.8432201981e+00 9.7286174857e-04 2.0286304405e+00 -3.5136909928e+00 2.0286304405e+00 3.5136909928e+00 
88300 3.8432201696e+00 9.7007902907e-04 2.0286064623e+00 -3.5136494613e+00 2.0286064623e+00 3.5136494613e+00 
88400 3.8432201412e+00 9.6730410153e-04 2.0285825524e+00 -3.5136080480e+00 2.0285825524e+00 3.5136080480e+00 
88500 3.8432201131e+00 9.6453694632e-04 2.0285587105e+00 -3.5135667528e+00 2.0285587105e+00 3.5135667528e+00 
88600 3.8432200851e+00 9.6177754380e-04 2.0285349366e+00 -3.5135255752e+00 2.0285349366e+00 3.5135255752e+00 
88700 3.8432200572e+00 9.5902587439e-04 2.0285112305e+00 -3.5134845149e+00 2.0285112305e+00 3.5134845149e+00 
88800 3.8432200295e+00 9.5628191851e-04 2.0284875919e+00 -3.5134435716e+00 2.0284875919e+00 3.5134435716e+00 
88900 3.8432200020e+00 9.5354565663e-04 2.0284640206e+00 -3.5134027450e+00 2.0284640206e+00 3.5134027450e+00 
89000 3.8432199746e+00 9.5081706920e-04 2.0284405165e+00 -3.5133620347e+00 2.0284405165e+00 3.5133620347e+00 
89100 3.8432199474e+00 9.4809613675e-04 2.0284170794e+00 -3.5133214405e+00 2.0284170794e+00 3.5133214405e+00 
89200 3.8432199204e+00 9.4538283980e-04 2.0283937091e+00 -3.5132809619e+00 2.0283937091e+00 3.5132809619e+00 
89300 3.8432198935e+00 9.4267715891e-04 2.0283704054e+00 -3.5132405988e+00 2.0283704054e+00 3.5132405988e+00 
89400 3.8432198667e+00 9.3997907466e-04 2.0283471682e+00 -3.5132003507e+00 2.0283471682e+00 3.5132003507e+00 
89500 3.8432198401e+00 9.3728856765e-04 2.0283239972e+00 -3.5131602173e+00 2.0283239972e+00 3.5131602173e+00 
89600 3.8432198137e+00 9.3460561853e-04 2.0283008922e+00 -3.5131201983e+00 2.0283008922e+00 3.5131201983e+00 
89700 3.8432197874e+00 9.3193020796e-04 2.0282778531e+00 -3.5130802935e+00 2.0282778531e+00 3.5130802935e+00 
89800 3.8432197612e+00 9.2926231662e-04 2.0282548797e+00 -3.5130405024e+00 2.0282548797e+00 3.5130405024e+00 
89900 3.8432197352e+00 9.2660192523e-04 2.0282319718e+00 -3.5130008248e+00 2.0282319718e+00 3.5130008248e+00 
90000 3.8432197094e+00 9.2394901454e-04 2.0282091293e+00 -3.5129612603e+00 2.0282091293e+00 3.5129612603e+00 
90100 3.8432196837e+00 9.2130356533e-04 2.0281863519e+00 -3.5129218086e+00 2.0281863519e+00 3.5129218086e+00 
90200 3.8432196582e+00 9.1866555838e-04 2.0281636394e+00 -3.5128824695e+00 2.0281636394e+00 3.5128824695e+00 
90300 3.8432196328e+00 9.1603497453e-04 2.0281409917e+00 -3.5128432426e+00 2.0281409917e+00 3.5128432426e+00 
90400 3.8432196075e+00 9.1341179465e-04 2.0281184087e+00 -3.5128041276e+00 2.0281184087e+00 3.5128041276e+00 
90500 3.8432195824e+00 9.1079599960e-04 2.0280958900e+00 -3.5127651241e+00 2.0280958900e+00 3.5127651241e+00 
90600 3.8432195574e+00 9.0818757032e-04 2.0280734356e+00 -3.5127262319e+00 2.0280734356e+00 3.5127262319e+00 
90700 3.8432195326e+00 9.0558648774e-04 2.0280510452e+00 -3.5126874507e+00 2.0280510452e+00 3.5126874507e+00 
90800 3.8432195079e+00 9.0299273284e-04 2.0280287187e+00 -3.5126487801e+00 2.0280287187e+00 3.5126487801e+00 
90900 3.8432194834e+00 9.0040628663e-04 2.0280064560e+00 -3.5126102198e+00 2.0280064560e+00 3.5126102198e+00 
91000 3.8432194590e+00 8.9782713013e-04 2.0279842567e+00 -3.5125717696e+00 2.0279842567e+00 3.5125717696e+00 
91100 3.8432194347e+00 8.9525524441e-04 2.0279621208e+00 -3.5125334290e+00 2.0279621208e+00 3.5125334290e+00 
91200 3.8432194106e+00 8.9269061056e-04 2.0279400481e+00 -3.5124951979e+00 2.0279400481e+00 3.5124951979e+00 
91300 3.8432193866e+00 8.9013320971e-04 2.0279180383e+00 -3.5124570759e+00 2.0279180383e+00 3.5124570759e+00 
91400 3.8432193628e+00 8.8758302301e-04 2.0278960914e+00 -3.5124190627e+00 2.0278960914e+00 3.5124190627e+00 
91500 3.8432193391e+00 8.8504003164e-04 2.0278742071e+00 -3.5123811580e+00 2.0278742071e+00 3.5123811580e+00 
91600 3.8432193155e+00 8.8250421683e-04 2.0278523853e+00 -3.5123433615e+00 2.0278523853e+00 3.5123433615e+00 
91700 3.8432192920e+00 8.7997555982e-04 2.0278306257e+00 -3.5123056729e+00 2.0278306257e+00 3.5123056729e+00 
91800 3.8432192687e+00 8.7745404188e-04 2.0278089283e+00 -3.5122680918e+00 2.0278089283e+00 3.5122680918e+00 
91900 3.8432192456e+00 8.7493964433e-04 2.0277872928e+00 -3.5122306181e+00 2.0277872928e+00 3.5122306181e+00 
92000 3.8432192225e+00 8.7243234851e-04 2.0277657191e+00 -3.5121932513e+00 2.0277657191e+00 3.5121932513e+00 
92100 3.8432191996e+00 8.6993213579e-04 2.0277442070e+00 -3.5121559912e+00 2.0277442070e+00 3.5121559912e+00 
92200 3.8432191769e+00 8.6743898758e-04 2.0277227563e+00 -3.5121188375e+00 2.0277227563e+00 3.5121188375e+00 
92300 3.8432191542e+00 8.6495288530e-04 2.0277013668e+00 -3.5120817899e+00 2.0277013668e+00 3.5120817899e+00 
92400 3.8432191317e+00 8.6247381044e-04 2.0276800385e+00 -3.5120448481e+00 2.0276800385e+00 3.5120448481e+00 
92500 3.8432191093e+00 8.6000174449e-04 2.0276587710e+00 -3.5120080118e+00 2.0276587710e+00 3.5120080118e+00 
92600 3.8432190871e+00 8.5753666898e-04 2.0276375643e+00 -3.5119712806e+00 2.0276375643e+00 3.5119712806e+00 
92700 3.8432190649e+00 8.5507856549e-04 2.0276164181e+00 -3.5119346544e+00 2.0276164181e+00 3.5119346544e+00 
92800 3.8432190429e+00 8.5262741560e-04 2.0275953323e+00 -3.5118981328e+00 2.0275953323e+00 3.5118981328e+00 
92900 3.8432190211e+00 8.5018320096e-04 2.0275743068e+00 -3.5118617155e+00 2.0275743068e+00 3.5118617155e+00 
93000 3.8432189993e+00 8.4774590322e-04 2.0275533413e+00 -3.5118254022e+00 2.0275533413e+00 3.5118254022e+00 
93100 3.8432189777e+00 8.4531550408e-04 2.0275324357e+00 -3.5117891926e+00 2.0275324357e+00 3.5117891926e+00 
93200 3.8432189562e+00 8.4289198528e-04 2.0275115898e+00 -3.5117530865e+00 2.0275115898e+00 3.5117530865e+00 
93300 3.8432189348e+00 8.4047532857e-04 2.0274908035e+00 -3.5117170835e+00 2.0274908035e+00 3.5117170835e+00 
93400 3.8432189135e+00 8.3806551577e-04 2.0274700765e+00 -3.5116811834e+00 2.0274700765e+00 3.5116811834e+00 
93500 3.8432188924e+00 8.3566252868e-04 2.0274494088e+00 -3.5116453858e+00 2.0274494088e+00 3.5116453858e+00 
93600 3.8432188714e+00 8.3326634919e-04 2.0274288001e+00 -3.5116096905e+00 2.0274288001e+00 3.5116096905e+00 
93700 3.8432188505e+00 8.3087695919e-04 2.0274082503e+00 -3.5115740972e+00 2.0274082503e+00 3.5115740972e+00 
93800 3.8432188297e+00 8.2849434061e-04 2.0273877592e+00 -3.5115386057e+00 2.0273877592e+00 3.5115386057e+00 
93900 3.8432188091e+00 8.2611847542e-04 2.0273673267e+00 -3.5115032155e+00 2.0273673267e+00 3.5115032155e+00 
94000 3.8432187885e+00 8.2374934563e-04 2.0273469526e+00 -3.5114679264e+00 2.0273469526e+00 3.5114679264e+00 
94100 3.8432187681e+00 8.2138693325e-04 2.0273266367e+00 -3.5114327383e+00 2.0273266367e+00 3.5114327383e+00 
94200 3.8432187478e+00 8.1903122037e-04 2.0273063788e+00 -3.5113976506e+00 2.0273063788e+00 3.5113976506e+00 
94300 3.8432187276e+00 8.1668218909e-04 2.0272861789e+00 -3.5113626633e+00 2.0272861789e+00 3.5113626633e+00 
94400 3.8432187075e+00 8.1433982154e-04 2.0272660367e+00 -3.5113277759e+00 2.0272660367e+00 3.5113277759e+00 
94500 3.8432186876e+00 8.1200409990e-04 2.0272459520e+00 -3.5112929883e+00 2.0272459520e+00 3.5112929883e+00 
94600 3.8432186678e+00 8.0967500637e-04 2.0272259248e+00 -3.5112583001e+00 2.0272259248e+00 3.5112583001e+00 
94700 3.8432186480e+00 8.0735252321e-04 2.0272059548e+00 -3.5112237111e+00 2.0272059548e+00 3.5112237111e+00 
94800 3.8432186284e+00 8.0503663268e-04 2.0271860419e+00 -3.5111892209e+00 2.0271860419e+00 3.5111892209e+00 
94900 3.8432186089e+00 8.0272731709e-04 2.0271661859e+00 -3.5111548294e+00 2.0271661859e+00 3.5111548294e+00 
95000 3.8432185895e+00 8.0042455880e-04 2.0271463867e+00 -3.5111205361e+00 2.0271463867e+00 3.5111205361e+00 
95100 3.8432185702e+00 7.9812834019e-04 2.0271266441e+00 -3.5110863409e+00 2.0271266441e+00 3.5110863409e+00 
95200 3.8432185511e+00 7.9583864366e-04 2.0271069579e+00 -3.5110522435e+00 2.0271069579e+00 3.5110522435e+00 
95300 3.8432185320e+00 7.9355545169e-04 2.0270873280e+00 -3.5110182435e+00 2.0270873280e+00 3.5110182435e+00 
95400 3.8432185131e+00 7.9127874675e-04 2.0270677543e+00 -3.5109843408e+00 2.0270677543e+00 3.5109843408e+00 
95500 3.8432184942e+00 7.8900851136e-04 2.0270482365e+00 -3.5109505350e+00 2.0270482365e+00 3.5109505350e+00 
95600 3.8432184755e+00 7.8674472809e-04 2.0270287745e+00 -3.5109168258e+00 2.0270287745e+00 3.5109168258e+00 
95700 3.8432184569e+00 7.8448737953e-04 2.0270093682e+00 -3.5108832131e+00 2.0270093682e+00 3.5108832131e+00 
95800 3.8432184383e+00 7.8223644831e-04 2.0269900174e+00 -3.5108496965e+00 2.0269900174e+00 3.5108496965e+00 
95900 3.8432184199e+00 7.7999191710e-04 2.0269707219e+00 -3.5108162757e+00 2.0269707219e+00 3.5108162757e+00 
96000 3.8432184016e+00 7.7775376859e-04 2.0269514816e+00 -3.5107829505e+00 2.0269514816e+00 3.5107829505e+00 
96100 3.8432183834e+00 7.7552198553e-04 2.0269322963e+00 -3.5107497207e+00 2.0269322963e+00 3.5107497207e+00 
96200 3.8432183653e+00 7.7329655068e-04 2.0269131659e+00 -3.5107165858e+00 2.0269131659e+00 3.5107165858e+00 
96300 3.8432183473e+00 7.7107744686e-04 2.0268940902e+00 -3.5106835458e+00 2.0268940902e+00 3.5106835458e+00 
96400 3.8432183294e+00 7.6886465691e-04 2.0268750691e+00 -3.5106506002e+00 2.0268750691e+00 3.5106506002e+00 
96500 3.8432183116e+00 7.6665816371e-04 2.0268561023e+00 -3.5106177489e+00 2.0268561023e+00 3.5106177489e+00 
96600 3.8432182939e+00 7.6445795018e-04 2.0268371899e+00 -3.5105849915e+00 2.0268371899e+00 3.5105849915e+00 
96700 3.8432182764e+00 7.6226399927e-04 2.0268183315e+00 -3.5105523279e+00 2.0268183315e+00 3.5105523279e+00 
96800 3.8432182589e+00 7.6007629397e-04 2.0267995271e+00 -3.5105197577e+00 2.0267995271e+00 3.5105197577e+00 
96900 3.8432182415e+00 7.5789481730e-04 2.0267807765e+00 -3.5104872806e+00 2.0267807765e+00 3.5104872806e+00 
97000 3.8432182242e+00 7.5571955233e-04 2.0267620795e+00 -3.5104548965e+00 2.0267620795e+00 3.5104548965e+00 
97100 3.8432182070e+00 7.5355048215e-04 2.0267434360e+00 -3.5104226050e+00 2.0267434360e+00 3.5104226050e+00 
97200 3.8432181899e+00 7.5138758990e-04 2.0267248458e+00 -3.5103904060e+00 2.0267248458e+00 3.5103904060e+00 
97300 3.8432181729e+00 7.4923085875e-04 2.0267063089e+00 -3.5103582990e+00 2.0267063089e+00 3.5103582990e+00 
97400 3.8432181560e+00 7.4708027190e-04 2.0266878250e+00 -3.5103262839e+00 2.0266878250e+00 3.5103262839e+00 
97500 3.8432181392e+00 7.4493581260e-04 2.0266693939e+00 -3.5102943604e+00 2.0266693939e+00 3.5102943604e+00 
97600 3.8432181225e+00 7.4279746412e-04 2.0266510156e+00 -3.5102625283e+00 2.0266510156e+00 3.5102625283e+00 
97700 3.8432181059e+00 7.4066520979e-04 2.0266326899e+00 -3.5102307872e+00 2.0266326899e+00 3.5102307872e+00 
97800 3.8432180894e+00 7.3853903296e-04 2.0266144166e+00 -3.5101991370e+00 2.0266144166e+00 3.5101991370e+00 
97900 3.8432180730e+00 7.3641891700e-04 2.0265961957e+00 -3.5101675773e+00 2.0265961957e+00 3.5101675773e+00 
98000 3.8432180567e+00 7.3430484536e-04 2.0265780268e+00 -3.5101361080e+00 2.0265780268e+00 3.5101361080e+00 
98100 3.8432180405e+00 7.3219680149e-04 2.0265599100e+00 -3.5101047287e+00 2.0265599100e+00 3.5101047287e+00 
98200 3.8432180243e+00 7.3009476889e-04 2.0265418450e+00 -3.5100734392e+00 2.0265418450e+00 3.5100734392e+00 
98300 3.8432180083e+00 7.2799873109e-04 2.0265238317e+00 -3.5100422393e+00 2.0265238317e+00 3.5100422393e+00 
98400 3.8432179923e+00 7.2590867167e-04 2.0265058700e+00 -3.5100111286e+00 2.0265058700e+00 3.5100111286e+00 
98500 3.8432179765e+00 7.2382457424e-04 2.0264879597e+00 -3.5099801070e+00 2.0264879597e+00 3.5099801070e+00 
98600 3.8432179607e+00 7.2174642244e-04 2.0264701006e+00 -3.5099491742e+00 2.0264701006e+00 3.5099491742e+00 
98700 3.8432179450e+00 7.1967419995e-04 2.0264522926e+00 -3.5099183300e+00 2.0264522926e+00 3.5099183300e+00 
98800 3.8432179294e+00 7.1760789050e-04 2.0264345357e+00 -3.5098875740e+00 2.0264345357e+00 3.5098875740e+00 
98900 3.8432179139e+00 7.1554747783e-04 2.0264168295e+00 -3.5098569061e+00 2.0264168295e+00 3.5098569061e+00 
99000 3.8432178985e+00 7.1349294574e-04 2.0263991741e+00 -3.5098263259e+00 2.0263991741e+00 3.5098263259e+00 
99100 3.8432178832e+00 7.1144427805e-04 2.0263815691e+00 -3.5097958333e+00 2.0263815691e+00 3.5097958333e+00 
99200 3.8432178680e+00 7.0940145864e-04 2.0263640146e+00 -3.5097654280e+00 2.0263640146e+00 3.5097654280e+00 
99300 3.8432178528e+00 7.0736447141e-04 2.0263465104e+00 -3.5097351097e+00 2.0263465104e+00 3.5097351097e+00 
99400 3.8432178378e+00 7.0533330029e-04 2.0263290562e+00 -3.5097048782e+00 2.0263290562e+00 3.5097048782e+00 
99500 3.8432178228e+00 7.0330792926e-04 2.0263116520e+00 -3.5096747332e+00 2.0263116520e+00 3.5096747332e+00 
99600 3.8432178079e+00 7.0128834234e-04 2.0262942976e+00 -3.5096446746e+00 2.0262942976e+00 3.5096446746e+00 
99700 3.8432177931e+00 6.9927452356e-04 2.0262769930e+00 -3.5096147020e+00 2.0262769930e+00 3.5096147020e+00 
99800 3.8432177784e+00 6.9726645703e-04 2.0262597378e+00 -3.5095848153e+00 2.0262597378e+00 3.5095848153e+00 
99900 3.8432177638e+00 6.9526412686e-04 2.0262425321e+00 -3.5095550141e+00 2.0262425321e+00 3.5095550141e+00 
100000 3.8432177492e+00 6.9326751720e-04 2.0262253756e+00 -3.5095252982e+00 2.0262253756e+00 3.5095252982e+00 
100100 3.8432177347e+00 6.9127661227e-04 2.0262082683e+00 -3.5094956674e+00 2.0262082683e+00 3.5094956674e+00 
100200 3.8432177203e+00 6.8929139629e-04 2.0261912099e+00 -3.5094661215e+00 2.0261912099e+00 3.5094661215e+00 
100300 3.8432177060e+00 6.8731185352e-04 2.0261742004e+00 -3.5094366601e+00 2.0261742004e+00 3.5094366601e+00 
100400 3.8432176918e+00 6.8533796829e-04 2.0261572396e+00 -3.5094072832e+00 2.0261572396e+00 3.5094072832e+00 
100500 3.8432176777e+00 6.8336972492e-04 2.0261403274e+00 -3.5093779903e+00 2.0261403274e+00 3.5093779903e+00 
100600 3.8432176636e+00 6.8140710781e-04 2.0261234636e+00 -3.5093487813e+00 2.0261234636e+00 3.5093487813e+00 
100700 3.8432176497e+00 6.7945010136e-04 2.0261066481e+00 -3.5093196560e+00 2.0261066481e+00 3.5093196560e+00 
100800 3.8432176358e+00 6.7749869004e-04 2.0260898807e+00 -3.5092906141e+00 2.0260898807e+00 3.5092906141e+00 
100900 3.8432176219e+00 6.7555285833e-04 2.0260731614e+00 -3.5092616553e+00 2.0260731614e+00 3.5092616553e+00 
101000 3.8432176082e+00 6.7361259075e-04 2.0260564899e+00 -3.5092327795e+00 2.0260564899e+00 3.5092327795e+00 
101100 3.8432175945e+00 6.7167787188e-04 2.0260398662e+00 -3.5092039864e+00 2.0260398662e+00 3.5092039864e+00 
101200 3.8432175810e+00 6.6974868632e-04 2.0260232901e+00 -3.5091752758e+00 2.0260232901e+00 3.5091752758e+00 
101300 3.8432175675e+00 6.6782501869e-04 2.0260067615e+00 -3.5091466473e+00 2.0260067615e+00 3.5091466473e+00 
101400 3.8432175540e+00 6.6590685368e-04 2.0259902802e+00 -3.5091181009e+00 2.0259902802e+00 3.5091181009e+00 
101500 3.8432175407e+00 6.6399417600e-04 2.0259738461e+00 -3.5090896362e+00 2.0259738461e+00 3.5090896362e+00 
101600 3.8432175274e+00 6.6208697039e-04 2.0259574591e+00 -3.5090612531e+00 2.0259574591e+00 3.5090612531e+00 
101700 3.8432175142e+00 6.6018522163e-04 2.0259411190e+00 -3.5090329512e+00 2.0259411190e+00 3.5090329512e+00 
101800 3.8432175011e+00 6.5828891455e-04 2.0259248257e+00 -3.5090047305e+00 2.0259248257e+00 3.5090047305e+00 
101900 3.8432174880e+00 6.5639803400e-04 2.0259085791e+00 -3.5089765905e+00 2.0259085791e+00 3.5089765905e+00 
102000 3.8432174751e+00 6.5451256488e-04 2.0258923790e+00 -3.5089485312e+00 2.0258923790e+00 3.5089485312e+00 
102100 3.8432174622e+00 6.5263249212e-04 2.0258762254e+00 -3.5089205522e+00 2.0258762254e+00 3.5089205522e+00 
102200 3.8432174493e+00 6.5075780067e-04 2.0258601180e+00 -3.5088926534e+00 2.0258601180e+00 3.5088926534e+00 
102300 3.8432174366e+00 6.4888847555e-04 2.0258440567e+00 -3.5088648345e+00 2.0258440567e+00 3.5088648345e+00 
102400 3.8432174239e+00 6.4702450180e-04 2.0258280415e+00 -3.5088370953e+00 2.0258280415e+00 3.5088370953e+00 
102500 3.8432174113e+00 6.4516586449e-04 2.0258120721e+00 -3.5088094355e+00 2.0258120721e+00 3.5088094355e+00 
102600 3.8432173988e+00 6.4331254873e-04 2.0257961485e+00 -3.5087818550e+00 2.0257961485e+00 3.5087818550e+00 
102700 3.8432173863e+00 6.4146453967e-04 2.0257802705e+00 -3.5087543535e+00 2.0257802705e+00 3.5087543535e+00 
102800 3.8432173739e+00 6.3962182250e-04 2.0257644380e+00 -3.5087269308e+00 2.0257644380e+00 3.5087269308e+00 
102900 3.8432173616e+00 6.3778438243e-04 2.0257486509e+00 -3.5086995867e+00 2.0257486509e+00 3.5086995867e+00 
103000 3.8432173494e+00 6.3595220473e-04 2.0257329089e+00 -3.5086723208e+00 2.0257329089e+00 3.5086723208e+00 
103100 3.8432173372e+00 6.3412527468e-04 2.0257172121e+00 -3.5086451332e+00 2.0257172121e+00 3.5086451332e+00 
103200 3.8432173251e+00 6.3230357762e-04 2.0257015603e+00 -3.5086180234e+00 2.0257015603e+00 3.5086180234e+00 
103300 3.8432173130e+00 6.3048709892e-04 2.0256859533e+00 -3.5085909912e+00 2.0256859533e+00 3.5085909912e+00 
103400 3.8432173011e+00 6.2867582397e-04 2.0256703910e+00 -3.5085640365e+00 2.0256703910e+00 3.5085640365e+00 
103500 3.8432172892e+00 6.2686973822e-04 2.0256548733e+00 -3.5085371591e+00 2.0256548733e+00 3.5085371591e+00 
103600 3.8432172773e+00 6.2506882714e-04 2.0256394000e+00 -3.5085103587e+00 2.0256394000e+00 3.5085103587e+00 
103700 3.8432172656e+00 6.2327307623e-04 2.0256239711e+00 -3.5084836350e+00 2.0256239711e+00 3.5084836350e+00 
103800 3.8432172539e+00 6.2148247105e-04 2.0256085864e+00 -3.5084569879e+00 2.0256085864e+00 3.5084569879e+00 
103900 3.8432172422e+00 6.1969699718e-04 2.0255932458e+00 -3.5084304172e+00 2.0255932458e+00 3.5084304172e+00 
104000 3.8432172307e+00 6.1791664024e-04 2.0255779491e+00 -3.5084039226e+00 2.0255779491e+00 3.5084039226e+00 
104100 3.8432172192e+00 6.1614138588e-04 2.0255626963e+00 -3.5083775039e+00 2.0255626963e+00 3.5083775039e+00 
104200 3.8432172077e+00 6.1437121979e-04 2.0255474872e+00 -3.5083511610e+00 2.0255474872e+00 3.5083511610e+00 
104300 3.8432171964e+00 6.1260612770e-04 2.0255323217e+00 -3.5083248935e+00 2.0255323217e+00 3.5083248935e+00 
104400 3.8432171851e+00 6.1084609537e-04 2.0255171996e+00 -3.5082987013e+00 2.0255171996e+00 3.5082987013e+00 
104500 3.8432171738e+00 6.0909110859e-04 2.0255021208e+00 -3.5082725841e+00 2.0255021208e+00 3.5082725841e+00 
104600 3.8432171627e+00 6.0734115321e-04 2.0254870853e+00 -3.5082465418e+00 2.0254870853e+00 3.5082465418e+00 
104700 3.8432171516e+00 6.0559621509e-04 2.0254720928e+00 -3.5082205741e+00 2.0254720928e+00 3.5082205741e+00 
104800 3.8432171405e+00 6.0385628013e-04 2.0254571433e+00 -3.5081946808e+00 2.0254571433e+00 3.5081946808e+00 
104900 3.8432171295e+00 6.0212133428e-04 2.0254422367e+00 -3.5081688617e+00 2.0254422367e+00 3.5081688617e+00 
105000 3.8432171186e+00 6.0039136350e-04 2.0254273728e+00 -3.5081431167e+00 2.0254273728e+00 3.5081431167e+00 
105100 3.8432171078e+00 5.9866635383e-04 2.0254125514e+00 -3.5081174454e+00 2.0254125514e+00 3.5081174454e+00 
105200 3.8432170970e+00 5.9694629129e-04 2.0253977726e+00 -3.5080918476e+00 2.0253977726e+00 3.5080918476e+00 
105300 3.8432170862e+00 5.9523116197e-04 2.0253830361e+00 -3.5080663233e+00 2.0253830361e+00 3.5080663233e+00 
105400 3.8432170756e+00 5.9352095199e-04 2.0253683418e+00 -3.5080408720e+00 2.0253683418e+00 3.5080408720e+00 
105500 3.8432170649e+00 5.9181564751e-04 2.0253536896e+00 -3.5080154938e+00 2.0253536896e+00 3.5080154938e+00 
105600 3.8432170544e+00 5.9011523470e-04 2.0253390795e+00 -3.5079901882e+00 2.0253390795e+00 3.5079901882e+00 
105700 3.8432170439e+00 5.8841969981e-04 2.0253245112e+00 -3.5079649552e+00 2.0253245112e+00 3.5079649552e+00 
105800 3.8432170335e+00 5.8672902907e-04 2.0253099847e+00 -3.5079397945e+00 2.0253099847e+00 3.5079397945e+00 
105900 3.8432170231e+00 5.8504320879e-04 2.0252954998e+00 -3.5079147059e+00 2.0252954998e+00 3.5079147059e+00 
106000 3.8432170128e+00 5.8336222530e-04 2.0252810564e+00 -3.5078896892e+00 2.0252810564e+00 3.5078896892e+00 
106100 3.8432170025e+00 5.8168606497e-04 2.0252666544e+00 -3.5078647443e+00 2.0252666544e+00 3.5078647443e+00 
106200 3.8432169924e+00 5.8001471418e-04 2.0252522937e+00 -3.5078398708e+00 2.0252522937e+00 3.5078398708e+00 
106300 3.8432169822e+00 5.7834815937e-04 2.0252379741e+00 -3.5078150686e+00 2.0252379741e+00 3.5078150686e+00 
106400 3.8432169721e+00 5.7668638702e-04 2.0252236956e+00 -3.5077903375e+00 2.0252236956e+00 3.5077903375e+00 
106500 3.8432169621e+00 5.7502938363e-04 2.0252094580e+00 -3.5077656773e+00 2.0252094580e+00 3.5077656773e+00 
106600 3.8432169522e+00 5.7337713573e-04 2.0251952613e+00 -3.5077410877e+00 2.0251952613e+00 3.5077410877e+00 
106700 3.8432169423e+00 5.7172962990e-04 2.0251811052e+00 -3.5077165687e+00 2.0251811052e+00 3.5077165687e+00 
106800 3.8432169324e+00 5.7008685275e-04 2.0251669897e+00 -3.5076921199e+00 2.0251669897e+00 3.5076921199e+00 
106900 3.8432169226e+00 5.6844879092e-04 2.0251529146e+00 -3.5076677412e+00 2.0251529146e+00 3.5076677412e+00 
107000 3.8432169129e+00 5.6681543109e-04 2.0251388799e+00 -3.5076434324e+00 2.0251388799e+00 3.5076434324e+00 
107100 3.8432169032e+00 5.6518675997e-04 2.0251248855e+00 -3.5076191933e+00 2.0251248855e+00 3.5076191933e+00 
107200 3.8432168936e+00 5.6356276431e-04 2.0251109311e+00 -3.5075950237e+00 2.0251109311e+00 3.5075950237e+00 
107300 3.8432168840e+00 5.6194343089e-04 2.0250970168e+00 -3.5075709233e+00 2.0250970168e+00 3.5075709233e+00 
107400 3.8432168745e+00 5.6032874652e-04 2.0250831423e+00 -3.5075468920e+00 2.0250831423e+00 3.5075468920e+00 
107500 3.8432168650e+00 5.5871869805e-04 2.0250693076e+00 -3.5075229296e+00 2.0250693076e+00 3.5075229296e+00 
107600 3.8432168556e+00 5.5711327237e-04 2.0250555126e+00 -3.5074990359e+00 2.0250555126e+00 3.5074990359e+00 
107700 3.8432168463e+00 5.5551245640e-04 2.0250417571e+00 -3.5074752107e+00 2.0250417571e+00 3.5074752107e+00 
107800 3.8432168370e+00 5.5391623708e-04 2.0250280410e+00 -3.5074514538e+00 2.0250280410e+00 3.5074514538e+00 
107900 3.8432168277e+00 5.5232460141e-04 2.0250143643e+00 -3.5074277650e+00 2.0250143643e+00 3.5074277650e+00 
108000 3.8432168185e+00 5.5073753641e-04 2.0250007268e+00 -3.5074041441e+00 2.0250007268e+00 3.5074041441e+00 
108100 3.8432168094e+00 5.4915502912e-04 2.0249871283e+00 -3.5073805909e+00 2.0249871283e+00 3.5073805909e+00 
108200 3.8432168003e+00 5.4757706665e-04 2.0249735689e+00 -3.5073571053e+00 2.0249735689e+00 3.5073571053e+00 
108300 3.8432167913e+00 5.4600363611e-04 2.0249600483e+00 -3.5073336869e+00 2.0249600483e+00 3.5073336869e+00 
108400 3.8432167823e+00 5.4443472465e-04 2.0249465665e+00 -3.5073103357e+00 2.0249465665e+00 3.5073103357e+00 
108500 3.8432167734e+00 5.4287031948e-04 2.0249331233e+00 -3.5072870515e+00 2.0249331233e+00 3.5072870515e+00 
108600 3.8432167645e+00 5.4131040781e-04 2.0249197187e+00 -3.5072638340e+00 2.0249197187e+00 3.5072638340e+00 
108700 3.8432167557e+00 5.3975497690e-04 2.0249063524e+00 -3.5072406830e+00 2.0249063524e+00 3.5072406830e+00 
108800 3.8432167469e+00 5.3820401404e-04 2.0248930246e+00 -3.5072175984e+00 2.0248930246e+00 3.5072175984e+00 
108900 3.8432167382e+00 5.3665750656e-04 2.0248797349e+00 -3.5071945800e+00 2.0248797349e+00 3.5071945800e+00 
109000 3.8432167295e+00 5.3511544182e-04 2.0248664833e+00 -3.5071716276e+00 2.0248664833e+00 3.5071716276e+00 
109100 3.8432167208e+00 5.3357780720e-04 2.0248532697e+00 -3.5071487410e+00 2.0248532697e+00 3.5071487410e+00 
109200 3.8432167123e+00 5.3204459013e-04 2.0248400940e+00 -3.5071259201e+00 2.0248400940e+00 3.5071259201e+00 
109300 3.8432167037e+00 5.3051577808e-04 2.0248269561e+00 -3.5071031645e+00 2.0248269561e+00 3.5071031645e+00 
109400 3.8432166953e+00 5.2899135853e-04 2.0248138558e+00 -3.5070804742e+00 2.0248138558e+00 3.5070804742e+00 
109500 3.8432166868e+00 5.2747131901e-04 2.0248007931e+00 -3.5070578489e+00 2.0248007931e+00 3.5070578489e+00 
109600 3.8432166784e+00 5.2595564707e-04 2.0247877679e+00 -3.5070352885e+00 2.0247877679e+00 3.5070352885e+00 
109700 3.8432166701e+00 5.2444433031e-04 2.0247747800e+00 -3.5070127928e+00 2.0247747800e+00 3.5070127928e+00 
109800 3.8432166618e+00 5.2293735636e-04 2.0247618293e+00 -3.5069903616e+00 2.0247618293e+00 3.5069903616e+00 
109900 3.8432166536e+00 5.2143471286e-04 2.0247489158e+00 -3.5069679947e+00 2.0247489158e+00 3.5069679947e+00 
110000 3.8432166454e+00 5.1993638751e-04 2.0247360393e+00 -3.5069456919e+00 2.0247360393e+00 3.5069456919e+00 
110100 3.8432166372e+00 5.1844236804e-04 2.0247231997e+00 -3.5069234531e+00 2.0247231997e+00 3.5069234531e+00 
110200 3.8432166291e+00 5.1695264220e-04 2.0247103969e+00 -3.5069012780e+00 2.0247103969e+00 3.5069012780e+00 
110300 3.8432166211e+00 5.1546719777e-04 2.0246976308e+00 -3.5068791665e+00 2.0246976308e+00 3.5068791665e+00 
110400 3.8432166131e+00 5.1398602258e-04 2.0246849013e+00 -3.5068571184e+00 2.0246849013e+00 3.5068571184e+00 
110500 3.8432166051e+00 5.1250910449e-04 2.0246722084e+00 -3.5068351335e+00 2.0246722084e+00 3.5068351335e+00 
110600 3.8432165972e+00 5.1103643137e-04 2.0246595518e+00 -3.5068132117e+00 2.0246595518e+00 3.5068132117e+00 
110700 3.8432165893e+00 5.0956799115e-04 2.0246469315e+00 -3.5067913527e+00 2.0246469315e+00 3.5067913527e+00 
110800 3.8432165815e+00 5.0810377179e-04 2.0246343474e+00 -3.5067695564e+00 2.0246343474e+00 3.5067695564e+00 
110900 3.8432165737e+00 5.0664376125e-04 2.0246217994e+00 -3.5067478226e+00 2.0246217994e+00 3.5067478226e+00 
111000 3.8432165660e+00 5.0518794757e-04 2.0246092873e+00 -3.5067261511e+00 2.0246092873e+00 3.5067261511e+00 
111100 3.8432165583e+00 5.0373631878e-04 2.0245968111e+00 -3.5067045417e+00 2.0245968111e+00 3.5067045417e+00 
111200 3.8432165506e+00 5.0228886297e-04 2.0245843707e+00 -3.5066829943e+00 2.0245843707e+00 3.5066829943e+00 
111300 3.8432165430e+00 5.0084556825e-04 2.0245719660e+00 -3.5066615087e+00 2.0245719660e+00 3.5066615087e+00 
111400 3.8432165354e+00 4.9940642277e-04 2.0245595968e+00 -3.5066400847e+00 2.0245595968e+00 3.5066400847e+00 
111500 3.8432165279e+00 4.9797141469e-04 2.0245472632e+00 -3.5066187221e+00 2.0245472632e+00 3.5066187221e+00 
111600 3.8432165204e+00 4.9654053224e-04 2.0245349648e+00 -3.5065974208e+00 2.0245349648e+00 3.5065974208e+00 
111700 3.8432165130e+00 4.9511376365e-04 2.0245227018e+00 -3.5065761805e+00 2.0245227018e+00 3.5065761805e+00 
111800 3.8432165056e+00 4.9369109719e-04 2.0245104739e+00 -3.5065550012e+00 2.0245104739e+00 3.5065550012e+00 
111900 3.8432164983e+00 4.9227252116e-04 2.0244982810e+00 -3.5065338826e+00 2.0244982810e+00 3.5065338826e+00 
112000 3.8432164910e+00 4.9085802391e-04 2.0244861231e+00 -3.5065128245e+00 2.0244861231e+00 3.5065128245e+00 
112100 3.8432164837e+00 4.8944759380e-04 2.0244740001e+00 -3.5064918268e+00 2.0244740001e+00 3.5064918268e+00 
112200 3.8432164765e+00 4.8804121922e-04 2.0244619119e+00 -3.5064708894e+00 2.0244619119e+00 3.5064708894e+00 
112300 3.8432164693e+00 4.8663888861e-04 2.0244498583e+00 -3.5064500119e+00 2.0244498583e+00 3.5064500119e+00 
112400 3.8432164622e+00 4.8524059043e-04 2.0244378393e+00 -3.5064291944e+00 2.0244378393e+00 3.5064291944e+00 
112500 3.8432164551e+00 4.8384631318e-04 2.0244258547e+00 -3.5064084365e+00 2.0244258547e+00 3.5064084365e+00 
112600 3.8432164480e+00 4.8245604536e-04 2.0244139045e+00 -3.5063877381e+00 2.0244139045e+00 3.5063877381e+00 
112700 3.8432164410e+00 4.8106977555e-04 2.0244019886e+00 -3.5063670991e+00 2.0244019886e+00 3.5063670991e+00 
112800 3.8432164340e+00 4.7968749233e-04 2.0243901068e+00 -3.5063465193e+00 2.0243901068e+00 3.5063465193e+00 
112900 3.8432164271e+00 4.7830918431e-04 2.0243782591e+00 -3.5063259985e+00 2.0243782591e+00 3.5063259985e+00 
113000 3.8432164202e+00 4.7693484014e-04 2.0243664454e+00 -3.5063055366e+00 2.0243664454e+00 3.5063055366e+00 
113100 3.8432164133e+00 4.7556444851e-04 2.0243546655e+00 -3.5062851333e+00 2.0243546655e+00 3.5062851333e+00 
113200 3.8432164065e+00 4.7419799812e-04 2.0243429195e+00 -3.5062647885e+00 2.0243429195e+00 3.5062647885e+00 
113300 3.8432163997e+00 4.7283547772e-04 2.0243312071e+00 -3.5062445020e+00 2.0243312071e+00 3.5062445020e+00 
113400 3.8432163930e+00 4.7147687607e-04 2.0243195283e+00 -3.5062242738e+00 2.0243195283e+00 3.5062242738e+00 
113500 3.8432163863e+00 4.7012218198e-04 2.0243078830e+00 -3.5062041035e+00 2.0243078830e+00 3.5062041035e+00 
113600 3.8432163796e+00 4.6877138428e-04 2.0242962711e+00 -3.5061839911e+00 2.0242962711e+00 3.5061839911e+00 
113700 3.8432163730e+00 4.6742447184e-04 2.0242846925e+00 -3.5061639363e+00 2.0242846925e+00 3.5061639363e+00 
113800 3.8432163664e+00 4.6608143355e-04 2.0242731471e+00 -3.5061439391e+00 2.0242731471e+00 3.5061439391e+00 
113900 3.8432163598e+00 4.6474225833e-04 2.0242616348e+00 -3.5061239992e+00 2.0242616348e+00 3.5061239992e+00 
114000 3.8432163533e+00 4.6340693515e-04 2.0242501555e+00 -3.5061041165e+00 2.0242501555e+00 3.5061041165e+00 
114100 3.8432163468e+00 4.6207545297e-04 2.0242387091e+00 -3.5060842908e+00 2.0242387091e+00 3.5060842908e+00 
114200 3.8432163404e+00 4.6074780083e-04 2.0242272955e+00 -3.5060645219e+00 2.0242272955e+00 3.5060645219e+00 
114300 3.8432163340e+00 4.5942396777e-04 2.0242159147e+00 -3.5060448098e+00 2.0242159147e+00 3.5060448098e+00 
114400 3.8432163276e+00 4.5810394285e-04 2.0242045665e+00 -3.5060251541e+00 2.0242045665e+00 3.5060251541e+00 
114500 3.8432163213e+00 4.5678771520e-04 2.0241932509e+00 -3.5060055549e+00 2.0241932509e+00 3.5060055549e+00 
114600 3.8432163150e+00 4.5547527393e-04 2.0241819677e+00 -3.5059860118e+00 2.0241819677e+00 3.5059860118e+00 
114700 3.8432163087e+00 4.5416660823e-04 2.0241707169e+00 -3.5059665248e+00 2.0241707169e+00 3.5059665248e+00 
114800 3.8432163025e+00 4.5286170728e-04 2.0241594983e+00 -3.5059470936e+00 2.0241594983e+00 3.5059470936e+00 
114900 3.8432162963e+00 4.5156056031e-04 2.0241483119e+00 -3.5059277182e+00 2.0241483119e+00 3.5059277182e+00 
115000 3.8432162902e+00 4.5026315658e-04 2.0241371576e+00 -3.5059083984e+00 2.0241371576e+00 3.5059083984e+00 
115100 3.8432162841e+00 4.4896948536e-04 2.0241260352e+00 -3.5058891339e+00 2.0241260352e+00 3.5058891339e+00 
115200 3.8432162780e+00 4.4767953597e-04 2.0241149448e+00 -3.5058699247e+00 2.0241149448e+00 3.5058699247e+00 
115300 3.8432162719e+00 4.4639329777e-04 2.0241038861e+00 -3.5058507706e+00 2.0241038861e+00 3.5058507706e+00 
115400 3.8432162659e+00 4.4511076011e-04 2.0240928592e+00 -3.5058316714e+00 2.0240928592e+00 3.5058316714e+00 
115500 3.8432162600e+00 4.4383191241e-04 2.0240818639e+00 -3.5058126270e+00 2.0240818639e+00 3.5058126270e+00 
115600 3.8432162540e+00 4.4255674408e-04 2.0240709001e+00 -3.5057936371e+00 2.0240709001e+00 3.5057936371e+00 
115700 3.8432162481e+00 4.4128524460e-04 2.0240599678e+00 -3.5057747018e+00 2.0240599678e+00 3.5057747018e+00 
115800 3.8432162422e+00 4.4001740346e-04 2.0240490668e+00 -3.5057558207e+00 2.0240490668e+00 3.5057558207e+00 
115900 3.8432162364e+00 4.3875321017e-04 2.0240381971e+00 -3.5057369938e+00 2.0240381971e+00 3.5057369938e+00 
116000 3.8432162306e+00 4.3749265428e-04 2.0240273585e+00 -3.5057182209e+00 2.0240273585e+00 3.5057182209e+00 
116100 3.8432162248e+00 4.3623572537e-04 2.0240165511e+00 -3.5056995018e+00 2.0240165511e+00 3.5056995018e+00 
116200 3.8432162191e+00 4.3498241304e-04 2.0240057746e+00 -3.5056808364e+00 2.0240057746e+00 3.5056808364e+00 
116300 3.8432162134e+00 4.3373270693e-04 2.0239950290e+00 -3.5056622245e+00 2.0239950290e+00 3.5056622245e+00 
116400 3.8432162077e+00 4.3248659671e-04 2.0239843143e+00 -3.5056436660e+00 2.0239843143e+00 3.5056436660e+00 
116500 3.8432162020e+00 4.3124407206e-04 2.0239736302e+00 -3.5056251607e+00 2.0239736302e+00 3.5056251607e+00 
116600 3.8432161964e+00 4.3000512270e-04 2.0239629768e+00 -3.5056067085e+00 2.0239629768e+00 3.5056067085e+00 
116700 3.8432161909e+00 4.2876973839e-04 2.0239523540e+00 -3.5055883092e+00 2.0239523540e+00 3.5055883092e+00 
116800 3.8432161853e+00 4.2753790891e-04 2.0239417616e+00 -3.5055699627e+00 2.0239417616e+00 3.5055699627e+00 
116900 3.8432161798e+00 4.2630962405e-04 2.0239311996e+00 -3.5055516688e+00 2.0239311996e+00 3.5055516688e+00 
117000 3.8432161743e+00 4.2508487365e-04 2.0239206679e+00 -3.5055334273e+00 2.0239206679e+00 3.5055334273e+00 
117100 3.8432161689e+00 4.2386364758e-04 2.0239101664e+00 -3.5055152382e+00 2.0239101664e+00 3.5055152382e+00 
117200 3.8432161634e+00 4.2264593573e-04 2.0238996950e+00 -3.5054971012e+00 2.0238996950e+00 3.5054971012e+00 
117300 3.8432161580e+00 4.2143172802e-04 2.0238892536e+00 -3.5054790162e+00 2.0238892536e+00 3.5054790162e+00 
117400 3.8432161527e+00 4.2022101438e-04 2.0238788422e+00 -3.5054609831e+00 2.0238788422e+00 3.5054609831e+00 
117500 3.8432161474e+00 4.1901378481e-04 2.0238684606e+00 -3.5054430017e+00 2.0238684606e+00 3.5054430017e+00 
117600 3.8432161421e+00 4.1781002930e-04 2.0238581088e+00 -3.5054250718e+00 2.0238581088e+00 3.5054250718e+00 
117700 3.8432161368e+00 4.1660973789e-04 2.0238477867e+00 -3.5054071934e+00 2.0238477867e+00 3.5054071934e+00 
117800 3.8432161315e+00 4.1541290063e-04 2.0238374942e+00 -3.5053893663e+00 2.0238374942e+00 3.5053893663e+00 
117900 3.8432161263e+00 4.1421950760e-04 2.0238272312e+00 -3.5053715903e+00 2.0238272312e+00 3.5053715903e+00 
118000 3.8432161212e+00 4.1302954894e-04 2.0238169977e+00 -3.5053538652e+00 2.0238169977e+00 3.5053538652e+00 
118100 3.8432161160e+00 4.1184301476e-04 2.0238067935e+00 -3.5053361910e+00 2.0238067935e+00 3.5053361910e+00 
118200 3.8432161109e+00 4.1065989526e-04 2.0237966185e+00 -3.5053185675e+00 2.0237966185e+00 3.5053185675e+00 
118300 3.8432161058e+00 4.0948018061e-04 2.0237864727e+00 -3.5053009945e+00 2.0237864727e+00 3.5053009945e+00 
118400 3.8432161007e+00 4.0830386106e-04 2.0237763561e+00 -3.5052834719e+00 2.0237763561e+00 3.5052834719e+00 
118500 3.8432160957e+00 4.0713092684e-04 2.0237662684e+00 -3.5052659995e+00 2.0237662684e+00 3.5052659995e+00 
118600 3.8432160907e+00 4.0596136824e-04 2.0237562097e+00 -3.5052485773e+00 2.0237562097e+00 3.5052485773e+00 
118700 3.8432160857e+00 4.0479517557e-04 2.0237461798e+00 -3.5052312050e+00 2.0237461798e+00 3.5052312050e+00 
118800 3.8432160808e+00 4.0363233915e-04 2.0237361787e+00 -3.5052138825e+00 2.0237361787e+00 3.5052138825e+00 
118900 3.8432160759e+00 4.0247284935e-04 2.0237262062e+00 -3.5051966098e+00 2.0237262062e+00 3.5051966098e+00 
119000 3.8432160710e+00 4.0131669656e-04 2.0237162624e+00 -3.5051793865e+00 2.0237162624e+00 3.5051793865e+00 
119100 3.8432160661e+00 4.0016387119e-04 2.0237063470e+00 -3.5051622127e+00 2.0237063470e+00 3.5051622127e+00 
119200 3.8432160613e+00 3.9901436368e-04 2.0236964601e+00 -3.5051450880e+00 2.0236964601e+00 3.5051450880e+00 
119300 3.8432160565e+00 3.9786816450e-04 2.0236866016e+00 -3.5051280125e+00 2.0236866016e+00 3.5051280125e+00 
119400 3.8432160517e+00 3.9672526415e-04 2.0236767713e+00 -3.5051109860e+00 2.0236767713e+00 3.5051109860e+00 
119500 3.8432160470e+00 3.9558565315e-04 2.0236669692e+00 -3.5050940083e+00 2.0236669692e+00 3.5050940083e+00 
119600 3.8432160422e+00 3.9444932204e-04 2.0236571953e+00 -3.5050770793e+00 2.0236571953e+00 3.5050770793e+00 
119700 3.8432160375e+00 3.9331626140e-04 2.0236474493e+00 -3.5050601988e+00 2.0236474493e+00 3.5050601988e+00 
119800 3.8432160329e+00 3.9218646183e-04 2.0236377313e+00 -3.5050433668e+00 2.0236377313e+00 3.5050433668e+00 
119900 3.8432160282e+00 3.9105991396e-04 2.0236280412e+00 -3.5050265830e+00 2.0236280412e+00 3.5050265830e+00 
120000 3.8432160236e+00 3.8993660845e-04 2.0236183788e+00 -3.5050098473e+00 2.0236183788e+00 3.5050098473e+00 
120100 3.8432160190e+00 3.8881653597e-04 2.0236087442e+00 -3.5049931596e+00 2.0236087442e+00 3.5049931596e+00 
120200 3.8432160144e+00 3.8769968723e-04 2.0235991372e+00 -3.5049765198e+00 2.0235991372e+00 3.5049765198e+00 
120300 3.8432160099e+00 3.8658605297e-04 2.0235895578e+00 -3.5049599277e+00 2.0235895578e+00 3.5049599277e+00 
120400 3.8432160054e+00 3.8547562393e-04 2.0235800058e+00 -3.5049433832e+00 2.0235800058e+00 3.5049433832e+00 
120500 3.8432160009e+00 3.8436839092e-04 2.0235704812e+00 -3.5049268861e+00 2.0235704812e+00 3.5049268861e+00 
120600 3.8432159965e+00 3.8326434473e-04 2.0235609839e+00 -3.5049104364e+00 2.0235609839e+00 3.5049104364e+00 
120700 3.8432159920e+00 3.8216347621e-04 2.0235515139e+00 -3.5048940338e+00 2.0235515139e+00 3.5048940338e+00 
120800 3.8432159876e+00 3.8106577622e-04 2.0235420710e+00 -3.5048776782e+00 2.0235420710e+00 3.5048776782e+00 
120900 3.8432159832e+00 3.7997123564e-04 2.0235326552e+00 -3.5048613696e+00 2.0235326552e+00 3.5048613696e+00 
121000 3.8432159789e+00 3.7887984540e-04 2.0235232664e+00 -3.5048451077e+00 2.0235232664e+00 3.5048451077e+00 
121100 3.8432159745e+00 3.7779159642e-04 2.0235139045e+00 -3.5048288925e+00 2.0235139045e+00 3.5048288925e+00 
121200 3.8432159702e+00 3.7670647968e-04 2.0235045695e+00 -3.5048127237e+00 2.0235045695e+00 3.5048127237e+00 
121300 3.8432159659e+00 3.7562448617e-04 2.0234952612e+00 -3.5047966013e+00 2.0234952612e+00 3.5047966013e+00 
121400 3.8432159617e+00 3.7454560689e-04 2.0234859797e+00 -3.5047805252e+00 2.0234859797e+00 3.5047805252e+00 
121500 3.8432159574e+00 3.7346983291e-04 2.0234767247e+00 -3.5047644951e+00 2.0234767247e+00 3.5047644951e+00 
121600 3.8432159532e+00 3.7239715527e-04 2.0234674963e+00 -3.5047485110e+00 2.0234674963e+00 3.5047485110e+00 
121700 3.8432159490e+00 3.7132756508e-04 2.0234582943e+00 -3.5047325728e+00 2.0234582943e+00 3.5047325728e+00 
121800 3.8432159449e+00 3.7026105345e-04 2.0234491188e+00 -3.5047166803e+00 2.0234491188e+00 3.5047166803e+00 
121900 3.8432159407e+00 3.6919761152e-04 2.0234399695e+00 -3.5047008333e+00 2.0234399695e+00 3.5047008333e+00 
122000 3.8432159366e+00 3.6813723046e-04 2.0234308465e+00 -3.5046850318e+00 2.0234308465e+00 3.5046850318e+00 
122100 3.8432159325e+00 3.6707990147e-04 2.0234217497e+00 -3.5046692756e+00 2.0234217497e+00 3.5046692756e+00 
122200 3.8432159285e+00 3.6602561576e-04 2.0234126789e+00 -3.5046535646e+00 2.0234126789e+00 3.5046535646e+00 
122300 3.8432159244e+00 3.6497436457e-04 2.0234036342e+00 -3.5046378986e+00 2.0234036342e+00 3.5046378986e+00 
122400 3.8432159204e+00 3.6392613917e-04 2.0233946153e+00 -3.5046222775e+00 2.0233946153e+00 3.5046222775e+00 
122500 3.8432159164e+00 3.6288093085e-04 2.0233856224e+00 -3.5046067013e+00 2.0233856224e+00 3.5046067013e+00 
122600 3.8432159124e+00 3.6183873094e-04 2.0233766552e+00 -3.5045911697e+00 2.0233766552e+00 3.5045911697e+00 
122700 3.8432159085e+00 3.6079953076e-04 2.0233677138e+00 -3.5045756826e+00 2.0233677138e+00 3.5045756826e+00 
122800 3.8432159045e+00 3.5976332169e-04 2.0233587980e+00 -3.5045602400e+00 2.0233587980e+00 3.5045602400e+00 
122900 3.8432159006e+00 3.5873009512e-04 2.0233499077e+00 -3.5045448417e+00 2.0233499077e+00 3.5045448417e+00 
123000 3.8432158967e+00 3.5769984245e-04 2.0233410430e+00 -3.5045294875e+00 2.0233410430e+00 3.5045294875e+00 
123100 3.8432158929e+00 3.5667255514e-04 2.0233322036e+00 -3.5045141773e+00 2.0233322036e+00 3.5045141773e+00 
123200 3.8432158890e+00 3.5564822464e-04 2.0233233897e+00 -3.5044989110e+00 2.0233233897e+00 3.5044989110e+00 
123300 3.8432158852e+00 3.5462684244e-04 2.0233146009e+00 -3.5044836885e+00 2.0233146009e+00 3.5044836885e+00 
123400 3.8432158814e+00 3.5360840005e-04 2.0233058374e+00 -3.5044685097e+00 2.0233058374e+00 3.5044685097e+00 
123500 3.8432158776e+00 3.5259288901e-04 2.0232970991e+00 -3.5044533744e+00 2.0232970991e+00 3.5044533744e+00 
123600 3.8432158739e+00 3.5158030088e-04 2.0232883857e+00 -3.5044382825e+00 2.0232883857e+00 3.5044382825e+00 
123700 3.8432158701e+00 3.5057062724e-04 2.0232796974e+00 -3.5044232338e+00 2.0232796974e+00 3.5044232338e+00 
123800 3.8432158664e+00 3.4956385970e-04 2.0232710340e+00 -3.5044082284e+00 2.0232710340e+00 3.5044082284e+00 
123900 3.8432158627e+00 3.4855998989e-04 2.0232623954e+00 -3.5043932659e+00 2.0232623954e+00 3.5043932659e+00 
124000 3.8432158591e+00 3.4755900946e-04 2.0232537816e+00 -3.5043783464e+00 2.0232537816e+00 3.5043783464e+00 
124100 3.8432158554e+00 3.4656091010e-04 2.0232451925e+00 -3.5043634696e+00 2.0232451925e+00 3.5043634696e+00 
124200 3.8432158518e+00 3.4556568351e-04 2.0232366280e+00 -3.5043486355e+00 2.0232366280e+00 3.5043486355e+00 
124300 3.8432158482e+00 3.4457332141e-04 2.0232280881e+00 -3.5043338439e+00 2.0232280881e+00 3.5043338439e+00 
124400 3.8432158446e+00 3.4358381556e-04 2.0232195727e+00 -3.5043190948e+00 2.0232195727e+00 3.5043190948e+00 
124500 3.8432158410e+00 3.4259715772e-04 2.0232110817e+00 -3.5043043879e+00 2.0232110817e+00 3.5043043879e+00 
124600 3.8432158375e+00 3.4161333970e-04 2.0232026150e+00 -3.5042897232e+00 2.0232026150e+00 3.5042897232e+00 
124700 3.8432158340e+00 3.4063235331e-04 2.0231941726e+00 -3.5042751006e+00 2.0231941726e+00 3.5042751006e+00 
124800 3.8432158305e+00 3.3965419040e-04 2.0231857545e+00 -3.5042605199e+00 2.0231857545e+00 3.5042605199e+00 
124900 3.8432158270e+00 3.3867884284e-04 2.0231773604e+00 -3.5042459810e+00 2.0231773604e+00 3.5042459810e+00 
125000 3.8432158235e+00 3.3770630250e-04 2.0231689904e+00 -3.5042314838e+00 2.0231689904e+00 3.5042314838e+00 
125100 3.8432158201e+00 3.3673656132e-04 2.0231606445e+00 -3.5042170281e+00 2.0231606445e+00 3.5042170281e+00 
125200 3.8432158166e+00 3.3576961121e-04 2.0231523224e+00 -3.5042026139e+00 2.0231523224e+00 3.5042026139e+00 
125300 3.8432158132e+00 3.3480544415e-04 2.0231440243e+00 -3.5041882411e+00 2.0231440243e+00 3.5041882411e+00 
125400 3.8432158098e+00 3.3384405211e-04 2.0231357499e+00 -3.5041739094e+00 2.0231357499e+00 3.5041739094e+00 
125500 3.8432158065e+00 3.3288542710e-04 2.0231274992e+00 -3.5041596189e+00 2.0231274992e+00 3.5041596189e+00 
125600 3.8432158031e+00 3.3192956115e-04 2.0231192722e+00 -3.5041453693e+00 2.0231192722e+00 3.5041453693e+00 
125700 3.8432157998e+00 3.3097644630e-04 2.0231110688e+00 -3.5041311606e+00 2.0231110688e+00 3.5041311606e+00 
125800 3.8432157965e+00 3.3002607463e-04 2.0231028890e+00 -3.5041169926e+00 2.0231028890e+00 3.5041169926e+00 
125900 3.8432157932e+00 3.2907843823e-04 2.0230947325e+00 -3.5041028653e+00 2.0230947325e+00 3.5041028653e+00 
126000 3.8432157899e+00 3.2813352922e-04 2.0230865995e+00 -3.5040887784e+00 2.0230865995e+00 3.5040887784e+00 
126100 3.8432157867e+00 3.2719133975e-04 2.0230784898e+00 -3.5040747320e+00 2.0230784898e+00 3.5040747320e+00 
126200 3.8432157834e+00 3.2625186198e-04 2.0230704033e+00 -3.5040607258e+00 2.0230704033e+00 3.5040607258e+00 
126300 3.8432157802e+00 3.2531508808e-04 2.0230623400e+00 -3.5040467598e+00 2.0230623400e+00 3.5040467598e+00 
126400 3.8432157770e+00 3.2438101028e-04 2.0230542999e+00 -3.5040328338e+00 2.0230542999e+00 3.5040328338e+00 
126500 3.8432157738e+00 3.2344962079e-04 2.0230462828e+00 -3.5040189478e+00 2.0230462828e+00 3.5040189478e+00 
126600 3.8432157707e+00 3.2252091187e-04 2.0230382886e+00 -3.5040051016e+00 2.0230382886e+00 3.5040051016e+00 
126700 3.8432157675e+00 3.2159487580e-04 2.0230303174e+00 -3.5039912951e+00 2.0230303174e+00 3.5039912951e+00 
126800 3.8432157644e+00 3.2067150487e-04 2.0230223691e+00 -3.5039775281e+00 2.0230223691e+00 3.5039775281e+00 
126900 3.8432157613e+00 3.1975079140e-04 2.0230144436e+00 -3.5039638007e+00 2.0230144436e+00 3.5039638007e+00 
127000 3.8432157582e+00 3.1883272774e-04 2.0230065407e+00 -3.5039501126e+00 2.0230065407e+00 3.5039501126e+00 
127100 3.8432157551e+00 3.1791730623e-04 2.0229986606e+00 -3.5039364637e+00 2.0229986606e+00 3.5039364637e+00 
127200 3.8432157521e+00 3.1700451927e-04 2.0229908030e+00 -3.5039228540e+00 2.0229908030e+00 3.5039228540e+00 
127300 3.8432157490e+00 3.1609435926e-04 2.0229829680e+00 -3.5039092833e+00 2.0229829680e+00 3.5039092833e+00 
127400 3.8432157460e+00 3.1518681864e-04 2.0229751554e+00 -3.5038957516e+00 2.0229751554e+00 3.5038957516e+00 
127500 3.8432157430e+00 3.1428188984e-04 2.0229673652e+00 -3.5038822586e+00 2.0229673652e+00 3.5038822586e+00 
127600 3.8432157400e+00 3.1337956535e-04 2.0229595974e+00 -3.5038688043e+00 2.0229595974e+00 3.5038688043e+00 
127700 3.8432157371e+00 3.1247983764e-04 2.0229518518e+00 -3.5038553886e+00 2.0229518518e+00 3.5038553886e+00 
127800 3.8432157341e+00 3.1158269924e-04 2.0229441284e+00 -3.5038420113e+00 2.0229441284e+00 3.5038420113e+00 
127900 3.8432157312e+00 3.1068814269e-04 2.0229364272e+00 -3.5038286724e+00 2.0229364272e+00 3.5038286724e+00 
128000 3.8432157283e+00 3.0979616053e-04 2.0229287481e+00 -3.5038153718e+00 2.0229287481e+00 3.5038153718e+00 
128100 3.8432157254e+00 3.0890674535e-04 2.0229210910e+00 -3.5038021093e+00 2.0229210910e+00 3.5038021093e+00 
128200 3.8432157225e+00 3.0801988975e-04 2.0229134558e+00 -3.5037888848e+00 2.0229134558e+00 3.5037888848e+00 
128300 3.8432157196e+00 3.0713558634e-04 2.0229058425e+00 -3.5037756982e+00 2.0229058425e+00 3.5037756982e+00 
128400 3.8432157168e+00 3.0625382777e-04 2.0228982511e+00 -3.5037625495e+00 2.0228982511e+00 3.5037625495e+00 
128500 3.8432157139e+00 3.0537460670e-04 2.0228906814e+00 -3.5037494384e+00 2.0228906814e+00 3.5037494384e+00 
128600 3.8432157111e+00 3.0449791582e-04 2.0228831335e+00 -3.5037363649e+00 2.0228831335e+00 3.5037363649e+00 
128700 3.8432157083e+00 3.0362374782e-04 2.0228756071e+00 -3.5037233289e+00 2.0228756071e+00 3.5037233289e+00 
128800 3.8432157055e+00 3.0275209544e-04 2.0228681024e+00 -3.5037103303e+00 2.0228681024e+00 3.5037103303e+00 
128900 3.8432157028e+00 3.0188295142e-04 2.0228606191e+00 -3.5036973690e+00 2.0228606191e+00 3.5036973690e+00 
129000 3.8432157000e+00 3.0101630853e-04 2.0228531574e+00 -3.5036844448e+00 2.0228531574e+00 3.5036844448e+00 
129100 3.8432156973e+00 3.0015215956e-04 2.0228457170e+00 -3.5036715577e+00 2.0228457170e+00 3.5036715577e+00 
129200 3.8432156945e+00 2.9929049730e-04 2.0228382979e+00 -3.5036587075e+00 2.0228382979e+00 3.5036587075e+00 
129300 3.8432156918e+00 2.9843131461e-04 2.0228309001e+00 -3.5036458942e+00 2.0228309001e+00 3.5036458942e+00 
129400 3.8432156891e+00 2.9757460432e-04 2.0228235236e+00 -3.5036331176e+00 2.0228235236e+00 3.5036331176e+00 
129500 3.8432156865e+00 2.9672035930e-04 2.0228161682e+00 -3.5036203776e+00 2.0228161682e+00 3.5036203776e+00 
129600 3.8432156838e+00 2.9586857245e-04 2.0228088338e+00 -3.5036076742e+00 2.0228088338e+00 3.5036076742e+00 
129700 3.8432156811e+00 2.9501923667e-04 2.0228015205e+00 -3.5035950072e+00 2.0228015205e+00 3.5035950072e+00 
129800 3.8432156785e+00 2.9417234490e-04 2.0227942282e+00 -3.5035823765e+00 2.0227942282e+00 3.5035823765e+00 
129900 3.8432156759e+00 2.9332789009e-04 2.0227869567e+00 -3.5035697820e+00 2.0227869567e+00 3.5035697820e+00 
130000 3.8432156733e+00 2.9248586522e-04 2.0227797062e+00 -3.5035572236e+00 2.0227797062e+00 3.5035572236e+00 
130100 3.8432156707e+00 2.9164626326e-04 2.0227724764e+00 -3.5035447012e+00 2.0227724764e+00 3.5035447012e+00 
130200 3.8432156681e+00 2.9080907725e-04 2.0227652673e+00 -3.5035322147e+00 2.0227652673e+00 3.5035322147e+00 
130300 3.8432156656e+00 2.8997430020e-04 2.0227580789e+00 -3.5035197641e+00 2.0227580789e+00 3.5035197641e+00 
130400 3.8432156630e+00 2.8914192518e-04 2.0227509111e+00 -3.5035073491e+00 2.0227509111e+00 3.5035073491e+00 
130500 3.8432156605e+00 2.8831194525e-04 2.0227437639e+00 -3.5034949697e+00 2.0227437639e+00 3.5034949697e+00 
130600 3.8432156580e+00 2.8748435350e-04 2.0227366371e+00 -3.5034826258e+00 2.0227366371e+00 3.5034826258e+00 
130700 3.8432156555e+00 2.8665914305e-04 2.0227295308e+00 -3.5034703173e+00 2.0227295308e+00 3.5034703173e+00 
130800 3.8432156530e+00 2.8583630704e-04 2.0227224449e+00 -3.5034580441e+00 2.0227224449e+00 3.5034580441e+00 
130900 3.8432156505e+00 2.8501583860e-04 2.0227153792e+00 -3.5034458061e+00 2.0227153792e+00 3.5034458061e+00 
131000 3.8432156481e+00 2.8419773092e-04 2.0227083339e+00 -3.5034336031e+00 2.0227083339e+00 3.5034336031e+00 
131100 3.8432156456e+00 2.8338197718e-04 2.0227013087e+00 -3.5034214352e+00 2.0227013087e+00 3.5034214352e+00 
131200 3.8432156432e+00 2.8256857060e-04 2.0226943036e+00 -3.5034093021e+00 2.0226943036e+00 3.5034093021e+00 
131300 3.8432156408e+00 2.8175750440e-04 2.0226873187e+00 -3.5033972038e+00 2.0226873187e+00 3.5033972038e+00 
131400 3.8432156384e+00 2.8094877184e-04 2.0226803538e+00 -3.5033851402e+00 2.0226803538e+00 3.5033851402e+00 
131500 3.8432156360e+00 2.8014236618e-04 2.0226734088e+00 -3.5033731112e+00 2.0226734088e+00 3.5033731112e+00 
131600 3.8432156336e+00 2.7933828071e-04 2.0226664838e+00 -3.5033611166e+00 2.0226664838e+00 3.5033611166e+00 
131700 3.8432156313e+00 2.7853650874e-04 2.0226595786e+00 -3.5033491565e+00 2.0226595786e+00 3.5033491565e+00 
131800 3.8432156289e+00 2.7773704360e-04 2.0226526932e+00 -3.5033372306e+00 2.0226526932e+00 3.5033372306e+00 
131900 3.8432156266e+00 2.7693987863e-04 2.0226458275e+00 -3.5033253390e+00 2.0226458275e+00 3.5033253390e+00 
132000 3.8432156243e+00 2.7614500719e-04 2.0226389815e+00 -3.5033134814e+00 2.0226389815e+00 3.5033134814e+00 
132100 3.8432156220e+00 2.7535242268e-04 2.0226321552e+00 -3.5033016578e+00 2.0226321552e+00 3.5033016578e+00 
132200 3.8432156197e+00 2.7456211850e-04 2.0226253484e+00 -3.5032898681e+00 2.0226253484e+00 3.5032898681e+00 
132300 3.8432156174e+00 2.7377408805e-04 2.0226185611e+00 -3.5032781122e+00 2.0226185611e+00 3.5032781122e+00 
132400 3.8432156151e+00 2.7298832480e-04 2.0226117933e+00 -3.5032663900e+00 2.0226117933e+00 3.5032663900e+00 
132500 3.8432156129e+00 2.7220482220e-04 2.0226050449e+00 -3.5032547014e+00 2.0226050449e+00 3.5032547014e+00 
132600 3.8432156106e+00 2.7142357372e-04 2.0225983159e+00 -3.5032430464e+00 2.0225983159e+00 3.5032430464e+00 
132700 3.8432156084e+00 2.7064457287e-04 2.0225916061e+00 -3.5032314247e+00 2.0225916061e+00 3.5032314247e+00 
132800 3.8432156062e+00 2.6986781316e-04 2.0225849155e+00 -3.5032198364e+00 2.0225849155e+00 3.5032198364e+00 
132900 3.8432156040e+00 2.6909328813e-04 2.0225782442e+00 -3.5032082812e+00 2.0225782442e+00 3.5032082812e+00 
133000 3.8432156018e+00 2.6832099133e-04 2.0225715920e+00 -3.5031967592e+00 2.0225715920e+00 3.5031967592e+00 
133100 3.8432155996e+00 2.6755091633e-04 2.0225649588e+00 -3.5031852703e+00 2.0225649588e+00 3.5031852703e+00 
133200 3.8432155975e+00 2.6678305672e-04 2.0225583447e+00 -3.5031738142e+00 2.0225583447e+00 3.5031738142e+00 
133300 3.8432155953e+00 2.6601740612e-04 2.0225517495e+00 -3.5031623910e+00 2.0225517495e+00 3.5031623910e+00 
133400 3.8432155932e+00 2.6525395814e-04 2.0225451732e+00 -3.5031510006e+00 2.0225451732e+00 3.5031510006e+00 
133500 3.8432155910e+00 2.6449270644e-04 2.0225386158e+00 -3.5031396428e+00 2.0225386158e+00 3.5031396428e+00 
133600 3.8432155889e+00 2.6373364468e-04 2.0225320771e+00 -3.5031283175e+00 2.0225320771e+00 3.5031283175e+00 
133700 3.8432155868e+00 2.6297676655e-04 2.0225255573e+00 -3.5031170248e+00 2.0225255573e+00 3.5031170248e+00 
133800 3.8432155847e+00 2.6222206574e-04 2.0225190561e+00 -3.5031057644e+00 2.0225190561e+00 3.5031057644e+00 
133900 3.8432155827e+00 2.6146953597e-04 2.0225125735e+00 -3.5030945363e+00 2.0225125735e+00 3.5030945363e+00 
134000 3.8432155806e+00 2.6071917097e-04 2.0225061095e+00 -3.5030833403e+00 2.0225061095e+00 3.5030833403e+00 
134100 3.8432155785e+00 2.5997096452e-04 2.0224996641e+00 -3.5030721765e+00 2.0224996641e+00 3.5030721765e+00 
134200 3.8432155765e+00 2.5922491037e-04 2.0224932371e+00 -3.5030610446e+00 2.0224932371e+00 3.5030610446e+00 
134300 3.8432155745e+00 2.5848100232e-04 2.0224868286e+00 -3.5030499447e+00 2.0224868286e+00 3.5030499447e+00 
134400 3.8432155724e+00 2.5773923418e-04 2.0224804384e+00 -3.5030388766e+00 2.0224804384e+00 3.5030388766e+00 
134500 3.8432155704e+00 2.5699959977e-04 2.0224740665e+00 -3.5030278402e+00 2.0224740665e+00 3.5030278402e+00 
134600 3.8432155684e+00 2.5626209294e-04 2.0224677129e+00 -3.5030168355e+00 2.0224677129e+00 3.5030168355e+00 
134700 3.8432155664e+00 2.5552670755e-04 2.0224613776e+00 -3.5030058623e+00 2.0224613776e+00 3.5030058623e+00 
134800 3.8432155645e+00 2.5479343748e-04 2.0224550604e+00 -3.5029949206e+00 2.0224550604e+00 3.5029949206e+00 
134900 3.8432155625e+00 2.5406227662e-04 2.0224487612e+00 -3.5029840102e+00 2.0224487612e+00 3.5029840102e+00 
135000 3.8432155605e+00 2.5333321891e-04 2.0224424802e+00 -3.5029731311e+00 2.0224424802e+00 3.5029731311e+00 
135100 3.8432155586e+00 2.5260625826e-04 2.0224362171e+00 -3.5029622832e+00 2.0224362171e+00 3.5029622832e+00 
135200 3.8432155567e+00 2.5188138862e-04 2.0224299720e+00 -3.5029514663e+00 2.0224299720e+00 3.5029514663e+00 
135300 3.8432155548e+00 2.5115860397e-04 2.0224237449e+00 -3.5029406805e+00 2.0224237449e+00 3.5029406805e+00 
135400 3.8432155528e+00 2.5043789829e-04 2.0224175355e+00 -3.5029299256e+00 2.0224175355e+00 3.5029299256e+00 
135500 3.8432155509e+00 2.4971926558e-04 2.0224113440e+00 -3.5029192016e+00 2.0224113440e+00 3.5029192016e+00 
135600 3.8432155491e+00 2.4900269986e-04 2.0224051702e+00 -3.5029085082e+00 2.0224051702e+00 3.5029085082e+00 
135700 3.8432155472e+00 2.4828819517e-04 2.0223990141e+00 -3.5028978455e+00 2.0223990141e+00 3.5028978455e+00 
135800 3.8432155453e+00 2.4757574556e-04 2.0223928756e+00 -3.5028872134e+00 2.0223928756e+00 3.5028872134e+00 
135900 3.8432155435e+00 2.4686534510e-04 2.0223867548e+00 -3.5028766118e+00 2.0223867548e+00 3.5028766118e+00 
136000 3.8432155416e+00 2.4615698789e-04 2.0223806514e+00 -3.5028660405e+00 2.0223806514e+00 3.5028660405e+00 
136100 3.8432155398e+00 2.4545066803e-04 2.0223745656e+00 -3.5028554996e+00 2.0223745656e+00 3.5028554996e+00 
136200 3.8432155380e+00 2.4474637963e-04 2.0223684972e+00 -3.5028449889e+00 2.0223684972e+00 3.5028449889e+00 
136300 3.8432155362e+00 2.4404411685e-04 2.0223624463e+00 -3.5028345083e+00 2.0223624463e+00 3.5028345083e+00 
136400 3.8432155344e+00 2.4334387383e-04 2.0223564126e+00 -3.5028240577e+00 2.0223564126e+00 3.5028240577e+00 
136500 3.8432155326e+00 2.4264564475e-04 2.0223503963e+00 -3.5028136371e+00 2.0223503963e+00 3.5028136371e+00 
136600 3.8432155308e+00 2.4194942380e-04 2.0223443972e+00 -3.5028032463e+00 2.0223443972e+00 3.5028032463e+00 
136700 3.8432155290e+00 2.4125520519e-04 2.0223384153e+00 -3.5027928854e+00 2.0223384153e+00 3.5027928854e+00 
136800 3.8432155272e+00 2.4056298313e-04 2.0223324505e+00 -3.5027825541e+00 2.0223324505e+00 3.5027825541e+00 
136900 3.8432155255e+00 2.3987275188e-04 2.0223265029e+00 -3.5027722525e+00 2.0223265029e+00 3.5027722525e+00 
137000 3.8432155238e+00 2.3918450568e-04 2.0223205723e+00 -3.5027619804e+00 2.0223205723e+00 3.5027619804e+00 
137100 3.8432155220e+00 2.3849823882e-04 2.0223146587e+00 -3.5027517377e+00 2.0223146587e+00 3.5027517377e+00 
137200 3.8432155203e+00 2.3781394557e-04 2.0223087620e+00 -3.5027415244e+00 2.0223087620e+00 3.5027415244e+00 
137300 3.8432155186e+00 2.3713162025e-04 2.0223028822e+00 -3.5027313403e+00 2.0223028822e+00 3.5027313403e+00 
137400 3.8432155169e+00 2.3645125718e-04 2.0222970193e+00 -3.5027211855e+00 2.0222970193e+00 3.5027211855e+00 
137500 3.8432155152e+00 2.3577285070e-04 2.0222911732e+00 -3.5027110597e+00 2.0222911732e+00 3.5027110597e+00 
137600 3.8432155135e+00 2.3509639517e-04 2.0222853439e+00 -3.5027009630e+00 2.0222853439e+00 3.5027009630e+00 
137700 3.8432155118e+00 2.3442188495e-04 2.0222795312e+00 -3.5026908952e+00 2.0222795312e+00 3.5026908952e+00 
137800 3.8432155102e+00 2.3374931443e-04 2.0222737353e+00 -3.5026808563e+00 2.0222737353e+00 3.5026808563e+00 
137900 3.8432155085e+00 2.3307867803e-04 2.0222679559e+00 -3.5026708461e+00 2.0222679559e+00 3.5026708461e+00 
138000 3.8432155069e+00 2.3240997015e-04 2.0222621931e+00 -3.5026608647e+00 2.0222621931e+00 3.5026608647e+00 
138100 3.8432155052e+00 2.3174318524e-04 2.0222564468e+00 -3.5026509118e+00 2.0222564468e+00 3.5026509118e+00 
138200 3.8432155036e+00 2.3107831775e-04 2.0222507170e+00 -3.5026409875e+00 2.0222507170e+00 3.5026409875e+00 
138300 3.8432155020e+00 2.3041536215e-04 2.0222450036e+00 -3.5026310916e+00 2.0222450036e+00 3.5026310916e+00 
138400 3.8432155004e+00 2.2975431292e-04 2.0222393066e+00 -3.5026212241e+00 2.0222393066e+00 3.5026212241e+00 
138500 3.8432154988e+00 2.2909516457e-04 2.0222336259e+00 -3.5026113848e+00 2.0222336259e+00 3.5026113848e+00 
138600 3.8432154972e+00 2.2843791160e-04 2.0222279615e+00 -3.5026015738e+00 2.0222279615e+00 3.5026015738e+00 
138700 3.8432154956e+00 2.2778254856e-04 2.0222223133e+00 -3.5025917909e+00 2.0222223133e+00 3.5025917909e+00 
138800 3.8432154941e+00 2.2712906999e-04 2.0222166813e+00 -3.5025820360e+00 2.0222166813e+00 3.5025820360e+00 
138900 3.8432154925e+00 2.2647747045e-04 2.0222110655e+00 -3.5025723091e+00 2.0222110655e+00 3.5025723091e+00 
139000 3.8432154909e+00 2.2582774452e-04 2.0222054657e+00 -3.5025626100e+00 2.0222054657e+00 3.5025626100e+00 
139100 3.8432154894e+00 2.2517988681e-04 2.0221998820e+00 -3.5025529388e+00 2.0221998820e+00 3.5025529388e+00 
139200 3.8432154879e+00 2.2453389191e-04 2.0221943144e+00 -3.5025432952e+00 2.0221943144e+00 3.5025432952e+00 
139300 3.8432154863e+00 2.2388975447e-04 2.0221887626e+00 -3.5025336793e+00 2.0221887626e+00 3.5025336793e+00 
139400 3.8432154848e+00 2.2324746911e-04 2.0221832268e+00 -3.5025240910e+00 2.0221832268e+00 3.5025240910e+00 
139500 3.8432154833e+00 2.2260703050e-04 2.0221777068e+00 -3.5025145302e+00 2.0221777068e+00 3.5025145302e+00 
139600 3.8432154818e+00 2.2196843330e-04 2.0221722027e+00 -3.5025049967e+00 2.0221722027e+00 3.5025049967e+00 
139700 3.8432154803e+00 2.2133167222e-04 2.0221667143e+00 -3.5024954906e+00 2.0221667143e+00 3.5024954906e+00 
139800 3.8432154788e+00 2.2069674195e-04 2.0221612417e+00 -3.5024860117e+00 2.0221612417e+00 3.5024860117e+00 
139900 3.8432154774e+00 2.2006363720e-04 2.0221557847e+00 -3.5024765600e+00 2.0221557847e+00 3.5024765600e+00 
140000 3.8432154759e+00 2.1943235273e-04 2.0221503434e+00 -3.5024671354e+00 2.0221503434e+00 3.5024671354e+00 
140100 3.8432154744e+00 2.1880288327e-04 2.0221449177e+00 -3.5024577378e+00 2.0221449177e+00 3.5024577378e+00 
140200 3.8432154730e+00 2.1817522358e-04 2.0221395076e+00 -3.5024483671e+00 2.0221395076e+00 3.5024483671e+00 
140300 3.8432154716e+00 2.1754936846e-04 2.0221341129e+00 -3.5024390233e+00 2.0221341129e+00 3.5024390233e+00 
140400 3.8432154701e+00 2.1692531269e-04 2.0221287337e+00 -3.5024297062e+00 2.0221287337e+00 3.5024297062e+00 
140500 3.8432154687e+00 2.1630305108e-04 2.0221233699e+00 -3.5024204159e+00 2.0221233699e+00 3.5024204159e+00 
140600 3.8432154673e+00 2.1568257846e-04 2.0221180215e+00 -3.5024111521e+00 2.0221180215e+00 3.5024111521e+00 
140700 3.8432154659e+00 2.1506388967e-04 2.0221126884e+00 -3.5024019150e+00 2.0221126884e+00 3.5024019150e+00 
140800 3.8432154645e+00 2.1444697957e-04 2.0221073706e+00 -3.5023927043e+00 2.0221073706e+00 3.5023927043e+00 
140900 3.8432154631e+00 2.1383184301e-04 2.0221020681e+00 -3.5023835200e+00 2.0221020681e+00 3.5023835200e+00 
141000 3.8432154617e+00 2.1321847490e-04 2.0220967807e+00 -3.5023743620e+00 2.0220967807e+00 3.5023743620e+00 
141100 3.8432154603e+00 2.1260687012e-04 2.0220915085e+00 -3.5023652302e+00 2.0220915085e+00 3.5023652302e+00 
141200 3.8432154589e+00 2.1199702359e-04 2.0220862514e+00 -3.5023561247e+00 2.0220862514e+00 3.5023561247e+00 
141300 3.8432154576e+00 2.1138893025e-04 2.0220810093e+00 -3.5023470452e+00 2.0220810093e+00 3.5023470452e+00 
141400 3.8432154562e+00 2.1078258502e-04 2.0220757823e+00 -3.5023379918e+00 2.0220757823e+00 3.5023379918e+00 
141500 3.8432154549e+00 2.1017798288e-04 2.0220705703e+00 -3.5023289643e+00 2.0220705703e+00 3.5023289643e+00 
141600 3.8432154536e+00 2.0957511879e-04 2.0220653732e+00 -3.5023199626e+00 2.0220653732e+00 3.5023199626e+00 
141700 3.8432154522e+00 2.0897398775e-04 2.0220601910e+00 -3.5023109868e+00 2.0220601910e+00 3.5023109868e+00 
141800 3.8432154509e+00 2.0837458475e-04 2.0220550237e+00 -3.5023020367e+00 2.0220550237e+00 3.5023020367e+00 
141900 3.8432154496e+00 2.0777690480e-04 2.0220498711e+00 -3.5022931122e+00 2.0220498711e+00 3.5022931122e+00 
142000 3.8432154483e+00 2.0718094295e-04 2.0220447333e+00 -3.5022842133e+00 2.0220447333e+00 3.5022842133e+00 
142100 3.8432154470e+00 2.0658669423e-04 2.0220396103e+00 -3.5022753399e+00 2.0220396103e+00 3.5022753399e+00 
142200 3.8432154457e+00 2.0599415371e-04 2.0220345019e+00 -3.5022664920e+00 2.0220345019e+00 3.5022664920e+00 
142300 3.8432154444e+00 2.0540331645e-04 2.0220294082e+00 -3.5022576694e+00 2.0220294082e+00 3.5022576694e+00 
142400 3.8432154431e+00 2.0481417755e-04 2.0220243290e+00 -3.5022488720e+00 2.0220243290e+00 3.5022488720e+00 
142500 3.8432154419e+00 2.0422673210e-04 2.0220192645e+00 -3.5022400999e+00 2.0220192645e+00 3.5022400999e+00 
142600 3.8432154406e+00 2.0364097523e-04 2.0220142144e+00 -3.5022313530e+00 2.0220142144e+00 3.5022313530e+00 
142700 3.8432154393e+00 2.0305690206e-04 2.0220091788e+00 -3.5022226311e+00 2.0220091788e+00 3.5022226311e+00 
142800 3.8432154381e+00 2.0247450774e-04 2.0220041576e+00 -3.5022139341e+00 2.0220041576e+00 3.5022139341e+00 
142900 3.8432154368e+00 2.0189378743e-04 2.0219991509e+00 -3.5022052622e+00 2.0219991509e+00 3.5022052622e+00 
143000 3.8432154356e+00 2.0131473630e-04 2.0219941584e+00 -3.5021966150e+00 2.0219941584e+00 3.5021966150e+00 
143100 3.8432154344e+00 2.0073734953e-04 2.0219891803e+00 -3.5021879927e+00 2.0219891803e+00 3.5021879927e+00 
143200 3.8432154332e+00 2.0016162233e-04 2.0219842165e+00 -3.5021793950e+00 2.0219842165e+00 3.5021793950e+00 
143300 3.8432154320e+00 1.9958754991e-04 2.0219792668e+00 -3.5021708220e+00 2.0219792668e+00 3.5021708220e+00 
143400 3.8432154307e+00 1.9901512750e-04 2.0219743314e+00 -3.5021622735e+00 2.0219743314e+00 3.5021622735e+00 
143500 3.8432154295e+00 1.9844435033e-04 2.0219694101e+00 -3.5021537496e+00 2.0219694101e+00 3.5021537496e+00 
143600 3.8432154284e+00 1.9787521367e-04 2.0219645029e+00 -3.5021452501e+00 2.0219645029e+00 3.5021452501e+00 
143700 3.8432154272e+00 1.9730771279e-04 2.0219596097e+00 -3.5021367749e+00 2.0219596097e+00 3.5021367749e+00 
143800 3.8432154260e+00 1.9674184297e-04 2.0219547306e+00 -3.5021283240e+00 2.0219547306e+00 3.5021283240e+00 
143900 3.8432154248e+00 1.9617759949e-04 2.0219498655e+00 -3.5021198974e+00 2.0219498655e+00 3.5021198974e+00 
144000 3.8432154237e+00 1.9561497769e-04 2.0219450143e+00 -3.5021114948e+00 2.0219450143e+00 3.5021114948e+00 
144100 3.8432154225e+00 1.9505397287e-04 2.0219401770e+00 -3.5021031164e+00 2.0219401770e+00 3.5021031164e+00 
144200 3.8432154213e+00 1.9449458038e-04 2.0219353535e+00 -3.5020947620e+00 2.0219353535e+00 3.5020947620e+00 
144300 3.8432154202e+00 1.9393679557e-04 2.0219305439e+00 -3.5020864315e+00 2.0219305439e+00 3.5020864315e+00 
144400 3.8432154191e+00 1.9338061379e-04 2.0219257481e+00 -3.5020781248e+00 2.0219257481e+00 3.5020781248e+00 
144500 3.8432154179e+00 1.9282603044e-04 2.0219209660e+00 -3.5020698420e+00 2.0219209660e+00 3.5020698420e+00 
144600 3.8432154168e+00 1.9227304090e-04 2.0219161976e+00 -3.5020615829e+00 2.0219161976e+00 3.5020615829e+00 
144700 3.8432154157e+00 1.9172164057e-04 2.0219114429e+00 -3.5020533475e+00 2.0219114429e+00 3.5020533475e+00 
144800 3.8432154146e+00 1.9117182487e-04 2.0219067018e+00 -3.5020451357e+00 2.0219067018e+00 3.5020451357e+00 
144900 3.8432154135e+00 1.9062358924e-04 2.0219019743e+00 -3.5020369474e+00 2.0219019743e+00 3.5020369474e+00 
145000 3.8432154124e+00 1.9007692912e-04 2.0218972603e+00 -3.5020287826e+00 2.0218972603e+00 3.5020287826e+00 
145100 3.8432154113e+00 1.8953183996e-04 2.0218925599e+00 -3.5020206411e+00 2.0218925599e+00 3.5020206411e+00 
145200 3.8432154102e+00 1.8898831723e-04 2.0218878729e+00 -3.5020125230e+00 2.0218878729e+00 3.5020125230e+00 
145300 3.8432154091e+00 1.8844635642e-04 2.0218831993e+00 -3.5020044282e+00 2.0218831993e+00 3.5020044282e+00 
145400 3.8432154080e+00 1.8790595303e-04 2.0218785392e+00 -3.5019963566e+00 2.0218785392e+00 3.5019963566e+00 
145500 3.8432154069e+00 1.8736710257e-04 2.0218738923e+00 -3.5019883080e+00 2.0218738923e+00 3.5019883080e+00 
145600 3.8432154059e+00 1.8682980056e-04 2.0218692588e+00 -3.5019802826e+00 2.0218692588e+00 3.5019802826e+00 
145700 3.8432154048e+00 1.8629404252e-04 2.0218646386e+00 -3.5019722801e+00 2.0218646386e+00 3.5019722801e+00 
145800 3.8432154038e+00 1.8575982402e-04 2.0218600316e+00 -3.5019643006e+00 2.0218600316e+00 3.5019643006e+00 
145900 3.8432154027e+00 1.8522714062e-04 2.0218554379e+00 -3.5019563439e+00 2.0218554379e+00 3.5019563439e+00 
146000 3.8432154017e+00 1.8469598788e-04 2.0218508572e+00 -3.5019484101e+00 2.0218508572e+00 3.5019484101e+00 
146100 3.8432154007e+00 1.8416636140e-04 2.0218462897e+00 -3.5019404989e+00 2.0218462897e+00 3.5019404989e+00 
146200 3.8432153996e+00 1.8363825678e-04 2.0218417353e+00 -3.5019326105e+00 2.0218417353e+00 3.5019326105e+00 
146300 3.8432153986e+00 1.8311166962e-04 2.0218371940e+00 -3.5019247446e+00 2.0218371940e+00 3.5019247446e+00 
146400 3.8432153976e+00 1.8258659556e-04 2.0218326656e+00 -3.5019169013e+00 2.0218326656e+00 3.5019169013e+00 
146500 3.8432153966e+00 1.8206303022e-04 2.0218281503e+00 -3.5019090804e+00 2.0218281503e+00 3.5019090804e+00 
146600 3.8432153956e+00 1.8154096927e-04 2.0218236478e+00 -3.5019012820e+00 2.0218236478e+00 3.5019012820e+00 
146700 3.8432153946e+00 1.8102040837e-04 2.0218191583e+00 -3.5018935059e+00 2.0218191583e+00 3.5018935059e+00 
146800 3.8432153936e+00 1.8050134318e-04 2.0218146816e+00 -3.5018857520e+00 2.0218146816e+00 3.5018857520e+00 
146900 3.8432153926e+00 1.7998376941e-04 2.0218102178e+00 -3.5018780204e+00 2.0218102178e+00 3.5018780204e+00 
147000 3.8432153916e+00 1.7946768275e-04 2.0218057667e+00 -3.5018703110e+00 2.0218057667e+00 3.5018703110e+00 
147100 3.8432153906e+00 1.7895307891e-04 2.0218013284e+00 -3.5018626236e+00 2.0218013284e+00 3.5018626236e+00 
147200 3.8432153897e+00 1.7843995361e-04 2.0217969028e+00 -3.5018549583e+00 2.0217969028e+00 3.5018549583e+00 
147300 3.8432153887e+00 1.7792830261e-04 2.0217924899e+00 -3.5018473149e+00 2.0217924899e+00 3.5018473149e+00 
147400 3.8432153877e+00 1.7741812164e-04 2.0217880897e+00 -3.5018396934e+00 2.0217880897e+00 3.5018396934e+00 
147500 3.8432153868e+00 1.7690940647e-04 2.0217837020e+00 -3.5018320938e+00 2.0217837020e+00 3.5018320938e+00 
147600 3.8432153858e+00 1.7640215288e-04 2.0217793269e+00 -3.5018245159e+00 2.0217793269e+00 3.5018245159e+00 
147700 3.8432153849e+00 1.7589635665e-04 2.0217749644e+00 -3.5018169598e+00 2.0217749644e+00 3.5018169598e+00 
147800 3.8432153840e+00 1.7539201358e-04 2.0217706143e+00 -3.5018094253e+00 2.0217706143e+00 3.5018094253e+00 
147900 3.8432153830e+00 1.7488911948e-04 2.0217662768e+00 -3.5018019124e+00 2.0217662768e+00 3.5018019124e+00 
148000 3.8432153821e+00 1.7438767018e-04 2.0217619516e+00 -3.5017944210e+00 2.0217619516e+00 3.5017944210e+00 
148100 3.8432153812e+00 1.7388766150e-04 2.0217576388e+00 -3.5017869511e+00 2.0217576388e+00 3.5017869511e+00 
148200 3.8432153803e+00 1.7338908931e-04 2.0217533384e+00 -3.5017795025e+00 2.0217533384e+00 3.5017795025e+00 
148300 3.8432153794e+00 1.7289194946e-04 2.0217490504e+00 -3.5017720754e+00 2.0217490504e+00 3.5017720754e+00 
148400 3.8432153785e+00 1.7239623782e-04 2.0217447746e+00 -3.5017646695e+00 2.0217447746e+00 3.5017646695e+00 
148500 3.8432153776e+00 1.7190195027e-04 2.0217405110e+00 -3.5017572848e+00 2.0217405110e+00 3.5017572848e+00 
148600 3.8432153767e+00 1.7140908271e-04 2.0217362597e+00 -3.5017499213e+00 2.0217362597e+00 3.5017499213e+00 
148700 3.8432153758e+00 1.7091763105e-04 2.0217320205e+00 -3.5017425788e+00 2.0217320205e+00 3.5017425788e+00 
148800 3.8432153749e+00 1.7042759121e-04 2.0217277935e+00 -3.5017352574e+00 2.0217277935e+00 3.5017352574e+00 
148900 3.8432153740e+00 1.6993895911e-04 2.0217235786e+00 -3.5017279570e+00 2.0217235786e+00 3.5017279570e+00 
149000 3.8432153731e+00 1.6945173071e-04 2.0217193758e+00 -3.5017206775e+00 2.0217193758e+00 3.5017206775e+00 
149100 3.8432153723e+00 1.6896590194e-04 2.0217151850e+00 -3.5017134189e+00 2.0217151850e+00 3.5017134189e+00 
149200 3.8432153714e+00 1.6848146880e-04 2.0217110062e+00 -3.5017061810e+00 2.0217110062e+00 3.5017061810e+00 
149300 3.8432153705e+00 1.6799842724e-04 2.0217068394e+00 -3.5016989639e+00 2.0217068394e+00 3.5016989639e+00 
149400 3.8432153697e+00 1.6751677326e-04 2.0217026846e+00 -3.5016917675e+00 2.0217026846e+00 3.5016917675e+00 
149500 3.8432153688e+00 1.6703650286e-04 2.0216985416e+00 -3.5016845916e+00 2.0216985416e+00 3.5016845916e+00 
149600 3.8432153680e+00 1.6655761205e-04 2.0216944105e+00 -3.5016774364e+00 2.0216944105e+00 3.5016774364e+00 
149700 3.8432153671e+00 1.6608009686e-04 2.0216902913e+00 -3.5016703016e+00 2.0216902913e+00 3.5016703016e+00 
149800 3.8432153663e+00 1.6560395332e-04 2.0216861838e+00 -3.5016631873e+00 2.0216861838e+00 3.5016631873e+00 
149900 3.8432153655e+00 1.6512917748e-04 2.0216820881e+00 -3.5016560934e+00 2.0216820881e+00 3.5016560934e+00 
150000 3.8432153646e+00 1.6465576541e-04 2.0216780042e+00 -3.5016490197e+00 2.0216780042e+00 3.5016490197e+00 
150100 3.8432153638e+00 1.6418371316e-04 2.0216739319e+00 -3.5016419664e+00 2.0216739319e+00 3.5016419664e+00 
150200 3.8432153630e+00 1.6371301682e-04 2.0216698713e+00 -3.5016349333e+00 2.0216698713e+00 3.5016349333e+00 
150300 3.8432153622e+00 1.6324367249e-04 2.0216658224e+00 -3.5016279203e+00 2.0216658224e+00 3.5016279203e+00 
150400 3.8432153614e+00 1.6277567626e-04 2.0216617850e+00 -3.5016209274e+00 2.0216617850e+00 3.5016209274e+00 
150500 3.8432153606e+00 1.6230902426e-04 2.0216577592e+00 -3.5016139545e+00 2.0216577592e+00 3.5016139545e+00 
150600 3.8432153598e+00 1.6184371261e-04 2.0216537450e+00 -3.5016070016e+00 2.0216537450e+00 3.5016070016e+00 
150700 3.8432153590e+00 1.6137973745e-04 2.0216497422e+00 -3.5016000686e+00 2.0216497422e+00 3.5016000686e+00 
150800 3.8432153582e+00 1.6091709492e-04 2.0216457509e+00 -3.5015931555e+00 2.0216457509e+00 3.5015931555e+00 
150900 3.8432153574e+00 1.6045578119e-04 2.0216417711e+00 -3.5015862622e+00 2.0216417711e+00 3.5015862622e+00 
151000 3.8432153566e+00 1.5999579243e-04 2.0216378026e+00 -3.5015793886e+00 2.0216378026e+00 3.5015793886e+00 
151100 3.8432153559e+00 1.5953712482e-04 2.0216338455e+00 -3.5015725348e+00 2.0216338455e+00 3.5015725348e+00 
151200 3.8432153551e+00 1.5907977455e-04 2.0216298998e+00 -3.5015657005e+00 2.0216298998e+00 3.5015657005e+00 
151300 3.8432153543e+00 1.5862373784e-04 2.0216259654e+00 -3.5015588859e+00 2.0216259654e+00 3.5015588859e+00 
151400 3.8432153536e+00 1.5816901089e-04 2.0216220422e+00 -3.5015520908e+00 2.0216220422e+00 3.5015520908e+00 
151500 3.8432153528e+00 1.5771558992e-04 2.0216181302e+00 -3.5015453151e+00 2.0216181302e+00 3.5015453151e+00 
151600 3.8432153521e+00 1.5726347119e-04 2.0216142295e+00 -3.5015385588e+00 2.0216142295e+00 3.5015385588e+00 
151700 3.8432153513e+00 1.5681265093e-04 2.0216103400e+00 -3.5015318219e+00 2.0216103400e+00 3.5015318219e+00 
151800 3.8432153506e+00 1.5636312541e-04 2.0216064616e+00 -3.5015251043e+00 2.0216064616e+00 3.5015251043e+00 
151900 3.8432153498e+00 1.5591489090e-04 2.0216025943e+00 -3.5015184060e+00 2.0216025943e+00 3.5015184060e+00 
152000 3.8432153491e+00 1.5546794367e-04 2.0215987380e+00 -3.5015117268e+00 2.0215987380e+00 3.5015117268e+00 
152100 3.8432153483e+00 1.5502228001e-04 2.0215948929e+00 -3.5015050668e+00 2.0215948929e+00 3.5015050668e+00 
152200 3.8432153476e+00 1.5457789624e-04 2.0215910587e+00 -3.5014984258e+00 2.0215910587e+00 3.5014984258e+00 
152300 3.8432153469e+00 1.5413478866e-04 2.0215872355e+00 -3.5014918039e+00 2.0215872355e+00 3.5014918039e+00 
152400 3.8432153462e+00 1.5369295359e-04 2.0215834233e+00 -3.5014852009e+00 2.0215834233e+00 3.5014852009e+00 
152500 3.8432153455e+00 1.5325238738e-04 2.0215796220e+00 -3.5014786169e+00 2.0215796220e+00 3.5014786169e+00 
152600 3.8432153447e+00 1.5281308636e-04 2.0215758316e+00 -3.5014720517e+00 2.0215758316e+00 3.5014720517e+00 
152700 3.8432153440e+00 1.5237504689e-04 2.0215720521e+00 -3.5014655053e+00 2.0215720521e+00 3.5014655053e+00 
152800 3.8432153433e+00 1.5193826534e-04 2.0215682833e+00 -3.5014589777e+00 2.0215682833e+00 3.5014589777e+00 
152900 3.8432153426e+00 1.5150273808e-04 2.0215645254e+00 -3.5014524688e+00 2.0215645254e+00 3.5014524688e+00 
153000 3.8432153419e+00 1.5106846150e-04 2.0215607782e+00 -3.5014459785e+00 2.0215607782e+00 3.5014459785e+00 
153100 3.8432153412e+00 1.5063543199e-04 2.0215570418e+00 -3.5014395068e+00 2.0215570418e+00 3.5014395068e+00 
153200 3.8432153406e+00 1.5020364597e-04 2.0215533161e+00 -3.5014330537e+00 2.0215533161e+00 3.5014330537e+00 
153300 3.8432153399e+00 1.4977309986e-04 2.0215496010e+00 -3.5014266190e+00 2.0215496010e+00 3.5014266190e+00 
153400 3.8432153392e+00 1.4934379007e-04 2.0215458966e+00 -3.5014202028e+00 2.0215458966e+00 3.5014202028e+00 
153500 3.8432153385e+00 1.4891571306e-04 2.0215422028e+00 -3.5014138049e+00 2.0215422028e+00 3.5014138049e+00 
153600 3.8432153378e+00 1.4848886526e-04 2.0215385196e+00 -3.5014074254e+00 2.0215385196e+00 3.5014074254e+00 
153700 3.8432153372e+00 1.4806324315e-04 2.0215348469e+00 -3.5014010642e+00 2.0215348469e+00 3.5014010642e+00 
153800 3.8432153365e+00 1.4763884318e-04 2.0215311848e+00 -3.5013947211e+00 2.0215311848e+00 3.5013947211e+00 
153900 3.8432153359e+00 1.4721566184e-04 2.0215275331e+00 -3.5013883963e+00 2.0215275331e+00 3.5013883963e+00 
154000 3.8432153352e+00 1.4679369562e-04 2.0215238919e+00 -3.5013820895e+00 2.0215238919e+00 3.5013820895e+00 
154100 3.8432153345e+00 1.4637294102e-04 2.0215202612e+00 -3.5013758009e+00 2.0215202612e+00 3.5013758009e+00 
154200 3.8432153339e+00 1.4595339455e-04 2.0215166408e+00 -3.5013695302e+00 2.0215166408e+00 3.5013695302e+00 
154300 3.8432153333e+00 1.4553505273e-04 2.0215130308e+00 -3.5013632775e+00 2.0215130308e+00 3.5013632775e+00 
154400 3.8432153326e+00 1.4511791209e-04 2.0215094311e+00 -3.5013570427e+00 2.0215094311e+00 3.5013570427e+00 
154500 3.8432153320e+00 1.4470196917e-04 2.0215058418e+00 -3.5013508258e+00 2.0215058418e+00 3.5013508258e+00 
154600 3.8432153313e+00 1.4428722052e-04 2.0215022627e+00 -3.5013446267e+00 2.0215022627e+00 3.5013446267e+00 
154700 3.8432153307e+00 1.4387366270e-04 2.0214986939e+00 -3.5013384453e+00 2.0214986939e+00 3.5013384453e+00 
154800 3.8432153301e+00 1.4346129229e-04 2.0214951353e+00 -3.5013322817e+00 2.0214951353e+00 3.5013322817e+00 
154900 3.8432153295e+00 1.4305010585e-04 2.0214915869e+00 -3.5013261357e+00 2.0214915869e+00 3.5013261357e+00 
155000 3.8432153288e+00 1.4264010000e-04 2.0214880487e+00 -3.5013200073e+00 2.0214880487e+00 3.5013200073e+00 
155100 3.8432153282e+00 1.4223127131e-04 2.0214845206e+00 -3.5013138964e+00 2.0214845206e+00 3.5013138964e+00 
155200 3.8432153276e+00 1.4182361641e-04 2.0214810026e+00 -3.5013078031e+00 2.0214810026e+00 3.5013078031e+00 
155300 3.8432153270e+00 1.4141713191e-04 2.0214774947e+00 -3.5013017272e+00 2.0214774947e+00 3.5013017272e+00 
155400 3.8432153264e+00 1.4101181445e-04 2.0214739968e+00 -3.5012956687e+00 2.0214739968e+00 3.5012956687e+00 
155500 3.8432153258e+00 1.4060766066e-04 2.0214705090e+00 -3.5012896276e+00 2.0214705090e+00 3.5012896276e+00 
155600 3.8432153252e+00 1.4020466718e-04 2.0214670311e+00 -3.5012836038e+00 2.0214670311e+00 3.5012836038e+00 
155700 3.8432153246e+00 1.3980283069e-04 2.0214635633e+00 -3.5012775972e+00 2.0214635633e+00 3.5012775972e+00 
155800 3.8432153240e+00 1.3940214785e-04 2.0214601053e+00 -3.5012716078e+00 2.0214601053e+00 3.5012716078e+00 
155900 3.8432153234e+00 1.3900261534e-04 2.0214566572e+00 -3.5012656356e+00 2.0214566572e+00 3.5012656356e+00 
156000 3.8432153228e+00 1.3860422983e-04 2.0214532191e+00 -3.5012596805e+00 2.0214532191e+00 3.5012596805e+00 
156100 3.8432153222e+00 1.3820698805e-04 2.0214497907e+00 -3.5012537425e+00 2.0214497907e+00 3.5012537425e+00 
156200 3.8432153217e+00 1.3781088667e-04 2.0214463722e+00 -3.5012478215e+00 2.0214463722e+00 3.5012478215e+00 
156300 3.8432153211e+00 1.3741592244e-04 2.0214429635e+00 -3.5012419174e+00 2.0214429635e+00 3.5012419174e+00 
156400 3.8432153205e+00 1.3702209206e-04 2.0214395645e+00 -3.5012360302e+00 2.0214395645e+00 3.5012360302e+00 
156500 3.8432153199e+00 1.3662939228e-04 2.0214361753e+00 -3.5012301599e+00 2.0214361753e+00 3.5012301599e+00 
156600 3.8432153194e+00 1.3623781984e-04 2.0214327958e+00 -3.5012243064e+00 2.0214327958e+00 3.5012243064e+00 
156700 3.8432153188e+00 1.3584737150e-04 2.0214294260e+00 -3.5012184697e+00 2.0214294260e+00 3.5012184697e+00 
156800 3.8432153183e+00 1.3545804401e-04 2.0214260658e+00 -3.5012126497e+00 2.0214260658e+00 3.5012126497e+00 
156900 3.8432153177e+00 1.3506983416e-04 2.0214227152e+00 -3.5012068464e+00 2.0214227152e+00 3.5012068464e+00 
157000 3.8432153171e+00 1.3468273872e-04 2.0214193743e+00 -3.5012010597e+00 2.0214193743e+00 3.5012010597e+00 
157100 3.8432153166e+00 1.3429675448e-04 2.0214160429e+00 -3.5011952895e+00 2.0214160429e+00 3.5011952895e+00 
157200 3.8432153160e+00 1.3391187825e-04 2.0214127211e+00 -3.5011895359e+00 2.0214127211e+00 3.5011895359e+00 
157300 3.8432153155e+00 1.3352810684e-04 2.0214094087e+00 -3.5011837988e+00 2.0214094087e+00 3.5011837988e+00 
157400 3.8432153150e+00 1.3314543706e-04 2.0214061059e+00 -3.5011780781e+00 2.0214061059e+00 3.5011780781e+00 
157500 3.8432153144e+00 1.3276386575e-04 2.0214028125e+00 -3.5011723738e+00 2.0214028125e+00 3.5011723738e+00 
157600 3.8432153139e+00 1.3238338973e-04 2.0213995285e+00 -3.5011666858e+00 2.0213995285e+00 3.5011666858e+00 
157700 3.8432153134e+00 1.3200400587e-04 2.0213962540e+00 -3.5011610141e+00 2.0213962540e+00 3.5011610141e+00 
157800 3.8432153128e+00 1.3162571101e-04 2.0213929888e+00 -3.5011553587e+00 2.0213929888e+00 3.5011553587e+00 
157900 3.8432153123e+00 1.3124850202e-04 2.0213897330e+00 -3.5011497195e+00 2.0213897330e+00 3.5011497195e+00 
158000 3.8432153118e+00 1.3087237577e-04 2.0213864865e+00 -3.5011440964e+00 2.0213864865e+00 3.5011440964e+00 
158100 3.8432153113e+00 1.3049732915e-04 2.0213832493e+00 -3.5011384894e+00 2.0213832493e+00 3.5011384894e+00 
158200 3.8432153107e+00 1.3012335905e-04 2.0213800214e+00 -3.5011328985e+00 2.0213800214e+00 3.5011328985e+00 
158300 3.8432153102e+00 1.2975046236e-04 2.0213768027e+00 -3.5011273236e+00 2.0213768027e+00 3.5011273236e+00 
158400 3.8432153097e+00 1.2937863601e-04 2.0213735933e+00 -3.5011217646e+00 2.0213735933e+00 3.5011217646e+00 
158500 3.8432153092e+00 1.2900787691e-04 2.0213703930e+00 -3.5011162216e+00 2.0213703930e+00 3.5011162216e+00 
158600 3.8432153087e+00 1.2863818198e-04 2.0213672019e+00 -3.5011106945e+00 2.0213672019e+00 3.5011106945e+00 
158700 3.8432153082e+00 1.2826954817e-04 2.0213640199e+00 -3.5011051831e+00 2.0213640199e+00 3.5011051831e+00 
158800 3.8432153077e+00 1.2790197242e-04 2.0213608471e+00 -3.5010996876e+00 2.0213608471e+00 3.5010996876e+00 
158900 3.8432153072e+00 1.2753545168e-04 2.0213576833e+00 -3.5010942078e+00 2.0213576833e+00 3.5010942078e+00 
159000 3.8432153067e+00 1.2716998291e-04 2.0213545286e+00 -3.5010887437e+00 2.0213545286e+00 3.5010887437e+00 
159100 3.8432153062e+00 1.2680556310e-04 2.0213513830e+00 -3.5010832953e+00 2.0213513830e+00 3.5010832953e+00 
159200 3.8432153057e+00 1.2644218922e-04 2.0213482463e+00 -3.5010778624e+00 2.0213482463e+00 3.5010778624e+00 
159300 3.8432153053e+00 1.2607985826e-04 2.0213451187e+00 -3.5010724452e+00 2.0213451187e+00 3.5010724452e+00 
159400 3.8432153048e+00 1.2571856721e-04 2.0213420000e+00 -3.5010670434e+00 2.0213420000e+00 3.5010670434e+00 
159500 3.8432153043e+00 1.2535831309e-04 2.0213388902e+00 -3.5010616571e+00 2.0213388902e+00 3.5010616571e+00 
159600 3.8432153038e+00 1.2499909291e-04 2.0213357893e+00 -3.5010562862e+00 2.0213357893e+00 3.5010562862e+00 
159700 3.8432153033e+00 1.2464090370e-04 2.0213326973e+00 -3.5010509307e+00 2.0213326973e+00 3.5010509307e+00 
159800 3.8432153029e+00 1.2428374249e-04 2.0213296142e+00 -3.5010455906e+00 2.0213296142e+00 3.5010455906e+00 
159900 3.8432153024e+00 1.2392760631e-04 2.0213265399e+00 -3.5010402657e+00 2.0213265399e+00 3.5010402657e+00 
160000 3.8432153019e+00 1.2357249222e-04 2.0213234744e+00 -3.5010349561e+00 2.0213234744e+00 3.5010349561e+00 
160100 3.8432153015e+00 1.2321839728e-04 2.0213204176e+00 -3.5010296617e+00 2.0213204176e+00 3.5010296617e+00 
160200 3.8432153010e+00 1.2286531856e-04 2.0213173697e+00 -3.5010243825e+00 2.0213173697e+00 3.5010243825e+00 
160300 3.8432153006e+00 1.2251325312e-04 2.0213143304e+00 -3.5010191184e+00 2.0213143304e+00 3.5010191184e+00 
160400 3.8432153001e+00 1.2216219806e-04 2.0213112999e+00 -3.5010138693e+00 2.0213112999e+00 3.5010138693e+00 
160500 3.8432152997e+00 1.2181215047e-04 2.0213082781e+00 -3.5010086353e+00 2.0213082781e+00 3.5010086353e+00 
160600 3.8432152992e+00 1.2146310744e-04 2.0213052649e+00 -3.5010034163e+00 2.0213052649e+00 3.5010034163e+00 
160700 3.8432152988e+00 1.2111506609e-04 2.0213022603e+00 -3.5009982123e+00 2.0213022603e+00 3.5009982123e+00 
160800 3.8432152983e+00 1.2076802353e-04 2.0212992643e+00 -3.5009930231e+00 2.0212992643e+00 3.5009930231e+00 
160900 3.8432152979e+00 1.2042197690e-04 2.0212962769e+00 -3.5009878488e+00 2.0212962769e+00 3.5009878488e+00 
161000 3.8432152974e+00 1.2007692331e-04 2.0212932981e+00 -3.5009826893e+00 2.0212932981e+00 3.5009826893e+00 
161100 3.8432152970e+00 1.1973285993e-04 2.0212903278e+00 -3.5009775446e+00 2.0212903278e+00 3.5009775446e+00 
161200 3.8432152966e+00 1.1938978389e-04 2.0212873660e+00 -3.5009724146e+00 2.0212873660e+00 3.5009724146e+00 
161300 3.8432152961e+00 1.1904769236e-04 2.0212844127e+00 -3.5009672993e+00 2.0212844127e+00 3.5009672993e+00 
161400 3.8432152957e+00 1.1870658250e-04 2.0212814678e+00 -3.5009621987e+00 2.0212814678e+00 3.5009621987e+00 
161500 3.8432152953e+00 1.1836645148e-04 2.0212785314e+00 -3.5009571127e+00 2.0212785314e+00 3.5009571127e+00 
161600 3.8432152948e+00 1.1802729651e-04 2.0212756034e+00 -3.5009520412e+00 2.0212756034e+00 3.5009520412e+00 
161700 3.8432152944e+00 1.1768911475e-04 2.0212726838e+00 -3.5009469843e+00 2.0212726838e+00 3.5009469843e+00 
161800 3.8432152940e+00 1.1735190342e-04 2.0212697725e+00 -3.5009419418e+00 2.0212697725e+00 3.5009419418e+00 
161900 3.8432152936e+00 1.1701565972e-04 2.0212668696e+00 -3.5009369138e+00 2.0212668696e+00 3.5009369138e+00 
162000 3.8432152932e+00 1.1668038086e-04 2.0212639750e+00 -3.5009319002e+00 2.0212639750e+00 3.5009319002e+00 
162100 3.8432152928e+00 1.1634606408e-04 2.0212610887e+00 -3.5009269010e+00 2.0212610887e+00 3.5009269010e+00 
162200 3.8432152923e+00 1.1601270660e-04 2.0212582106e+00 -3.5009219160e+00 2.0212582106e+00 3.5009219160e+00 
162300 3.8432152919e+00 1.1568030567e-04 2.0212553408e+00 -3.5009169454e+00 2.0212553408e+00 3.5009169454e+00 
162400 3.8432152915e+00 1.1534885852e-04 2.0212524792e+00 -3.5009119889e+00 2.0212524792e+00 3.5009119889e+00 
162500 3.8432152911e+00 1.1501836242e-04 2.0212496258e+00 -3.5009070467e+00 2.0212496258e+00 3.5009070467e+00 
162600 3.8432152907e+00 1.1468881463e-04 2.0212467806e+00 -3.5009021186e+00 2.0212467806e+00 3.5009021186e+00 
162700 3.8432152903e+00 1.1436021243e-04 2.0212439435e+00 -3.5008972046e+00 2.0212439435e+00 3.5008972046e+00 
162800 3.8432152899e+00 1.1403255309e-04 2.0212411146e+00 -3.5008923047e+00 2.0212411146e+00 3.5008923047e+00 
162900 3.8432152895e+00 1.1370583389e-04 2.0212382937e+00 -3.5008874189e+00 2.0212382937e+00 3.5008874189e+00 
163000 3.8432152891e+00 1.1338005215e-04 2.0212354809e+00 -3.5008825470e+00 2.0212354809e+00 3.5008825470e+00 
163100 3.8432152888e+00 1.1305520515e-04 2.0212326762e+00 -3.5008776891e+00 2.0212326762e+00 3.5008776891e+00 
163200 3.8432152884e+00 1.1273129021e-04 2.0212298795e+00 -3.5008728451e+00 2.0212298795e+00 3.5008728451e+00 
163300 3.8432152880e+00 1.1240830464e-04 2.0212270908e+00 -3.5008680150e+00 2.0212270908e+00 3.5008680150e+00 
163400 3.8432152876e+00 1.1208624578e-04 2.0212243101e+00 -3.5008631986e+00 2.0212243101e+00 3.5008631986e+00 
163500 3.8432152872e+00 1.1176511096e-04 2.0212215374e+00 -3.5008583961e+00 2.0212215374e+00 3.5008583961e+00 
163600 3.8432152868e+00 1.1144489752e-04 2.0212187726e+00 -3.5008536074e+00 2.0212187726e+00 3.5008536074e+00 
163700 3.8432152865e+00 1.1112560281e-04 2.0212160157e+00 -3.5008488323e+00 2.0212160157e+00 3.5008488323e+00 
163800 3.8432152861e+00 1.1080722419e-04 2.0212132668e+00 -3.5008440710e+00 2.0212132668e+00 3.5008440710e+00 
163900 3.8432152857e+00 1.1048975902e-04 2.0212105257e+00 -3.5008393232e+00 2.0212105257e+00 3.5008393232e+00 
164000 3.8432152853e+00 1.1017320468e-04 2.0212077924e+00 -3.5008345891e+00 2.0212077924e+00 3.5008345891e+00 
164100 3.8432152850e+00 1.0985755853e-04 2.0212050670e+00 -3.5008298685e+00 2.0212050670e+00 3.5008298685e+00 
164200 3.8432152846e+00 1.0954281798e-04 2.0212023493e+00 -3.5008251614e+00 2.0212023493e+00 3.5008251614e+00 
164300 3.8432152842e+00 1.0922898042e-04 2.0211996395e+00 -3.5008204679e+00 2.0211996395e+00 3.5008204679e+00 
164400 3.8432152839e+00 1.0891604325e-04 2.0211969374e+00 -3.5008157877e+00 2.0211969374e+00 3.5008157877e+00 
164500 3.8432152835e+00 1.0860400388e-04 2.0211942431e+00 -3.5008111210e+00 2.0211942431e+00 3.5008111210e+00 
164600 3.8432152832e+00 1.0829285972e-04 2.0211915564e+00 -3.5008064676e+00 2.0211915564e+00 3.5008064676e+00 
164700 3.8432152828e+00 1.0798260821e-04 2.0211888775e+00 -3.5008018275e+00 2.0211888775e+00 3.5008018275e+00 
164800 3.8432152825e+00 1.0767324678e-04 2.0211862062e+00 -3.5007972008e+00 2.0211862062e+00 3.5007972008e+00 
164900 3.8432152821e+00 1.0736477286e-04 2.0211835426e+00 -3.5007925873e+00 2.0211835426e+00 3.5007925873e+00 
165000 3.8432152818e+00 1.0705718390e-04 2.0211808866e+00 -3.5007879870e+00 2.0211808866e+00 3.5007879870e+00 
165100 3.8432152814e+00 1.0675047736e-04 2.0211782383e+00 -3.5007833998e+00 2.0211782383e+00 3.5007833998e+00 
165200 3.8432152811e+00 1.0644465070e-04 2.0211755975e+00 -3.5007788258e+00 2.0211755975e+00 3.5007788258e+00 
165300 3.8432152807e+00 1.0613970139e-04 2.0211729642e+00 -3.5007742649e+00 2.0211729642e+00 3.5007742649e+00 
165400 3.8432152804e+00 1.0583562691e-04 2.0211703385e+00 -3.5007697171e+00 2.0211703385e+00 3.5007697171e+00 
165500 3.8432152800e+00 1.0553242473e-04 2.0211677204e+00 -3.5007651823e+00 2.0211677204e+00 3.5007651823e+00 
165600 3.8432152797e+00 1.0523009236e-04 2.0211651097e+00 -3.5007606605e+00 2.0211651097e+00 3.5007606605e+00 
165700 3.8432152794e+00 1.0492862729e-04 2.0211625065e+00 -3.5007561516e+00 2.0211625065e+00 3.5007561516e+00 
165800 3.8432152790e+00 1.0462802702e-04 2.0211599107e+00 -3.5007516556e+00 2.0211599107e+00 3.5007516556e+00 
165900 3.8432152787e+00 1.0432828907e-04 2.0211573224e+00 -3.5007471725e+00 2.0211573224e+00 3.5007471725e+00 
166000 3.8432152784e+00 1.0402941096e-04 2.0211547415e+00 -3.5007427023e+00 2.0211547415e+00 3.5007427023e+00 
166100 3.8432152780e+00 1.0373139022e-04 2.0211521680e+00 -3.5007382448e+00 2.0211521680e+00 3.5007382448e+00 
166200 3.8432152777e+00 1.0343422438e-04 2.0211496019e+00 -3.5007338001e+00 2.0211496019e+00 3.5007338001e+00 
166300 3.8432152774e+00 1.0313791098e-04 2.0211470431e+00 -3.5007293681e+00 2.0211470431e+00 3.5007293681e+00 
166400 3.8432152771e+00 1.0284244757e-04 2.0211444916e+00 -3.5007249489e+00 2.0211444916e+00 3.5007249489e+00 
166500 3.8432152767e+00 1.0254783170e-04 2.0211419474e+00 -3.5007205422e+00 2.0211419474e+00 3.5007205422e+00 
166600 3.8432152764e+00 1.0225406095e-04 2.0211394105e+00 -3.5007161482e+00 2.0211394105e+00 3.5007161482e+00 
166700 3.8432152761e+00 1.0196113288e-04 2.0211368809e+00 -3.5007117668e+00 2.0211368809e+00 3.5007117668e+00 
166800 3.8432152758e+00 1.0166904506e-04 2.0211343586e+00 -3.5007073980e+00 2.0211343586e+00 3.5007073980e+00 
166900 3.8432152755e+00 1.0137779508e-04 2.0211318434e+00 -3.5007030416e+00 2.0211318434e+00 3.5007030416e+00 
167000 3.8432152752e+00 1.0108738054e-04 2.0211293355e+00 -3.5006986977e+00 2.0211293355e+00 3.5006986977e+00 
167100 3.8432152749e+00 1.0079779902e-04 2.0211268347e+00 -3.5006943662e+00 2.0211268347e+00 3.5006943662e+00 
167200 3.8432152745e+00 1.0050904814e-04 2.0211243411e+00 -3.5006900472e+00 2.0211243411e+00 3.5006900472e+00 
167300 3.8432152742e+00 1.0022112550e-04 2.0211218546e+00 -3.5006857405e+00 2.0211218546e+00 3.5006857405e+00 
167400 3.8432152739e+00 9.9934028727e-05 2.0211193753e+00 -3.5006814462e+00 2.0211193753e+00 3.5006814462e+00 
167500 3.8432152736e+00 9.9647755442e-05 2.0211169031e+00 -3.5006771641e+00 2.0211169031e+00 3.5006771641e+00 
167600 3.8432152733e+00 9.9362303280e-05 2.0211144379e+00 -3.5006728943e+00 2.0211144379e+00 3.5006728943e+00 
167700 3.8432152730e+00 9.9077669877e-05 2.0211119798e+00 -3.5006686368e+00 2.0211119798e+00 3.5006686368e+00 
167800 3.8432152727e+00 9.8793852881e-05 2.0211095287e+00 -3.5006643914e+00 2.0211095287e+00 3.5006643914e+00 
167900 3.8432152724e+00 9.8510849944e-05 2.0211070847e+00 -3.5006601582e+00 2.0211070847e+00 3.5006601582e+00 
168000 3.8432152721e+00 9.8228658727e-05 2.0211046476e+00 -3.5006559371e+00 2.0211046476e+00 3.5006559371e+00 
168100 3.8432152718e+00 9.7947276894e-05 2.0211022175e+00 -3.5006517281e+00 2.0211022175e+00 3.5006517281e+00 
168200 3.8432152716e+00 9.7666702120e-05 2.0210997944e+00 -3.5006475311e+00 2.0210997944e+00 3.5006475311e+00 
168300 3.8432152713e+00 9.7386932084e-05 2.0210973782e+00 -3.5006433462e+00 2.0210973782e+00 3.5006433462e+00 
168400 3.8432152710e+00 9.7107964471e-05 2.0210949690e+00 -3.5006391732e+00 2.0210949690e+00 3.5006391732e+00 
168500 3.8432152707e+00 9.6829796977e-05 2.0210925666e+00 -3.5006350122e+00 2.0210925666e+00 3.5006350122e+00 
168600 3.8432152704e+00 9.6552427300e-05 2.0210901711e+00 -3.5006308631e+00 2.0210901711e+00 3.5006308631e+00 
168700 3.8432152701e+00 9.6275853146e-05 2.0210877825e+00 -3.5006267259e+00 2.0210877825e+00 3.5006267259e+00 
168800 3.8432152698e+00 9.6000072229e-05 2.0210854007e+00 -3.5006226005e+00 2.0210854007e+00 3.5006226005e+00 
168900 3.8432152696e+00 9.5725082267e-05 2.0210830258e+00 -3.5006184870e+00 2.0210830258e+00 3.5006184870e+00 
169000 3.8432152693e+00 9.5450880989e-05 2.0210806576e+00 -3.5006143852e+00 2.0210806576e+00 3.5006143852e+00 
169100 3.8432152690e+00 9.5177466126e-05 2.0210782962e+00 -3.5006102952e+00 2.0210782962e+00 3.5006102952e+00 
169200 3.8432152687e+00 9.4904835417e-05 2.0210759416e+00 -3.5006062168e+00 2.0210759416e+00 3.5006062168e+00 
169300 3.8432152685e+00 9.4632986609e-05 2.0210735937e+00 -3.5006021502e+00 2.0210735937e+00 3.5006021502e+00 
169400 3.8432152682e+00 9.4361917454e-05 2.0210712526e+00 -3.5005980952e+00 2.0210712526e+00 3.5005980952e+00 
169500 3.8432152679e+00 9.4091625709e-05 2.0210689181e+00 -3.5005940518e+00 2.0210689181e+00 3.5005940518e+00 
169600 3.8432152677e+00 9.3822109143e-05 2.0210665904e+00 -3.5005900200e+00 2.0210665904e+00 3.5005900200e+00 
169700 3.8432152674e+00 9.3553365524e-05 2.0210642693e+00 -3.5005859997e+00 2.0210642693e+00 3.5005859997e+00 
169800 3.8432152671e+00 9.3285392632e-05 2.0210619548e+00 -3.5005819910e+00 2.0210619548e+00 3.5005819910e+00 
169900 3.8432152669e+00 9.3018188252e-05 2.0210596470e+00 -3.5005779937e+00 2.0210596470e+00 3.5005779937e+00 
170000 3.8432152666e+00 9.2751750174e-05 2.0210573457e+00 -3.5005740078e+00 2.0210573457e+00 3.5005740078e+00 
170100 3.8432152663e+00 9.2486076196e-05 2.0210550511e+00 -3.5005700334e+00 2.0210550511e+00 3.5005700334e+00 
170200 3.8432152661e+00 9.2221164122e-05 2.0210527630e+00 -3.5005660704e+00 2.0210527630e+00 3.5005660704e+00 
170300 3.8432152658e+00 9.1957011761e-05 2.0210504815e+00 -3.5005621187e+00 2.0210504815e+00 3.5005621187e+00 
170400 3.8432152656e+00 9.1693616930e-05 2.0210482066e+00 -3.5005581783e+00 2.0210482066e+00 3.5005581783e+00 
170500 3.8432152653e+00 9.1430977451e-05 2.0210459381e+00 -3.5005542492e+00 2.0210459381e+00 3.5005542492e+00 
170600 3.8432152651e+00 9.1169091155e-05 2.0210436761e+00 -3.5005503313e+00 2.0210436761e+00 3.5005503313e+00 
170700 3.8432152648e+00 9.0907955874e-05 2.0210414206e+00 -3.5005464247e+00 2.0210414206e+00 3.5005464247e+00 
170800 3.8432152645e+00 9.0647569453e-05 2.0210391716e+00 -3.5005425293e+00 2.0210391716e+00 3.5005425293e+00 
170900 3.8432152643e+00 9.0387929737e-05 2.0210369290e+00 -3.5005386450e+00 2.0210369290e+00 3.5005386450e+00 
171000 3.8432152641e+00 9.0129034581e-05 2.0210346928e+00 -3.5005347718e+00 2.0210346928e+00 3.5005347718e+00 
171100 3.8432152638e+00 8.9870881845e-05 2.0210324630e+00 -3.5005309097e+00 2.0210324630e+00 3.5005309097e+00 
171200 3.8432152636e+00 8.9613469395e-05 2.0210302396e+00 -3.5005270587e+00 2.0210302396e+00 3.5005270587e+00 
171300 3.8432152633e+00 8.9356795105e-05 2.0210280226e+00 -3.5005232187e+00 2.0210280226e+00 3.5005232187e+00 
171400 3.8432152631e+00 8.9100856851e-05 2.0210258119e+00 -3.5005193897e+00 2.0210258119e+00 3.5005193897e+00 
171500 3.8432152628e+00 8.8845652519e-05 2.0210236076e+00 -3.5005155717e+00 2.0210236076e+00 3.5005155717e+00 
171600 3.8432152626e+00 8.8591180001e-05 2.0210214096e+00 -3.5005117645e+00 2.0210214096e+00 3.5005117645e+00 
171700 3.8432152624e+00 8.8337437192e-05 2.0210192178e+00 -3.5005079683e+00 2.0210192178e+00 3.5005079683e+00 
171800 3.8432152621e+00 8.8084421995e-05 2.0210170324e+00 -3.5005041830e+00 2.0210170324e+00 3.5005041830e+00 
171900 3.8432152619e+00 8.7832132320e-05 2.0210148531e+00 -3.5005004085e+00 2.0210148531e+00 3.5005004085e+00 
172000 3.8432152616e+00 8.7580566082e-05 2.0210126802e+00 -3.5004966448e+00 2.0210126802e+00 3.5004966448e+00 
172100 3.8432152614e+00 8.7329721202e-05 2.0210105134e+00 -3.5004928919e+00 2.0210105134e+00 3.5004928919e+00 
172200 3.8432152612e+00 8.7079595607e-05 2.0210083529e+00 -3.5004891497e+00 2.0210083529e+00 3.5004891497e+00 
172300 3.8432152610e+00 8.6830187228e-05 2.0210061985e+00 -3.5004854182e+00 2.0210061985e+00 3.5004854182e+00 
172400 3.8432152607e+00 8.6581494007e-05 2.0210040503e+00 -3.5004816975e+00 2.0210040503e+00 3.5004816975e+00 
172500 3.8432152605e+00 8.6333513888e-05 2.0210019083e+00 -3.5004779873e+00 2.0210019083e+00 3.5004779873e+00 
172600 3.8432152603e+00 8.6086244821e-05 2.0209997724e+00 -3.5004742878e+00 2.0209997724e+00 3.5004742878e+00 
172700 3.8432152600e+00 8.5839684764e-05 2.0209976426e+00 -3.5004705989e+00 2.0209976426e+00 3.5004705989e+00 
172800 3.8432152598e+00 8.5593831679e-05 2.0209955189e+00 -3.5004669206e+00 2.0209955189e+00 3.5004669206e+00 
172900 3.8432152596e+00 8.5348683534e-05 2.0209934013e+00 -3.5004632528e+00 2.0209934013e+00 3.5004632528e+00 
173000 3.8432152594e+00 8.5104238304e-05 2.0209912897e+00 -3.5004595955e+00 2.0209912897e+00 3.5004595955e+00 
173100 3.8432152592e+00 8.4847980673e-05 2.0209891842e+00 -3.5004559486e+00 2.0209891842e+00 3.5004559486e+00 
173200 3.8432152590e+00 8.4579597513e-05 2.0209870850e+00 -3.5004523127e+00 2.0209870850e+00 3.5004523127e+00 
173300 3.8432152588e+00 8.4312290030e-05 2.0209849925e+00 -3.5004486884e+00 2.0209849925e+00 3.5004486884e+00 
173400 3.8432152585e+00 8.4047715233e-05 2.0209829066e+00 -3.5004450754e+00 2.0209829066e+00 3.5004450754e+00 
173500 3.8432152583e+00 8.3782492651e-05 2.0209808272e+00 -3.5004414739e+00 2.0209808272e+00 3.5004414739e+00 
173600 3.8432152581e+00 8.3516240633e-05 2.0209787544e+00 -3.5004378836e+00 2.0209787544e+00 3.5004378836e+00 
173700 3.8432152579e+00 8.3251057524e-05 2.0209766882e+00 -3.5004343048e+00 2.0209766882e+00 3.5004343048e+00 
173800 3.8432152577e+00 8.2990755769e-05 2.0209746285e+00 -3.5004307374e+00 2.0209746285e+00 3.5004307374e+00 
173900 3.8432152575e+00 8.2727613626e-05 2.0209725753e+00 -3.5004271810e+00 2.0209725753e+00 3.5004271810e+00 
174000 3.8432152573e+00 8.2465512603e-05 2.0209705285e+00 -3.5004236360e+00 2.0209705285e+00 3.5004236360e+00 
174100 3.8432152571e+00 8.2206243857e-05 2.0209684883e+00 -3.5004201022e+00 2.0209684883e+00 3.5004201022e+00 
174200 3.8432152569e+00 8.1946153421e-05 2.0209664545e+00 -3.5004165795e+00 2.0209664545e+00 3.5004165795e+00 
174300 3.8432152568e+00 8.1685009133e-05 2.0209644271e+00 -3.5004130679e+00 2.0209644271e+00 3.5004130679e+00 
174400 3.8432152566e+00 8.1424896507e-05 2.0209624061e+00 -3.5004095676e+00 2.0209624061e+00 3.5004095676e+00 
174500 3.8432152564e+00 8.1169737687e-05 2.0209603916e+00 -3.5004060783e+00 2.0209603916e+00 3.5004060783e+00 
174600 3.8432152562e+00 8.0911590059e-05 2.0209583834e+00 -3.5004026000e+00 2.0209583834e+00 3.5004026000e+00 
174700 3.8432152560e+00 8.0654446438e-05 2.0209563816e+00 -3.5003991328e+00 2.0209563816e+00 3.5003991328e+00 
174800 3.8432152558e+00 8.0400213586e-05 2.0209543861e+00 -3.5003956766e+00 2.0209543861e+00 3.5003956766e+00 
174900 3.8432152556e+00 8.0146939789e-05 2.0209523970e+00 -3.5003922312e+00 2.0209523970e+00 3.5003922312e+00 
175000 3.8432152554e+00 7.9892666385e-05 2.0209504141e+00 -3.5003887968e+00 2.0209504141e+00 3.5003887968e+00 
175100 3.8432152552e+00 7.9637315004e-05 2.0209484375e+00 -3.5003853732e+00 2.0209484375e+00 3.5003853732e+00 
175200 3.8432152551e+00 7.9382952938e-05 2.0209464672e+00 -3.5003819605e+00 2.0209464672e+00 3.5003819605e+00 
175300 3.8432152549e+00 7.9129571318e-05 2.0209445032e+00 -3.5003785588e+00 2.0209445032e+00 3.5003785588e+00 
175400 3.8432152547e+00 7.8879162804e-05 2.0209425454e+00 -3.5003751679e+00 2.0209425454e+00 3.5003751679e+00 
175500 3.8432152545e+00 7.8627672685e-05 2.0209405939e+00 -3.5003717877e+00 2.0209405939e+00 3.5003717877e+00 
175600 3.8432152543e+00 7.8375103625e-05 2.0209386486e+00 -3.5003684183e+00 2.0209386486e+00 3.5003684183e+00 
175700 3.8432152542e+00 7.8127583302e-05 2.0209367095e+00 -3.5003650597e+00 2.0209367095e+00 3.5003650597e+00 
175800 3.8432152540e+00 7.7880971475e-05 2.0209347765e+00 -3.5003617117e+00 2.0209347765e+00 3.5003617117e+00 
175900 3.8432152538e+00 7.7631169814e-05 2.0209328497e+00 -3.5003583743e+00 2.0209328497e+00 3.5003583743e+00 
176000 3.8432152536e+00 7.7382322880e-05 2.0209309290e+00 -3.5003550476e+00 2.0209309290e+00 3.5003550476e+00 
176100 3.8432152535e+00 7.7134422920e-05 2.0209290145e+00 -3.5003517316e+00 2.0209290145e+00 3.5003517316e+00 
176200 3.8432152533e+00 7.6885444755e-05 2.0209271061e+00 -3.5003484261e+00 2.0209271061e+00 3.5003484261e+00 
176300 3.8432152531e+00 7.6639442916e-05 2.0209252039e+00 -3.5003451314e+00 2.0209252039e+00 3.5003451314e+00 
176400 3.8432152529e+00 7.6392352873e-05 2.0209233077e+00 -3.5003418472e+00 2.0209233077e+00 3.5003418472e+00 
176500 3.8432152528e+00 7.6146209357e-05 2.0209214177e+00 -3.5003385735e+00 2.0209214177e+00 3.5003385735e+00 
176600 3.8432152526e+00 7.5901005233e-05 2.0209195337e+00 -3.5003353104e+00 2.0209195337e+00 3.5003353104e+00 
176700 3.8432152524e+00 7.5656733521e-05 2.0209176558e+00 -3.5003320578e+00 2.0209176558e+00 3.5003320578e+00 
176800 3.8432152523e+00 7.5413387403e-05 2.0209157840e+00 -3.5003288157e+00 2.0209157840e+00 3.5003288157e+00 
176900 3.8432152521e+00 7.5173121317e-05 2.0209139182e+00 -3.5003255840e+00 2.0209139182e+00 3.5003255840e+00 
177000 3.8432152519e+00 7.4931562957e-05 2.0209120583e+00 -3.5003223626e+00 2.0209120583e+00 3.5003223626e+00 
177100 3.8432152518e+00 7.4688917525e-05 2.0209102044e+00 -3.5003191516e+00 2.0209102044e+00 3.5003191516e+00 
177200 3.8432152516e+00 7.4447201292e-05 2.0209083565e+00 -3.5003159509e+00 2.0209083565e+00 3.5003159509e+00 
177300 3.8432152515e+00 7.4210591419e-05 2.0209065146e+00 -3.5003127606e+00 2.0209065146e+00 3.5003127606e+00 
177400 3.8432152513e+00 7.3970645674e-05 2.0209046785e+00 -3.5003095804e+00 2.0209046785e+00 3.5003095804e+00 
177500 3.8432152511e+00 7.3731611234e-05 2.0209028484e+00 -3.5003064105e+00 2.0209028484e+00 3.5003064105e+00 
177600 3.8432152510e+00 7.3493482066e-05 2.0209010241e+00 -3.5003032509e+00 2.0209010241e+00 3.5003032509e+00 
177700 3.8432152508e+00 7.3254274749e-05 2.0208992058e+00 -3.5003001014e+00 2.0208992058e+00 3.5003001014e+00 
177800 3.8432152507e+00 7.3017964481e-05 2.0208973934e+00 -3.5002969622e+00 2.0208973934e+00 3.5002969622e+00 
177900 3.8432152505e+00 7.2780569180e-05 2.0208955868e+00 -3.5002938332e+00 2.0208955868e+00 3.5002938332e+00 
178000 3.8432152504e+00 7.2544084132e-05 2.0208937861e+00 -3.5002907143e+00 2.0208937861e+00 3.5002907143e+00 
178100 3.8432152502e+00 7.2308503581e-05 2.0208919913e+00 -3.5002876055e+00 2.0208919913e+00 3.5002876055e+00 
178200 3.8432152501e+00 7.2073821878e-05 2.0208902022e+00 -3.5002845068e+00 2.0208902022e+00 3.5002845068e+00 
178300 3.8432152499e+00 7.1840033486e-05 2.0208884190e+00 -3.5002814182e+00 2.0208884190e+00 3.5002814182e+00 
178400 3.8432152498e+00 7.1607132978e-05 2.0208866416e+00 -3.5002783396e+00 2.0208866416e+00 3.5002783396e+00 
178500 3.8432152496e+00 7.1373156402e-05 2.0208848699e+00 -3.5002752709e+00 2.0208848699e+00 3.5002752709e+00 
178600 3.8432152495e+00 7.1142041208e-05 2.0208831040e+00 -3.5002722123e+00 2.0208831040e+00 3.5002722123e+00 
178700 3.8432152493e+00 7.0909843882e-05 2.0208813438e+00 -3.5002691636e+00 2.0208813438e+00 3.5002691636e+00 
178800 3.8432152492e+00 7.0682780017e-05 2.0208795894e+00 -3.5002661249e+00 2.0208795894e+00 3.5002661249e+00 
178800 3.8432152492e+00 7.0682780017e-05 2.0208795894e+00 -3.5002661249e+00 2.0208795894e+00 3.5002661249e+00 
