# step Hamiltonian StressXX CellTensor1 CellTensor2 CellTensor3 CellTensor4 
0 5.0429474466e+00 -1.7050538807e-01 1.7438352029e+00 -3.0204111715e+00 1.7438352029e+00 3.0204111715e+00 
100 5.0345101704e+00 -1.7051498929e-01 1.7438352029e+00 -3.0204111715e+00 1.7438352029e+00 3.0204111715e+00 
200 5.0262043822e+00 -1.6664733665e-01 1.7487265609e+00 -3.0288832520e+00 1.7487265609e+00 3.0288832520e+00 
300 5.0189030567e+00 -1.6292278129e-01 1.7534935385e+00 -3.0371398995e+00 1.7534935385e+00 3.0371398995e+00 
400 5.0124881498e+00 -1.5933454177e-01 1.7581412469e+00 -3.0451899665e+00 1.7581412469e+00 3.0451899665e+00 
500 5.0068464299e+00 -1.5587765916e-01 1.7626745234e+00 -3.0530418318e+00 1.7626745234e+00 3.0530418318e+00 
600 5.0018703660e+00 -1.5254848169e-01 1.7670979908e+00 -3.0607035020e+00 1.7670979908e+00 3.0607035020e+00 
700 4.9974589033e+00 -1.4934421584e-01 1.7714160998e+00 -3.0681826862e+00 1.7714160998e+00 3.0681826862e+00 
800 4.9935181106e+00 -1.4626254289e-01 1.7756331583e+00 -3.0754868458e+00 1.7756331583e+00 3.0754868458e+00 
900 4.9899616896e+00 -1.4330129930e-01 1.7797533493e+00 -3.0826232259e+00 1.7797533493e+00 3.0826232259e+00 
1000 4.9867113423e+00 -1.4045821829e-01 1.7837807389e+00 -3.0895988693e+00 1.7837807389e+00 3.0895988693e+00 
1100 4.9836969935e+00 -1.3773072916e-01 1.7877192771e+00 -3.0964206177e+00 1.7877192771e+00 3.0964206177e+00 
1200 4.9808568740e+00 -1.3511581024e-01 1.7915727928e+00 -3.1030951027e+00 1.7915727928e+00 3.1030951027e+00 
1300 4.9781374688e+00 -1.3260989071e-01 1.7953449842e+00 -3.1096287298e+00 1.7953449842e+00 3.1096287298e+00 
1400 4.9754933420e+00 -1.3020879620e-01 1.7990394068e+00 -3.1160276575e+00 1.7990394068e+00 3.1160276575e+00 
1500 4.9728868493e+00 -1.2790773247e-01 1.8026594599e+00 -3.1222977733e+00 1.8026594599e+00 3.1222977733e+00 
1600 4.9702877533e+00 -1.2570130169e-01 1.8062083722e+00 -3.1284446696e+00 1.8062083722e+00 3.1284446696e+00 
1700 4.9676727562e+00 -1.2358354544e-01 1.8096891883e+00 -3.1344736200e+00 1.8096891883e+00 3.1344736200e+00 
1800 4.9650249669e+00 -1.2154800899e-01 1.8131047564e+00 -3.1403895576e+00 1.8131047564e+00 3.1403895576e+00 
1900 4.9623333178e+00 -1.1958782145e-01 1.8164577175e+00 -3.1461970564e+00 1.8164577175e+00 3.1461970564e+00 
2000 4.9595919489e+00 -1.1769578679e-01 1.8197504964e+00 -3.1519003169e+00 1.8197504964e+00 3.1519003169e+00 
2100 4.9567995721e+00 -1.1586448144e-01 1.8229852966e+00 -3.1575031551e+00 1.8229852966e+00 3.1575031551e+00 
2200 4.9539588319e+00 -1.1408635431e-01 1.8261640958e+00 -3.1630089970e+00 1.8261640958e+00 3.1630089970e+00 
2300 4.9510756742e+00 -1.1235382588e-01 1.8292886459e+00 -3.1684208764e+00 1.8292886459e+00 3.1684208764e+00 
2400 4.9481587336e+00 -1.1065938368e-01 1.8323604741e+00 -3.1737414390e+00 1.8323604741e+00 3.1737414390e+00 
2500 4.9452187500e+00 -1.0899567173e-01 1.8353808876e+00 -3.1789729486e+00 1.8353808876e+00 3.1789729486e+00 
2600 4.9422680211e+00 -1.0735557239e-01 1.8383509799e+00 -3.1841172994e+00 1.8383509799e+00 3.1841172994e+00 
2700 4.9393198968e+00 -1.0573227937e-01 1.8412716395e+00 -3.1891760301e+00 1.8412716395e+00 3.1891760301e+00 
2800 4.9363883197e+00 -1.0411936119e-01 1.8441435600e+00 -3.1941503423e+00 1.8441435600e+00 3.1941503423e+00 
2900 4.9334874153e+00 -1.0251081472e-01 1.8469672524e+00 -3.1990411211e+00 1.8469672524e+00 3.1990411211e+00 
3000 4.9306311318e+00 -1.0090110874e-01 1.8497430582e+00 -3.2038489577e+00 1.8497430582e+00 3.2038489577e+00 
3100 4.9278329305e+00 -9.9285217901e-02 1.8524711633e+00 -3.2085741743e+00 1.8524711633e+00 3.2085741743e+00 
3200 4.9251055264e+00 -9.7658647383e-02 1.8551516131e+00 -3.2132168497e+00 1.8551516131e+00 3.2132168497e+00 
3300 4.9224606757e+00 -9.6017448898e-02 1.8577843281e+00 -3.2177768457e+00 1.8577843281e+00 3.2177768457e+00 
3400 4.9199090094e+00 -9.4358228804e-02 1.8603691189e+00 -3.2222538348e+00 1.8603691189e+00 3.2222538348e+00 
3500 4.9174599085e+00 -9.2678149008e-02 1.8629057025e+00 -3.2266473265e+00 1.8629057025e+00 3.2266473265e+00 
3600 4.9151214191e+00 -9.0974921497e-02 1.8653937175e+00 -3.2309566949e+00 1.8653937175e+00 3.2309566949e+00 
3700 4.9129002022e+00 -8.9246797257e-02 1.8678327393e+00 -3.2351812045e+00 1.8678327393e+00 3.2351812045e+00 
3800 4.9108015151e+00 -8.7492550358e-02 1.8702222947e+00 -3.2393200359e+00 1.8702222947e+00 3.2393200359e+00 
3900 4.9088292210e+00 -8.5711457917e-02 1.8725618766e+00 -3.2433723107e+00 1.8725618766e+00 3.2433723107e+00 
4000 4.9069858221e+00 -8.3903276618e-02 1.8748509571e+00 -3.2473371143e+00 1.8748509571e+00 3.2473371143e+00 
4100 4.9052725139e+00 -8.2068216395e-02 1.8770890002e+00 -3.2512135187e+00 1.8770890002e+00 3.2512135187e+00 
4200 4.9036892554e+00 -8.0206911854e-02 1.8792754743e+00 -3.2550006029e+00 1.8792754743e+00 3.2550006029e+00 
4300 4.9022348537e+00 -7.8320391906e-02 1.8814098626e+00 -3.2586974720e+00 1.8814098626e+00 3.2586974720e+00 
4400 4.9009070589e+00 -7.6410048083e-02 1.8834916742e+00 -3.2623032754e+00 1.8834916742e+00 3.2623032754e+00 
4500 4.8997026666e+00 -7.4477601907e-02 1.8855204527e+00 -3.2658172228e+00 1.8855204527e+00 3.2658172228e+00 
4600 4.8986176257e+00 -7.2525071671e-02 1.8874957851e+00 -3.2692385988e+00 1.8874957851e+00 3.2692385988e+00 
4700 4.8976471495e+00 -7.0554738934e-02 1.8894173089e+00 -3.2725667757e+00 1.8894173089e+00 3.2725667757e+00 
4800 4.8967858265e+00 -6.8569115001e-02 1.8912847192e+00 -3.2758012252e+00 1.8912847192e+00 3.2758012252e+00 
4900 4.8960277314e+00 -6.6570907632e-02 1.8930977740e+00 -3.2789415283e+00 1.8930977740e+00 3.2789415283e+00 
5000 4.8953665325e+00 -6.4562988203e-02 1.8948562992e+00 -3.2819873833e+00 1.8948562992e+00 3.2819873833e+00 
5100 4.8947955962e+00 -6.2548359510e-02 1.8965601924e+00 -3.2849386129e+00 1.8965601924e+00 3.2849386129e+00 
5200 4.8943080853e+00 -6.0530124427e-02 1.8982094260e+00 -3.2877951693e+00 1.8982094260e+00 3.2877951693e+00 
5300 4.8938970523e+00 -5.8511455559e-02 1.8998040496e+00 -3.2905571384e+00 1.8998040496e+00 3.2905571384e+00 
5400 4.8935555251e+00 -5.6495566094e-02 1.9013441914e+00 -3.2932247423e+00 1.9013441914e+00 3.2932247423e+00 
5500 4.8932765860e+00 -5.4485681975e-02 1.9028300591e+00 -3.2957983406e+00 1.9028300591e+00 3.2957983406e+00 
5600 4.8930534428e+00 -5.2485015572e-02 1.9042619397e+00 -3.2982784305e+00 1.9042619397e+00 3.2982784305e+00 
5700 4.8928794916e+00 -5.0496740968e-02 1.9056401992e+00 -3.3006656460e+00 1.9056401992e+00 3.3006656460e+00 
5800 4.8927483720e+00 -4.8523970997e-02 1.9069652812e+00 -3.3029607552e+00 1.9069652812e+00 3.3029607552e+00 
5900 4.8926540138e+00 -4.6569736145e-02 1.9082377050e+00 -3.3051646580e+00 1.9082377050e+00 3.3051646580e+00 
6000 4.8925906762e+00 -4.4636965417e-02 1.9094580639e+00 -3.3072783816e+00 1.9094580639e+00 3.3072783816e+00 
6100 4.8925529783e+00 -4.2728469231e-02 1.9106270217e+00 -3.3093030759e+00 1.9106270217e+00 3.3093030759e+00 
6200 4.8925359234e+00 -4.0846924419e-02 1.9117453099e+00 -3.3112400079e+00 1.9117453099e+00 3.3112400079e+00 
6300 4.8925349153e+00 -3.8994861349e-02 1.9128137244e+00 -3.3130905560e+00 1.9128137244e+00 3.3130905560e+00 
6400 4.8925457685e+00 -3.7174653182e-02 1.9138331211e+00 -3.3148562030e+00 1.9138331211e+00 3.3148562030e+00 
6500 4.8925647120e+00 -3.5388507257e-02 1.9148044126e+00 -3.3165385292e+00 1.9148044126e+00 3.3165385292e+00 
6600 4.8925883879e+00 -3.3638458541e-02 1.9157285632e+00 -3.3181392050e+00 1.9157285632e+00 3.3181392050e+00 
6700 4.8926138443e+00 -3.1926365081e-02 1.9166065849e+00 -3.3196599832e+00 1.9166065849e+00 3.3196599832e+00 
6800 4.8926385251e+00 -3.0253905372e-02 1.9174395330e+00 -3.3211026917e+00 1.9174395330e+00 3.3211026917e+00 
6900 4.8926602546e+00 -2.8622577505e-02 1.9182285013e+00 -3.3224692248e+00 1.9182285013e+00 3.3224692248e+00 
7000 4.8926772198e+00 -2.7033699975e-02 1.9189746176e+00 -3.3237615362e+00 1.9189746176e+00 3.3237615362e+00 
7100 4.8926879501e+00 -2.5488413986e-02 1.9196790395e+00 -3.3249816306e+00 1.9196790395e+00 3.3249816306e+00 
7200 4.8926912942e+00 -2.3987687090e-02 1.9203429495e+00 -3.3261315565e+00 1.9203429495e+00 3.3261315565e+00 
7300 4.8926863967e+00 -2.2532317998e-02 1.9209675511e+00 -3.3272133983e+00 1.9209675511e+00 3.3272133983e+00 
7400 4.8926726724e+00 -2.1122942367e-02 1.9215540645e+00 -3.3282292693e+00 1.9215540645e+00 3.3282292693e+00 
7500 4.8926497811e+00 -1.9760039413e-02 1.9221037225e+00 -3.3291813048e+00 1.9221037225e+00 3.3291813048e+00 
7600 4.8926176014e+00 -1.8443939163e-02 1.9226177665e+00 -3.3300716552e+00 1.9226177665e+00 3.3300716552e+00 
7700 4.8925762055e+00 -1.7174830196e-02 1.9230974434e+00 -3.3309024799e+00 1.9230974434e+00 3.3309024799e+00 
7800 4.8925258339e+00 -1.5952767709e-02 1.9235440015e+00 -3.3316759412e+00 1.9235440015e+00 3.3316759412e+00 
7900 4.8924668713e+00 -1.4777681788e-02 1.9239586877e+00 -3.3323941987e+00 1.9239586877e+00 3.3323941987e+00 
8000 4.8923998232e+00 -1.3649385755e-02 1.9243427441e+00 -3.3330594039e+00 1.9243427441e+00 3.3330594039e+00 
8100 4.8923252943e+00 -1.2567584474e-02 1.9246974056e+00 -3.3336736956e+00 1.9246974056e+00 3.3336736956e+00 
8200 4.8922439674e+00 -1.1531882548e-02 1.9250238969e+00 -3.3342391952e+00 1.9250238969e+00 3.3342391952e+00 
8300 4.8921565843e+00 -1.0541792315e-02 1.9253234303e+00 -3.3347580023e+00 1.9253234303e+00 3.3347580023e+00 
8400 4.8920639286e+00 -9.5967415929e-03 1.9255972036e+00 -3.3352321916e+00 1.9255972036e+00 3.3352321916e+00 
8500 4.8919668088e+00 -8.6960811238e-03 1.9258463977e+00 -3.3356638084e+00 1.9258463977e+00 3.3356638084e+00 
8600 4.8918660445e+00 -7.8390916966e-03 1.9260721751e+00 -3.3360548663e+00 1.9260721751e+00 3.3360548663e+00 
8700 4.8917624533e+00 -7.0249909157e-03 1.9262756781e+00 -3.3364073438e+00 1.9262756781e+00 3.3364073438e+00 
8800 4.8916568389e+00 -6.2529396140e-03 1.9264580274e+00 -3.3367231821e+00 1.9264580274e+00 3.3367231821e+00 
8900 4.8915499817e+00 -5.5220479054e-03 1.9266203208e+00 -3.3370042825e+00 1.9266203208e+00 3.3370042825e+00 
9000 4.8914426303e+00 -4.8313808828e-03 1.9267636318e+00 -3.3372525044e+00 1.9267636318e+00 3.3372525044e+00 
9100 4.8913354940e+00 -4.1799639704e-03 1.9268890087e+00 -3.3374696636e+00 1.9268890087e+00 3.3374696636e+00 
9200 4.8912292374e+00 -3.5667879443e-03 1.9269974737e+00 -3.3376575306e+00 1.9269974737e+00 3.3376575306e+00 
9300 4.8911244754e+00 -2.9908136383e-03 1.9270900223e+00 -3.3378178294e+00 1.9270900223e+00 3.3378178294e+00 
9400 4.8910217700e+00 -2.4509763513e-03 1.9271676220e+00 -3.3379522361e+00 1.9271676220e+00 3.3379522361e+00 
9500 4.8909216276e+00 -1.9461899751e-03 1.9272312125e+00 -3.3380623780e+00 1.9272312125e+00 3.3380623780e+00 
9600 4.8908244977e+00 -1.4753508606e-03 1.9272817046e+00 -3.3381498328e+00 1.9272817046e+00 3.3381498328e+00 
9700 4.8907307723e+00 -1.0373414402e-03 1.9273199801e+00 -3.3382161281e+00 1.9273199801e+00 3.3382161281e+00 
9800 4.8906407858e+00 -6.3103362360e-04 1.9273468917e+00 -3.3382627402e+00 1.9273468917e+00 3.3382627402e+00 
9900 4.8905548159e+00 -2.5529198069e-04 1.9273632623e+00 -3.3382910949e+00 1.9273632623e+00 3.3382910949e+00 
10000 4.8904730851e+00 9.1023271759e-05 1.9273698851e+00 -3.3383025660e+00 1.9273698851e+00 3.3383025660e+00 
10100 4.8903957627e+00 4.0905346866e-04 1.9273675238e+00 -3.3382984760e+00 1.9273675238e+00 3.3382984760e+00 
10200 4.8903229673e+00 6.9993886787e-04 1.9273569121e+00 -3.3382800960e+00 1.9273569121e+00 3.3382800960e+00 
10300 4.8902547692e+00 9.6481618432e-04 1.9273387541e+00 -3.3382486455e+00 1.9273387541e+00 3.3382486455e+00 
10400 4.8901911940e+00 1.2048162776e-03 1.9273137244e+00 -3.3382052928e+00 1.9273137244e+00 3.3382052928e+00 
10500 4.8901322257e+00 1.4210619852e-03 1.9272824681e+00 -3.3381511553e+00 1.9272824681e+00 3.3381511553e+00 
10600 4.8900778103e+00 1.6146660938e-03 1.9272456012e+00 -3.3380873000e+00 1.9272456012e+00 3.3380873000e+00 
10700 4.8900278596e+00 1.7867294431e-03 1.9272037109e+00 -3.3380147438e+00 1.9272037109e+00 3.3380147438e+00 
10800 4.8899822544e+00 1.9383391551e-03 1.9271573556e+00 -3.3379344540e+00 1.9271573556e+00 3.3379344540e+00 
10900 4.8899408492e+00 2.0705669851e-03 1.9271070657e+00 -3.3378473494e+00 1.9271070657e+00 3.3378473494e+00 
11000 4.8899034749e+00 2.1844677887e-03 1.9270533438e+00 -3.3377543003e+00 1.9270533438e+00 3.3377543003e+00 
11100 4.8898699433e+00 2.2810781002e-03 1.9269966651e+00 -3.3376561299e+00 1.9269966651e+00 3.3376561299e+00 
11200 4.8898400503e+00 2.3614148199e-03 1.9269374780e+00 -3.3375536149e+00 1.9269374780e+00 3.3375536149e+00 
11300 4.8898135792e+00 2.4264740044e-03 1.9268762045e+00 -3.3374474862e+00 1.9268762045e+00 3.3374474862e+00 
11400 4.8897903042e+00 2.4772297574e-03 1.9268132410e+00 -3.3373384300e+00 1.9268132410e+00 3.3373384300e+00 
11500 4.8897699936e+00 2.5146332174e-03 1.9267489582e+00 -3.3372270891e+00 1.9267489582e+00 3.3372270891e+00 
11600 4.8897524124e+00 2.5396116383e-03 1.9266837027e+00 -3.3371140633e+00 1.9266837027e+00 3.3371140633e+00 
11700 4.8897373251e+00 2.5530675606e-03 1.9266177968e+00 -3.3369999109e+00 1.9266177968e+00 3.3369999109e+00 
11800 4.8897244982e+00 2.5558780690e-03 1.9265515394e+00 -3.3368851497e+00 1.9265515394e+00 3.3368851497e+00 
11900 4.8897137022e+00 2.5488941343e-03 1.9264852068e+00 -3.3367702583e+00 1.9264852068e+00 3.3367702583e+00 
12000 4.8897047138e+00 2.5329400362e-03 1.9264190532e+00 -3.3366556768e+00 1.9264190532e+00 3.3366556768e+00 
12100 4.8896973174e+00 2.5088128638e-03 1.9263533114e+00 -3.3365418087e+00 1.9263533114e+00 3.3365418087e+00 
12200 4.8896913070e+00 2.4772820923e-03 1.9262881936e+00 -3.3364290213e+00 1.9262881936e+00 3.3364290213e+00 
12300 4.8896864866e+00 2.4390892320e-03 1.9262238920e+00 -3.3363176477e+00 1.9262238920e+00 3.3363176477e+00 
12400 4.8896826722e+00 2.3949475481e-03 1.9261605796e+00 -3.3362079874e+00 1.9261605796e+00 3.3362079874e+00 
12500 4.8896796918e+00 2.3455418481e-03 1.9260984110e+00 -3.3361003082e+00 1.9260984110e+00 3.3361003082e+00 
12600 4.8896773864e+00 2.2915283356e-03 1.9260375229e+00 -3.3359948469e+00 1.9260375229e+00 3.3359948469e+00 
12700 4.8896756101e+00 2.2335345272e-03 1.9259780351e+00 -3.3358918110e+00 1.9259780351e+00 3.3358918110e+00 
12800 4.8896742307e+00 2.1721592308e-03 1.9259200509e+00 -3.3357913795e+00 1.9259200509e+00 3.3357913795e+00 
12900 4.8896731293e+00 2.1079725840e-03 1.9258636584e+00 -3.3356937048e+00 1.9258636584e+00 3.3356937048e+00 
13000 4.8896722003e+00 2.0415161496e-03 1.9258089307e+00 -3.3355989137e+00 1.9258089307e+00 3.3355989137e+00 
13100 4.8896713512e+00 1.9733030660e-03 1.9257559268e+00 -3.3355071082e+00 1.9257559268e+00 3.3355071082e+00 
13200 4.8896705022e+00 1.9038182530e-03 1.9257046926e+00 -3.3354183679e+00 1.9257046926e+00 3.3354183679e+00 
13300 4.8896695857e+00 1.8335186669e-03 1.9256552610e+00 -3.3353327500e+00 1.9256552610e+00 3.3353327500e+00 
13400 4.8896685455e+00 1.7628336081e-03 1.9256076536e+00 -3.3352502914e+00 1.9256076536e+00 3.3352502914e+00 
13500 4.8896673365e+00 1.6921650742e-03 1.9255618803e+00 -3.3351710098e+00 1.9255618803e+00 3.3351710098e+00 
13600 4.8896659239e+00 1.6218881611e-03 1.9255179410e+00 -3.3350949046e+00 1.9255179410e+00 3.3350949046e+00 
13700 4.8896642820e+00 1.5523515064e-03 1.9254758255e+00 -3.3350219585e+00 1.9254758255e+00 3.3350219585e+00 
13800 4.8896623940e+00 1.4838777765e-03 1.9254355148e+00 -3.3349521383e+00 1.9254355148e+00 3.3349521383e+00 
13900 4.8896602510e+00 1.4167641919e-03 1.9253969813e+00 -3.3348853964e+00 1.9253969813e+00 3.3348853964e+00 
14000 4.8896578508e+00 1.3512830917e-03 1.9253601900e+00 -3.3348216719e+00 1.9253601900e+00 3.3348216719e+00 
14100 4.8896551976e+00 1.2876825330e-03 1.9253250984e+00 -3.3347608915e+00 1.9253250984e+00 3.3347608915e+00 
14200 4.8896523009e+00 1.2261869235e-03 1.9252916578e+00 -3.3347029708e+00 1.9252916578e+00 3.3347029708e+00 
14300 4.8896491749e+00 1.1669976859e-03 1.9252598137e+00 -3.3346478152e+00 1.9252598137e+00 3.3346478152e+00 
14400 4.8896458375e+00 1.1102939498e-03 1.9252295063e+00 -3.3345953211e+00 1.9252295063e+00 3.3345953211e+00 
14500 4.8896423098e+00 1.0562332708e-03 1.9252006710e+00 -3.3345453769e+00 1.9252006710e+00 3.3345453769e+00 
14600 4.8896386153e+00 1.0049523727e-03 1.9251732393e+00 -3.3344978638e+00 1.9251732393e+00 3.3344978638e+00 
14700 4.8896347792e+00 9.5656791113e-04 1.9251471390e+00 -3.3344526568e+00 1.9251471390e+00 3.3344526568e+00 
14800 4.8896308280e+00 9.1117725594e-04 1.9251222951e+00 -3.3344096258e+00 1.9251222951e+00 3.3344096258e+00 
14900 4.8896267889e+00 8.6885928911e-04 1.9250986297e+00 -3.3343686362e+00 1.9250986297e+00 3.3343686362e+00 
15000 4.8896226892e+00 8.2967521656e-04 1.9250760631e+00 -3.3343295497e+00 1.9250760631e+00 3.3343295497e+00 
15100 4.8896185559e+00 7.9366939062e-04 1.9250545140e+00 -3.3342922256e+00 1.9250545140e+00 3.3342922256e+00 
15200 4.8896144154e+00 7.6087014071e-04 1.9250338998e+00 -3.3342565208e+00 1.9250338998e+00 3.3342565208e+00 
15300 4.8896102930e+00 7.3129060968e-04 1.9250141373e+00 -3.3342222912e+00 1.9250141373e+00 3.3342222912e+00 
15400 4.8896062129e+00 7.0492959328e-04 1.9249951429e+00 -3.3341893919e+00 1.9249951429e+00 3.3341893919e+00 
15500 4.8896021977e+00 6.8177238023e-04 1.9249768331e+00 -3.3341576783e+00 1.9249768331e+00 3.3341576783e+00 
15600 4.8895982682e+00 6.6179159045e-04 1.9249591245e+00 -3.3341270061e+00 1.9249591245e+00 3.3341270061e+00 
15700 4.8895944434e+00 6.4494800908e-04 1.9249419348e+00 -3.3340972327e+00 1.9249419348e+00 3.3340972327e+00 
15800 4.8895907405e+00 6.3119141398e-04 1.9249251824e+00 -3.3340682167e+00 1.9249251824e+00 3.3340682167e+00 
15900 4.8895871744e+00 6.2046139456e-04 1.9249087872e+00 -3.3340398194e+00 1.9249087872e+00 3.3340398194e+00 
16000 4.8895837580e+00 6.1268815969e-04 1.9248926706e+00 -3.3340119046e+00 1.9248926706e+00 3.3340119046e+00 
16100 4.8895805024e+00 6.0779333278e-04 1.9248767557e+00 -3.3339843392e+00 1.9248767557e+00 3.3339843392e+00 
16200 4.8895774162e+00 6.0569073214e-04 1.9248609679e+00 -3.3339569939e+00 1.9248609679e+00 3.3339569939e+00 
16300 4.8895745064e+00 6.0628713476e-04 1.9248452346e+00 -3.3339297430e+00 1.9248452346e+00 3.3339297430e+00 
16400 4.8895717779e+00 6.0948302185e-04 1.9248294856e+00 -3.3339024650e+00 1.9248294856e+00 3.3339024650e+00 
16500 4.8895692338e+00 6.1517330471e-04 1.9248136535e+00 -3.3338750430e+00 1.9248136535e+00 3.3338750430e+00 
16600 4.8895668753e+00 6.2324802938e-04 1.9247976734e+00 -3.3338473647e+00 1.9247976734e+00 3.3338473647e+00 
16700 4.8895647024e+00 6.3359305893e-04 1.9247814835e+00 -3.3338193229e+00 1.9247814835e+00 3.3338193229e+00 
16800 4.8895627131e+00 6.4609073212e-04 1.9247650247e+00 -3.3337908154e+00 1.9247650247e+00 3.3337908154e+00 
16900 4.8895609045e+00 6.6062049754e-04 1.9247482411e+00 -3.3337617454e+00 1.9247482411e+00 3.3337617454e+00 
17000 4.8895592723e+00 6.7705952227e-04 1.9247310799e+00 -3.3337320213e+00 1.9247310799e+00 3.3337320213e+00 
17100 4.8895578110e+00 6.9528327445e-04 1.9247134915e+00 -3.3337015573e+00 1.9247134915e+00 3.3337015573e+00 
17200 4.8895565143e+00 7.1516607893e-04 1.9246954295e+00 -3.3336702731e+00 1.9246954295e+00 3.3336702731e+00 
17300 4.8895553752e+00 7.3658164579e-04 1.9246768509e+00 -3.3336380939e+00 1.9246768509e+00 3.3336380939e+00 
17400 4.8895543860e+00 7.5940357114e-04 1.9246577157e+00 -3.3336049508e+00 1.9246577157e+00 3.3336049508e+00 
17500 4.8895535382e+00 7.8350581013e-04 1.9246379875e+00 -3.3335707805e+00 1.9246379875e+00 3.3335707805e+00 
17600 4.8895528233e+00 8.0876312194e-04 1.9246176329e+00 -3.3335355253e+00 1.9246176329e+00 3.3335355253e+00 
17700 4.8895522324e+00 8.3505148680e-04 1.9245966219e+00 -3.3334991332e+00 1.9245966219e+00 3.3334991332e+00 
17800 4.8895517562e+00 8.6224849515e-04 1.9245749278e+00 -3.3334615579e+00 1.9245749278e+00 3.3334615579e+00 
17900 4.8895513856e+00 8.9023370902e-04 1.9245525268e+00 -3.3334227582e+00 1.9245525268e+00 3.3334227582e+00 
18000 4.8895511115e+00 9.1888899612e-04 1.9245293985e+00 -3.3333826989e+00 1.9245293985e+00 3.3333826989e+00 
18100 4.8895509248e+00 9.4809883678e-04 1.9245055255e+00 -3.3333413496e+00 1.9245055255e+00 3.3333413496e+00 
18200 4.8895508167e+00 9.7775060435e-04 1.9244808933e+00 -3.3332986853e+00 1.9244808933e+00 3.3332986853e+00 
18300 4.8895507786e+00 1.0077348196e-03 1.9244554903e+00 -3.3332546862e+00 1.9244554903e+00 3.3332546862e+00 
18400 4.8895508023e+00 1.0379453796e-03 1.9244293081e+00 -3.3332093371e+00 1.9244293081e+00 3.3332093371e+00 
18500 4.8895508798e+00 1.0682797617e-03 1.9244023405e+00 -3.3331626280e+00 1.9244023405e+00 3.3331626280e+00 
18600 4.8895510037e+00 1.0986392038e-03 1.9243745844e+00 -3.3331145530e+00 1.9243745844e+00 3.3331145530e+00 
18700 4.8895511670e+00 1.1289288606e-03 1.9243460392e+00 -3.3330651112e+00 1.9243460392e+00 3.3330651112e+00 
18800 4.8895513630e+00 1.1590579383e-03 1.9243167064e+00 -3.3330143054e+00 1.9243167064e+00 3.3330143054e+00 
18900 4.8895515858e+00 1.1889398063e-03 1.9242865904e+00 -3.3329621429e+00 1.9242865904e+00 3.3329621429e+00 
19000 4.8895518296e+00 1.2184920896e-03 1.9242556975e+00 -3.3329086348e+00 1.9242556975e+00 3.3329086348e+00 
19100 4.8895520895e+00 1.2476367399e-03 1.9242240362e+00 -3.3328537958e+00 1.9242240362e+00 3.3328537958e+00 
19200 4.8895523607e+00 1.2763000883e-03 1.9241916171e+00 -3.3327976443e+00 1.9241916171e+00 3.3327976443e+00 
19300 4.8895526393e+00 1.3044128803e-03 1.9241584526e+00 -3.3327402017e+00 1.9241584526e+00 3.3327402017e+00 
19400 4.8895529216e+00 1.3319102924e-03 1.9241245570e+00 -3.3326814928e+00 1.9241245570e+00 3.3326814928e+00 
19500 4.8895532044e+00 1.3587319339e-03 1.9240899463e+00 -3.3326215453e+00 1.9240899463e+00 3.3326215453e+00 
19600 4.8895534851e+00 1.3848218327e-03 1.9240546380e+00 -3.3325603895e+00 1.9240546380e+00 3.3325603895e+00 
19700 4.8895537612e+00 1.4101284062e-03 1.9240186510e+00 -3.3324980583e+00 1.9240186510e+00 3.3324980583e+00 
19800 4.8895540311e+00 1.4346044203e-03 1.9239820058e+00 -3.3324345868e+00 1.9239820058e+00 3.3324345868e+00 
19900 4.8895542930e+00 1.4582069341e-03 1.9239447237e+00 -3.3323700124e+00 1.9239447237e+00 3.3323700124e+00 
20000 4.8895545459e+00 1.4808972348e-03 1.9239068275e+00 -3.3323043743e+00 1.9239068275e+00 3.3323043743e+00 
20100 4.8895547889e+00 1.5026407604e-03 1.9238683410e+00 -3.3322377136e+00 1.9238683410e+00 3.3322377136e+00 
20200 4.8895550214e+00 1.5234070133e-03 1.9238292885e+00 -3.3321700728e+00 1.9238292885e+00 3.3321700728e+00 
20300 4.8895552431e+00 1.5431694654e-03 1.9237896955e+00 -3.3321014958e+00 1.9237896955e+00 3.3321014958e+00 
20400 4.8895554540e+00 1.5619054539e-03 1.9237495881e+00 -3.3320320277e+00 1.9237495881e+00 3.3320320277e+00 
20500 4.8895556541e+00 1.5795960709e-03 1.9237089929e+00 -3.3319617148e+00 1.9237089929e+00 3.3319617148e+00 
20600 4.8895558438e+00 1.5962260462e-03 1.9236679371e+00 -3.3318906039e+00 1.9236679371e+00 3.3318906039e+00 
20700 4.8895560236e+00 1.6117836237e-03 1.9236264481e+00 -3.3318187429e+00 1.9236264481e+00 3.3318187429e+00 
20800 4.8895561939e+00 1.6262604336e-03 1.9235845539e+00 -3.3317461799e+00 1.9235845539e+00 3.3317461799e+00 
20900 4.8895563554e+00 1.6396513603e-03 1.9235422824e+00 -3.3316729636e+00 1.9235422824e+00 3.3316729636e+00 
21000 4.8895565090e+00 1.6519544059e-03 1.9234996619e+00 -3.3315991428e+00 1.9234996619e+00 3.3315991428e+00 
21100 4.8895566554e+00 1.6631705514e-03 1.9234567207e+00 -3.3315247665e+00 1.9234567207e+00 3.3315247665e+00 
21200 4.8895567954e+00 1.6733036155e-03 1.9234134870e+00 -3.3314498834e+00 1.9234134870e+00 3.3314498834e+00 
21300 4.8895569299e+00 1.6823601114e-03 1.9233699889e+00 -3.3313745425e+00 1.9233699889e+00 3.3313745425e+00 
21400 4.8895570597e+00 1.6903491024e-03 1.9233262543e+00 -3.3312987920e+00 1.9233262543e+00 3.3312987920e+00 
21500 4.8895571858e+00 1.6972820571e-03 1.9232823111e+00 -3.3312226802e+00 1.9232823111e+00 3.3312226802e+00 
21600 4.8895573089e+00 1.7031727042e-03 1.9232381867e+00 -3.3311462544e+00 1.9232381867e+00 3.3311462544e+00 
21700 4.8895574299e+00 1.7080368877e-03 1.9231939081e+00 -3.3310695616e+00 1.9231939081e+00 3.3310695616e+00 
21800 4.8895575494e+00 1.7118924231e-03 1.9231495020e+00 -3.3309926480e+00 1.9231495020e+00 3.3309926480e+00 
21900 4.8895576682e+00 1.7147589539e-03 1.9231049946e+00 -3.3309155590e+00 1.9231049946e+00 3.3309155590e+00 
22000 4.8895577869e+00 1.7166578109e-03 1.9230604117e+00 -3.3308383391e+00 1.9230604117e+00 3.3308383391e+00 
22100 4.8895579061e+00 1.7176118727e-03 1.9230157784e+00 -3.3307610320e+00 1.9230157784e+00 3.3307610320e+00 
22200 4.8895580264e+00 1.7176454283e-03 1.9229711192e+00 -3.3306836800e+00 1.9229711192e+00 3.3306836800e+00 
22300 4.8895581481e+00 1.7167840427e-03 1.9229264582e+00 -3.3306063248e+00 1.9229264582e+00 3.3306063248e+00 
22400 4.8895582718e+00 1.7150544254e-03 1.9228818185e+00 -3.3305290066e+00 1.9228818185e+00 3.3305290066e+00 
22500 4.8895583976e+00 1.7124843015e-03 1.9228372227e+00 -3.3304517644e+00 1.9228372227e+00 3.3304517644e+00 
22600 4.8895585259e+00 1.7091022865e-03 1.9227926927e+00 -3.3303746363e+00 1.9227926927e+00 3.3303746363e+00 
22700 4.8895586569e+00 1.7049377647e-03 1.9227482497e+00 -3.3302976586e+00 1.9227482497e+00 3.3302976586e+00 
22800 4.8895587907e+00 1.7000207713e-03 1.9227039139e+00 -3.3302208668e+00 1.9227039139e+00 3.3302208668e+00 
22900 4.8895589274e+00 1.6943818781e-03 1.9226597049e+00 -3.3301442946e+00 1.9226597049e+00 3.3301442946e+00 
23000 4.8895590670e+00 1.6880520837e-03 1.9226156416e+00 -3.3300679747e+00 1.9226156416e+00 3.3300679747e+00 
23100 4.8895592094e+00 1.6810627076e-03 1.9225717419e+00 -3.3299919382e+00 1.9225717419e+00 3.3299919382e+00 
23200 4.8895593547e+00 1.6734452886e-03 1.9225280230e+00 -3.3299162147e+00 1.9225280230e+00 3.3299162147e+00 
23300 4.8895595028e+00 1.6652314878e-03 1.9224845011e+00 -3.3298408327e+00 1.9224845011e+00 3.3298408327e+00 
23400 4.8895596534e+00 1.6564529957e-03 1.9224411919e+00 -3.3297658190e+00 1.9224411919e+00 3.3297658190e+00 
23500 4.8895598063e+00 1.6471414438e-03 1.9223981101e+00 -3.3296911990e+00 1.9223981101e+00 3.3296911990e+00 
23600 4.8895599615e+00 1.6373283213e-03 1.9223552694e+00 -3.3296169969e+00 1.9223552694e+00 3.3296169969e+00 
23700 4.8895601186e+00 1.6270448955e-03 1.9223126831e+00 -3.3295432351e+00 1.9223126831e+00 3.3295432351e+00 
23800 4.8895602775e+00 1.6163221374e-03 1.9222703632e+00 -3.3294699350e+00 1.9222703632e+00 3.3294699350e+00 
23900 4.8895604377e+00 1.6051906514e-03 1.9222283214e+00 -3.3293971164e+00 1.9222283214e+00 3.3293971164e+00 
24000 4.8895605992e+00 1.5936806099e-03 1.9221865682e+00 -3.3293247977e+00 1.9221865682e+00 3.3293247977e+00 
24100 4.8895607615e+00 1.5818216921e-03 1.9221451134e+00 -3.3292529960e+00 1.9221451134e+00 3.3292529960e+00 
24200 4.8895609244e+00 1.5696430272e-03 1.9221039663e+00 -3.3291817270e+00 1.9221039663e+00 3.3291817270e+00 
24300 4.8895610877e+00 1.5571731427e-03 1.9220631350e+00 -3.3291110052e+00 1.9220631350e+00 3.3291110052e+00 
24400 4.8895612510e+00 1.5444399155e-03 1.9220226273e+00 -3.3290408438e+00 1.9220226273e+00 3.3290408438e+00 
24500 4.8895614141e+00 1.5314705290e-03 1.9219824500e+00 -3.3289712546e+00 1.9219824500e+00 3.3289712546e+00 
24600 4.8895615767e+00 1.5182914331e-03 1.9219426092e+00 -3.3289022484e+00 1.9219426092e+00 3.3289022484e+00 
24700 4.8895617385e+00 1.5049283090e-03 1.9219031105e+00 -3.3288338346e+00 1.9219031105e+00 3.3288338346e+00 
24800 4.8895618994e+00 1.4914060374e-03 1.9218639586e+00 -3.3287660215e+00 1.9218639586e+00 3.3287660215e+00 
24900 4.8895620590e+00 1.4777486707e-03 1.9218251577e+00 -3.3286988164e+00 1.9218251577e+00 3.3286988164e+00 
25000 4.8895622172e+00 1.4639794097e-03 1.9217867113e+00 -3.3286322253e+00 1.9217867113e+00 3.3286322253e+00 
25100 4.8895623737e+00 1.4501205825e-03 1.9217486224e+00 -3.3285662534e+00 1.9217486224e+00 3.3285662534e+00 
25200 4.8895625285e+00 1.4361936285e-03 1.9217108933e+00 -3.3285009047e+00 1.9217108933e+00 3.3285009047e+00 
25300 4.8895626812e+00 1.4222190842e-03 1.9216735259e+00 -3.3284361824e+00 1.9216735259e+00 3.3284361824e+00 
25400 4.8895628319e+00 1.4082165737e-03 1.9216365213e+00 -3.3283720886e+00 1.9216365213e+00 3.3283720886e+00 
25500 4.8895629803e+00 1.3942048012e-03 1.9215998804e+00 -3.3283086246e+00 1.9215998804e+00 3.3283086246e+00 
25600 4.8895631263e+00 1.3802015475e-03 1.9215636033e+00 -3.3282457909e+00 1.9215636033e+00 3.3282457909e+00 
25700 4.8895632698e+00 1.3662236680e-03 1.9215276899e+00 -3.3281835870e+00 1.9215276899e+00 3.3281835870e+00 
25800 4.8895634108e+00 1.3522870948e-03 1.9214921395e+00 -3.3281220120e+00 1.9214921395e+00 3.3281220120e+00 
25900 4.8895635492e+00 1.3384068408e-03 1.9214569512e+00 -3.3280610640e+00 1.9214569512e+00 3.3280610640e+00 
26000 4.8895636849e+00 1.3245970057e-03 1.9214221234e+00 -3.3280007405e+00 1.9214221234e+00 3.3280007405e+00 
26100 4.8895638180e+00 1.3108707852e-03 1.9213876543e+00 -3.3279410383e+00 1.9213876543e+00 3.3279410383e+00 
26200 4.8895639483e+00 1.2972404818e-03 1.9213535418e+00 -3.3278819537e+00 1.9213535418e+00 3.3278819537e+00 
26300 4.8895640759e+00 1.2837175175e-03 1.9213197834e+00 -3.3278234824e+00 1.9213197834e+00 3.3278234824e+00 
26400 4.8895642008e+00 1.2703124492e-03 1.9212863763e+00 -3.3277656196e+00 1.9212863763e+00 3.3277656196e+00 
26500 4.8895643230e+00 1.2570349844e-03 1.9212533175e+00 -3.3277083601e+00 1.9212533175e+00 3.3277083601e+00 
26600 4.8895644425e+00 1.2438940000e-03 1.9212206037e+00 -3.3276516981e+00 1.9212206037e+00 3.3276516981e+00 
26700 4.8895645593e+00 1.2308975616e-03 1.9211882313e+00 -3.3275956274e+00 1.9211882313e+00 3.3275956274e+00 
26800 4.8895646735e+00 1.2180529442e-03 1.9211561965e+00 -3.3275401417e+00 1.9211561965e+00 3.3275401417e+00 
26900 4.8895647852e+00 1.2053666549e-03 1.9211244956e+00 -3.3274852340e+00 1.9211244956e+00 3.3274852340e+00 
27000 4.8895648943e+00 1.1928444554e-03 1.9210931243e+00 -3.3274308973e+00 1.9210931243e+00 3.3274308973e+00 
27100 4.8895650010e+00 1.1804913865e-03 1.9210620784e+00 -3.3273771243e+00 1.9210620784e+00 3.3273771243e+00 
27200 4.8895651052e+00 1.1683117931e-03 1.9210313535e+00 -3.3273239072e+00 1.9210313535e+00 3.3273239072e+00 
27300 4.8895652071e+00 1.1563093497e-03 1.9210009451e+00 -3.3272712384e+00 1.9210009451e+00 3.3272712384e+00 
27400 4.8895653068e+00 1.1444870868e-03 1.9209708487e+00 -3.3272191098e+00 1.9209708487e+00 3.3272191098e+00 
27500 4.8895654042e+00 1.1328474176e-03 1.9209410595e+00 -3.3271675134e+00 1.9209410595e+00 3.3271675134e+00 
27600 4.8895654995e+00 1.1213921654e-03 1.9209115728e+00 -3.3271164409e+00 1.9209115728e+00 3.3271164409e+00 
27700 4.8895655927e+00 1.1101225906e-03 1.9208823838e+00 -3.3270658841e+00 1.9208823838e+00 3.3270658841e+00 
27800 4.8895656838e+00 1.0990394191e-03 1.9208534877e+00 -3.3270158346e+00 1.9208534877e+00 3.3270158346e+00 
27900 4.8895657730e+00 1.0881428692e-03 1.9208248797e+00 -3.3269662840e+00 1.9208248797e+00 3.3269662840e+00 
28000 4.8895658604e+00 1.0774326801e-03 1.9207965548e+00 -3.3269172240e+00 1.9207965548e+00 3.3269172240e+00 
28100 4.8895659459e+00 1.0669081391e-03 1.9207685084e+00 -3.3268686461e+00 1.9207685084e+00 3.3268686461e+00 
28200 4.8895660296e+00 1.0565681097e-03 1.9207407355e+00 -3.3268205421e+00 1.9207407355e+00 3.3268205421e+00 
28300 4.8895661116e+00 1.0464110584e-03 1.9207132314e+00 -3.3267729036e+00 1.9207132314e+00 3.3267729036e+00 
28400 4.8895661920e+00 1.0364350822e-03 1.9206859913e+00 -3.3267257223e+00 1.9206859913e+00 3.3267257223e+00 
28500 4.8895662708e+00 1.0266379350e-03 1.9206590105e+00 -3.3266789902e+00 1.9206590105e+00 3.3266789902e+00 
28600 4.8895663480e+00 1.0170170540e-03 1.9206322844e+00 -3.3266326992e+00 1.9206322844e+00 3.3266326992e+00 
28700 4.8895664237e+00 1.0075695858e-03 1.9206058083e+00 -3.3265868414e+00 1.9206058083e+00 3.3265868414e+00 
28800 4.8895664980e+00 9.9829241113e-04 1.9205795779e+00 -3.3265414089e+00 1.9205795779e+00 3.3265414089e+00 
28900 4.8895665708e+00 9.8918217006e-04 1.9205535886e+00 -3.3264963941e+00 1.9205535886e+00 3.3264963941e+00 
29000 4.8895666423e+00 9.8023528588e-04 1.9205278361e+00 -3.3264517895e+00 1.9205278361e+00 3.3264517895e+00 
29100 4.8895667124e+00 9.7144798857e-04 1.9205023162e+00 -3.3264075878e+00 1.9205023162e+00 3.3264075878e+00 
29200 4.8895667812e+00 9.6281633760e-04 1.9204770248e+00 -3.3263637817e+00 1.9204770248e+00 3.3263637817e+00 
29300 4.8895668487e+00 9.5433624394e-04 1.9204519577e+00 -3.3263203643e+00 1.9204519577e+00 3.3263203643e+00 
29400 4.8895669150e+00 9.4600349132e-04 1.9204271111e+00 -3.3262773287e+00 1.9204271111e+00 3.3262773287e+00 
29500 4.8895669801e+00 9.3781375675e-04 1.9204024811e+00 -3.3262346683e+00 1.9204024811e+00 3.3262346683e+00 
29600 4.8895670440e+00 9.2976263023e-04 1.9203780641e+00 -3.3261923767e+00 1.9203780641e+00 3.3261923767e+00 
29700 4.8895671067e+00 9.2184563361e-04 1.9203538563e+00 -3.3261504477e+00 1.9203538563e+00 3.3261504477e+00 
29800 4.8895671683e+00 9.1405823869e-04 1.9203298544e+00 -3.3261088751e+00 1.9203298544e+00 3.3261088751e+00 
29900 4.8895672287e+00 9.0639588438e-04 1.9203060549e+00 -3.3260676532e+00 1.9203060549e+00 3.3260676532e+00 
30000 4.8895672881e+00 8.9885399315e-04 1.9202824547e+00 -3.3260267764e+00 1.9202824547e+00 3.3260267764e+00 
30100 4.8895673463e+00 8.9142798649e-04 1.9202590505e+00 -3.3259862392e+00 1.9202590505e+00 3.3259862392e+00 
30200 4.8895674035e+00 8.8411329959e-04 1.9202358394e+00 -3.3259460364e+00 1.9202358394e+00 3.3259460364e+00 
30300 4.8895674596e+00 8.7690539520e-04 1.9202128185e+00 -3.3259061630e+00 1.9202128185e+00 3.3259061630e+00 
30400 4.8895675146e+00 8.6979977652e-04 1.9201899850e+00 -3.3258666142e+00 1.9201899850e+00 3.3258666142e+00 
30500 4.8895675686e+00 8.6279199939e-04 1.9201673363e+00 -3.3258273855e+00 1.9201673363e+00 3.3258273855e+00 
30600 4.8895676216e+00 8.5587768356e-04 1.9201448697e+00 -3.3257884723e+00 1.9201448697e+00 3.3257884723e+00 
30700 4.8895676736e+00 8.4905252313e-04 1.9201225830e+00 -3.3257498705e+00 1.9201225830e+00 3.3257498705e+00 
30800 4.8895677246e+00 8.4231229622e-04 1.9201004737e+00 -3.3257115761e+00 1.9201004737e+00 3.3257115761e+00 
30900 4.8895677747e+00 8.3565287385e-04 1.9200785397e+00 -3.3256735852e+00 1.9200785397e+00 3.3256735852e+00 
31000 4.8895678237e+00 8.2907022793e-04 1.9200567788e+00 -3.3256358943e+00 1.9200567788e+00 3.3256358943e+00 
31100 4.8895678718e+00 8.2256043866e-04 1.9200351891e+00 -3.3255984998e+00 1.9200351891e+00 3.3255984998e+00 
31200 4.8895679190e+00 8.1611970101e-04 1.9200137687e+00 -3.3255613986e+00 1.9200137687e+00 3.3255613986e+00 
31300 4.8895679652e+00 8.0974433059e-04 1.9199925158e+00 -3.3255245875e+00 1.9199925158e+00 3.3255245875e+00 
31400 4.8895680105e+00 8.0343076877e-04 1.9199714286e+00 -3.3254880635e+00 1.9199714286e+00 3.3254880635e+00 
31500 4.8895680549e+00 7.9717558708e-04 1.9199505057e+00 -3.3254518239e+00 1.9199505057e+00 3.3254518239e+00 
31600 4.8895680984e+00 7.9097549104e-04 1.9199297454e+00 -3.3254158660e+00 1.9199297454e+00 3.3254158660e+00 
31700 4.8895681410e+00 7.8482732329e-04 1.9199091464e+00 -3.3253801874e+00 1.9199091464e+00 3.3253801874e+00 
31800 4.8895681828e+00 7.7872806609e-04 1.9198887072e+00 -3.3253447858e+00 1.9198887072e+00 3.3253447858e+00 
31900 4.8895682237e+00 7.7267484327e-04 1.9198684267e+00 -3.3253096589e+00 1.9198684267e+00 3.3253096589e+00 
32000 4.8895682637e+00 7.6666492166e-04 1.9198483036e+00 -3.3252748047e+00 1.9198483036e+00 3.3252748047e+00 
32100 4.8895683030e+00 7.6069571184e-04 1.9198283368e+00 -3.3252402212e+00 1.9198283368e+00 3.3252402212e+00 
32200 4.8895683414e+00 7.5476476857e-04 1.9198085253e+00 -3.3252059067e+00 1.9198085253e+00 3.3252059067e+00 
32300 4.8895683790e+00 7.4886979058e-04 1.9197888681e+00 -3.3251718593e+00 1.9197888681e+00 3.3251718593e+00 
32400 4.8895684158e+00 7.4300861998e-04 1.9197693641e+00 -3.3251380775e+00 1.9197693641e+00 3.3251380775e+00 
32500 4.8895684518e+00 7.3717924125e-04 1.9197500127e+00 -3.3251045598e+00 1.9197500127e+00 3.3251045598e+00 
32600 4.8895684871e+00 7.3137977974e-04 1.9197308128e+00 -3.3250713047e+00 1.9197308128e+00 3.3250713047e+00 
32700 4.8895685216e+00 7.2560849994e-04 1.9197117638e+00 -3.3250383108e+00 1.9197117638e+00 3.3250383108e+00 
32800 4.8895685554e+00 7.1986380321e-04 1.9196928650e+00 -3.3250055771e+00 1.9196928650e+00 3.3250055771e+00 
32900 4.8895685885e+00 7.1414422538e-04 1.9196741155e+00 -3.3249731021e+00 1.9196741155e+00 3.3249731021e+00 
33000 4.8895686209e+00 7.0844843386e-04 1.9196555149e+00 -3.3249408849e+00 1.9196555149e+00 3.3249408849e+00 
33100 4.8895686526e+00 7.0277522468e-04 1.9196370625e+00 -3.3249089243e+00 1.9196370625e+00 3.3249089243e+00 
33200 4.8895686836e+00 6.9712351904e-04 1.9196187576e+00 -3.3248772193e+00 1.9196187576e+00 3.3248772193e+00 
33300 4.8895687139e+00 6.9149235986e-04 1.9196005998e+00 -3.3248457690e+00 1.9196005998e+00 3.3248457690e+00 
33400 4.8895687437e+00 6.8588090799e-04 1.9195825884e+00 -3.3248145725e+00 1.9195825884e+00 3.3248145725e+00 
33500 4.8895687727e+00 6.8028843824e-04 1.9195647231e+00 -3.3247836288e+00 1.9195647231e+00 3.3247836288e+00 
33600 4.8895688012e+00 6.7471433533e-04 1.9195470032e+00 -3.3247529371e+00 1.9195470032e+00 3.3247529371e+00 
33700 4.8895688291e+00 6.6915808965e-04 1.9195294284e+00 -3.3247224967e+00 1.9195294284e+00 3.3247224967e+00 
33800 4.8895688563e+00 6.6361929287e-04 1.9195119982e+00 -3.3246923066e+00 1.9195119982e+00 3.3246923066e+00 
33900 4.8895688830e+00 6.5809763353e-04 1.9194947121e+00 -3.3246623662e+00 1.9194947121e+00 3.3246623662e+00 
34000 4.8895689092e+00 6.5259289248e-04 1.9194775696e+00 -3.3246326746e+00 1.9194775696e+00 3.3246326746e+00 
34100 4.8895689347e+00 6.4710493833e-04 1.9194605704e+00 -3.3246032311e+00 1.9194605704e+00 3.3246032311e+00 
34200 4.8895689598e+00 6.4163372277e-04 1.9194437140e+00 -3.3245740350e+00 1.9194437140e+00 3.3245740350e+00 
34300 4.8895689843e+00 6.3617927597e-04 1.9194270000e+00 -3.3245450854e+00 1.9194270000e+00 3.3245450854e+00 
34400 4.8895690083e+00 6.3074170185e-04 1.9194104279e+00 -3.3245163817e+00 1.9194104279e+00 3.3245163817e+00 
34500 4.8895690318e+00 6.2532117348e-04 1.9193939973e+00 -3.3244879231e+00 1.9193939973e+00 3.3244879231e+00 
34600 4.8895690548e+00 6.1991792839e-04 1.9193777078e+00 -3.3244597088e+00 1.9193777078e+00 3.3244597088e+00 
34700 4.8895690774e+00 6.1453226399e-04 1.9193615589e+00 -3.3244317381e+00 1.9193615589e+00 3.3244317381e+00 
34800 4.8895690994e+00 6.0916453302e-04 1.9193455501e+00 -3.3244040101e+00 1.9193455501e+00 3.3244040101e+00 
34900 4.8895691210e+00 6.0381513901e-04 1.9193296811e+00 -3.3243765241e+00 1.9193296811e+00 3.3243765241e+00 
35000 4.8895691422e+00 5.9848453186e-04 1.9193139513e+00 -3.3243492793e+00 1.9193139513e+00 3.3243492793e+00 
35100 4.8895691629e+00 5.9317320352e-04 1.9192983602e+00 -3.3243222747e+00 1.9192983602e+00 3.3243222747e+00 
35200 4.8895691832e+00 5.8788168368e-04 1.9192829073e+00 -3.3242955096e+00 1.9192829073e+00 3.3242955096e+00 
35300 4.8895692031e+00 5.8261053560e-04 1.9192675922e+00 -3.3242689831e+00 1.9192675922e+00 3.3242689831e+00 
35400 4.8895692226e+00 5.7736035211e-04 1.9192524143e+00 -3.3242426941e+00 1.9192524143e+00 3.3242426941e+00 
35500 4.8895692417e+00 5.7213175158e-04 1.9192373730e+00 -3.3242166419e+00 1.9192373730e+00 3.3242166419e+00 
35600 4.8895692604e+00 5.6692537416e-04 1.9192224679e+00 -3.3241908254e+00 1.9192224679e+00 3.3241908254e+00 
35700 4.8895692787e+00 5.6174187801e-04 1.9192076982e+00 -3.3241652436e+00 1.9192076982e+00 3.3241652436e+00 
35800 4.8895692966e+00 5.5658193580e-04 1.9191930635e+00 -3.3241398956e+00 1.9191930635e+00 3.3241398956e+00 
35900 4.8895693142e+00 5.5144623120e-04 1.9191785631e+00 -3.3241147801e+00 1.9191785631e+00 3.3241147801e+00 
36000 4.8895693314e+00 5.4633545564e-04 1.9191641964e+00 -3.3240898963e+00 1.9191641964e+00 3.3240898963e+00 
36100 4.8895693483e+00 5.4125030510e-04 1.9191499628e+00 -3.3240652428e+00 1.9191499628e+00 3.3240652428e+00 
36200 4.8895693648e+00 5.3619147714e-04 1.9191358615e+00 -3.3240408187e+00 1.9191358615e+00 3.3240408187e+00 
36300 4.8895693810e+00 5.3115966799e-04 1.9191218919e+00 -3.3240166226e+00 1.9191218919e+00 3.3240166226e+00 
36400 4.8895693969e+00 5.2615556988e-04 1.9191080533e+00 -3.3239926535e+00 1.9191080533e+00 3.3239926535e+00 
36500 4.8895694124e+00 5.2117986842e-04 1.9190943450e+00 -3.3239689100e+00 1.9190943450e+00 3.3239689100e+00 
36600 4.8895694277e+00 5.1623324021e-04 1.9190807662e+00 -3.3239453908e+00 1.9190807662e+00 3.3239453908e+00 
36700 4.8895694426e+00 5.1131635054e-04 1.9190673162e+00 -3.3239220948e+00 1.9190673162e+00 3.3239220948e+00 
36800 4.8895694572e+00 5.0642985129e-04 1.9190539942e+00 -3.3238990204e+00 1.9190539942e+00 3.3238990204e+00 
36900 4.8895694716e+00 5.0157437895e-04 1.9190407994e+00 -3.3238761664e+00 1.9190407994e+00 3.3238761664e+00 
37000 4.8895694856e+00 4.9675055277e-04 1.9190277311e+00 -3.3238535314e+00 1.9190277311e+00 3.3238535314e+00 
37100 4.8895694994e+00 4.9195897307e-04 1.9190147883e+00 -3.3238311139e+00 1.9190147883e+00 3.3238311139e+00 
37200 4.8895695129e+00 4.8720021973e-04 1.9190019703e+00 -3.3238089124e+00 1.9190019703e+00 3.3238089124e+00 
37300 4.8895695261e+00 4.8247485075e-04 1.9189892762e+00 -3.3237869256e+00 1.9189892762e+00 3.3237869256e+00 
37400 4.8895695390e+00 4.7778340100e-04 1.9189767052e+00 -3.3237651519e+00 1.9189767052e+00 3.3237651519e+00 
37500 4.8895695517e+00 4.7312638108e-04 1.9189642563e+00 -3.3237435898e+00 1.9189642563e+00 3.3237435898e+00 
37600 4.8895695641e+00 4.6850427630e-04 1.9189519287e+00 -3.3237222377e+00 1.9189519287e+00 3.3237222377e+00 
37700 4.8895695763e+00 4.6391754584e-04 1.9189397214e+00 -3.3237010941e+00 1.9189397214e+00 3.3237010941e+00 
37800 4.8895695883e+00 4.5936662195e-04 1.9189276335e+00 -3.3236801573e+00 1.9189276335e+00 3.3236801573e+00 
37900 4.8895696000e+00 4.5485190938e-04 1.9189156642e+00 -3.3236594258e+00 1.9189156642e+00 3.3236594258e+00 
38000 4.8895696114e+00 4.5037378478e-04 1.9189038124e+00 -3.3236388979e+00 1.9189038124e+00 3.3236388979e+00 
38100 4.8895696227e+00 4.4593259637e-04 1.9188920772e+00 -3.3236185720e+00 1.9188920772e+00 3.3236185720e+00 
38200 4.8895696337e+00 4.4152866360e-04 1.9188804577e+00 -3.3235984464e+00 1.9188804577e+00 3.3235984464e+00 
38300 4.8895696445e+00 4.3716227694e-04 1.9188689529e+00 -3.3235785194e+00 1.9188689529e+00 3.3235785194e+00 
38400 4.8895696550e+00 4.3283369783e-04 1.9188575617e+00 -3.3235587894e+00 1.9188575617e+00 3.3235587894e+00 
38500 4.8895696654e+00 4.2854315863e-04 1.9188462833e+00 -3.3235392546e+00 1.9188462833e+00 3.3235392546e+00 
38600 4.8895696755e+00 4.2429086271e-04 1.9188351166e+00 -3.3235199134e+00 1.9188351166e+00 3.3235199134e+00 
38700 4.8895696855e+00 4.2007698465e-04 1.9188240607e+00 -3.3235007639e+00 1.9188240607e+00 3.3235007639e+00 
38800 4.8895696952e+00 4.1590167044e-04 1.9188131145e+00 -3.3234818046e+00 1.9188131145e+00 3.3234818046e+00 
38900 4.8895697048e+00 4.1176503783e-04 1.9188022770e+00 -3.3234630335e+00 1.9188022770e+00 3.3234630335e+00 
39000 4.8895697142e+00 4.0766717670e-04 1.9187915473e+00 -3.3234444491e+00 1.9187915473e+00 3.3234444491e+00 
39100 4.8895697234e+00 4.0360814954e-04 1.9187809243e+00 -3.3234260495e+00 1.9187809243e+00 3.3234260495e+00 
39200 4.8895697324e+00 3.9958799197e-04 1.9187704070e+00 -3.3234078330e+00 1.9187704070e+00 3.3234078330e+00 
39300 4.8895697412e+00 3.9560671327e-04 1.9187599944e+00 -3.3233897979e+00 1.9187599944e+00 3.3233897979e+00 
39400 4.8895697498e+00 3.9166429704e-04 1.9187496855e+00 -3.3233719423e+00 1.9187496855e+00 3.3233719423e+00 
39500 4.8895697583e+00 3.8776070188e-04 1.9187394793e+00 -3.3233542646e+00 1.9187394793e+00 3.3233542646e+00 
39600 4.8895697666e+00 3.8389586207e-04 1.9187293747e+00 -3.3233367630e+00 1.9187293747e+00 3.3233367630e+00 
39700 4.8895697747e+00 3.8006968835e-04 1.9187193708e+00 -3.3233194357e+00 1.9187193708e+00 3.3233194357e+00 
39800 4.8895697827e+00 3.7628206870e-04 1.9187094666e+00 -3.3233022811e+00 1.9187094666e+00 3.3233022811e+00 
39900 4.8895697905e+00 3.7253286915e-04 1.9186996610e+00 -3.3232852973e+00 1.9186996610e+00 3.3232852973e+00 
40000 4.8895697982e+00 3.6882193464e-04 1.9186899530e+00 -3.3232684826e+00 1.9186899530e+00 3.3232684826e+00 
40100 4.8895698057e+00 3.6514908987e-04 1.9186803417e+00 -3.3232518354e+00 1.9186803417e+00 3.3232518354e+00 
40200 4.8895698131e+00 3.6151414019e-04 1.9186708261e+00 -3.3232353538e+00 1.9186708261e+00 3.3232353538e+00 
40300 4.8895698203e+00 3.5791687250e-04 1.9186614052e+00 -3.3232190363e+00 1.9186614052e+00 3.3232190363e+00 
40400 4.8895698274e+00 3.5435705618e-04 1.9186520779e+00 -3.3232028810e+00 1.9186520779e+00 3.3232028810e+00 
40500 4.8895698344e+00 3.5083444397e-04 1.9186428434e+00 -3.3231868864e+00 1.9186428434e+00 3.3231868864e+00 
40600 4.8895698412e+00 3.4734877294e-04 1.9186337006e+00 -3.3231710506e+00 1.9186337006e+00 3.3231710506e+00 
40700 4.8895698478e+00 3.4389976541e-04 1.9186246487e+00 -3.3231553721e+00 1.9186246487e+00 3.3231553721e+00 
40800 4.8895698544e+00 3.4048712985e-04 1.9186156865e+00 -3.3231398493e+00 1.9186156865e+00 3.3231398493e+00 
40900 4.8895698608e+00 3.3711056182e-04 1.9186068133e+00 -3.3231244804e+00 1.9186068133e+00 3.3231244804e+00 
41000 4.8895698671e+00 3.3376974490e-04 1.9185980280e+00 -3.3231092638e+00 1.9185980280e+00 3.3231092638e+00 
41100 4.8895698733e+00 3.3046435162e-04 1.9185893297e+00 -3.3230941980e+00 1.9185893297e+00 3.3230941980e+00 
41200 4.8895698793e+00 3.2719404429e-04 1.9185807176e+00 -3.3230792812e+00 1.9185807176e+00 3.3230792812e+00 
41300 4.8895698853e+00 3.2395847595e-04 1.9185721906e+00 -3.3230645121e+00 1.9185721906e+00 3.3230645121e+00 
41400 4.8895698911e+00 3.2075729125e-04 1.9185637479e+00 -3.3230498889e+00 1.9185637479e+00 3.3230498889e+00 
41500 4.8895698968e+00 3.1759012724e-04 1.9185553886e+00 -3.3230354102e+00 1.9185553886e+00 3.3230354102e+00 
41600 4.8895699024e+00 3.1445661429e-04 1.9185471118e+00 -3.3230210744e+00 1.9185471118e+00 3.3230210744e+00 
41700 4.8895699079e+00 3.1135637685e-04 1.9185389166e+00 -3.3230068799e+00 1.9185389166e+00 3.3230068799e+00 
41800 4.8895699133e+00 3.0828903428e-04 1.9185308022e+00 -3.3229928253e+00 1.9185308022e+00 3.3229928253e+00 
41900 4.8895699186e+00 3.0525420159e-04 1.9185227677e+00 -3.3229789092e+00 1.9185227677e+00 3.3229789092e+00 
42000 4.8895699238e+00 3.0225149026e-04 1.9185148123e+00 -3.3229651299e+00 1.9185148123e+00 3.3229651299e+00 
42100 4.8895699289e+00 2.9928050888e-04 1.9185069351e+00 -3.3229514862e+00 1.9185069351e+00 3.3229514862e+00 
42200 4.8895699339e+00 2.9634086393e-04 1.9184991352e+00 -3.3229379765e+00 1.9184991352e+00 3.3229379765e+00 
42300 4.8895699388e+00 2.9343216041e-04 1.9184914120e+00 -3.3229245995e+00 1.9184914120e+00 3.3229245995e+00 
42400 4.8895699436e+00 2.9055400250e-04 1.9184837645e+00 -3.3229113537e+00 1.9184837645e+00 3.3229113537e+00 
42500 4.8895699483e+00 2.8770599418e-04 1.9184761920e+00 -3.3228982377e+00 1.9184761920e+00 3.3228982377e+00 
42600 4.8895699529e+00 2.8488773984e-04 1.9184686938e+00 -3.3228852503e+00 1.9184686938e+00 3.3228852503e+00 
42700 4.8895699574e+00 2.8209884483e-04 1.9184612689e+00 -3.3228723901e+00 1.9184612689e+00 3.3228723901e+00 
42800 4.8895699619e+00 2.7933891598e-04 1.9184539167e+00 -3.3228596557e+00 1.9184539167e+00 3.3228596557e+00 
42900 4.8895699663e+00 2.7660756217e-04 1.9184466364e+00 -3.3228470458e+00 1.9184466364e+00 3.3228470458e+00 
43000 4.8895699706e+00 2.7390439473e-04 1.9184394272e+00 -3.3228345592e+00 1.9184394272e+00 3.3228345592e+00 
43100 4.8895699748e+00 2.7122902794e-04 1.9184322885e+00 -3.3228221945e+00 1.9184322885e+00 3.3228221945e+00 
43200 4.8895699789e+00 2.6858107946e-04 1.9184252195e+00 -3.3228099506e+00 1.9184252195e+00 3.3228099506e+00 
43300 4.8895699829e+00 2.6596017069e-04 1.9184182194e+00 -3.3227978262e+00 1.9184182194e+00 3.3227978262e+00 
43400 4.8895699869e+00 2.6336592715e-04 1.9184112877e+00 -3.3227858201e+00 1.9184112877e+00 3.3227858201e+00 
43500 4.8895699908e+00 2.6079797885e-04 1.9184044235e+00 -3.3227739310e+00 1.9184044235e+00 3.3227739310e+00 
43600 4.8895699946e+00 2.5825596055e-04 1.9183976263e+00 -3.3227621578e+00 1.9183976263e+00 3.3227621578e+00 
43700 4.8895699984e+00 2.5573951208e-04 1.9183908952e+00 -3.3227504993e+00 1.9183908952e+00 3.3227504993e+00 
43800 4.8895700021e+00 2.5324827860e-04 1.9183842298e+00 -3.3227389544e+00 1.9183842298e+00 3.3227389544e+00 
43900 4.8895700057e+00 2.5078191082e-04 1.9183776292e+00 -3.3227275219e+00 1.9183776292e+00 3.3227275219e+00 
44000 4.8895700093e+00 2.4834006518e-04 1.9183710929e+00 -3.3227162007e+00 1.9183710929e+00 3.3227162007e+00 
44100 4.8895700128e+00 2.4592240412e-04 1.9183646202e+00 -3.3227049897e+00 1.9183646202e+00 3.3227049897e+00 
44200 4.8895700162e+00 2.4352859616e-04 1.9183582105e+00 -3.3226938878e+00 1.9183582105e+00 3.3226938878e+00 
44300 4.8895700195e+00 2.4115831605e-04 1.9183518632e+00 -3.3226828939e+00 1.9183518632e+00 3.3226828939e+00 
44400 4.8895700228e+00 2.3881124492e-04 1.9183455777e+00 -3.3226720070e+00 1.9183455777e+00 3.3226720070e+00 
44500 4.8895700261e+00 2.3648707035e-04 1.9183393533e+00 -3.3226612260e+00 1.9183393533e+00 3.3226612260e+00 
44600 4.8895700293e+00 2.3418548645e-04 1.9183331894e+00 -3.3226505499e+00 1.9183331894e+00 3.3226505499e+00 
44700 4.8895700324e+00 2.3190619391e-04 1.9183270855e+00 -3.3226399777e+00 1.9183270855e+00 3.3226399777e+00 
44800 4.8895700354e+00 2.2964890003e-04 1.9183210411e+00 -3.3226295083e+00 1.9183210411e+00 3.3226295083e+00 
44900 4.8895700385e+00 2.2741331875e-04 1.9183150554e+00 -3.3226191409e+00 1.9183150554e+00 3.3226191409e+00 
45000 4.8895700414e+00 2.2519917064e-04 1.9183091280e+00 -3.3226088743e+00 1.9183091280e+00 3.3226088743e+00 
45100 4.8895700443e+00 2.2300618290e-04 1.9183032582e+00 -3.3225987076e+00 1.9183032582e+00 3.3225987076e+00 
45200 4.8895700472e+00 2.2083408931e-04 1.9182974456e+00 -3.3225886399e+00 1.9182974456e+00 3.3225886399e+00 
45300 4.8895700500e+00 2.1868263018e-04 1.9182916897e+00 -3.3225786702e+00 1.9182916897e+00 3.3225786702e+00 
45400 4.8895700527e+00 2.1655155232e-04 1.9182859897e+00 -3.3225687977e+00 1.9182859897e+00 3.3225687977e+00 
45500 4.8895700554e+00 2.1444060893e-04 1.9182803453e+00 -3.3225590213e+00 1.9182803453e+00 3.3225590213e+00 
45600 4.8895700580e+00 2.1234955956e-04 1.9182747559e+00 -3.3225493402e+00 1.9182747559e+00 3.3225493402e+00 
45700 4.8895700606e+00 2.1027816996e-04 1.9182692210e+00 -3.3225397534e+00 1.9182692210e+00 3.3225397534e+00 
45800 4.8895700632e+00 2.0822621203e-04 1.9182637401e+00 -3.3225302602e+00 1.9182637401e+00 3.3225302602e+00 
45900 4.8895700657e+00 2.0619346366e-04 1.9182583126e+00 -3.3225208595e+00 1.9182583126e+00 3.3225208595e+00 
46000 4.8895700682e+00 2.0417970865e-04 1.9182529381e+00 -3.3225115506e+00 1.9182529381e+00 3.3225115506e+00 
46100 4.8895700706e+00 2.0218473655e-04 1.9182476161e+00 -3.3225023326e+00 1.9182476161e+00 3.3225023326e+00 
46200 4.8895700730e+00 2.0020834252e-04 1.9182423461e+00 -3.3224932047e+00 1.9182423461e+00 3.3224932047e+00 
46300 4.8895700753e+00 1.9825032719e-04 1.9182371276e+00 -3.3224841659e+00 1.9182371276e+00 3.3224841659e+00 
46400 4.8895700776e+00 1.9631049655e-04 1.9182319600e+00 -3.3224752155e+00 1.9182319600e+00 3.3224752155e+00 
46500 4.8895700798e+00 1.9438866174e-04 1.9182268431e+00 -3.3224663527e+00 1.9182268431e+00 3.3224663527e+00 
46600 4.8895700820e+00 1.9248463890e-04 1.9182217762e+00 -3.3224575766e+00 1.9182217762e+00 3.3224575766e+00 
46700 4.8895700842e+00 1.9059824906e-04 1.9182167589e+00 -3.3224488864e+00 1.9182167589e+00 3.3224488864e+00 
46800 4.8895700863e+00 1.8872931793e-04 1.9182117908e+00 -3.3224402814e+00 1.9182117908e+00 3.3224402814e+00 
46900 4.8895700884e+00 1.8687767572e-04 1.9182068714e+00 -3.3224317607e+00 1.9182068714e+00 3.3224317607e+00 
47000 4.8895700905e+00 1.8504315702e-04 1.9182020003e+00 -3.3224233236e+00 1.9182020003e+00 3.3224233236e+00 
47100 4.8895700925e+00 1.8322560062e-04 1.9181971769e+00 -3.3224149694e+00 1.9181971769e+00 3.3224149694e+00 
47200 4.8895700945e+00 1.8142484930e-04 1.9181924009e+00 -3.3224066971e+00 1.9181924009e+00 3.3224066971e+00 
47300 4.8895700965e+00 1.7964074972e-04 1.9181876719e+00 -3.3223985061e+00 1.9181876719e+00 3.3223985061e+00 
47400 4.8895700984e+00 1.7787315220e-04 1.9181829893e+00 -3.3223903957e+00 1.9181829893e+00 3.3223903957e+00 
47500 4.8895701003e+00 1.7612191061e-04 1.9181783528e+00 -3.3223823651e+00 1.9181783528e+00 3.3223823651e+00 
47600 4.8895701021e+00 1.7438688215e-04 1.9181737620e+00 -3.3223744135e+00 1.9181737620e+00 3.3223744135e+00 
47700 4.8895701039e+00 1.7266792720e-04 1.9181692163e+00 -3.3223665402e+00 1.9181692163e+00 3.3223665402e+00 
47800 4.8895701057e+00 1.7096490919e-04 1.9181647155e+00 -3.3223587445e+00 1.9181647155e+00 3.3223587445e+00 
47900 4.8895701075e+00 1.6927769442e-04 1.9181602590e+00 -3.3223510256e+00 1.9181602590e+00 3.3223510256e+00 
48000 4.8895701092e+00 1.6760615188e-04 1.9181558465e+00 -3.3223433830e+00 1.9181558465e+00 3.3223433830e+00 
48100 4.8895701109e+00 1.6595015314e-04 1.9181514776e+00 -3.3223358157e+00 1.9181514776e+00 3.3223358157e+00 
48200 4.8895701126e+00 1.6430957219e-04 1.9181471518e+00 -3.3223283233e+00 1.9181471518e+00 3.3223283233e+00 
48300 4.8895701142e+00 1.6268428527e-04 1.9181428687e+00 -3.3223209048e+00 1.9181428687e+00 3.3223209048e+00 
48400 4.8895701158e+00 1.6107417077e-04 1.9181386281e+00 -3.3223135598e+00 1.9181386281e+00 3.3223135598e+00 
48500 4.8895701174e+00 1.5947910906e-04 1.9181344294e+00 -3.3223062874e+00 1.9181344294e+00 3.3223062874e+00 
48600 4.8895701190e+00 1.5789898235e-04 1.9181302722e+00 -3.3222990870e+00 1.9181302722e+00 3.3222990870e+00 
48700 4.8895701205e+00 1.5633367462e-04 1.9181261563e+00 -3.3222919580e+00 1.9181261563e+00 3.3222919580e+00 
48800 4.8895701220e+00 1.5478307142e-04 1.9181220811e+00 -3.3222848996e+00 1.9181220811e+00 3.3222848996e+00 
48900 4.8895701235e+00 1.5324705982e-04 1.9181180463e+00 -3.3222779112e+00 1.9181180463e+00 3.3222779112e+00 
49000 4.8895701249e+00 1.5172552826e-04 1.9181140516e+00 -3.3222709921e+00 1.9181140516e+00 3.3222709921e+00 
49100 4.8895701264e+00 1.5021836643e-04 1.9181100966e+00 -3.3222641417e+00 1.9181100966e+00 3.3222641417e+00 
49200 4.8895701278e+00 1.4872546520e-04 1.9181061808e+00 -3.3222573594e+00 1.9181061808e+00 3.3222573594e+00 
49300 4.8895701291e+00 1.4724671650e-04 1.9181023039e+00 -3.3222506444e+00 1.9181023039e+00 3.3222506444e+00 
49400 4.8895701305e+00 1.4578201324e-04 1.9180984655e+00 -3.3222439962e+00 1.9180984655e+00 3.3222439962e+00 
49500 4.8895701318e+00 1.4433124922e-04 1.9180946654e+00 -3.3222374141e+00 1.9180946654e+00 3.3222374141e+00 
49600 4.8895701331e+00 1.4289431902e-04 1.9180909030e+00 -3.3222308976e+00 1.9180909030e+00 3.3222308976e+00 
49700 4.8895701344e+00 1.4147111795e-04 1.9180871781e+00 -3.3222244458e+00 1.9180871781e+00 3.3222244458e+00 
49800 4.8895701357e+00 1.4006154198e-04 1.9180834903e+00 -3.3222180583e+00 1.9180834903e+00 3.3222180583e+00 
49900 4.8895701369e+00 1.3866548765e-04 1.9180798392e+00 -3.3222117345e+00 1.9180798392e+00 3.3222117345e+00 
50000 4.8895701382e+00 1.3728285202e-04 1.9180762245e+00 -3.3222054736e+00 1.9180762245e+00 3.3222054736e+00 
50100 4.8895701394e+00 1.3591353262e-04 1.9180726459e+00 -3.3221992752e+00 1.9180726459e+00 3.3221992752e+00 
50200 4.8895701406e+00 1.3455742735e-04 1.9180691029e+00 -3.3221931386e+00 1.9180691029e+00 3.3221931386e+00 
50300 4.8895701417e+00 1.3321443451e-04 1.9180655953e+00 -3.3221870632e+00 1.9180655953e+00 3.3221870632e+00 
50400 4.8895701429e+00 1.3188445268e-04 1.9180621226e+00 -3.3221810485e+00 1.9180621226e+00 3.3221810485e+00 
50500 4.8895701440e+00 1.3056738070e-04 1.9180586847e+00 -3.3221750938e+00 1.9180586847e+00 3.3221750938e+00 
50600 4.8895701451e+00 1.2926311767e-04 1.9180552810e+00 -3.3221691985e+00 1.9180552810e+00 3.3221691985e+00 
50700 4.8895701462e+00 1.2797156288e-04 1.9180519114e+00 -3.3221633621e+00 1.9180519114e+00 3.3221633621e+00 
50800 4.8895701473e+00 1.2669261576e-04 1.9180485754e+00 -3.3221575840e+00 1.9180485754e+00 3.3221575840e+00 
50900 4.8895701483e+00 1.2542617594e-04 1.9180452728e+00 -3.3221518637e+00 1.9180452728e+00 3.3221518637e+00 
51000 4.8895701493e+00 1.2417214312e-04 1.9180420031e+00 -3.3221462005e+00 1.9180420031e+00 3.3221462005e+00 
51100 4.8895701504e+00 1.2293041715e-04 1.9180387662e+00 -3.3221405939e+00 1.9180387662e+00 3.3221405939e+00 
51200 4.8895701514e+00 1.2170089795e-04 1.9180355616e+00 -3.3221350434e+00 1.9180355616e+00 3.3221350434e+00 
51300 4.8895701524e+00 1.2048348552e-04 1.9180323891e+00 -3.3221295484e+00 1.9180323891e+00 3.3221295484e+00 
51400 4.8895701533e+00 1.1927807996e-04 1.9180292483e+00 -3.3221241084e+00 1.9180292483e+00 3.3221241084e+00 
51500 4.8895701543e+00 1.1808458140e-04 1.9180261389e+00 -3.3221187228e+00 1.9180261389e+00 3.3221187228e+00 
51600 4.8895701552e+00 1.1690289007e-04 1.9180230606e+00 -3.3221133910e+00 1.9180230606e+00 3.3221133910e+00 
51700 4.8895701561e+00 1.1573290625e-04 1.9180200131e+00 -3.3221081126e+00 1.9180200131e+00 3.3221081126e+00 
51800 4.8895701570e+00 1.1457453030e-04 1.9180169961e+00 -3.3221028871e+00 1.9180169961e+00 3.3221028871e+00 
51900 4.8895701579e+00 1.1342766265e-04 1.9180140093e+00 -3.3220977138e+00 1.9180140093e+00 3.3220977138e+00 
52000 4.8895701588e+00 1.1229220382e-04 1.9180110524e+00 -3.3220925923e+00 1.9180110524e+00 3.3220925923e+00 
52100 4.8895701597e+00 1.1116805441e-04 1.9180081251e+00 -3.3220875220e+00 1.9180081251e+00 3.3220875220e+00 
52200 4.8895701605e+00 1.1005511513e-04 1.9180052271e+00 -3.3220825025e+00 1.9180052271e+00 3.3220825025e+00 
52300 4.8895701614e+00 1.0895328681e-04 1.9180023581e+00 -3.3220775333e+00 1.9180023581e+00 3.3220775333e+00 
52400 4.8895701622e+00 1.0786247040e-04 1.9179995178e+00 -3.3220726138e+00 1.9179995178e+00 3.3220726138e+00 
52500 4.8895701630e+00 1.0678256702e-04 1.9179967060e+00 -3.3220677435e+00 1.9179967060e+00 3.3220677435e+00 
52600 4.8895701638e+00 1.0571347792e-04 1.9179939223e+00 -3.3220629220e+00 1.9179939223e+00 3.3220629220e+00 
52700 4.8895701646e+00 1.0465510456e-04 1.9179911664e+00 -3.3220581488e+00 1.9179911664e+00 3.3220581488e+00 
52800 4.8895701653e+00 1.0360734858e-04 1.9179884382e+00 -3.3220534233e+00 1.9179884382e+00 3.3220534233e+00 
52900 4.8895701661e+00 1.0257011186e-04 1.9179857373e+00 -3.3220487451e+00 1.9179857373e+00 3.3220487451e+00 
53000 4.8895701668e+00 1.0154329651e-04 1.9179830634e+00 -3.3220441138e+00 1.9179830634e+00 3.3220441138e+00 
53100 4.8895701676e+00 1.0052680490e-04 1.9179804162e+00 -3.3220395288e+00 1.9179804162e+00 3.3220395288e+00 
53200 4.8895701683e+00 9.9520539700e-05 1.9179777956e+00 -3.3220349897e+00 1.9179777956e+00 3.3220349897e+00 
53300 4.8895701690e+00 9.8524403867e-05 1.9179752012e+00 -3.3220304961e+00 1.9179752012e+00 3.3220304961e+00 
53400 4.8895701697e+00 9.7538300704e-05 1.9179726327e+00 -3.3220260474e+00 1.9179726327e+00 3.3220260474e+00 
53500 4.8895701704e+00 9.6562133858e-05 1.9179700900e+00 -3.3220216432e+00 1.9179700900e+00 3.3220216432e+00 
53600 4.8895701711e+00 9.5595807355e-05 1.9179675727e+00 -3.3220172831e+00 1.9179675727e+00 3.3220172831e+00 
53700 4.8895701717e+00 9.4639225618e-05 1.9179650806e+00 -3.3220129667e+00 1.9179650806e+00 3.3220129667e+00 
53800 4.8895701724e+00 9.3692293487e-05 1.9179626134e+00 -3.3220086934e+00 1.9179626134e+00 3.3220086934e+00 
53900 4.8895701730e+00 9.2754916253e-05 1.9179601709e+00 -3.3220044629e+00 1.9179601709e+00 3.3220044629e+00 
54000 4.8895701737e+00 9.1826999666e-05 1.9179577528e+00 -3.3220002747e+00 1.9179577528e+00 3.3220002747e+00 
54100 4.8895701743e+00 9.0908449966e-05 1.9179553590e+00 -3.3219961284e+00 1.9179553590e+00 3.3219961284e+00 
54200 4.8895701749e+00 8.9999173901e-05 1.9179529890e+00 -3.3219920235e+00 1.9179529890e+00 3.3219920235e+00 
54300 4.8895701755e+00 8.9099078752e-05 1.9179506428e+00 -3.3219879597e+00 1.9179506428e+00 3.3219879597e+00 
54400 4.8895701761e+00 8.8208072348e-05 1.9179483200e+00 -3.3219839366e+00 1.9179483200e+00 3.3219839366e+00 
54500 4.8895701767e+00 8.7326063092e-05 1.9179460205e+00 -3.3219799537e+00 1.9179460205e+00 3.3219799537e+00 
54600 4.8895701773e+00 8.6452959970e-05 1.9179437439e+00 -3.3219760106e+00 1.9179437439e+00 3.3219760106e+00 
54700 4.8895701778e+00 8.5588672588e-05 1.9179414901e+00 -3.3219721069e+00 1.9179414901e+00 3.3219721069e+00 
54800 4.8895701784e+00 8.4733111169e-05 1.9179392589e+00 -3.3219682422e+00 1.9179392589e+00 3.3219682422e+00 
54900 4.8895701790e+00 8.3886186587e-05 1.9179370499e+00 -3.3219644162e+00 1.9179370499e+00 3.3219644162e+00 
55000 4.8895701795e+00 8.3047810372e-05 1.9179348630e+00 -3.3219606284e+00 1.9179348630e+00 3.3219606284e+00 
55100 4.8895701800e+00 8.2217894737e-05 1.9179326980e+00 -3.3219568784e+00 1.9179326980e+00 3.3219568784e+00 
55200 4.8895701806e+00 8.1396352577e-05 1.9179305546e+00 -3.3219531660e+00 1.9179305546e+00 3.3219531660e+00 
55300 4.8895701811e+00 8.0583097504e-05 1.9179284326e+00 -3.3219494906e+00 1.9179284326e+00 3.3219494906e+00 
55400 4.8895701816e+00 7.9778043839e-05 1.9179263318e+00 -3.3219458519e+00 1.9179263318e+00 3.3219458519e+00 
55500 4.8895701821e+00 7.8981106640e-05 1.9179242520e+00 -3.3219422496e+00 1.9179242520e+00 3.3219422496e+00 
55600 4.8895701826e+00 7.8192201705e-05 1.9179221930e+00 -3.3219386833e+00 1.9179221930e+00 3.3219386833e+00 
55700 4.8895701831e+00 7.7411245588e-05 1.9179201546e+00 -3.3219351525e+00 1.9179201546e+00 3.3219351525e+00 
55800 4.8895701835e+00 7.6638155602e-05 1.9179181364e+00 -3.3219316571e+00 1.9179181364e+00 3.3219316571e+00 
55900 4.8895701840e+00 7.5872849836e-05 1.9179161385e+00 -3.3219281965e+00 1.9179161385e+00 3.3219281965e+00 
56000 4.8895701845e+00 7.5115247158e-05 1.9179141605e+00 -3.3219247705e+00 1.9179141605e+00 3.3219247705e+00 
56100 4.8895701849e+00 7.4365267218e-05 1.9179122022e+00 -3.3219213787e+00 1.9179122022e+00 3.3219213787e+00 
56200 4.8895701854e+00 7.3622830466e-05 1.9179102635e+00 -3.3219180208e+00 1.9179102635e+00 3.3219180208e+00 
56300 4.8895701858e+00 7.2887858144e-05 1.9179083442e+00 -3.3219146964e+00 1.9179083442e+00 3.3219146964e+00 
56400 4.8895701863e+00 7.2160272304e-05 1.9179064440e+00 -3.3219114052e+00 1.9179064440e+00 3.3219114052e+00 
56500 4.8895701867e+00 7.1439995797e-05 1.9179045628e+00 -3.3219081468e+00 1.9179045628e+00 3.3219081468e+00 
56600 4.8895701871e+00 7.0726952287e-05 1.9179027003e+00 -3.3219049209e+00 1.9179027003e+00 3.3219049209e+00 
56700 4.8895701875e+00 7.0021066251e-05 1.9179008565e+00 -3.3219017273e+00 1.9179008565e+00 3.3219017273e+00 
56800 4.8895701881e+00 7.0039069865e-05 1.9179008565e+00 -3.3219017273e+00 1.9179008565e+00 3.3219017273e+00 
56900 4.8895701886e+00 7.0061214327e-05 1.9179008565e+00 -3.3219017273e+00 1.9179008565e+00 3.3219017273e+00 
57000 4.8895701891e+00 7.0087377515e-05 1.9179008565e+00 -3.3219017273e+00 1.9179008565e+00 3.3219017273e+00 
57100 4.8895701896e+00 7.0117439399e-05 1.9179008565e+00 -3.3219017273e+00 1.9179008565e+00 3.3219017273e+00 
57200 4.8895701901e+00 7.0151281315e-05 1.9179008565e+00 -3.3219017273e+00 1.9179008565e+00 3.3219017273e+00 
57300 4.8895701906e+00 7.0188785354e-05 1.9179008565e+00 -3.3219017273e+00 1.9179008565e+00 3.3219017273e+00 
57400 4.8895701911e+00 7.0229833872e-05 1.9179008565e+00 -3.3219017273e+00 1.9179008565e+00 3.3219017273e+00 
57500 4.8895701916e+00 7.0274309086e-05 1.9179008565e+00 -3.3219017273e+00 1.9179008565e+00 3.3219017273e+00 
57600 4.8895701921e+00 7.0322092764e-05 1.9179008565e+00 -3.3219017273e+00 1.9179008565e+00 3.3219017273e+00 
57700 4.8895701926e+00 7.0373065995e-05 1.9179008565e+00 -3.3219017273e+00 1.9179008565e+00 3.3219017273e+00 
57800 4.8895701930e+00 7.0427109028e-05 1.9179008565e+00 -3.3219017273e+00 1.9179008565e+00 3.3219017273e+00 
57900 4.8895701935e+00 7.0484101168e-05 1.9179008565e+00 -3.3219017273e+00 1.9179008565e+00 3.3219017273e+00 
58000 4.8895701939e+00 7.0543920740e-05 1.9179008565e+00 -3.3219017273e+00 1.9179008565e+00 3.3219017273e+00 
58100 4.8895701944e+00 7.0606445080e-05 1.9179008565e+00 -3.3219017273e+00 1.9179008565e+00 3.3219017273e+00 
58200 4.8895701948e+00 7.0671550590e-05 1.9179008565e+00 -3.3219017273e+00 1.9179008565e+00 3.3219017273e+00 
58300 4.8895701952e+00 7.0739112815e-05 1.9179008565e+00 -3.3219017273e+00 1.9179008565e+00 3.3219017273e+00 
58400 4.8895701955e+00 7.0084860801e-05 1.9178990123e+00 -3.3218985331e+00 1.9178990123e+00 3.3218985331e+00 
58500 4.8895701959e+00 7.0152631297e-05 1.9178990123e+00 -3.3218985331e+00 1.9178990123e+00 3.3218985331e+00 
58600 4.8895701963e+00 7.0222560053e-05 1.9178990123e+00 -3.3218985331e+00 1.9178990123e+00 3.3218985331e+00 
58700 4.8895701967e+00 7.0294519710e-05 1.9178990123e+00 -3.3218985331e+00 1.9178990123e+00 3.3218985331e+00 
58800 4.8895701971e+00 7.0368383548e-05 1.9178990123e+00 -3.3218985331e+00 1.9178990123e+00 3.3218985331e+00 
58900 4.8895701975e+00 7.0444025577e-05 1.9178990123e+00 -3.3218985331e+00 1.9178990123e+00 3.3218985331e+00 
59000 4.8895701979e+00 7.0521320640e-05 1.9178990123e+00 -3.3218985331e+00 1.9178990123e+00 3.3218985331e+00 
59100 4.8895701983e+00 7.0600144531e-05 1.9178990123e+00 -3.3218985331e+00 1.9178990123e+00 3.3218985331e+00 
59200 4.8895701986e+00 7.0680374134e-05 1.9178990123e+00 -3.3218985331e+00 1.9178990123e+00 3.3218985331e+00 
59300 4.8895701990e+00 7.0761887553e-05 1.9178990123e+00 -3.3218985331e+00 1.9178990123e+00 3.3218985331e+00 
59400 4.8895701992e+00 7.0120187745e-05 1.9178971675e+00 -3.3218953378e+00 1.9178971675e+00 3.3218953378e+00 
59500 4.8895701996e+00 7.0199578271e-05 1.9178971675e+00 -3.3218953378e+00 1.9178971675e+00 3.3218953378e+00 
59600 4.8895701999e+00 7.0279974650e-05 1.9178971675e+00 -3.3218953378e+00 1.9178971675e+00 3.3218953378e+00 
59700 4.8895702003e+00 7.0361260582e-05 1.9178971675e+00 -3.3218953378e+00 1.9178971675e+00 3.3218953378e+00 
59800 4.8895702006e+00 7.0443322477e-05 1.9178971675e+00 -3.3218953378e+00 1.9178971675e+00 3.3218953378e+00 
59900 4.8895702010e+00 7.0526049497e-05 1.9178971675e+00 -3.3218953378e+00 1.9178971675e+00 3.3218953378e+00 
60000 4.8895702013e+00 7.0609333594e-05 1.9178971675e+00 -3.3218953378e+00 1.9178971675e+00 3.3218953378e+00 
60100 4.8895702016e+00 7.0693069557e-05 1.9178971675e+00 -3.3218953378e+00 1.9178971675e+00 3.3218953378e+00 
60200 4.8895702019e+00 7.0777155062e-05 1.9178971675e+00 -3.3218953378e+00 1.9178971675e+00 3.3218953378e+00 
60300 4.8895702021e+00 7.0136958508e-05 1.9178953223e+00 -3.3218921419e+00 1.9178953223e+00 3.3218921419e+00 
60400 4.8895702024e+00 7.0217116403e-05 1.9178953223e+00 -3.3218921419e+00 1.9178953223e+00 3.3218921419e+00 
60500 4.8895702027e+00 7.0297413579e-05 1.9178953223e+00 -3.3218921419e+00 1.9178953223e+00 3.3218921419e+00 
60600 4.8895702030e+00 7.0377758937e-05 1.9178953223e+00 -3.3218921419e+00 1.9178953223e+00 3.3218921419e+00 
60700 4.8895702033e+00 7.0458065237e-05 1.9178953223e+00 -3.3218921419e+00 1.9178953223e+00 3.3218921419e+00 
60800 4.8895702036e+00 7.0538249025e-05 1.9178953223e+00 -3.3218921419e+00 1.9178953223e+00 3.3218921419e+00 
60900 4.8895702039e+00 7.0618230561e-05 1.9178953223e+00 -3.3218921419e+00 1.9178953223e+00 3.3218921419e+00 
61000 4.8895702042e+00 7.0697933762e-05 1.9178953223e+00 -3.3218921419e+00 1.9178953223e+00 3.3218921419e+00 
61100 4.8895702044e+00 7.0777286139e-05 1.9178953223e+00 -3.3218921419e+00 1.9178953223e+00 3.3218921419e+00 
61200 4.8895702046e+00 7.0131684951e-05 1.9178934771e+00 -3.3218889459e+00 1.9178934771e+00 3.3218889459e+00 
61300 4.8895702048e+00 7.0205800755e-05 1.9178934771e+00 -3.3218889459e+00 1.9178934771e+00 3.3218889459e+00 
61400 4.8895702051e+00 7.0279448188e-05 1.9178934771e+00 -3.3218889459e+00 1.9178934771e+00 3.3218889459e+00 
61500 4.8895702054e+00 7.0352567783e-05 1.9178934771e+00 -3.3218889459e+00 1.9178934771e+00 3.3218889459e+00 
61600 4.8895702056e+00 7.0425104126e-05 1.9178934771e+00 -3.3218889459e+00 1.9178934771e+00 3.3218889459e+00 
61700 4.8895702059e+00 7.0497005691e-05 1.9178934771e+00 -3.3218889459e+00 1.9178934771e+00 3.3218889459e+00 
61800 4.8895702061e+00 7.0568224686e-05 1.9178934771e+00 -3.3218889459e+00 1.9178934771e+00 3.3218889459e+00 
61900 4.8895702064e+00 7.0638716896e-05 1.9178934771e+00 -3.3218889459e+00 1.9178934771e+00 3.3218889459e+00 
62000 4.8895702066e+00 7.0708441547e-05 1.9178934771e+00 -3.3218889459e+00 1.9178934771e+00 3.3218889459e+00 
62100 4.8895702068e+00 7.0777361170e-05 1.9178934771e+00 -3.3218889459e+00 1.9178934771e+00 3.3218889459e+00 
62200 4.8895702069e+00 7.0120906282e-05 1.9178916320e+00 -3.3218857500e+00 1.9178916320e+00 3.3218857500e+00 
62300 4.8895702072e+00 7.0183784419e-05 1.9178916320e+00 -3.3218857500e+00 1.9178916320e+00 3.3218857500e+00 
62400 4.8895702074e+00 7.0245842572e-05 1.9178916320e+00 -3.3218857500e+00 1.9178916320e+00 3.3218857500e+00 
62500 4.8895702076e+00 7.0307054420e-05 1.9178916320e+00 -3.3218857500e+00 1.9178916320e+00 3.3218857500e+00 
62600 4.8895702078e+00 7.0367397075e-05 1.9178916320e+00 -3.3218857500e+00 1.9178916320e+00 3.3218857500e+00 
62700 4.8895702080e+00 7.0426850856e-05 1.9178916320e+00 -3.3218857500e+00 1.9178916320e+00 3.3218857500e+00 
62800 4.8895702082e+00 7.0485399082e-05 1.9178916320e+00 -3.3218857500e+00 1.9178916320e+00 3.3218857500e+00 
62900 4.8895702085e+00 7.0543027872e-05 1.9178916320e+00 -3.3218857500e+00 1.9178916320e+00 3.3218857500e+00 
63000 4.8895702087e+00 7.0599725962e-05 1.9178916320e+00 -3.3218857500e+00 1.9178916320e+00 3.3218857500e+00 
63100 4.8895702089e+00 7.0655484530e-05 1.9178916320e+00 -3.3218857500e+00 1.9178916320e+00 3.3218857500e+00 
63200 4.8895702091e+00 7.0710297029e-05 1.9178916320e+00 -3.3218857500e+00 1.9178916320e+00 3.3218857500e+00 
63300 4.8895702093e+00 7.0764159037e-05 1.9178916320e+00 -3.3218857500e+00 1.9178916320e+00 3.3218857500e+00 
63400 4.8895702093e+00 7.0092667316e-05 1.9178897871e+00 -3.3218825546e+00 1.9178897871e+00 3.3218825546e+00 
63500 4.8895702095e+00 7.0140292037e-05 1.9178897871e+00 -3.3218825546e+00 1.9178897871e+00 3.3218825546e+00 
63600 4.8895702097e+00 7.0187043171e-05 1.9178897871e+00 -3.3218825546e+00 1.9178897871e+00 3.3218825546e+00 
63700 4.8895702099e+00 7.0232922559e-05 1.9178897871e+00 -3.3218825546e+00 1.9178897871e+00 3.3218825546e+00 
63800 4.8895702101e+00 7.0277934228e-05 1.9178897871e+00 -3.3218825546e+00 1.9178897871e+00 3.3218825546e+00 
63900 4.8895702102e+00 7.0322084162e-05 1.9178897871e+00 -3.3218825546e+00 1.9178897871e+00 3.3218825546e+00 
64000 4.8895702104e+00 7.0365380091e-05 1.9178897871e+00 -3.3218825546e+00 1.9178897871e+00 3.3218825546e+00 
64100 4.8895702106e+00 7.0407831295e-05 1.9178897871e+00 -3.3218825546e+00 1.9178897871e+00 3.3218825546e+00 
64200 4.8895702107e+00 7.0449448424e-05 1.9178897871e+00 -3.3218825546e+00 1.9178897871e+00 3.3218825546e+00 
64300 4.8895702109e+00 7.0490243327e-05 1.9178897871e+00 -3.3218825546e+00 1.9178897871e+00 3.3218825546e+00 
64400 4.8895702111e+00 7.0530228899e-05 1.9178897871e+00 -3.3218825546e+00 1.9178897871e+00 3.3218825546e+00 
64500 4.8895702112e+00 7.0569418936e-05 1.9178897871e+00 -3.3218825546e+00 1.9178897871e+00 3.3218825546e+00 
64600 4.8895702114e+00 7.0607828003e-05 1.9178897871e+00 -3.3218825546e+00 1.9178897871e+00 3.3218825546e+00 
64700 4.8895702116e+00 7.0645471310e-05 1.9178897871e+00 -3.3218825546e+00 1.9178897871e+00 3.3218825546e+00 
64800 4.8895702117e+00 7.0682364601e-05 1.9178897871e+00 -3.3218825546e+00 1.9178897871e+00 3.3218825546e+00 
64900 4.8895702119e+00 7.0718524047e-05 1.9178897871e+00 -3.3218825546e+00 1.9178897871e+00 3.3218825546e+00 
65000 4.8895702119e+00 7.0030031974e-05 1.9178879435e+00 -3.3218793613e+00 1.9178879435e+00 3.3218793613e+00 
65100 4.8895702120e+00 7.0060445495e-05 1.9178879435e+00 -3.3218793613e+00 1.9178879435e+00 3.3218793613e+00 
65200 4.8895702122e+00 7.0090254162e-05 1.9178879435e+00 -3.3218793613e+00 1.9178879435e+00 3.3218793613e+00 
65300 4.8895702123e+00 7.0119474143e-05 1.9178879435e+00 -3.3218793613e+00 1.9178879435e+00 3.3218793613e+00 
65400 4.8895702125e+00 7.0148122353e-05 1.9178879435e+00 -3.3218793613e+00 1.9178879435e+00 3.3218793613e+00 
65500 4.8895702126e+00 7.0176216275e-05 1.9178879435e+00 -3.3218793613e+00 1.9178879435e+00 3.3218793613e+00 
65600 4.8895702127e+00 7.0203773799e-05 1.9178879435e+00 -3.3218793613e+00 1.9178879435e+00 3.3218793613e+00 
65700 4.8895702129e+00 7.0230813076e-05 1.9178879435e+00 -3.3218793613e+00 1.9178879435e+00 3.3218793613e+00 
65800 4.8895702130e+00 7.0257352387e-05 1.9178879435e+00 -3.3218793613e+00 1.9178879435e+00 3.3218793613e+00 
65900 4.8895702131e+00 7.0283410029e-05 1.9178879435e+00 -3.3218793613e+00 1.9178879435e+00 3.3218793613e+00 
66000 4.8895702133e+00 7.0309004204e-05 1.9178879435e+00 -3.3218793613e+00 1.9178879435e+00 3.3218793613e+00 
66100 4.8895702134e+00 7.0334152931e-05 1.9178879435e+00 -3.3218793613e+00 1.9178879435e+00 3.3218793613e+00 
66200 4.8895702135e+00 7.0358873959e-05 1.9178879435e+00 -3.3218793613e+00 1.9178879435e+00 3.3218793613e+00 
66300 4.8895702136e+00 7.0383184696e-05 1.9178879435e+00 -3.3218793613e+00 1.9178879435e+00 3.3218793613e+00 
66400 4.8895702138e+00 7.0407102147e-05 1.9178879435e+00 -3.3218793613e+00 1.9178879435e+00 3.3218793613e+00 
66500 4.8895702139e+00 7.0430642853e-05 1.9178879435e+00 -3.3218793613e+00 1.9178879435e+00 3.3218793613e+00 
66600 4.8895702140e+00 7.0453822849e-05 1.9178879435e+00 -3.3218793613e+00 1.9178879435e+00 3.3218793613e+00 
66700 4.8895702141e+00 7.0476657621e-05 1.9178879435e+00 -3.3218793613e+00 1.9178879435e+00 3.3218793613e+00 
66800 4.8895702142e+00 7.0499162076e-05 1.9178879435e+00 -3.3218793613e+00 1.9178879435e+00 3.3218793613e+00 
66900 4.8895702144e+00 7.0521350507e-05 1.9178879435e+00 -3.3218793613e+00 1.9178879435e+00 3.3218793613e+00 
67000 4.8895702145e+00 7.0543236583e-05 1.9178879435e+00 -3.3218793613e+00 1.9178879435e+00 3.3218793613e+00 
67100 4.8895702146e+00 7.0564833321e-05 1.9178879435e+00 -3.3218793613e+00 1.9178879435e+00 3.3218793613e+00 
67200 4.8895702147e+00 7.0586153081e-05 1.9178879435e+00 -3.3218793613e+00 1.9178879435e+00 3.3218793613e+00 
67300 4.8895702148e+00 7.0607207559e-05 1.9178879435e+00 -3.3218793613e+00 1.9178879435e+00 3.3218793613e+00 
67400 4.8895702149e+00 7.0628007781e-05 1.9178879435e+00 -3.3218793613e+00 1.9178879435e+00 3.3218793613e+00 
67500 4.8895702150e+00 7.0648564106e-05 1.9178879435e+00 -3.3218793613e+00 1.9178879435e+00 3.3218793613e+00 
67600 4.8895702151e+00 7.0668886227e-05 1.9178879435e+00 -3.3218793613e+00 1.9178879435e+00 3.3218793613e+00 
67700 4.8895702152e+00 7.0688983181e-05 1.9178879435e+00 -3.3218793613e+00 1.9178879435e+00 3.3218793613e+00 
67800 4.8895702153e+00 7.0708863358e-05 1.9178879435e+00 -3.3218793613e+00 1.9178879435e+00 3.3218793613e+00 
67900 4.8895702154e+00 7.0728534509e-05 1.9178879435e+00 -3.3218793613e+00 1.9178879435e+00 3.3218793613e+00 
68000 4.8895702154e+00 7.0023967395e-05 1.9178860996e+00 -3.3218761676e+00 1.9178860996e+00 3.3218761676e+00 
68100 4.8895702154e+00 7.0038912666e-05 1.9178860996e+00 -3.3218761676e+00 1.9178860996e+00 3.3218761676e+00 
68200 4.8895702155e+00 7.0053747340e-05 1.9178860996e+00 -3.3218761676e+00 1.9178860996e+00 3.3218761676e+00 
68300 4.8895702156e+00 7.0068475953e-05 1.9178860996e+00 -3.3218761676e+00 1.9178860996e+00 3.3218761676e+00 
68400 4.8895702157e+00 7.0083103213e-05 1.9178860996e+00 -3.3218761676e+00 1.9178860996e+00 3.3218761676e+00 
68500 4.8895702158e+00 7.0097633907e-05 1.9178860996e+00 -3.3218761676e+00 1.9178860996e+00 3.3218761676e+00 
68600 4.8895702159e+00 7.0112072820e-05 1.9178860996e+00 -3.3218761676e+00 1.9178860996e+00 3.3218761676e+00 
68700 4.8895702160e+00 7.0126424660e-05 1.9178860996e+00 -3.3218761676e+00 1.9178860996e+00 3.3218761676e+00 
68800 4.8895702161e+00 7.0140693998e-05 1.9178860996e+00 -3.3218761676e+00 1.9178860996e+00 3.3218761676e+00 
68900 4.8895702161e+00 7.0154885214e-05 1.9178860996e+00 -3.3218761676e+00 1.9178860996e+00 3.3218761676e+00 
69000 4.8895702162e+00 7.0169002453e-05 1.9178860996e+00 -3.3218761676e+00 1.9178860996e+00 3.3218761676e+00 
69100 4.8895702163e+00 7.0183049590e-05 1.9178860996e+00 -3.3218761676e+00 1.9178860996e+00 3.3218761676e+00 
69200 4.8895702164e+00 7.0197030197e-05 1.9178860996e+00 -3.3218761676e+00 1.9178860996e+00 3.3218761676e+00 
69300 4.8895702165e+00 7.0210947517e-05 1.9178860996e+00 -3.3218761676e+00 1.9178860996e+00 3.3218761676e+00 
69400 4.8895702165e+00 7.0224804454e-05 1.9178860996e+00 -3.3218761676e+00 1.9178860996e+00 3.3218761676e+00 
69500 4.8895702166e+00 7.0238603551e-05 1.9178860996e+00 -3.3218761676e+00 1.9178860996e+00 3.3218761676e+00 
69600 4.8895702167e+00 7.0252346986e-05 1.9178860996e+00 -3.3218761676e+00 1.9178860996e+00 3.3218761676e+00 
69700 4.8895702168e+00 7.0266036567e-05 1.9178860996e+00 -3.3218761676e+00 1.9178860996e+00 3.3218761676e+00 
69800 4.8895702168e+00 7.0279673730e-05 1.9178860996e+00 -3.3218761676e+00 1.9178860996e+00 3.3218761676e+00 
69900 4.8895702169e+00 7.0293259543e-05 1.9178860996e+00 -3.3218761676e+00 1.9178860996e+00 3.3218761676e+00 
70000 4.8895702170e+00 7.0306794711e-05 1.9178860996e+00 -3.3218761676e+00 1.9178860996e+00 3.3218761676e+00 
70100 4.8895702171e+00 7.0320279584e-05 1.9178860996e+00 -3.3218761676e+00 1.9178860996e+00 3.3218761676e+00 
70200 4.8895702171e+00 7.0333714167e-05 1.9178860996e+00 -3.3218761676e+00 1.9178860996e+00 3.3218761676e+00 
70300 4.8895702172e+00 7.0347098130e-05 1.9178860996e+00 -3.3218761676e+00 1.9178860996e+00 3.3218761676e+00 
70400 4.8895702173e+00 7.0360430824e-05 1.9178860996e+00 -3.3218761676e+00 1.9178860996e+00 3.3218761676e+00 
70500 4.8895702173e+00 7.0373711301e-05 1.9178860996e+00 -3.3218761676e+00 1.9178860996e+00 3.3218761676e+00 
70600 4.8895702174e+00 7.0386938317e-05 1.9178860996e+00 -3.3218761676e+00 1.9178860996e+00 3.3218761676e+00 
70700 4.8895702175e+00 7.0400110365e-05 1.9178860996e+00 -3.3218761676e+00 1.9178860996e+00 3.3218761676e+00 
70800 4.8895702175e+00 7.0413225683e-05 1.9178860996e+00 -3.3218761676e+00 1.9178860996e+00 3.3218761676e+00 
70900 4.8895702176e+00 7.0426282273e-05 1.9178860996e+00 -3.3218761676e+00 1.9178860996e+00 3.3218761676e+00 
71000 4.8895702176e+00 7.0439277928e-05 1.9178860996e+00 -3.3218761676e+00 1.9178860996e+00 3.3218761676e+00 
71100 4.8895702177e+00 7.0452210240e-05 1.9178860996e+00 -3.3218761676e+00 1.9178860996e+00 3.3218761676e+00 
71200 4.8895702178e+00 7.0465076630e-05 1.9178860996e+00 -3.3218761676e+00 1.9178860996e+00 3.3218761676e+00 
71300 4.8895702178e+00 7.0477874360e-05 1.9178860996e+00 -3.3218761676e+00 1.9178860996e+00 3.3218761676e+00 
71400 4.8895702179e+00 7.0490600557e-05 1.9178860996e+00 -3.3218761676e+00 1.9178860996e+00 3.3218761676e+00 
71500 4.8895702179e+00 7.0503252230e-05 1.9178860996e+00 -3.3218761676e+00 1.9178860996e+00 3.3218761676e+00 
71600 4.8895702180e+00 7.0515826289e-05 1.9178860996e+00 -3.3218761676e+00 1.9178860996e+00 3.3218761676e+00 
71700 4.8895702180e+00 7.0528319565e-05 1.9178860996e+00 -3.3218761676e+00 1.9178860996e+00 3.3218761676e+00 
71800 4.8895702181e+00 7.0540728824e-05 1.9178860996e+00 -3.3218761676e+00 1.9178860996e+00 3.3218761676e+00 
71900 4.8895702181e+00 7.0553050792e-05 1.9178860996e+00 -3.3218761676e+00 1.9178860996e+00 3.3218761676e+00 
72000 4.8895702182e+00 7.0565282163e-05 1.9178860996e+00 -3.3218761676e+00 1.9178860996e+00 3.3218761676e+00 
72100 4.8895702183e+00 7.0577419623e-05 1.9178860996e+00 -3.3218761676e+00 1.9178860996e+00 3.3218761676e+00 
72200 4.8895702183e+00 7.0589459861e-05 1.9178860996e+00 -3.3218761676e+00 1.9178860996e+00 3.3218761676e+00 
72300 4.8895702184e+00 7.0601399585e-05 1.9178860996e+00 -3.3218761676e+00 1.9178860996e+00 3.3218761676e+00 
72400 4.8895702184e+00 7.0607804094e-05 1.9178860996e+00 -3.3218761676e+00 1.9178860996e+00 3.3218761676e+00 
72400 4.8895702184e+00 7.0607804094e-05 1.9178860996e+00 -3.3218761676e+00 1.9178860996e+00 3.3218761676e+00 
