# step Hamiltonian StressXX CellTensor1 CellTensor2 CellTensor3 CellTensor4 
0 6.4967919795e+00 -4.9967191339e-02 1.6087831444e+00 -2.7864941444e+00 1.6087831444e+00 2.7864941444e+00 
100 6.4890594673e+00 -5.1244301482e-02 1.6087831444e+00 -2.7864941444e+00 1.6087831444e+00 2.7864941444e+00 
200 6.4815207350e+00 -5.0844041191e-02 1.6103760485e+00 -2.7892531354e+00 1.6103760485e+00 2.7892531354e+00 
300 6.4742807346e+00 -5.0645906419e-02 1.6119549450e+00 -2.7919878642e+00 1.6119549450e+00 2.7919878642e+00 
400 6.4673396617e+00 -5.0637469691e-02 1.6135261466e+00 -2.7947092653e+00 1.6135261466e+00 2.7947092653e+00 
500 6.4606952944e+00 -5.0806758045e-02 1.6150955562e+00 -2.7974275625e+00 1.6150955562e+00 2.7974275625e+00 
600 6.4543432936e+00 -5.1142231285e-02 1.6166686828e+00 -2.8001522977e+00 1.6166686828e+00 2.8001522977e+00 
700 6.4482774805e+00 -5.1632764428e-02 1.6182506570e+00 -2.8028923574e+00 1.6182506570e+00 2.8028923574e+00 
800 6.4424900908e+00 -5.2267632995e-02 1.6198462454e+00 -2.8056559976e+00 1.6198462454e+00 2.8056559976e+00 
900 6.4369720118e+00 -5.3036500145e-02 1.6214598647e+00 -2.8084508680e+00 1.6214598647e+00 2.8084508680e+00 
1000 6.4317130004e+00 -5.3929404922e-02 1.6230955945e+00 -2.8112840353e+00 1.6230955945e+00 2.8112840353e+00 
1100 6.4267018860e+00 -5.4936751080e-02 1.6247571909e+00 -2.8141620046e+00 1.6247571909e+00 2.8141620046e+00 
1200 6.4219267578e+00 -5.6049296148e-02 1.6264480980e+00 -2.8170907416e+00 1.6264480980e+00 2.8170907416e+00 
1300 6.4173751386e+00 -5.7258140478e-02 1.6281714601e+00 -2.8200756924e+00 1.6281714601e+00 2.8200756924e+00 
1400 6.4130341447e+00 -5.8554716181e-02 1.6299301335e+00 -2.8231218040e+00 1.6299301335e+00 2.8231218040e+00 
1500 6.4088906336e+00 -5.9930775849e-02 1.6317266970e+00 -2.8262335433e+00 1.6317266970e+00 2.8262335433e+00 
1600 6.4049313383e+00 -6.1378381093e-02 1.6335634631e+00 -2.8294149154e+00 1.6335634631e+00 2.8294149154e+00 
1700 6.4011429912e+00 -6.2889890917e-02 1.6354424881e+00 -2.8326694822e+00 1.6354424881e+00 2.8326694822e+00 
1800 6.3975124355e+00 -6.4457949987e-02 1.6373655823e+00 -2.8360003791e+00 1.6373655823e+00 2.8360003791e+00 
1900 6.3940267259e+00 -6.6075476887e-02 1.6393343194e+00 -2.8394103318e+00 1.6393343194e+00 2.8394103318e+00 
2000 6.3906732190e+00 -6.7735652434e-02 1.6413500461e+00 -2.8429016729e+00 1.6413500461e+00 2.8429016729e+00 
2100 6.3874396529e+00 -6.9431908156e-02 1.6434138907e+00 -2.8464763565e+00 1.6434138907e+00 2.8464763565e+00 
2200 6.3843142176e+00 -7.1157915016e-02 1.6455267718e+00 -2.8501359739e+00 1.6455267718e+00 2.8501359739e+00 
2300 6.3812856154e+00 -7.2907572472e-02 1.6476894068e+00 -2.8538817677e+00 1.6476894068e+00 2.8538817677e+00 
2400 6.3783431129e+00 -7.4674997942e-02 1.6499023198e+00 -2.8577146455e+00 1.6499023198e+00 2.8577146455e+00 
2500 6.3754765835e+00 -7.6454516749e-02 1.6521658492e+00 -2.8616351933e+00 1.6521658492e+00 2.8616351933e+00 
2600 6.3726765432e+00 -7.8240652600e-02 1.6544801549e+00 -2.8656436883e+00 1.6544801549e+00 2.8656436883e+00 
2700 6.3699341771e+00 -8.0028118647e-02 1.6568452259e+00 -2.8697401116e+00 1.6568452259e+00 2.8697401116e+00 
2800 6.3672413599e+00 -8.1811809163e-02 1.6592608870e+00 -2.8739241594e+00 1.6592608870e+00 2.8739241594e+00 
2900 6.3645906689e+00 -8.3586791862e-02 1.6617268054e+00 -2.8781952553e+00 1.6617268054e+00 2.8781952553e+00 
3000 6.3619753911e+00 -8.5348300871e-02 1.6642424971e+00 -2.8825525610e+00 1.6642424971e+00 2.8825525610e+00 
3100 6.3593895242e+00 -8.7091730369e-02 1.6668073331e+00 -2.8869949874e+00 1.6668073331e+00 2.8869949874e+00 
3200 6.3568277720e+00 -8.8812628874e-02 1.6694205460e+00 -2.8915212048e+00 1.6694205460e+00 2.8915212048e+00 
3300 6.3542855356e+00 -9.0506694183e-02 1.6720812349e+00 -2.8961296533e+00 1.6720812349e+00 2.8961296533e+00 
3400 6.3517588992e+00 -9.2169768938e-02 1.6747883722e+00 -2.9008185527e+00 1.6747883722e+00 2.9008185527e+00 
3500 6.3492446123e+00 -9.3797836788e-02 1.6775408086e+00 -2.9055859122e+00 1.6775408086e+00 2.9055859122e+00 
3600 6.3467400683e+00 -9.5387019131e-02 1.6803372784e+00 -2.9104295401e+00 1.6803372784e+00 2.9104295401e+00 
3700 6.3442432797e+00 -9.6933572392e-02 1.6831764057e+00 -2.9153470528e+00 1.6831764057e+00 2.9153470528e+00 
3800 6.3417528506e+00 -9.8433885806e-02 1.6860567088e+00 -2.9203358840e+00 1.6860567088e+00 2.9203358840e+00 
3900 6.3392679468e+00 -9.9884479661e-02 1.6889766058e+00 -2.9253932940e+00 1.6889766058e+00 2.9253932940e+00 
4000 6.3367882634e+00 -1.0128200397e-01 1.6919344198e+00 -2.9305163782e+00 1.6919344198e+00 2.9305163782e+00 
4100 6.3343139916e+00 -1.0262323752e-01 1.6949283838e+00 -2.9357020759e+00 1.6949283838e+00 2.9357020759e+00 
4200 6.3318457833e+00 -1.0390508727e-01 1.6979566454e+00 -2.9409471789e+00 1.6979566454e+00 2.9409471789e+00 
4300 6.3293847150e+00 -1.0512458804e-01 1.7010172724e+00 -2.9462483403e+00 1.7010172724e+00 2.9462483403e+00 
4400 6.3269322508e+00 -1.0627890249e-01 1.7041082568e+00 -2.9516020824e+00 1.7041082568e+00 2.9516020824e+00 
4500 6.3244902056e+00 -1.0736532127e-01 1.7072275204e+00 -2.9570048054e+00 1.7072275204e+00 2.9570048054e+00 
4600 6.3220607069e+00 -1.0838126340e-01 1.7103729189e+00 -2.9624527955e+00 1.7103729189e+00 2.9624527955e+00 
4700 6.3196461574e+00 -1.0932427678e-01 1.7135422471e+00 -2.9679422330e+00 1.7135422471e+00 2.9679422330e+00 
4800 6.3172491984e+00 -1.1019203888e-01 1.7167332433e+00 -2.9734692004e+00 1.7167332433e+00 2.9734692004e+00 
4900 6.3148726723e+00 -1.1098235739e-01 1.7199435938e+00 -2.9790296906e+00 1.7199435938e+00 2.9790296906e+00 
5000 6.3125195871e+00 -1.1169317110e-01 1.7231709377e+00 -2.9846196142e+00 1.7231709377e+00 2.9846196142e+00 
5100 6.3101930806e+00 -1.1232255066e-01 1.7264128713e+00 -2.9902348080e+00 1.7264128713e+00 2.9902348080e+00 
5200 6.3078963869e+00 -1.1286869952e-01 1.7296669527e+00 -2.9958710423e+00 1.7296669527e+00 2.9958710423e+00 
5300 6.3056328025e+00 -1.1332995472e-01 1.7329307058e+00 -3.0015240284e+00 1.7329307058e+00 3.0015240284e+00 
5400 6.3034056552e+00 -1.1370478778e-01 1.7362016251e+00 -3.0071894268e+00 1.7362016251e+00 3.0071894268e+00 
5500 6.3012182730e+00 -1.1399180549e-01 1.7394771796e+00 -3.0128628537e+00 1.7394771796e+00 3.0128628537e+00 
5600 6.2990739554e+00 -1.1418975072e-01 1.7427548175e+00 -3.0185398890e+00 1.7427548175e+00 3.0185398890e+00 
5700 6.2969759460e+00 -1.1429750314e-01 1.7460319698e+00 -3.0242160833e+00 1.7460319698e+00 3.0242160833e+00 
5800 6.2949274061e+00 -1.1431407989e-01 1.7493060549e+00 -3.0298869651e+00 1.7493060549e+00 3.0298869651e+00 
5900 6.2929313912e+00 -1.1423863627e-01 1.7525744824e+00 -3.0355480476e+00 1.7525744824e+00 3.0355480476e+00 
6000 6.2909908279e+00 -1.1407046624e-01 1.7558346571e+00 -3.0411948357e+00 1.7558346571e+00 3.0411948357e+00 
6100 6.2891084933e+00 -1.1380900298e-01 1.7590839828e+00 -3.0468228329e+00 1.7590839828e+00 3.0468228329e+00 
6200 6.2872869961e+00 -1.1345381937e-01 1.7623198664e+00 -3.0524275477e+00 1.7623198664e+00 3.0524275477e+00 
6300 6.2855287589e+00 -1.1300462834e-01 1.7655397215e+00 -3.0580045004e+00 1.7655397215e+00 3.0580045004e+00 
6400 6.2838360033e+00 -1.1246128328e-01 1.7687409722e+00 -3.0635492293e+00 1.7687409722e+00 3.0635492293e+00 
6500 6.2822107357e+00 -1.1182377832e-01 1.7719210567e+00 -3.0690572971e+00 1.7719210567e+00 3.0690572971e+00 
6600 6.2806547358e+00 -1.1109224859e-01 1.7750774306e+00 -3.0745242972e+00 1.7750774306e+00 3.0745242972e+00 
6700 6.2791695457e+00 -1.1026697045e-01 1.7782075710e+00 -3.0799458593e+00 1.7782075710e+00 3.0799458593e+00 
6800 6.2777564624e+00 -1.0934836169e-01 1.7813089794e+00 -3.0853176563e+00 1.7813089794e+00 3.0853176563e+00 
6900 6.2764165302e+00 -1.0833698164e-01 1.7843791854e+00 -3.0906354091e+00 1.7843791854e+00 3.0906354091e+00 
7000 6.2751505359e+00 -1.0723353131e-01 1.7874157498e+00 -3.0958948930e+00 1.7874157498e+00 3.0958948930e+00 
7100 6.2739590056e+00 -1.0603885347e-01 1.7904162682e+00 -3.1010919432e+00 1.7904162682e+00 3.1010919432e+00 
7200 6.2728422025e+00 -1.0475393267e-01 1.7933783736e+00 -3.1062224603e+00 1.7933783736e+00 3.1062224603e+00 
7300 6.2718001267e+00 -1.0337989530e-01 1.7962997404e+00 -3.1112824160e+00 1.7962997404e+00 3.1112824160e+00 
7400 6.2708325164e+00 -1.0191800954e-01 1.7991780866e+00 -3.1162678579e+00 1.7991780866e+00 3.1162678579e+00 
7500 6.2699388506e+00 -1.0036968527e-01 1.8020111777e+00 -3.1211749156e+00 1.8020111777e+00 3.1211749156e+00 
7600 6.2691183532e+00 -9.8736473980e-02 1.8047968291e+00 -3.1259998054e+00 1.8047968291e+00 3.1259998054e+00 
7700 6.2683699982e+00 -9.7020068597e-02 1.8075329093e+00 -3.1307388353e+00 1.8075329093e+00 3.1307388353e+00 
7800 6.2676925166e+00 -9.5222303208e-02 1.8102173429e+00 -3.1353884107e+00 1.8102173429e+00 3.1353884107e+00 
7900 6.2670844043e+00 -9.3345152743e-02 1.8128481134e+00 -3.1399450389e+00 1.8128481134e+00 3.1399450389e+00 
8000 6.2665439310e+00 -9.1390732538e-02 1.8154232662e+00 -3.1444053343e+00 1.8154232662e+00 3.1444053343e+00 
8100 6.2660691507e+00 -8.9361297783e-02 1.8179409111e+00 -3.1487660231e+00 1.8179409111e+00 3.1487660231e+00 
8200 6.2656579127e+00 -8.7259242832e-02 1.8203992254e+00 -3.1530239485e+00 1.8203992254e+00 3.1530239485e+00 
8300 6.2653078740e+00 -8.5087100352e-02 1.8227964569e+00 -3.1571760752e+00 1.8227964569e+00 3.1571760752e+00 
8400 6.2650165121e+00 -8.2847540291e-02 1.8251309258e+00 -3.1612194940e+00 1.8251309258e+00 3.1612194940e+00 
8500 6.2647811394e+00 -8.0543368626e-02 1.8274010285e+00 -3.1651514271e+00 1.8274010285e+00 3.1651514271e+00 
8600 6.2645989173e+00 -7.8177525887e-02 1.8296052392e+00 -3.1689692320e+00 1.8296052392e+00 3.1689692320e+00 
8700 6.2644668721e+00 -7.5753085398e-02 1.8317421133e+00 -3.1726704066e+00 1.8317421133e+00 3.1726704066e+00 
8800 6.2643819106e+00 -7.3273251228e-02 1.8338102899e+00 -3.1762525935e+00 1.8338102899e+00 3.1762525935e+00 
8900 6.2643408367e+00 -7.0741355811e-02 1.8358084939e+00 -3.1797135843e+00 1.8358084939e+00 3.1797135843e+00 
9000 6.2643403683e+00 -6.8160857201e-02 1.8377355390e+00 -3.1830513244e+00 1.8377355390e+00 3.1830513244e+00 
9100 6.2643771547e+00 -6.5535335933e-02 1.8395903301e+00 -3.1862639168e+00 1.8395903301e+00 3.1862639168e+00 
9200 6.2644477937e+00 -6.2868491459e-02 1.8413718654e+00 -3.1893496265e+00 1.8413718654e+00 3.1893496265e+00 
9300 6.2645488498e+00 -6.0164138125e-02 1.8430792390e+00 -3.1923068844e+00 1.8430792390e+00 3.1923068844e+00 
9400 6.2646768715e+00 -5.7426200658e-02 1.8447116434e+00 -3.1951342916e+00 1.8447116434e+00 3.1951342916e+00 
9500 6.2648284094e+00 -5.4658709136e-02 1.8462683709e+00 -3.1978306228e+00 1.8462683709e+00 3.1978306228e+00 
9600 6.2650000338e+00 -5.1865793419e-02 1.8477488168e+00 -3.2003948303e+00 1.8477488168e+00 3.2003948303e+00 
9700 6.2651883520e+00 -4.9051677005e-02 1.8491524804e+00 -3.2028260469e+00 1.8491524804e+00 3.2028260469e+00 
9800 6.2653900255e+00 -4.6220670306e-02 1.8504789674e+00 -3.2051235899e+00 1.8504789674e+00 3.2051235899e+00 
9900 6.2656017871e+00 -4.3377163311e-02 1.8517279918e+00 -3.2072869635e+00 1.8517279918e+00 3.2072869635e+00 
10000 6.2658204567e+00 -4.0525617642e-02 1.8528993769e+00 -3.2093158621e+00 1.8528993769e+00 3.2093158621e+00 
10100 6.2660429572e+00 -3.7670557981e-02 1.8539930575e+00 -3.2112101725e+00 1.8539930575e+00 3.2112101725e+00 
10200 6.2662663298e+00 -3.4816562872e-02 1.8550090806e+00 -3.2129699761e+00 1.8550090806e+00 3.2129699761e+00 
10300 6.2664877479e+00 -3.1968254903e-02 1.8559476069e+00 -3.2145955514e+00 1.8559476069e+00 3.2145955514e+00 
10400 6.2667045306e+00 -2.9130290278e-02 1.8568089116e+00 -3.2160873748e+00 1.8568089116e+00 3.2160873748e+00 
10500 6.2669141551e+00 -2.6307347793e-02 1.8575933849e+00 -3.2174461225e+00 1.8575933849e+00 3.2174461225e+00 
10600 6.2671142686e+00 -2.3504117251e-02 1.8583015328e+00 -3.2186726707e+00 1.8583015328e+00 3.2186726707e+00 
10700 6.2673026979e+00 -2.0725287328e-02 1.8589339773e+00 -3.2197680966e+00 1.8589339773e+00 3.2197680966e+00 
10800 6.2674774589e+00 -1.7975532955e-02 1.8594914560e+00 -3.2207336781e+00 1.8594914560e+00 3.2207336781e+00 
10900 6.2676367646e+00 -1.5259502236e-02 1.8599748224e+00 -3.2215708931e+00 1.8599748224e+00 3.2215708931e+00 
11000 6.2677790315e+00 -1.2581802977e-02 1.8603850447e+00 -3.2222814190e+00 1.8603850447e+00 3.2222814190e+00 
11100 6.2679028850e+00 -9.9469888799e-03 1.8607232054e+00 -3.2228671306e+00 1.8607232054e+00 3.2228671306e+00 
11200 6.2680071627e+00 -7.3595454576e-03 1.8609905001e+00 -3.2233300985e+00 1.8609905001e+00 3.2233300985e+00 
11300 6.2680909175e+00 -4.8238757691e-03 1.8611882355e+00 -3.2236725863e+00 1.8611882355e+00 3.2236725863e+00 
11400 6.2681534181e+00 -2.3442860328e-03 1.8613178283e+00 -3.2238970476e+00 1.8613178283e+00 3.2238970476e+00 
11500 6.2681941484e+00 7.5028783833e-05 1.8613808025e+00 -3.2240061221e+00 1.8613808025e+00 3.2240061221e+00 
11600 6.2682128058e+00 2.4299993124e-03 1.8613787871e+00 -3.2240026313e+00 1.8613787871e+00 3.2240026313e+00 
11700 6.2682092972e+00 4.7166959732e-03 1.8613135133e+00 -3.2238895738e+00 1.8613135133e+00 3.2238895738e+00 
11800 6.2681837345e+00 6.9313429112e-03 1.8611868113e+00 -3.2236701195e+00 1.8611868113e+00 3.2236701195e+00 
11900 6.2681364281e+00 9.0703315786e-03 1.8610006068e+00 -3.2233476039e+00 1.8610006068e+00 3.2233476039e+00 
12000 6.2680678793e+00 1.1130233865e-02 1.8607569171e+00 -3.2229255209e+00 1.8607569171e+00 3.2229255209e+00 
12100 6.2679787710e+00 1.3107814675e-02 1.8604578470e+00 -3.2224075163e+00 1.8604578470e+00 3.2224075163e+00 
12200 6.2678699577e+00 1.5000043864e-02 1.8601055842e+00 -3.2217973793e+00 1.8601055842e+00 3.2217973793e+00 
12300 6.2677424543e+00 1.6804107424e-02 1.8597023947e+00 -3.2210990345e+00 1.8597023947e+00 3.2210990345e+00 
12400 6.2675974232e+00 1.8517417841e-02 1.8592506174e+00 -3.2203165333e+00 1.8592506174e+00 3.2203165333e+00 
12500 6.2674361615e+00 2.0137623542e-02 1.8587526589e+00 -3.2194540439e+00 1.8587526589e+00 3.2194540439e+00 
12600 6.2672600864e+00 2.1662617339e-02 1.8582109880e+00 -3.2185158424e+00 1.8582109880e+00 3.2185158424e+00 
12700 6.2670707204e+00 2.3090543818e-02 1.8576281294e+00 -3.2175063017e+00 1.8576281294e+00 3.2175063017e+00 
12800 6.2668696759e+00 2.4419805596e-02 1.8570066580e+00 -3.2164298816e+00 1.8570066580e+00 3.2164298816e+00 
12900 6.2666586394e+00 2.5649068403e-02 1.8563491923e+00 -3.2152911176e+00 1.8563491923e+00 3.2152911176e+00 
13000 6.2664393548e+00 2.6777264948e-02 1.8556583881e+00 -3.2140946096e+00 1.8556583881e+00 3.2140946096e+00 
13100 6.2662136077e+00 2.7803597527e-02 1.8549369318e+00 -3.2128450106e+00 1.8549369318e+00 3.2128450106e+00 
13200 6.2659832084e+00 2.8727539366e-02 1.8541875337e+00 -3.2115470150e+00 1.8541875337e+00 3.2115470150e+00 
13300 6.2657499761e+00 2.9548834683e-02 1.8534129211e+00 -3.2102053468e+00 1.8534129211e+00 3.2102053468e+00 
13400 6.2655157226e+00 3.0267497475e-02 1.8526158317e+00 -3.2088247474e+00 1.8526158317e+00 3.2088247474e+00 
13500 6.2652822368e+00 3.0883809042e-02 1.8517990064e+00 -3.2074099644e+00 1.8517990064e+00 3.2074099644e+00 
13600 6.2650512699e+00 3.1398314279e-02 1.8509651823e+00 -3.2059657388e+00 1.8509651823e+00 3.2059657388e+00 
13700 6.2648245206e+00 3.1811816765e-02 1.8501170865e+00 -3.2044967938e+00 1.8501170865e+00 3.2044967938e+00 
13800 6.2646036220e+00 3.2125372713e-02 1.8492574287e+00 -3.2030078229e+00 1.8492574287e+00 3.2030078229e+00 
13900 6.2643901286e+00 3.2340283813e-02 1.8483888948e+00 -3.2015034779e+00 1.8483888948e+00 3.2015034779e+00 
14000 6.2641855048e+00 3.2458089057e-02 1.8475141403e+00 -3.1999883586e+00 1.8475141403e+00 3.1999883586e+00 
14100 6.2639911142e+00 3.2480555612e-02 1.8466357839e+00 -3.1984670008e+00 1.8466357839e+00 3.1984670008e+00 
14200 6.2638082105e+00 3.2409668813e-02 1.8457564016e+00 -3.1969438660e+00 1.8457564016e+00 3.1969438660e+00 
14300 6.2636379289e+00 3.2247621382e-02 1.8448785204e+00 -3.1954233311e+00 1.8448785204e+00 3.1954233311e+00 
14400 6.2634812793e+00 3.1996801942e-02 1.8440046126e+00 -3.1939096784e+00 1.8440046126e+00 3.1939096784e+00 
14500 6.2633391410e+00 3.1659782938e-02 1.8431370906e+00 -3.1924070862e+00 1.8431370906e+00 3.1924070862e+00 
14600 6.2632122582e+00 3.1239308053e-02 1.8422783014e+00 -3.1909196197e+00 1.8422783014e+00 3.1909196197e+00 
14700 6.2631012368e+00 3.0738279217e-02 1.8414305221e+00 -3.1894512228e+00 1.8414305221e+00 3.1894512228e+00 
14800 6.2630065436e+00 3.0159743307e-02 1.8405959547e+00 -3.1880057097e+00 1.8405959547e+00 3.1880057097e+00 
14900 6.2629285049e+00 2.9506878641e-02 1.8397767226e+00 -3.1865867582e+00 1.8397767226e+00 3.1865867582e+00 
15000 6.2628673086e+00 2.8782981338e-02 1.8389748662e+00 -3.1851979022e+00 1.8389748662e+00 3.1851979022e+00 
15100 6.2628230054e+00 2.7991451665e-02 1.8381923395e+00 -3.1838425261e+00 1.8381923395e+00 3.1838425261e+00 
15200 6.2627955130e+00 2.7135780425e-02 1.8374310068e+00 -3.1825238592e+00 1.8374310068e+00 3.1825238592e+00 
15300 6.2627846199e+00 2.6219535495e-02 1.8366926400e+00 -3.1812449704e+00 1.8366926400e+00 3.1812449704e+00 
15400 6.2627899912e+00 2.5246348560e-02 1.8359789159e+00 -3.1800087639e+00 1.8359789159e+00 3.1800087639e+00 
15500 6.2628111753e+00 2.4219902142e-02 1.8352914142e+00 -3.1788179761e+00 1.8352914142e+00 3.1788179761e+00 
15600 6.2628476104e+00 2.3143916962e-02 1.8346316157e+00 -3.1776751716e+00 1.8346316157e+00 3.1776751716e+00 
15700 6.2628986332e+00 2.2022139697e-02 1.8340009008e+00 -3.1765827413e+00 1.8340009008e+00 3.1765827413e+00 
15800 6.2629634872e+00 2.0858331192e-02 1.8334005484e+00 -3.1755429004e+00 1.8334005484e+00 3.1755429004e+00 
15900 6.2630413322e+00 1.9656255147e-02 1.8328317351e+00 -3.1745576869e+00 1.8328317351e+00 3.1745576869e+00 
16000 6.2631312534e+00 1.8419667335e-02 1.8322955348e+00 -3.1736289608e+00 1.8322955348e+00 3.1736289608e+00 
16100 6.2632322718e+00 1.7152305355e-02 1.8317929187e+00 -3.1727584042e+00 1.8317929187e+00 3.1727584042e+00 
16200 6.2633433542e+00 1.5857878969e-02 1.8313247551e+00 -3.1719475211e+00 1.8313247551e+00 3.1719475211e+00 
16300 6.2634634236e+00 1.4540061004e-02 1.8308918102e+00 -3.1711976385e+00 1.8308918102e+00 3.1711976385e+00 
16400 6.2635913691e+00 1.3202478859e-02 1.8304947487e+00 -3.1705099077e+00 1.8304947487e+00 3.1705099077e+00 
16500 6.2637260567e+00 1.1848706596e-02 1.8301341346e+00 -3.1698853057e+00 1.8301341346e+00 3.1698853057e+00 
16600 6.2638663390e+00 1.0482257627e-02 1.8298104327e+00 -3.1693246376e+00 1.8298104327e+00 3.1693246376e+00 
16700 6.2640110649e+00 9.1065779833e-03 1.8295240100e+00 -3.1688285390e+00 1.8295240100e+00 3.1688285390e+00 
16800 6.2641590894e+00 7.7250401592e-03 1.8292751373e+00 -3.1683974788e+00 1.8292751373e+00 3.1683974788e+00 
16900 6.2643092823e+00 6.3409375147e-03 1.8290639911e+00 -3.1680317628e+00 1.8290639911e+00 3.1680317628e+00 
17000 6.2644605370e+00 4.9574792196e-03 1.8288906555e+00 -3.1677315368e+00 1.8288906555e+00 3.1677315368e+00 
17100 6.2646117786e+00 3.5777857198e-03 1.8287551247e+00 -3.1674967906e+00 1.8287551247e+00 3.1674967906e+00 
17200 6.2647619709e+00 2.2048847033e-03 1.8286573054e+00 -3.1673273625e+00 1.8286573054e+00 3.1673273625e+00 
17300 6.2649101240e+00 8.4170754363e-04 1.8285970187e+00 -3.1672229430e+00 1.8285970187e+00 3.1672229430e+00 
17400 6.2650552998e+00 -5.0891380558e-04 1.8285740036e+00 -3.1671830797e+00 1.8285740036e+00 3.1671830797e+00 
17500 6.2651966178e+00 -1.8442494889e-03 1.8285879192e+00 -3.1672071822e+00 1.8285879192e+00 3.1672071822e+00 
17600 6.2653332599e+00 -3.1616740260e-03 1.8286383477e+00 -3.1672945269e+00 1.8286383477e+00 3.1672945269e+00 
17700 6.2654644745e+00 -4.4586682140e-03 1.8287247973e+00 -3.1674442619e+00 1.8287247973e+00 3.1674442619e+00 
17800 6.2655895800e+00 -5.7328206785e-03 1.8288467051e+00 -3.1676554125e+00 1.8288467051e+00 3.1676554125e+00 
17900 6.2657079670e+00 -6.9818291001e-03 1.8290034406e+00 -3.1679268863e+00 1.8290034406e+00 3.1679268863e+00 
18000 6.2658191008e+00 -8.2035011403e-03 1.8291943082e+00 -3.1682574787e+00 1.8291943082e+00 3.1682574787e+00 
18100 6.2659225224e+00 -9.3957550889e-03 1.8294185509e+00 -3.1686458784e+00 1.8294185509e+00 3.1686458784e+00 
18200 6.2660178492e+00 -1.0556620256e-02 1.8296753531e+00 -3.1690906729e+00 1.8296753531e+00 3.1690906729e+00 
18300 6.2661047748e+00 -1.1684237129e-02 1.8299638441e+00 -3.1695903540e+00 1.8299638441e+00 3.1695903540e+00 
18400 6.2661830688e+00 -1.2776857317e-02 1.8302831011e+00 -3.1701433234e+00 1.8302831011e+00 3.1701433234e+00 
18500 6.2662525750e+00 -1.3832843295e-02 1.8306321527e+00 -3.1707478984e+00 1.8306321527e+00 3.1707478984e+00 
18600 6.2663132098e+00 -1.4850667975e-02 1.8310099817e+00 -3.1714023175e+00 1.8310099817e+00 3.1714023175e+00 
18700 6.2663649603e+00 -1.5828914106e-02 1.8314155288e+00 -3.1721047457e+00 1.8314155288e+00 3.1721047457e+00 
18800 6.2664078811e+00 -1.6766273533e-02 1.8318476955e+00 -3.1728532804e+00 1.8318476955e+00 3.1728532804e+00 
18900 6.2664420915e+00 -1.7661546318e-02 1.8323053474e+00 -3.1736459567e+00 1.8323053474e+00 3.1736459567e+00 
19000 6.2664677715e+00 -1.8513639733e-02 1.8327873173e+00 -3.1744807530e+00 1.8327873173e+00 3.1744807530e+00 
19100 6.2664851585e+00 -1.9321567152e-02 1.8332924084e+00 -3.1753555964e+00 1.8332924084e+00 3.1753555964e+00 
19200 6.2664945430e+00 -2.0084446826e-02 1.8338193972e+00 -3.1762683679e+00 1.8338193972e+00 3.1762683679e+00 
19300 6.2664962639e+00 -2.0801500578e-02 1.8343670369e+00 -3.1772169076e+00 1.8343670369e+00 3.1772169076e+00 
19400 6.2664907043e+00 -2.1472052398e-02 1.8349340601e+00 -3.1781990206e+00 1.8349340601e+00 3.1781990206e+00 
19500 6.2664782867e+00 -2.2095526974e-02 1.8355191817e+00 -3.1792124810e+00 1.8355191817e+00 3.1792124810e+00 
19600 6.2664594681e+00 -2.2671448135e-02 1.8361211023e+00 -3.1802550380e+00 1.8361211023e+00 3.1802550380e+00 
19700 6.2664347353e+00 -2.3199437235e-02 1.8367385103e+00 -3.1813244200e+00 1.8367385103e+00 3.1813244200e+00 
19800 6.2664045997e+00 -2.3679211470e-02 1.8373700854e+00 -3.1824183402e+00 1.8373700854e+00 3.1824183402e+00 
19900 6.2663695929e+00 -2.4110582132e-02 1.8380145009e+00 -3.1835345006e+00 1.8380145009e+00 3.1835345006e+00 
20000 6.2663302613e+00 -2.4493452818e-02 1.8386704265e+00 -3.1846705971e+00 1.8386704265e+00 3.1846705971e+00 
20100 6.2662871617e+00 -2.4827817569e-02 1.8393365309e+00 -3.1858243238e+00 1.8393365309e+00 3.1858243238e+00 
20200 6.2662408569e+00 -2.5113758970e-02 1.8400114845e+00 -3.1869933777e+00 1.8400114845e+00 3.1869933777e+00 
20300 6.2661919106e+00 -2.5351446198e-02 1.8406939615e+00 -3.1881754626e+00 1.8406939615e+00 3.1881754626e+00 
20400 6.2661408837e+00 -2.5541133019e-02 1.8413826427e+00 -3.1893682934e+00 1.8413826427e+00 3.1893682934e+00 
20500 6.2660883299e+00 -2.5683155745e-02 1.8420762176e+00 -3.1905696003e+00 1.8420762176e+00 3.1905696003e+00 
20600 6.2660347919e+00 -2.5777931141e-02 1.8427733868e+00 -3.1917771328e+00 1.8427733868e+00 3.1917771328e+00 
20700 6.2659807977e+00 -2.5825954290e-02 1.8434728641e+00 -3.1929886629e+00 1.8434728641e+00 3.1929886629e+00 
20800 6.2659268575e+00 -2.5827796421e-02 1.8441733785e+00 -3.1942019896e+00 1.8441733785e+00 3.1942019896e+00 
20900 6.2658734600e+00 -2.5784102684e-02 1.8448736769e+00 -3.1954149419e+00 1.8448736769e+00 3.1954149419e+00 
21000 6.2658210704e+00 -2.5695589895e-02 1.8455725250e+00 -3.1966253823e+00 1.8455725250e+00 3.1966253823e+00 
21100 6.2657701269e+00 -2.5563044231e-02 1.8462687102e+00 -3.1978312104e+00 1.8462687102e+00 3.1978312104e+00 
21200 6.2657210393e+00 -2.5387318893e-02 1.8469610428e+00 -3.1990303657e+00 1.8469610428e+00 3.1990303657e+00 
21300 6.2656741866e+00 -2.5169331725e-02 1.8476483581e+00 -3.2002208308e+00 1.8476483581e+00 3.2002208308e+00 
21400 6.2656299155e+00 -2.4910062791e-02 1.8483295180e+00 -3.2014006342e+00 1.8483295180e+00 3.2014006342e+00 
21500 6.2655885388e+00 -2.4610551923e-02 1.8490034123e+00 -3.2025678535e+00 1.8490034123e+00 3.2025678535e+00 
21600 6.2655503348e+00 -2.4271896219e-02 1.8496689608e+00 -3.2037206172e+00 1.8496689608e+00 3.2037206172e+00 
21700 6.2655155462e+00 -2.3895247512e-02 1.8503251141e+00 -3.2048571082e+00 1.8503251141e+00 3.2048571082e+00 
21800 6.2654843797e+00 -2.3481809798e-02 1.8509708557e+00 -3.2059755654e+00 1.8509708557e+00 3.2059755654e+00 
21900 6.2654570059e+00 -2.3032836628e-02 1.8516052026e+00 -3.2070742864e+00 1.8516052026e+00 3.2070742864e+00 
22000 6.2654335591e+00 -2.2549628468e-02 1.8522272068e+00 -3.2081516293e+00 1.8522272068e+00 3.2081516293e+00 
22100 6.2654141381e+00 -2.2033530014e-02 1.8528359567e+00 -3.2092060151e+00 1.8528359567e+00 3.2092060151e+00 
22200 6.2653988064e+00 -2.1485927485e-02 1.8534305778e+00 -3.2102359291e+00 1.8534305778e+00 3.2102359291e+00 
22300 6.2653875931e+00 -2.0908245876e-02 1.8540102339e+00 -3.2112399229e+00 1.8540102339e+00 3.2112399229e+00 
22400 6.2653804940e+00 -2.0301946179e-02 1.8545741280e+00 -3.2122166160e+00 1.8545741280e+00 3.2122166160e+00 
22500 6.2653774727e+00 -1.9668522574e-02 1.8551215028e+00 -3.2131646971e+00 1.8551215028e+00 3.2131646971e+00 
22600 6.2653784624e+00 -1.9009499593e-02 1.8556516422e+00 -3.2140829254e+00 1.8556516422e+00 3.2140829254e+00 
22700 6.2653833669e+00 -1.8326429253e-02 1.8561638712e+00 -3.2149701321e+00 1.8561638712e+00 3.2149701321e+00 
22800 6.2653920627e+00 -1.7620888162e-02 1.8566575572e+00 -3.2158252213e+00 1.8566575572e+00 3.2158252213e+00 
22900 6.2654044011e+00 -1.6894474608e-02 1.8571321099e+00 -3.2166471708e+00 1.8571321099e+00 3.2166471708e+00 
23000 6.2654202097e+00 -1.6148805615e-02 1.8575869824e+00 -3.2174350330e+00 1.8575869824e+00 3.2174350330e+00 
23100 6.2654392948e+00 -1.5385513991e-02 1.8580216709e+00 -3.2181879356e+00 1.8580216709e+00 3.2181879356e+00 
23200 6.2654614436e+00 -1.4606245352e-02 1.8584357157e+00 -3.2189050823e+00 1.8584357157e+00 3.2189050823e+00 
23300 6.2654864263e+00 -1.3812655133e-02 1.8588287011e+00 -3.2195857528e+00 1.8588287011e+00 3.2195857528e+00 
23400 6.2655139986e+00 -1.3006405593e-02 1.8592002554e+00 -3.2202293037e+00 1.8592002554e+00 3.2202293037e+00 
23500 6.2655439038e+00 -1.2189162804e-02 1.8595500513e+00 -3.2208351680e+00 1.8595500513e+00 3.2208351680e+00 
23600 6.2655758753e+00 -1.1362593649e-02 1.8598778059e+00 -3.2214028556e+00 1.8598778059e+00 3.2214028556e+00 
23700 6.2656096389e+00 -1.0528362809e-02 1.8601832804e+00 -3.2219319530e+00 1.8601832804e+00 3.2219319530e+00 
23800 6.2656449150e+00 -9.6881297614e-03 1.8604662802e+00 -3.2224221230e+00 1.8604662802e+00 3.2224221230e+00 
23900 6.2656814211e+00 -8.8435457861e-03 1.8607266545e+00 -3.2228731047e+00 1.8607266545e+00 3.2228731047e+00 
24000 6.2657188739e+00 -7.9962509876e-03 1.8609642965e+00 -3.2232847126e+00 1.8609642965e+00 3.2232847126e+00 
24100 6.2657569913e+00 -7.1478713354e-03 1.8611791422e+00 -3.2236568363e+00 1.8611791422e+00 3.2236568363e+00 
24200 6.2657954949e+00 -6.3000157299e-03 1.8613711709e+00 -3.2239894397e+00 1.8613711709e+00 3.2239894397e+00 
24300 6.2658341116e+00 -5.4542730993e-03 1.8615404039e+00 -3.2242825600e+00 1.8615404039e+00 3.2242825600e+00 
24400 6.2658725756e+00 -4.6122095342e-03 1.8616869048e+00 -3.2245363069e+00 1.8616869048e+00 3.2245363069e+00 
24500 6.2659106303e+00 -3.7753654639e-03 1.8618107779e+00 -3.2247508615e+00 1.8618107779e+00 3.2247508615e+00 
24600 6.2659480297e+00 -2.9452528827e-03 1.8619121685e+00 -3.2249264750e+00 1.8619121685e+00 3.2249264750e+00 
24700 6.2659845403e+00 -2.1233526327e-03 1.8619912612e+00 -3.2250634676e+00 1.8619912612e+00 3.2250634676e+00 
24800 6.2660199421e+00 -1.3111117483e-03 1.8620482798e+00 -3.2251622268e+00 1.8620482798e+00 3.2251622268e+00 
24900 6.2660540301e+00 -5.0994087018e-04 1.8620834861e+00 -3.2252232058e+00 1.8620834861e+00 3.2252232058e+00 
25000 6.2660866153e+00 2.7878826369e-04 1.8620971789e+00 -3.2252469224e+00 1.8620971789e+00 3.2252469224e+00 
25100 6.2661175256e+00 1.0537452451e-03 1.8620896930e+00 -3.2252339565e+00 1.8620896930e+00 3.2252339565e+00 
25200 6.2661466066e+00 1.8136433318e-03 1.8620613984e+00 -3.2251849488e+00 1.8620613984e+00 3.2251849488e+00 
25300 6.2661737224e+00 2.5572416879e-03 1.8620126987e+00 -3.2251005985e+00 1.8620126987e+00 3.2251005985e+00 
25400 6.2661987557e+00 3.2833475198e-03 1.8619440304e+00 -3.2249816615e+00 1.8619440304e+00 3.2249816615e+00 
25500 6.2662216087e+00 3.9908181031e-03 1.8618558612e+00 -3.2248289480e+00 1.8618558612e+00 3.2248289480e+00 
25600 6.2662422025e+00 4.6785626929e-03 1.8617486891e+00 -3.2246433204e+00 1.8617486891e+00 3.2246433204e+00 
25700 6.2662604778e+00 5.3455443112e-03 1.8616230408e+00 -3.2244256913e+00 1.8616230408e+00 3.2244256913e+00 
25800 6.2662763944e+00 5.9907814072e-03 1.8614794705e+00 -3.2241770202e+00 1.8614794705e+00 3.2241770202e+00 
25900 6.2662899310e+00 6.6133493827e-03 1.8613185583e+00 -3.2238983121e+00 1.8613185583e+00 3.2238983121e+00 
26000 6.2663010847e+00 7.2123819796e-03 1.8611409089e+00 -3.2235906142e+00 1.8611409089e+00 3.2235906142e+00 
26100 6.2663098707e+00 7.7870725234e-03 1.8609471499e+00 -3.2232550138e+00 1.8609471499e+00 3.2232550138e+00 
26200 6.2663163214e+00 8.3366750192e-03 1.8607379304e+00 -3.2228926350e+00 1.8607379304e+00 3.2228926350e+00 
26300 6.2663204856e+00 8.8605050967e-03 1.8605139196e+00 -3.2225046370e+00 1.8605139196e+00 3.2225046370e+00 
26400 6.2663224281e+00 9.3579407998e-03 1.8602758049e+00 -3.2220922101e+00 1.8602758049e+00 3.2220922101e+00 
26500 6.2663222278e+00 9.8284232202e-03 1.8600242903e+00 -3.2216565741e+00 1.8600242903e+00 3.2216565741e+00 
26600 6.2663199777e+00 1.0271456971e-02 1.8597600951e+00 -3.2211989745e+00 1.8597600951e+00 3.2211989745e+00 
26700 6.2663157828e+00 1.0686610499e-02 1.8594839518e+00 -3.2207206805e+00 1.8594839518e+00 3.2207206805e+00 
26800 6.2663097597e+00 1.1073516241e-02 1.8591966051e+00 -3.2202229812e+00 1.8591966051e+00 3.2202229812e+00 
26900 6.2663020349e+00 1.1431870610e-02 1.8588988092e+00 -3.2197071837e+00 1.8588988092e+00 3.2197071837e+00 
27000 6.2662927436e+00 1.1761433828e-02 1.8585913273e+00 -3.2191746094e+00 1.8585913273e+00 3.2191746094e+00 
27100 6.2662820283e+00 1.2062029596e-02 1.8582749291e+00 -3.2186265916e+00 1.8582749291e+00 3.2186265916e+00 
27200 6.2662700378e+00 1.2333544611e-02 1.8579503894e+00 -3.2180644724e+00 1.8579503894e+00 3.2180644724e+00 
27300 6.2662569254e+00 1.2575927918e-02 1.8576184866e+00 -3.2174895999e+00 1.8576184866e+00 3.2174895999e+00 
27400 6.2662428480e+00 1.2789190126e-02 1.8572800009e+00 -3.2169033255e+00 1.8572800009e+00 3.2169033255e+00 
27500 6.2662279643e+00 1.2973402458e-02 1.8569357126e+00 -3.2163070007e+00 1.8569357126e+00 3.2163070007e+00 
27600 6.2662124339e+00 1.3128695674e-02 1.8565864007e+00 -3.2157019747e+00 1.8565864007e+00 3.2157019747e+00 
27700 6.2661964160e+00 1.3255258844e-02 1.8562328411e+00 -3.2150895915e+00 1.8562328411e+00 3.2150895915e+00 
27800 6.2661800679e+00 1.3353337996e-02 1.8558758053e+00 -3.2144711873e+00 1.8558758053e+00 3.2144711873e+00 
27900 6.2661635441e+00 1.3423234634e-02 1.8555160585e+00 -3.2138480876e+00 1.8555160585e+00 3.2138480876e+00 
28000 6.2661469948e+00 1.3465304132e-02 1.8551543586e+00 -3.2132216050e+00 1.8551543586e+00 3.2132216050e+00 
28100 6.2661305655e+00 1.3479954023e-02 1.8547914545e+00 -3.2125930366e+00 1.8547914545e+00 3.2125930366e+00 
28200 6.2661143956e+00 1.3467642179e-02 1.8544280844e+00 -3.2119636611e+00 1.8544280844e+00 3.2119636611e+00 
28300 6.2660986173e+00 1.3428874885e-02 1.8540649751e+00 -3.2113347373e+00 1.8540649751e+00 3.2113347373e+00 
28400 6.2660833553e+00 1.3364204837e-02 1.8537028400e+00 -3.2107075011e+00 1.8537028400e+00 3.2107075011e+00 
28500 6.2660687258e+00 1.3274229044e-02 1.8533423785e+00 -3.2100831634e+00 1.8533423785e+00 3.2100831634e+00 
28600 6.2660548357e+00 1.3159586668e-02 1.8529842741e+00 -3.2094629083e+00 1.8529842741e+00 3.2094629083e+00 
28700 6.2660417825e+00 1.3020956787e-02 1.8526291937e+00 -3.2088478911e+00 1.8526291937e+00 3.2088478911e+00 
28800 6.2660296536e+00 1.2859056113e-02 1.8522777865e+00 -3.2082392360e+00 1.8522777865e+00 3.2082392360e+00 
28900 6.2660185256e+00 1.2674636651e-02 1.8519306827e+00 -3.2076380345e+00 1.8519306827e+00 3.2076380345e+00 
29000 6.2660084649e+00 1.2468483324e-02 1.8515884926e+00 -3.2070453439e+00 1.8515884926e+00 3.2070453439e+00 
29100 6.2659995267e+00 1.2241411567e-02 1.8512518059e+00 -3.2064621854e+00 1.8512518059e+00 3.2064621854e+00 
29200 6.2659917553e+00 1.1994264895e-02 1.8509211905e+00 -3.2058895427e+00 1.8509211905e+00 3.2058895427e+00 
29300 6.2659851842e+00 1.1727912456e-02 1.8505971919e+00 -3.2053283608e+00 1.8505971919e+00 3.2053283608e+00 
29400 6.2659798360e+00 1.1443246581e-02 1.8502803327e+00 -3.2047795444e+00 1.8502803327e+00 3.2047795444e+00 
29500 6.2659757228e+00 1.1141180330e-02 1.8499711112e+00 -3.2042439572e+00 1.8499711112e+00 3.2042439572e+00 
29600 6.2659728462e+00 1.0822645046e-02 1.8496700017e+00 -3.2037224202e+00 1.8496700017e+00 3.2037224202e+00 
29700 6.2659711978e+00 1.0488587930e-02 1.8493774533e+00 -3.2032157115e+00 1.8493774533e+00 3.2032157115e+00 
29800 6.2659707596e+00 1.0139969630e-02 1.8490938898e+00 -3.2027245651e+00 1.8490938898e+00 3.2027245651e+00 
29900 6.2659715047e+00 9.7777618632e-03 1.8488197090e+00 -3.2022496701e+00 1.8488197090e+00 3.2022496701e+00 
30000 6.2659733972e+00 9.4029450718e-03 1.8485552828e+00 -3.2017916704e+00 1.8485552828e+00 3.2017916704e+00 
30100 6.2659763936e+00 9.0165061185e-03 1.8483009564e+00 -3.2013511641e+00 1.8483009564e+00 3.2013511641e+00 
30200 6.2659804427e+00 8.6194360267e-03 1.8480570484e+00 -3.2009287030e+00 1.8480570484e+00 3.2009287030e+00 
30300 6.2659854867e+00 8.2127277713e-03 1.8478238506e+00 -3.2005247927e+00 1.8478238506e+00 3.2005247927e+00 
30400 6.2659914617e+00 7.7973741249e-03 1.8476016280e+00 -3.2001398919e+00 1.8476016280e+00 3.2001398919e+00 
30500 6.2659982986e+00 7.3743655611e-03 1.8473906187e+00 -3.1997744130e+00 1.8473906187e+00 3.1997744130e+00 
30600 6.2660059235e+00 6.9446882216e-03 1.8471910336e+00 -3.1994287214e+00 1.8471910336e+00 3.1994287214e+00 
30700 6.2660142589e+00 6.5093219481e-03 1.8470030571e+00 -3.1991031366e+00 1.8470030571e+00 3.1991031366e+00 
30800 6.2660232241e+00 6.0692383827e-03 1.8468268468e+00 -3.1987979314e+00 1.8468268468e+00 3.1987979314e+00 
30900 6.2660327361e+00 5.6253991391e-03 1.8466625339e+00 -3.1985133332e+00 1.8466625339e+00 3.1985133332e+00 
31000 6.2660427102e+00 5.1787540472e-03 1.8465102234e+00 -3.1982495236e+00 1.8465102234e+00 3.1982495236e+00 
31100 6.2660530609e+00 4.7302394717e-03 1.8463699943e+00 -3.1980066398e+00 1.8463699943e+00 3.1980066398e+00 
31200 6.2660637026e+00 4.2807767075e-03 1.8462419002e+00 -3.1977847741e+00 1.8462419002e+00 3.1977847741e+00 
31300 6.2660745501e+00 3.8312704517e-03 1.8461259692e+00 -3.1975839758e+00 1.8461259692e+00 3.1975839758e+00 
31400 6.2660855195e+00 3.3826073538e-03 1.8460222050e+00 -3.1974042510e+00 1.8460222050e+00 3.1974042510e+00 
31500 6.2660965286e+00 2.9356546443e-03 1.8459305870e+00 -3.1972455639e+00 1.8459305870e+00 3.1972455639e+00 
31600 6.2661074976e+00 2.4912588420e-03 1.8458510706e+00 -3.1971078375e+00 1.8458510706e+00 3.1971078375e+00 
31700 6.2661183497e+00 2.0502445393e-03 1.8457835884e+00 -3.1969909548e+00 1.8457835884e+00 3.1969909548e+00 
31800 6.2661290114e+00 1.6134132665e-03 1.8457280500e+00 -3.1968947596e+00 1.8457280500e+00 3.1968947596e+00 
31900 6.2661394133e+00 1.1815424336e-03 1.8456843435e+00 -3.1968190577e+00 1.8456843435e+00 3.1968190577e+00 
32000 6.2661494902e+00 7.5538434914e-04 1.8456523354e+00 -3.1967636180e+00 1.8456523354e+00 3.1967636180e+00 
32100 6.2661591815e+00 3.3566531535e-04 1.8456318715e+00 -3.1967281736e+00 1.8456318715e+00 3.1967281736e+00 
32200 6.2661684316e+00 -7.6915201224e-05 1.8456227780e+00 -3.1967124232e+00 1.8456227780e+00 3.1967124232e+00 
32300 6.2661771902e+00 -4.8168532517e-04 1.8456248618e+00 -3.1967160323e+00 1.8456248618e+00 3.1967160323e+00 
32400 6.2661854125e+00 -8.7800145469e-04 1.8456379111e+00 -3.1967386345e+00 1.8456379111e+00 3.1967386345e+00 
32500 6.2661930591e+00 -1.2652488725e-03 1.8456616971e+00 -3.1967798329e+00 1.8456616971e+00 3.1967798329e+00 
32600 6.2662000966e+00 -1.6428422866e-03 1.8456959735e+00 -3.1968392013e+00 1.8456959735e+00 3.1968392013e+00 
32700 6.2662064972e+00 -2.0102263029e-03 1.8457404783e+00 -3.1969162860e+00 1.8457404783e+00 3.1969162860e+00 
32800 6.2662122390e+00 -2.3668758298e-03 1.8457949344e+00 -3.1970106067e+00 1.8457949344e+00 3.1970106067e+00 
32900 6.2662173056e+00 -2.7122964189e-03 1.8458590501e+00 -3.1971216584e+00 1.8458590501e+00 3.1971216584e+00 
33000 6.2662216866e+00 -3.0460245407e-03 1.8459325204e+00 -3.1972489126e+00 1.8459325204e+00 3.1972489126e+00 
33100 6.2662253771e+00 -3.3676277987e-03 1.8460150274e+00 -3.1973918190e+00 1.8460150274e+00 3.1973918190e+00 
33200 6.2662283775e+00 -3.6767050836e-03 1.8461062416e+00 -3.1975498066e+00 1.8461062416e+00 3.1975498066e+00 
33300 6.2662306935e+00 -3.9728866683e-03 1.8462058225e+00 -3.1977222857e+00 1.8462058225e+00 3.1977222857e+00 
33400 6.2662323358e+00 -4.2558342465e-03 1.8463134195e+00 -3.1979086493e+00 1.8463134195e+00 3.1979086493e+00 
33500 6.2662333197e+00 -4.5252409159e-03 1.8464286729e+00 -3.1981082740e+00 1.8464286729e+00 3.1981082740e+00 
33600 6.2662336652e+00 -4.7808311077e-03 1.8465512146e+00 -3.1983205225e+00 1.8465512146e+00 3.1983205225e+00 
33700 6.2662333962e+00 -5.0223604652e-03 1.8466806691e+00 -3.1985447443e+00 1.8466806691e+00 3.1985447443e+00 
33800 6.2662325405e+00 -5.2496156714e-03 1.8468166543e+00 -3.1987802774e+00 1.8468166543e+00 3.1987802774e+00 
33900 6.2662311294e+00 -5.4624142289e-03 1.8469587821e+00 -3.1990264502e+00 1.8469587821e+00 3.1990264502e+00 
34000 6.2662291972e+00 -5.6606041925e-03 1.8471066600e+00 -3.1992825822e+00 1.8471066600e+00 3.1992825822e+00 
34100 6.2662267811e+00 -5.8440638571e-03 1.8472598911e+00 -3.1995479862e+00 1.8472598911e+00 3.1995479862e+00 
34200 6.2662239204e+00 -6.0127014022e-03 1.8474180753e+00 -3.1998219693e+00 1.8474180753e+00 3.1998219693e+00 
34300 6.2662206566e+00 -6.1664544935e-03 1.8475808103e+00 -3.2001038345e+00 1.8475808103e+00 3.2001038345e+00 
34400 6.2662170326e+00 -6.3052898455e-03 1.8477476919e+00 -3.2003928820e+00 1.8477476919e+00 3.2003928820e+00 
34500 6.2662130925e+00 -6.4292027439e-03 1.8479183155e+00 -3.2006884107e+00 1.8479183155e+00 3.2006884107e+00 
34600 6.2662088814e+00 -6.5382165319e-03 1.8480922762e+00 -3.2009897195e+00 1.8480922762e+00 3.2009897195e+00 
34700 6.2662044446e+00 -6.6323820592e-03 1.8482691700e+00 -3.2012961085e+00 1.8482691700e+00 3.2012961085e+00 
34800 6.2661998277e+00 -6.7117770983e-03 1.8484485943e+00 -3.2016068806e+00 1.8484485943e+00 3.2016068806e+00 
34900 6.2661950758e+00 -6.7765057260e-03 1.8486301489e+00 -3.2019213424e+00 1.8486301489e+00 3.2019213424e+00 
35000 6.2661902336e+00 -6.8266976750e-03 1.8488134365e+00 -3.2022388057e+00 1.8488134365e+00 3.2022388057e+00 
35100 6.2661853447e+00 -6.8625076542e-03 1.8489980633e+00 -3.2025585888e+00 1.8489980633e+00 3.2025585888e+00 
35200 6.2661804515e+00 -6.8841146412e-03 1.8491836401e+00 -3.2028800172e+00 1.8491836401e+00 3.2028800172e+00 
35300 6.2661755951e+00 -6.8917211469e-03 1.8493697825e+00 -3.2032024253e+00 1.8493697825e+00 3.2032024253e+00 
35400 6.2661708146e+00 -6.8855524546e-03 1.8495561119e+00 -3.2035251572e+00 1.8495561119e+00 3.2035251572e+00 
35500 6.2661661471e+00 -6.8658558341e-03 1.8497422557e+00 -3.2038475677e+00 1.8497422557e+00 3.2038475677e+00 
35600 6.2661616276e+00 -6.8328997331e-03 1.8499278483e+00 -3.2041690236e+00 1.8499278483e+00 3.2041690236e+00 
35700 6.2661572887e+00 -6.7869729468e-03 1.8501125315e+00 -3.2044889043e+00 1.8501125315e+00 3.2044889043e+00 
35800 6.2661531603e+00 -6.7283837669e-03 1.8502959551e+00 -3.2048066033e+00 1.8502959551e+00 3.2048066033e+00 
35900 6.2661492697e+00 -6.6574591118e-03 1.8504777772e+00 -3.2051215284e+00 1.8504777772e+00 3.2051215284e+00 
36000 6.2661456414e+00 -6.5745436387e-03 1.8506576650e+00 -3.2054331032e+00 1.8506576650e+00 3.2054331032e+00 
36100 6.2661422969e+00 -6.4799988407e-03 1.8508352951e+00 -3.2057407675e+00 1.8508352951e+00 3.2057407675e+00 
36200 6.2661392547e+00 -6.3742021275e-03 1.8510103539e+00 -3.2060439782e+00 1.8510103539e+00 3.2060439782e+00 
36300 6.2661365305e+00 -6.2575458939e-03 1.8511825382e+00 -3.2063422103e+00 1.8511825382e+00 3.2063422103e+00 
36400 6.2661341368e+00 -6.1304365754e-03 1.8513515556e+00 -3.2066349570e+00 1.8513515556e+00 3.2066349570e+00 
36500 6.2661320831e+00 -5.9932936944e-03 1.8515171246e+00 -3.2069217309e+00 1.8515171246e+00 3.2069217309e+00 
36600 6.2661303760e+00 -5.8465488959e-03 1.8516789752e+00 -3.2072020643e+00 1.8516789752e+00 3.2072020643e+00 
36700 6.2661290191e+00 -5.6906449766e-03 1.8518368490e+00 -3.2074755097e+00 1.8518368490e+00 3.2074755097e+00 
36800 6.2661280131e+00 -5.5260349071e-03 1.8519904998e+00 -3.2077416407e+00 1.8519904998e+00 3.2077416407e+00 
36900 6.2661273562e+00 -5.3531808500e-03 1.8521396935e+00 -3.2080000519e+00 1.8521396935e+00 3.2080000519e+00 
37000 6.2661270436e+00 -5.1725531739e-03 1.8522842088e+00 -3.2082503597e+00 1.8522842088e+00 3.2082503597e+00 
37100 6.2661270681e+00 -4.9846294666e-03 1.8524238369e+00 -3.2084922027e+00 1.8524238369e+00 3.2084922027e+00 
37200 6.2661274203e+00 -4.7898935474e-03 1.8525583820e+00 -3.2087252416e+00 1.8525583820e+00 3.2087252416e+00 
37300 6.2661280884e+00 -4.5888344808e-03 1.8526876613e+00 -3.2089491599e+00 1.8526876613e+00 3.2089491599e+00 
37400 6.2661290585e+00 -4.3819455933e-03 1.8528115053e+00 -3.2091636640e+00 1.8528115053e+00 3.2091636640e+00 
37500 6.2661303149e+00 -4.1697234941e-03 1.8529297578e+00 -3.2093684834e+00 1.8529297578e+00 3.2093684834e+00 
37600 6.2661318403e+00 -3.9526671022e-03 1.8530422760e+00 -3.2095633706e+00 1.8530422760e+00 3.2095633706e+00 
37700 6.2661336157e+00 -3.7312766802e-03 1.8531489305e+00 -3.2097481016e+00 1.8531489305e+00 3.2097481016e+00 
37800 6.2661356209e+00 -3.5060528779e-03 1.8532496053e+00 -3.2099224756e+00 1.8532496053e+00 3.2099224756e+00 
37900 6.2661378345e+00 -3.2774957856e-03 1.8533441982e+00 -3.2100863152e+00 1.8533441982e+00 3.2100863152e+00 
38000 6.2661402344e+00 -3.0461040003e-03 1.8534326200e+00 -3.2102394663e+00 1.8534326200e+00 3.2102394663e+00 
38100 6.2661427974e+00 -2.8123737046e-03 1.8535147953e+00 -3.2103817980e+00 1.8535147953e+00 3.2103817980e+00 
38200 6.2661455003e+00 -2.5767977613e-03 1.8535906618e+00 -3.2105132026e+00 1.8535906618e+00 3.2105132026e+00 
38300 6.2661483192e+00 -2.3398648246e-03 1.8536601705e+00 -3.2106335952e+00 1.8536601705e+00 3.2106335952e+00 
38400 6.2661512301e+00 -2.1020584686e-03 1.8537232855e+00 -3.2107429137e+00 1.8537232855e+00 3.2107429137e+00 
38500 6.2661542094e+00 -1.8638563365e-03 1.8537799841e+00 -3.2108411185e+00 1.8537799841e+00 3.2108411185e+00 
38600 6.2661572334e+00 -1.6257293098e-03 1.8538302561e+00 -3.2109281922e+00 1.8538302561e+00 3.2109281922e+00 
38700 6.2661602789e+00 -1.3881407009e-03 1.8538741041e+00 -3.2110041392e+00 1.8538741041e+00 3.2110041392e+00 
38800 6.2661633234e+00 -1.1515454681e-03 1.8539115432e+00 -3.2110689855e+00 1.8539115432e+00 3.2110689855e+00 
38900 6.2661663451e+00 -9.1638945699e-04 1.8539426005e+00 -3.2111227783e+00 1.8539426005e+00 3.2111227783e+00 
39000 6.2661693231e+00 -6.8310866772e-04 1.8539673151e+00 -3.2111655854e+00 1.8539673151e+00 3.2111655854e+00 
39100 6.2661722373e+00 -4.5212854978e-04 1.8539857380e+00 -3.2111974948e+00 1.8539857380e+00 3.2111974948e+00 
39200 6.2661750691e+00 -2.2386332592e-04 1.8539979315e+00 -3.2112186144e+00 1.8539979315e+00 3.2112186144e+00 
39300 6.2661778008e+00 1.2846541444e-06 1.8540039688e+00 -3.2112290714e+00 1.8540039688e+00 3.2112290714e+00 
39400 6.2661804162e+00 2.2296021420e-04 1.8540039688e+00 -3.2112290714e+00 1.8540039688e+00 3.2112290714e+00 
39500 6.2661829007e+00 4.4071648771e-04 1.8539979559e+00 -3.2112186567e+00 1.8539979559e+00 3.2112186567e+00 
39600 6.2661852407e+00 6.5422574584e-04 1.8539860703e+00 -3.2111980703e+00 1.8539860703e+00 3.2111980703e+00 
39700 6.2661874246e+00 8.6313895270e-04 1.8539684266e+00 -3.2111675104e+00 1.8539684266e+00 3.2111675104e+00 
39800 6.2661894421e+00 1.0671216912e-03 1.8539451485e+00 -3.2111271916e+00 1.8539451485e+00 3.2111271916e+00 
39900 6.2661912847e+00 1.2658546088e-03 1.8539163688e+00 -3.2110773437e+00 1.8539163688e+00 3.2110773437e+00 
40000 6.2661929453e+00 1.4590338276e-03 1.8538822289e+00 -3.2110182117e+00 1.8538822289e+00 3.2110182117e+00 
40100 6.2661944186e+00 1.6463713169e-03 1.8538428782e+00 -3.2109500544e+00 1.8538428782e+00 3.2109500544e+00 
40200 6.2661957008e+00 1.8275952299e-03 1.8537984741e+00 -3.2108731442e+00 1.8537984741e+00 3.2108731442e+00 
40300 6.2661967897e+00 2.0024502014e-03 1.8537491811e+00 -3.2107877662e+00 1.8537491811e+00 3.2107877662e+00 
40400 6.2661976847e+00 2.1706976091e-03 1.8536951705e+00 -3.2106942171e+00 1.8536951705e+00 3.2106942171e+00 
40500 6.2661983866e+00 2.3321157958e-03 1.8536366203e+00 -3.2105928051e+00 1.8536366203e+00 3.2105928051e+00 
40600 6.2661988978e+00 2.4865002541e-03 1.8535737142e+00 -3.2104838485e+00 1.8535737142e+00 3.2104838485e+00 
40700 6.2661992219e+00 2.6336637725e-03 1.8535066414e+00 -3.2103676751e+00 1.8535066414e+00 3.2103676751e+00 
40800 6.2661993638e+00 2.7734365442e-03 1.8534355964e+00 -3.2102446216e+00 1.8534355964e+00 3.2102446216e+00 
40900 6.2661993299e+00 2.9056662371e-03 1.8533607781e+00 -3.2101150325e+00 1.8533607781e+00 3.2101150325e+00 
41000 6.2661991273e+00 3.0302180268e-03 1.8532823896e+00 -3.2099792595e+00 1.8532823896e+00 3.2099792595e+00 
41100 6.2661987645e+00 3.1469745920e-03 1.8532006374e+00 -3.2098376607e+00 1.8532006374e+00 3.2098376607e+00 
41200 6.2661982508e+00 3.2558360739e-03 1.8531157316e+00 -3.2096905995e+00 1.8531157316e+00 3.2096905995e+00 
41300 6.2661975964e+00 3.3567199981e-03 1.8530278847e+00 -3.2095384441e+00 1.8530278847e+00 3.2095384441e+00 
41400 6.2661968121e+00 3.4495611620e-03 1.8529373115e+00 -3.2093815668e+00 1.8529373115e+00 3.2093815668e+00 
41500 6.2661959093e+00 3.5343114870e-03 1.8528442287e+00 -3.2092203426e+00 1.8528442287e+00 3.2092203426e+00 
41600 6.2661949002e+00 3.6109398363e-03 1.8527488542e+00 -3.2090551492e+00 1.8527488542e+00 3.2090551492e+00 
41700 6.2661937971e+00 3.6794318002e-03 1.8526514069e+00 -3.2088863655e+00 1.8526514069e+00 3.2088863655e+00 
41800 6.2661926127e+00 3.7397894487e-03 1.8525521060e+00 -3.2087143713e+00 1.8525521060e+00 3.2087143713e+00 
41900 6.2661913600e+00 3.7920310530e-03 1.8524511708e+00 -3.2085395463e+00 1.8524511708e+00 3.2085395463e+00 
42000 6.2661900518e+00 3.8361907772e-03 1.8523488200e+00 -3.2083622696e+00 1.8523488200e+00 3.2083622696e+00 
42100 6.2661887011e+00 3.8723183410e-03 1.8522452716e+00 -3.2081829185e+00 1.8522452716e+00 3.2081829185e+00 
42200 6.2661873208e+00 3.9004786546e-03 1.8521407422e+00 -3.2080018683e+00 1.8521407422e+00 3.2080018683e+00 
42300 6.2661859235e+00 3.9207514277e-03 1.8520354467e+00 -3.2078194911e+00 1.8520354467e+00 3.2078194911e+00 
42400 6.2661845213e+00 3.9332307528e-03 1.8519295979e+00 -3.2076361556e+00 1.8519295979e+00 3.2076361556e+00 
42500 6.2661831263e+00 3.9380246657e-03 1.8518234062e+00 -3.2074522261e+00 1.8518234062e+00 3.2074522261e+00 
42600 6.2661817498e+00 3.9352546829e-03 1.8517170789e+00 -3.2072680619e+00 1.8517170789e+00 3.2072680619e+00 
42700 6.2661804028e+00 3.9250553193e-03 1.8516108203e+00 -3.2070840166e+00 1.8516108203e+00 3.2070840166e+00 
42800 6.2661790954e+00 3.9075735856e-03 1.8515048310e+00 -3.2069004378e+00 1.8515048310e+00 3.2069004378e+00 
42900 6.2661778374e+00 3.8829684686e-03 1.8513993077e+00 -3.2067176661e+00 1.8513993077e+00 3.2067176661e+00 
43000 6.2661766374e+00 3.8514103955e-03 1.8512944430e+00 -3.2065360350e+00 1.8512944430e+00 3.2065360350e+00 
43100 6.2661755038e+00 3.8130806824e-03 1.8511904245e+00 -3.2063558698e+00 1.8511904245e+00 3.2063558698e+00 
43200 6.2661744437e+00 3.7681709712e-03 1.8510874355e+00 -3.2061774876e+00 1.8510874355e+00 3.2061774876e+00 
43300 6.2661734636e+00 3.7168826538e-03 1.8509856538e+00 -3.2060011965e+00 1.8509856538e+00 3.2060011965e+00 
43400 6.2661725692e+00 3.6594262866e-03 1.8508852520e+00 -3.2058272954e+00 1.8508852520e+00 3.2058272954e+00 
43500 6.2661717652e+00 3.5960209969e-03 1.8507863967e+00 -3.2056560731e+00 1.8507863967e+00 3.2056560731e+00 
43600 6.2661710554e+00 3.5268938819e-03 1.8506892491e+00 -3.2054878085e+00 1.8506892491e+00 3.2054878085e+00 
43700 6.2661704429e+00 3.4522794021e-03 1.8505939640e+00 -3.2053227698e+00 1.8505939640e+00 3.2053227698e+00 
43800 6.2661699298e+00 3.3724187718e-03 1.8505006899e+00 -3.2051612143e+00 1.8505006899e+00 3.2051612143e+00 
43900 6.2661695173e+00 3.2875593456e-03 1.8504095688e+00 -3.2050033880e+00 1.8504095688e+00 3.2050033880e+00 
44000 6.2661692059e+00 3.1979540052e-03 1.8503207362e+00 -3.2048495255e+00 1.8503207362e+00 3.2048495255e+00 
44100 6.2661689952e+00 3.1038605459e-03 1.8502343207e+00 -3.2046998494e+00 1.8502343207e+00 3.2046998494e+00 
44200 6.2661688840e+00 3.0055410648e-03 1.8501504438e+00 -3.2045545704e+00 1.8501504438e+00 3.2045545704e+00 
44300 6.2661688704e+00 2.9032613526e-03 1.8500692202e+00 -3.2044138869e+00 1.8500692202e+00 3.2044138869e+00 
44400 6.2661689519e+00 2.7972902889e-03 1.8499907572e+00 -3.2042779849e+00 1.8499907572e+00 3.2042779849e+00 
44500 6.2661691251e+00 2.6878992441e-03 1.8499151549e+00 -3.2041470379e+00 1.8499151549e+00 3.2041470379e+00 
44600 6.2661693862e+00 2.5753614871e-03 1.8498425061e+00 -3.2040212065e+00 1.8498425061e+00 3.2040212065e+00 
44700 6.2661697307e+00 2.4599516016e-03 1.8497728962e+00 -3.2039006387e+00 1.8497728962e+00 3.2039006387e+00 
44800 6.2661701537e+00 2.3419449114e-03 1.8497064033e+00 -3.2037854696e+00 1.8497064033e+00 3.2037854696e+00 
44900 6.2661706498e+00 2.2216169151e-03 1.8496430978e+00 -3.2036758212e+00 1.8496430978e+00 3.2036758212e+00 
45000 6.2661712132e+00 2.0992427330e-03 1.8495830428e+00 -3.2035718030e+00 1.8495830428e+00 3.2035718030e+00 
45100 6.2661718377e+00 1.9750965649e-03 1.8495262940e+00 -3.2034735112e+00 1.8495262940e+00 3.2034735112e+00 
45200 6.2661725171e+00 1.8494511612e-03 1.8494728996e+00 -3.2033810294e+00 1.8494728996e+00 3.2033810294e+00 
45300 6.2661732447e+00 1.7225773080e-03 1.8494229004e+00 -3.2032944283e+00 1.8494229004e+00 3.2032944283e+00 
45400 6.2661740136e+00 1.5947433264e-03 1.8493763300e+00 -3.2032137658e+00 1.8493763300e+00 3.2032137658e+00 
45500 6.2661748172e+00 1.4662145866e-03 1.8493332144e+00 -3.2031390875e+00 1.8493332144e+00 3.2031390875e+00 
45600 6.2661756483e+00 1.3372530387e-03 1.8492935729e+00 -3.2030704263e+00 1.8492935729e+00 3.2030704263e+00 
45700 6.2661765003e+00 1.2081167592e-03 1.8492574172e+00 -3.2030078029e+00 1.8492574172e+00 3.2030078029e+00 
45800 6.2661773662e+00 1.0790595150e-03 1.8492247524e+00 -3.2029512257e+00 1.8492247524e+00 3.2029512257e+00 
45900 6.2661782394e+00 9.5033034448e-04 1.8491955765e+00 -3.2029006916e+00 1.8491955765e+00 3.2029006916e+00 
46000 6.2661791133e+00 8.2217315694e-04 1.8491698807e+00 -3.2028561853e+00 1.8491698807e+00 3.2028561853e+00 
46100 6.2661799815e+00 6.9482635000e-04 1.8491476499e+00 -3.2028176804e+00 1.8491476499e+00 3.2028176804e+00 
46200 6.2661808381e+00 5.6852244592e-04 1.8491288622e+00 -3.2027851391e+00 1.8491288622e+00 3.2027851391e+00 
46300 6.2661816773e+00 4.4348774685e-04 1.8491134895e+00 -3.2027585128e+00 1.8491134895e+00 3.2027585128e+00 
46400 6.2661824936e+00 3.1994200919e-04 1.8491014976e+00 -3.2027377422e+00 1.8491014976e+00 3.2027377422e+00 
46500 6.2661832819e+00 1.9809813752e-04 1.8490928463e+00 -3.2027227578e+00 1.8490928463e+00 3.2027227578e+00 
46600 6.2661840375e+00 7.8161897926e-05 1.8490874897e+00 -3.2027134798e+00 1.8490874897e+00 3.2027134798e+00 
46700 6.2661847561e+00 -3.9668348878e-05 1.8490853762e+00 -3.2027098191e+00 1.8490853762e+00 3.2027098191e+00 
46800 6.2661854342e+00 -1.5628762221e-04 1.8490853762e+00 -3.2027098191e+00 1.8490853762e+00 3.2027098191e+00 
46900 6.2661860679e+00 -2.6931872463e-04 1.8490896023e+00 -3.2027171389e+00 1.8490896023e+00 3.2027171389e+00 
47000 6.2661866544e+00 -3.7969712058e-04 1.8490968847e+00 -3.2027297525e+00 1.8490968847e+00 3.2027297525e+00 
47100 6.2661871911e+00 -4.8725622501e-04 1.8491071519e+00 -3.2027475357e+00 1.8491071519e+00 3.2027475357e+00 
47200 6.2661876760e+00 -5.9183790190e-04 1.8491203273e+00 -3.2027703562e+00 1.8491203273e+00 3.2027703562e+00 
47300 6.2661881076e+00 -6.9329261298e-04 1.8491363306e+00 -3.2027980747e+00 1.8491363306e+00 3.2027980747e+00 
47400 6.2661884846e+00 -7.9147954713e-04 1.8491550770e+00 -3.2028305444e+00 1.8491550770e+00 3.2028305444e+00 
47500 6.2661888064e+00 -8.8626673059e-04 1.8491764781e+00 -3.2028676123e+00 1.8491764781e+00 3.2028676123e+00 
47600 6.2661890729e+00 -9.7753111824e-04 1.8492004420e+00 -3.2029091190e+00 1.8492004420e+00 3.2029091190e+00 
47700 6.2661892842e+00 -1.0651586662e-03 1.8492268733e+00 -3.2029548992e+00 1.8492268733e+00 3.2029548992e+00 
47800 6.2661894409e+00 -1.1490443860e-03 1.8492556734e+00 -3.2030047826e+00 1.8492556734e+00 3.2030047826e+00 
47900 6.2661895441e+00 -1.2290923804e-03 1.8492867413e+00 -3.2030585937e+00 1.8492867413e+00 3.2030585937e+00 
48000 6.2661895952e+00 -1.3052158621e-03 1.8493199729e+00 -3.2031161525e+00 1.8493199729e+00 3.2031161525e+00 
48100 6.2661895959e+00 -1.3773371539e-03 1.8493552621e+00 -3.2031772752e+00 1.8493552621e+00 3.2031772752e+00 
48200 6.2661895482e+00 -1.4453876725e-03 1.8493925005e+00 -3.2032417741e+00 1.8493925005e+00 3.2032417741e+00 
48300 6.2661894546e+00 -1.5093078956e-03 1.8494315780e+00 -3.2033094583e+00 1.8494315780e+00 3.2033094583e+00 
48400 6.2661893177e+00 -1.5690473120e-03 1.8494723828e+00 -3.2033801343e+00 1.8494723828e+00 3.2033801343e+00 
48500 6.2661891403e+00 -1.6245643568e-03 1.8495148018e+00 -3.2034536060e+00 1.8495148018e+00 3.2034536060e+00 
48600 6.2661889256e+00 -1.6758263299e-03 1.8495587206e+00 -3.2035296757e+00 1.8495587206e+00 3.2035296757e+00 
48700 6.2661886767e+00 -1.7228093005e-03 1.8496040242e+00 -3.2036081438e+00 1.8496040242e+00 3.2036081438e+00 
48800 6.2661883971e+00 -1.7654979967e-03 1.8496505968e+00 -3.2036888099e+00 1.8496505968e+00 3.2036888099e+00 
48900 6.2661880903e+00 -1.8038856806e-03 1.8496983222e+00 -3.2037714727e+00 1.8496983222e+00 3.2037714727e+00 
49000 6.2661877599e+00 -1.8379740103e-03 1.8497470840e+00 -3.2038559306e+00 1.8497470840e+00 3.2038559306e+00 
49100 6.2661874095e+00 -1.8677728889e-03 1.8497967660e+00 -3.2039419824e+00 1.8497967660e+00 3.2039419824e+00 
49200 6.2661870429e+00 -1.8933003001e-03 1.8498472521e+00 -3.2040294269e+00 1.8498472521e+00 3.2040294269e+00 
49300 6.2661866637e+00 -1.9145821328e-03 1.8498984268e+00 -3.2041180641e+00 1.8498984268e+00 3.2041180641e+00 
49400 6.2661862756e+00 -1.9316519932e-03 1.8499501754e+00 -3.2042076952e+00 1.8499501754e+00 3.2042076952e+00 
49500 6.2661858821e+00 -1.9445510068e-03 1.8500023839e+00 -3.2042981230e+00 1.8500023839e+00 3.2042981230e+00 
49600 6.2661854867e+00 -1.9533276089e-03 1.8500549395e+00 -3.2043891519e+00 1.8500549395e+00 3.2043891519e+00 
49700 6.2661850928e+00 -1.9580373263e-03 1.8501077308e+00 -3.2044805892e+00 1.8501077308e+00 3.2044805892e+00 
49800 6.2661847037e+00 -1.9587425486e-03 1.8501606479e+00 -3.2045722443e+00 1.8501606479e+00 3.2045722443e+00 
49900 6.2661843224e+00 -1.9555122917e-03 1.8502135825e+00 -3.2046639298e+00 1.8502135825e+00 3.2046639298e+00 
50000 6.2661839520e+00 -1.9484219524e-03 1.8502664284e+00 -3.2047554615e+00 1.8502664284e+00 3.2047554615e+00 
50100 6.2661835950e+00 -1.9375530552e-03 1.8503190811e+00 -3.2048466587e+00 1.8503190811e+00 3.2048466587e+00 
50200 6.2661832541e+00 -1.9229929930e-03 1.8503714386e+00 -3.2049373445e+00 1.8503714386e+00 3.2049373445e+00 
50300 6.2661829316e+00 -1.9048347601e-03 1.8504234012e+00 -3.2050273464e+00 1.8504234012e+00 3.2050273464e+00 
50400 6.2661826296e+00 -1.8831766802e-03 1.8504748717e+00 -3.2051164959e+00 1.8504748717e+00 3.2051164959e+00 
50500 6.2661823499e+00 -1.8581221284e-03 1.8505257555e+00 -3.2052046293e+00 1.8505257555e+00 3.2052046293e+00 
50600 6.2661820942e+00 -1.8297792488e-03 1.8505759610e+00 -3.2052915877e+00 1.8505759610e+00 3.2052915877e+00 
50700 6.2661818638e+00 -1.7982606676e-03 1.8506253993e+00 -3.2053772174e+00 1.8506253993e+00 3.2053772174e+00 
50800 6.2661816599e+00 -1.7636832032e-03 1.8506739847e+00 -3.2054613698e+00 1.8506739847e+00 3.2054613698e+00 
50900 6.2661814834e+00 -1.7261675722e-03 1.8507216347e+00 -3.2055439020e+00 1.8507216347e+00 3.2055439020e+00 
51000 6.2661813349e+00 -1.6858380940e-03 1.8507682699e+00 -3.2056246765e+00 1.8507682699e+00 3.2056246765e+00 
51100 6.2661812148e+00 -1.6428223927e-03 1.8508138143e+00 -3.2057035618e+00 1.8508138143e+00 3.2057035618e+00 
51200 6.2661811233e+00 -1.5972510978e-03 1.8508581956e+00 -3.2057804324e+00 1.8508581956e+00 3.2057804324e+00 
51300 6.2661810603e+00 -1.5492575448e-03 1.8509013447e+00 -3.2058551688e+00 1.8509013447e+00 3.2058551688e+00 
51400 6.2661810256e+00 -1.4989774743e-03 1.8509431963e+00 -3.2059276579e+00 1.8509431963e+00 3.2059276579e+00 
51500 6.2661810185e+00 -1.4465487325e-03 1.8509836887e+00 -3.2059977928e+00 1.8509836887e+00 3.2059977928e+00 
51600 6.2661810385e+00 -1.3921109719e-03 1.8510227640e+00 -3.2060654732e+00 1.8510227640e+00 3.2060654732e+00 
51700 6.2661810847e+00 -1.3358053537e-03 1.8510603679e+00 -3.2061306051e+00 1.8510603679e+00 3.2061306051e+00 
51800 6.2661811559e+00 -1.2777742517e-03 1.8510964502e+00 -3.2061931015e+00 1.8510964502e+00 3.2061931015e+00 
51900 6.2661812510e+00 -1.2181609593e-03 1.8511309643e+00 -3.2062528816e+00 1.8511309643e+00 3.2062528816e+00 
52000 6.2661813687e+00 -1.1571093986e-03 1.8511638676e+00 -3.2063098717e+00 1.8511638676e+00 3.2063098717e+00 
52100 6.2661815073e+00 -1.0947638334e-03 1.8511951212e+00 -3.2063640047e+00 1.8511951212e+00 3.2063640047e+00 
52200 6.2661816654e+00 -1.0312685859e-03 1.8512246904e+00 -3.2064152200e+00 1.8512246904e+00 3.2064152200e+00 
52300 6.2661818412e+00 -9.6676775766e-04 1.8512525442e+00 -3.2064634641e+00 1.8512525442e+00 3.2064634641e+00 
52400 6.2661820329e+00 -9.0140495586e-04 1.8512786554e+00 -3.2065086901e+00 1.8512786554e+00 3.2065086901e+00 
52500 6.2661822386e+00 -8.3532302408e-04 1.8513030009e+00 -3.2065508578e+00 1.8513030009e+00 3.2065508578e+00 
52600 6.2661824566e+00 -7.6866377930e-04 1.8513255614e+00 -3.2065899336e+00 1.8513255614e+00 3.2065899336e+00 
52700 6.2661826847e+00 -7.0156775472e-04 1.8513463212e+00 -3.2066258908e+00 1.8513463212e+00 3.2066258908e+00 
52800 6.2661829212e+00 -6.3417394925e-04 1.8513652688e+00 -3.2066587089e+00 1.8513652688e+00 3.2066587089e+00 
52900 6.2661831641e+00 -5.6661958368e-04 1.8513823960e+00 -3.2066883741e+00 1.8513823960e+00 3.2066883741e+00 
53000 6.2661834113e+00 -4.9903986430e-04 1.8513976986e+00 -3.2067148790e+00 1.8513976986e+00 3.2067148790e+00 
53100 6.2661836611e+00 -4.3156775393e-04 1.8514111760e+00 -3.2067382226e+00 1.8514111760e+00 3.2067382226e+00 
53200 6.2661839115e+00 -3.6433375095e-04 1.8514228311e+00 -3.2067584098e+00 1.8514228311e+00 3.2067584098e+00 
53300 6.2661841608e+00 -2.9746567655e-04 1.8514326704e+00 -3.2067754520e+00 1.8514326704e+00 3.2067754520e+00 
53400 6.2661844073e+00 -2.3108847052e-04 1.8514407038e+00 -3.2067893662e+00 1.8514407038e+00 3.2067893662e+00 
53500 6.2661846491e+00 -1.6532399577e-04 1.8514469446e+00 -3.2068001756e+00 1.8514469446e+00 3.2068001756e+00 
53600 6.2661848849e+00 -1.0029085202e-04 1.8514514093e+00 -3.2068079087e+00 1.8514514093e+00 3.2068079087e+00 
53700 6.2661851132e+00 -3.6104198612e-05 1.8514541178e+00 -3.2068125999e+00 1.8514541178e+00 3.2068125999e+00 
53800 6.2661853324e+00 2.6142711154e-05 1.8514541178e+00 -3.2068125999e+00 1.8514541178e+00 3.2068125999e+00 
53900 6.2661855415e+00 8.9036701305e-05 1.8514541178e+00 -3.2068125999e+00 1.8514541178e+00 3.2068125999e+00 
54000 6.2661857393e+00 1.5003398938e-04 1.8514517133e+00 -3.2068084351e+00 1.8514517133e+00 3.2068084351e+00 
54100 6.2661859247e+00 2.0976147974e-04 1.8514476615e+00 -3.2068014172e+00 1.8514476615e+00 3.2068014172e+00 
54200 6.2661860970e+00 2.6812355804e-04 1.8514419967e+00 -3.2067916055e+00 1.8514419967e+00 3.2067916055e+00 
54300 6.2661862553e+00 3.2502890636e-04 1.8514347557e+00 -3.2067790639e+00 1.8514347557e+00 3.2067790639e+00 
54400 6.2661863991e+00 3.8039061052e-04 1.8514259780e+00 -3.2067638603e+00 1.8514259780e+00 3.2067638603e+00 
54500 6.2661865279e+00 4.3412625709e-04 1.8514157051e+00 -3.2067460672e+00 1.8514157051e+00 3.2067460672e+00 
54600 6.2661866412e+00 4.8615801996e-04 1.8514039809e+00 -3.2067257603e+00 1.8514039809e+00 3.2067257603e+00 
54700 6.2661867389e+00 5.3641273645e-04 1.8513908515e+00 -3.2067030195e+00 1.8513908515e+00 3.2067030195e+00 
54800 6.2661868209e+00 5.8482197299e-04 1.8513763648e+00 -3.2066779277e+00 1.8513763648e+00 3.2066779277e+00 
54900 6.2661868872e+00 6.3132208042e-04 1.8513605706e+00 -3.2066505713e+00 1.8513605706e+00 3.2066505713e+00 
55000 6.2661869379e+00 6.7585423881e-04 1.8513435204e+00 -3.2066210395e+00 1.8513435204e+00 3.2066210395e+00 
55100 6.2661869733e+00 7.1836449211e-04 1.8513252673e+00 -3.2065894243e+00 1.8513252673e+00 3.2065894243e+00 
55200 6.2661869938e+00 7.5880377253e-04 1.8513058660e+00 -3.2065558203e+00 1.8513058660e+00 3.2065558203e+00 
55300 6.2661869998e+00 7.9712791476e-04 1.8512853723e+00 -3.2065203241e+00 1.8512853723e+00 3.2065203241e+00 
55400 6.2661869918e+00 8.3329766034e-04 1.8512638433e+00 -3.2064830348e+00 1.8512638433e+00 3.2064830348e+00 
55500 6.2661869706e+00 8.6727865204e-04 1.8512413372e+00 -3.2064440530e+00 1.8512413372e+00 3.2064440530e+00 
55600 6.2661869368e+00 8.9904141872e-04 1.8512179130e+00 -3.2064034811e+00 1.8512179130e+00 3.2064034811e+00 
55700 6.2661868913e+00 9.2856135060e-04 1.8511936306e+00 -3.2063614228e+00 1.8511936306e+00 3.2063614228e+00 
55800 6.2661868349e+00 9.5581866532e-04 1.8511685506e+00 -3.2063179829e+00 1.8511685506e+00 3.2063179829e+00 
55900 6.2661867685e+00 9.8079836488e-04 1.8511427340e+00 -3.2062732673e+00 1.8511427340e+00 3.2062732673e+00 
56000 6.2661866930e+00 1.0034901838e-03 1.8511162424e+00 -3.2062273825e+00 1.8511162424e+00 3.2062273825e+00 
56100 6.2661866096e+00 1.0238885287e-03 1.8510891374e+00 -3.2061804354e+00 1.8510891374e+00 3.2061804354e+00 
56200 6.2661865190e+00 1.0419924094e-03 1.8510614811e+00 -3.2061325332e+00 1.8510614811e+00 3.2061325332e+00 
56300 6.2661864225e+00 1.0578053624e-03 1.8510333354e+00 -3.2060837834e+00 1.8510333354e+00 3.2060837834e+00 
56400 6.2661863211e+00 1.0713353661e-03 1.8510047621e+00 -3.2060342930e+00 1.8510047621e+00 3.2060342930e+00 
56500 6.2661862157e+00 1.0825947487e-03 1.8509758229e+00 -3.2059841688e+00 1.8509758229e+00 3.2059841688e+00 
56600 6.2661861075e+00 1.0916000895e-03 1.8509465790e+00 -3.2059335170e+00 1.8509465790e+00 3.2059335170e+00 
56700 6.2661859975e+00 1.0983721126e-03 1.8509170915e+00 -3.2058824431e+00 1.8509170915e+00 3.2058824431e+00 
56800 6.2661858866e+00 1.1029355745e-03 1.8508874206e+00 -3.2058310515e+00 1.8508874206e+00 3.2058310515e+00 
56900 6.2661857759e+00 1.1053191458e-03 1.8508576259e+00 -3.2057794456e+00 1.8508576259e+00 3.2057794456e+00 
57000 6.2661856663e+00 1.1055552866e-03 1.8508277663e+00 -3.2057277273e+00 1.8508277663e+00 3.2057277273e+00 
57100 6.2661855586e+00 1.1036801168e-03 1.8507978999e+00 -3.2056759971e+00 1.8507978999e+00 3.2056759971e+00 
57200 6.2661854538e+00 1.0997332815e-03 1.8507680836e+00 -3.2056243538e+00 1.8507680836e+00 3.2056243538e+00 
57300 6.2661853526e+00 1.0937578110e-03 1.8507383735e+00 -3.2055728944e+00 1.8507383735e+00 3.2055728944e+00 
57400 6.2661852557e+00 1.0857999775e-03 1.8507088244e+00 -3.2055217138e+00 1.8507088244e+00 3.2055217138e+00 
57500 6.2661851639e+00 1.0759091465e-03 1.8506794897e+00 -3.2054709047e+00 1.8506794897e+00 3.2054709047e+00 
57600 6.2661850777e+00 1.0641376261e-03 1.8506504219e+00 -3.2054205577e+00 1.8506504219e+00 3.2054205577e+00 
57700 6.2661849978e+00 1.0505405120e-03 1.8506216716e+00 -3.2053707607e+00 1.8506216716e+00 3.2053707607e+00 
57800 6.2661849245e+00 1.0351755299e-03 1.8505932882e+00 -3.2053215993e+00 1.8505932882e+00 3.2053215993e+00 
57900 6.2661848584e+00 1.0181028758e-03 1.8505653195e+00 -3.2052731561e+00 1.8505653195e+00 3.2052731561e+00 
58000 6.2661847997e+00 9.9938505380e-04 1.8505378117e+00 -3.2052255112e+00 1.8505378117e+00 3.2052255112e+00 
58100 6.2661847487e+00 9.7908671219e-04 1.8505108092e+00 -3.2051787415e+00 1.8505108092e+00 3.2051787415e+00 
58200 6.2661847057e+00 9.5727447846e-04 1.8504843548e+00 -3.2051329211e+00 1.8504843548e+00 3.2051329211e+00 
58300 6.2661846707e+00 9.3401679310e-04 1.8504584893e+00 -3.2050881208e+00 1.8504584893e+00 3.2050881208e+00 
58400 6.2661846438e+00 9.0938374272e-04 1.8504332519e+00 -3.2050444083e+00 1.8504332519e+00 3.2050444083e+00 
58500 6.2661846250e+00 8.8344689304e-04 1.8504086798e+00 -3.2050018482e+00 1.8504086798e+00 3.2050018482e+00 
58600 6.2661846143e+00 8.5627912177e-04 1.8503848082e+00 -3.2049605013e+00 1.8503848082e+00 3.2049605013e+00 
58700 6.2661846115e+00 8.2795445199e-04 1.8503616704e+00 -3.2049204254e+00 1.8503616704e+00 3.2049204254e+00 
58800 6.2661846165e+00 7.9854788615e-04 1.8503392976e+00 -3.2048816747e+00 1.8503392976e+00 3.2048816747e+00 
58900 6.2661846289e+00 7.6813524125e-04 1.8503177193e+00 -3.2048442999e+00 1.8503177193e+00 3.2048442999e+00 
59000 6.2661846486e+00 7.3679298522e-04 1.8502969624e+00 -3.2048083480e+00 1.8502969624e+00 3.2048083480e+00 
59100 6.2661846752e+00 7.0459807509e-04 1.8502770524e+00 -3.2047738627e+00 1.8502770524e+00 3.2047738627e+00 
59200 6.2661847082e+00 6.7162779698e-04 1.8502580120e+00 -3.2047408840e+00 1.8502580120e+00 3.2047408840e+00 
59300 6.2661847473e+00 6.3795960851e-04 1.8502398625e+00 -3.2047094480e+00 1.8502398625e+00 3.2047094480e+00 
59400 6.2661847921e+00 6.0367098353e-04 1.8502226226e+00 -3.2046795877e+00 1.8502226226e+00 3.2046795877e+00 
59500 6.2661848420e+00 5.6883925974e-04 1.8502063092e+00 -3.2046513320e+00 1.8502063092e+00 3.2046513320e+00 
59600 6.2661848966e+00 5.3354148937e-04 1.8501909369e+00 -3.2046247064e+00 1.8501909369e+00 3.2046247064e+00 
59700 6.2661849553e+00 4.9785429300e-04 1.8501765183e+00 -3.2045997327e+00 1.8501765183e+00 3.2045997327e+00 
59800 6.2661850175e+00 4.6185371702e-04 1.8501630641e+00 -3.2045764293e+00 1.8501630641e+00 3.2045764293e+00 
59900 6.2661850829e+00 4.2561509472e-04 1.8501505827e+00 -3.2045548109e+00 1.8501505827e+00 3.2045548109e+00 
60000 6.2661851506e+00 3.8921291131e-04 1.8501390805e+00 -3.2045348886e+00 1.8501390805e+00 3.2045348886e+00 
60100 6.2661852204e+00 3.5272067314e-04 1.8501285621e+00 -3.2045166700e+00 1.8501285621e+00 3.2045166700e+00 
60200 6.2661852914e+00 3.1621078109e-04 1.8501190297e+00 -3.2045001596e+00 1.8501190297e+00 3.2045001596e+00 
60300 6.2661853634e+00 2.7975440851e-04 1.8501104841e+00 -3.2044853580e+00 1.8501104841e+00 3.2044853580e+00 
60400 6.2661854356e+00 2.4342138377e-04 1.8501029236e+00 -3.2044722629e+00 1.8501029236e+00 3.2044722629e+00 
60500 6.2661855076e+00 2.0728007761e-04 1.8500963450e+00 -3.2044608684e+00 1.8500963450e+00 3.2044608684e+00 
60600 6.2661855789e+00 1.7139729523e-04 1.8500907431e+00 -3.2044511657e+00 1.8500907431e+00 3.2044511657e+00 
60700 6.2661856489e+00 1.3583817367e-04 1.8500861110e+00 -3.2044431426e+00 1.8500861110e+00 3.2044431426e+00 
60800 6.2661857174e+00 1.0066608400e-04 1.8500824399e+00 -3.2044367841e+00 1.8500824399e+00 3.2044367841e+00 
60900 6.2661857837e+00 6.5942539010e-05 1.8500797193e+00 -3.2044320719e+00 1.8500797193e+00 3.2044320719e+00 
61000 6.2661858476e+00 3.3527090118e-05 1.8500797193e+00 -3.2044320719e+00 1.8500797193e+00 3.2044320719e+00 
61100 6.2661859086e+00 7.5479593087e-07 1.8500797193e+00 -3.2044320719e+00 1.8500797193e+00 3.2044320719e+00 
61200 6.2661859663e+00 -3.2307505770e-05 1.8500797193e+00 -3.2044320719e+00 1.8500797193e+00 3.2044320719e+00 
61300 6.2661860206e+00 -6.5594590580e-05 1.8500797193e+00 -3.2044320719e+00 1.8500797193e+00 3.2044320719e+00 
61400 6.2661860715e+00 -9.9042903214e-05 1.8500797193e+00 -3.2044320719e+00 1.8500797193e+00 3.2044320719e+00 
61500 6.2661861184e+00 -1.2988750639e-04 1.8500823960e+00 -3.2044367081e+00 1.8500823960e+00 3.2044367081e+00 
61600 6.2661861611e+00 -1.5991250163e-04 1.8500859063e+00 -3.2044427881e+00 1.8500859063e+00 3.2044427881e+00 
61700 6.2661861995e+00 -1.8907388875e-04 1.8500902281e+00 -3.2044502736e+00 1.8500902281e+00 3.2044502736e+00 
61800 6.2661862336e+00 -2.1733011417e-04 1.8500953379e+00 -3.2044591242e+00 1.8500953379e+00 3.2044591242e+00 
61900 6.2661862633e+00 -2.4464210864e-04 1.8501012114e+00 -3.2044692974e+00 1.8501012114e+00 3.2044692974e+00 
62000 6.2661862885e+00 -2.7097331938e-04 1.8501078230e+00 -3.2044807490e+00 1.8501078230e+00 3.2044807490e+00 
62100 6.2661863092e+00 -2.9628973687e-04 1.8501151462e+00 -3.2044934331e+00 1.8501151462e+00 3.2044934331e+00 
62200 6.2661863254e+00 -3.2055991619e-04 1.8501231535e+00 -3.2045073022e+00 1.8501231535e+00 3.2045073022e+00 
62300 6.2661863373e+00 -3.4375499305e-04 1.8501318168e+00 -3.2045223073e+00 1.8501318168e+00 3.2045223073e+00 
62400 6.2661863449e+00 -3.6584869456e-04 1.8501411068e+00 -3.2045383981e+00 1.8501411068e+00 3.2045383981e+00 
62500 6.2661863483e+00 -3.8681734474e-04 1.8501509938e+00 -3.2045555230e+00 1.8501509938e+00 3.2045555230e+00 
62600 6.2661863478e+00 -4.0663986502e-04 1.8501614475e+00 -3.2045736293e+00 1.8501614475e+00 3.2045736293e+00 
62700 6.2661863434e+00 -4.2529776968e-04 1.8501724368e+00 -3.2045926634e+00 1.8501724368e+00 3.2045926634e+00 
62800 6.2661863354e+00 -4.4277515633e-04 1.8501839303e+00 -3.2046125706e+00 1.8501839303e+00 3.2046125706e+00 
62900 6.2661863240e+00 -4.5905869162e-04 1.8501958960e+00 -3.2046332959e+00 1.8501958960e+00 3.2046332959e+00 
63000 6.2661863094e+00 -4.7413759232e-04 1.8502083017e+00 -3.2046547832e+00 1.8502083017e+00 3.2046547832e+00 
63100 6.2661862920e+00 -4.8800360165e-04 1.8502211148e+00 -3.2046769761e+00 1.8502211148e+00 3.2046769761e+00 
63200 6.2661862719e+00 -5.0065096138e-04 1.8502343025e+00 -3.2046998179e+00 1.8502343025e+00 3.2046998179e+00 
63300 6.2661862494e+00 -5.1207637940e-04 1.8502478320e+00 -3.2047232515e+00 1.8502478320e+00 3.2047232515e+00 
63400 6.2661862249e+00 -5.2227899328e-04 1.8502616700e+00 -3.2047472198e+00 1.8502616700e+00 3.2047472198e+00 
63500 6.2661861986e+00 -5.3126032970e-04 1.8502757837e+00 -3.2047716654e+00 1.8502757837e+00 3.2047716654e+00 
63600 6.2661861709e+00 -5.3902426004e-04 1.8502901400e+00 -3.2047965312e+00 1.8502901400e+00 3.2047965312e+00 
63700 6.2661861419e+00 -5.4557695219e-04 1.8503047059e+00 -3.2048217601e+00 1.8503047059e+00 3.2048217601e+00 
63800 6.2661861121e+00 -5.5092681882e-04 1.8503194488e+00 -3.2048472956e+00 1.8503194488e+00 3.2048472956e+00 
63900 6.2661860817e+00 -5.5508446225e-04 1.8503343362e+00 -3.2048730813e+00 1.8503343362e+00 3.2048730813e+00 
64000 6.2661860510e+00 -5.5806261600e-04 1.8503493358e+00 -3.2048990613e+00 1.8503493358e+00 3.2048990613e+00 
64100 6.2661860202e+00 -5.5987608332e-04 1.8503644157e+00 -3.2049251806e+00 1.8503644157e+00 3.2049251806e+00 
64200 6.2661859897e+00 -5.6054167278e-04 1.8503795446e+00 -3.2049513845e+00 1.8503795446e+00 3.2049513845e+00 
64300 6.2661859597e+00 -5.6007813111e-04 1.8503946912e+00 -3.2049776193e+00 1.8503946912e+00 3.2049776193e+00 
64400 6.2661859304e+00 -5.5850607349e-04 1.8504098253e+00 -3.2050038322e+00 1.8504098253e+00 3.2050038322e+00 
64500 6.2661859021e+00 -5.5584791143e-04 1.8504249167e+00 -3.2050299714e+00 1.8504249167e+00 3.2050299714e+00 
64600 6.2661858750e+00 -5.5212777843e-04 1.8504399362e+00 -3.2050559859e+00 1.8504399362e+00 3.2050559859e+00 
64700 6.2661858492e+00 -5.4737145364e-04 1.8504548551e+00 -3.2050818261e+00 1.8504548551e+00 3.2050818261e+00 
64800 6.2661858251e+00 -5.4160628367e-04 1.8504696453e+00 -3.2051074435e+00 1.8504696453e+00 3.2051074435e+00 
64900 6.2661858026e+00 -5.3486110259e-04 1.8504842796e+00 -3.2051327908e+00 1.8504842796e+00 3.2051327908e+00 
65000 6.2661857820e+00 -5.2716615066e-04 1.8504987315e+00 -3.2051578223e+00 1.8504987315e+00 3.2051578223e+00 
65100 6.2661857634e+00 -5.1855299156e-04 1.8505129754e+00 -3.2051824935e+00 1.8505129754e+00 3.2051824935e+00 
65200 6.2661857469e+00 -5.0905442854e-04 1.8505269865e+00 -3.2052067614e+00 1.8505269865e+00 3.2052067614e+00 
65300 6.2661857325e+00 -4.9870441962e-04 1.8505407408e+00 -3.2052305846e+00 1.8505407408e+00 3.2052305846e+00 
65400 6.2661857204e+00 -4.8753799205e-04 1.8505542154e+00 -3.2052539232e+00 1.8505542154e+00 3.2052539232e+00 
65500 6.2661857105e+00 -4.7559115606e-04 1.8505673882e+00 -3.2052767392e+00 1.8505673882e+00 3.2052767392e+00 
65600 6.2661857029e+00 -4.6290081824e-04 1.8505802381e+00 -3.2052989958e+00 1.8505802381e+00 3.2052989958e+00 
65700 6.2661856977e+00 -4.4950469470e-04 1.8505927450e+00 -3.2053206584e+00 1.8505927450e+00 3.2053206584e+00 
65800 6.2661856947e+00 -4.3544122407e-04 1.8506048899e+00 -3.2053416940e+00 1.8506048899e+00 3.2053416940e+00 
65900 6.2661856939e+00 -4.2074948062e-04 1.8506166547e+00 -3.2053620713e+00 1.8506166547e+00 3.2053620713e+00 
66000 6.2661856954e+00 -4.0546908756e-04 1.8506280226e+00 -3.2053817610e+00 1.8506280226e+00 3.2053817610e+00 
66100 6.2661856990e+00 -3.8964013088e-04 1.8506389775e+00 -3.2054007355e+00 1.8506389775e+00 3.2054007355e+00 
66200 6.2661857047e+00 -3.7330307359e-04 1.8506495047e+00 -3.2054189691e+00 1.8506495047e+00 3.2054189691e+00 
66300 6.2661857123e+00 -3.5649867078e-04 1.8506595904e+00 -3.2054364381e+00 1.8506595904e+00 3.2054364381e+00 
66400 6.2661857218e+00 -3.3926788553e-04 1.8506692221e+00 -3.2054531207e+00 1.8506692221e+00 3.2054531207e+00 
66500 6.2661857331e+00 -3.2165180582e-04 1.8506783882e+00 -3.2054689968e+00 1.8506783882e+00 3.2054689968e+00 
66600 6.2661857459e+00 -3.0369156260e-04 1.8506870783e+00 -3.2054840485e+00 1.8506870783e+00 3.2054840485e+00 
66700 6.2661857603e+00 -2.8542824914e-04 1.8506952831e+00 -3.2054982597e+00 1.8506952831e+00 3.2054982597e+00 
66800 6.2661857760e+00 -2.6690284188e-04 1.8507029945e+00 -3.2055116162e+00 1.8507029945e+00 3.2055116162e+00 
66900 6.2661857929e+00 -2.4815612275e-04 1.8507102054e+00 -3.2055241058e+00 1.8507102054e+00 3.2055241058e+00 
67000 6.2661858109e+00 -2.2922860322e-04 1.8507169097e+00 -3.2055357181e+00 1.8507169097e+00 3.2055357181e+00 
67100 6.2661858297e+00 -2.1016045013e-04 1.8507231027e+00 -3.2055464446e+00 1.8507231027e+00 3.2055464446e+00 
67200 6.2661858493e+00 -1.9099141350e-04 1.8507287805e+00 -3.2055562788e+00 1.8507287805e+00 3.2055562788e+00 
67300 6.2661858695e+00 -1.7176075625e-04 1.8507339404e+00 -3.2055652160e+00 1.8507339404e+00 3.2055652160e+00 
67400 6.2661858901e+00 -1.5250718614e-04 1.8507385807e+00 -3.2055732534e+00 1.8507385807e+00 3.2055732534e+00 
67500 6.2661859109e+00 -1.3326878992e-04 1.8507427009e+00 -3.2055803897e+00 1.8507427009e+00 3.2055803897e+00 
67600 6.2661859319e+00 -1.1408296973e-04 1.8507463013e+00 -3.2055866258e+00 1.8507463013e+00 3.2055866258e+00 
67700 6.2661859529e+00 -9.4986381998e-05 1.8507493834e+00 -3.2055919641e+00 1.8507493834e+00 3.2055919641e+00 
67800 6.2661859736e+00 -7.6014878731e-05 1.8507519496e+00 -3.2055964088e+00 1.8507519496e+00 3.2055964088e+00 
67900 6.2661859941e+00 -5.7203451412e-05 1.8507540032e+00 -3.2055999658e+00 1.8507540032e+00 3.2055999658e+00 
68000 6.2661860142e+00 -4.0144524035e-05 1.8507540032e+00 -3.2055999658e+00 1.8507540032e+00 3.2055999658e+00 
68100 6.2661860336e+00 -2.2815733473e-05 1.8507540032e+00 -3.2055999658e+00 1.8507540032e+00 3.2055999658e+00 
68200 6.2661860522e+00 -5.2537154601e-06 1.8507540032e+00 -3.2055999658e+00 1.8507540032e+00 3.2055999658e+00 
68300 6.2661860701e+00 1.2505640969e-05 1.8507540032e+00 -3.2055999658e+00 1.8507540032e+00 3.2055999658e+00 
68400 6.2661860871e+00 3.0427228511e-05 1.8507540032e+00 -3.2055999658e+00 1.8507540032e+00 3.2055999658e+00 
68500 6.2661861033e+00 4.8476754416e-05 1.8507540032e+00 -3.2055999658e+00 1.8507540032e+00 3.2055999658e+00 
68600 6.2661861184e+00 6.6620771090e-05 1.8507540032e+00 -3.2055999658e+00 1.8507540032e+00 3.2055999658e+00 
68700 6.2661861326e+00 8.4826704495e-05 1.8507540032e+00 -3.2055999658e+00 1.8507540032e+00 3.2055999658e+00 
68800 6.2661861455e+00 1.0075172699e-04 1.8507517115e+00 -3.2055959965e+00 1.8507517115e+00 3.2055959965e+00 
68900 6.2661861572e+00 1.1622741975e-04 1.8507489896e+00 -3.2055912820e+00 1.8507489896e+00 3.2055912820e+00 
69000 6.2661861677e+00 1.3123100273e-04 1.8507458496e+00 -3.2055858434e+00 1.8507458496e+00 3.2055858434e+00 
69100 6.2661861769e+00 1.4574101832e-04 1.8507423042e+00 -3.2055797026e+00 1.8507423042e+00 3.2055797026e+00 
69200 6.2661861848e+00 1.5973735034e-04 1.8507383669e+00 -3.2055728829e+00 1.8507383669e+00 3.2055728829e+00 
69300 6.2661861914e+00 1.7320123993e-04 1.8507340514e+00 -3.2055654083e+00 1.8507340514e+00 3.2055654083e+00 
69400 6.2661861968e+00 1.8611529869e-04 1.8507293721e+00 -3.2055573035e+00 1.8507293721e+00 3.2055573035e+00 
69500 6.2661862009e+00 1.9846351875e-04 1.8507243439e+00 -3.2055485945e+00 1.8507243439e+00 3.2055485945e+00 
69600 6.2661862038e+00 2.1023128018e-04 1.8507189822e+00 -3.2055393077e+00 1.8507189822e+00 3.2055393077e+00 
69700 6.2661862055e+00 2.2140535541e-04 1.8507133025e+00 -3.2055294701e+00 1.8507133025e+00 3.2055294701e+00 
69800 6.2661862060e+00 2.3197391092e-04 1.8507073208e+00 -3.2055191096e+00 1.8507073208e+00 3.2055191096e+00 
69900 6.2661862054e+00 2.4192650618e-04 1.8507010537e+00 -3.2055082546e+00 1.8507010537e+00 3.2055082546e+00 
70000 6.2661862038e+00 2.5125408991e-04 1.8506945176e+00 -3.2054969338e+00 1.8506945176e+00 3.2054969338e+00 
70100 6.2661862012e+00 2.5994899363e-04 1.8506877295e+00 -3.2054851764e+00 1.8506877295e+00 3.2054851764e+00 
70200 6.2661861976e+00 2.6800492264e-04 1.8506807065e+00 -3.2054730122e+00 1.8506807065e+00 3.2054730122e+00 
70300 6.2661861932e+00 2.7541694455e-04 1.8506734658e+00 -3.2054604709e+00 1.8506734658e+00 3.2054604709e+00 
70400 6.2661861880e+00 2.8218147521e-04 1.8506660248e+00 -3.2054475827e+00 1.8506660248e+00 3.2054475827e+00 
70500 6.2661861822e+00 2.8829626235e-04 1.8506584010e+00 -3.2054343780e+00 1.8506584010e+00 3.2054343780e+00 
70600 6.2661861757e+00 2.9376036683e-04 1.8506506120e+00 -3.2054208870e+00 1.8506506120e+00 3.2054208870e+00 
70700 6.2661861687e+00 2.9857414169e-04 1.8506426753e+00 -3.2054071403e+00 1.8506426753e+00 3.2054071403e+00 
70800 6.2661861612e+00 3.0273920897e-04 1.8506346085e+00 -3.2053931682e+00 1.8506346085e+00 3.2053931682e+00 
70900 6.2661861534e+00 3.0625843454e-04 1.8506264292e+00 -3.2053790012e+00 1.8506264292e+00 3.2053790012e+00 
71000 6.2661861453e+00 3.0913590083e-04 1.8506181548e+00 -3.2053646695e+00 1.8506181548e+00 3.2053646695e+00 
71100 6.2661861370e+00 3.1137687770e-04 1.8506098025e+00 -3.2053502030e+00 1.8506098025e+00 3.2053502030e+00 
71200 6.2661861286e+00 3.1298779147e-04 1.8506013897e+00 -3.2053356316e+00 1.8506013897e+00 3.2053356316e+00 
71300 6.2661861201e+00 3.1397619225e-04 1.8505929334e+00 -3.2053209847e+00 1.8505929334e+00 3.2053209847e+00 
71400 6.2661861117e+00 3.1435071958e-04 1.8505844502e+00 -3.2053062915e+00 1.8505844502e+00 3.2053062915e+00 
71500 6.2661861034e+00 3.1412106658e-04 1.8505759570e+00 -3.2052915807e+00 1.8505759570e+00 3.2052915807e+00 
71600 6.2661860953e+00 3.1329794261e-04 1.8505674699e+00 -3.2052768806e+00 1.8505674699e+00 3.2052768806e+00 
71700 6.2661860875e+00 3.1189303464e-04 1.8505590049e+00 -3.2052622190e+00 1.8505590049e+00 3.2052622190e+00 
71800 6.2661860799e+00 3.0991896733e-04 1.8505505780e+00 -3.2052476230e+00 1.8505505780e+00 3.2052476230e+00 
71900 6.2661860728e+00 3.0738926199e-04 1.8505422043e+00 -3.2052331193e+00 1.8505422043e+00 3.2052331193e+00 
72000 6.2661860660e+00 3.0431829448e-04 1.8505338989e+00 -3.2052187340e+00 1.8505338989e+00 3.2052187340e+00 
72100 6.2661860598e+00 3.0072125218e-04 1.8505256764e+00 -3.2052044923e+00 1.8505256764e+00 3.2052044923e+00 
72200 6.2661860540e+00 2.9661409012e-04 1.8505175512e+00 -3.2051904189e+00 1.8505175512e+00 3.2051904189e+00 
72300 6.2661860489e+00 2.9201348633e-04 1.8505095368e+00 -3.2051765376e+00 1.8505095368e+00 3.2051765376e+00 
72400 6.2661860442e+00 2.8693679664e-04 1.8505016467e+00 -3.2051628716e+00 1.8505016467e+00 3.2051628716e+00 
72500 6.2661860402e+00 2.8140200884e-04 1.8504938938e+00 -3.2051494431e+00 1.8504938938e+00 3.2051494431e+00 
72600 6.2661860369e+00 2.7542769650e-04 1.8504862904e+00 -3.2051362736e+00 1.8504862904e+00 3.2051362736e+00 
72700 6.2661860341e+00 2.6903297233e-04 1.8504788483e+00 -3.2051233837e+00 1.8504788483e+00 3.2051233837e+00 
72800 6.2661860321e+00 2.6223744140e-04 1.8504715791e+00 -3.2051107929e+00 1.8504715791e+00 3.2051107929e+00 
72900 6.2661860306e+00 2.5506115419e-04 1.8504644934e+00 -3.2050985201e+00 1.8504644934e+00 3.2050985201e+00 
73000 6.2661860299e+00 2.4752455957e-04 1.8504576016e+00 -3.2050865832e+00 1.8504576016e+00 3.2050865832e+00 
73100 6.2661860297e+00 2.3964845783e-04 1.8504509134e+00 -3.2050749989e+00 1.8504509134e+00 3.2050749989e+00 
73200 6.2661860302e+00 2.3145395382e-04 1.8504444380e+00 -3.2050637831e+00 1.8504444380e+00 3.2050637831e+00 
73300 6.2661860313e+00 2.2296241042e-04 1.8504381840e+00 -3.2050529509e+00 1.8504381840e+00 3.2050529509e+00 
73400 6.2661860330e+00 2.1419540213e-04 1.8504321594e+00 -3.2050425160e+00 1.8504321594e+00 3.2050425160e+00 
73500 6.2661860352e+00 2.0517466927e-04 1.8504263717e+00 -3.2050324914e+00 1.8504263717e+00 3.2050324914e+00 
73600 6.2661860380e+00 1.9592207251e-04 1.8504208277e+00 -3.2050228889e+00 1.8504208277e+00 3.2050228889e+00 
73700 6.2661860413e+00 1.8645954801e-04 1.8504155337e+00 -3.2050137195e+00 1.8504155337e+00 3.2050137195e+00 
73800 6.2661860451e+00 1.7680906322e-04 1.8504104954e+00 -3.2050049929e+00 1.8504104954e+00 3.2050049929e+00 
73900 6.2661860493e+00 1.6699257339e-04 1.8504057178e+00 -3.2049967179e+00 1.8504057178e+00 3.2049967179e+00 
74000 6.2661860539e+00 1.5703197880e-04 1.8504012055e+00 -3.2049889023e+00 1.8504012055e+00 3.2049889023e+00 
74100 6.2661860588e+00 1.4694908299e-04 1.8503969623e+00 -3.2049815529e+00 1.8503969623e+00 3.2049815529e+00 
74200 6.2661860641e+00 1.3676555171e-04 1.8503929916e+00 -3.2049746754e+00 1.8503929916e+00 3.2049746754e+00 
74300 6.2661860696e+00 1.2650287309e-04 1.8503892960e+00 -3.2049682745e+00 1.8503892960e+00 3.2049682745e+00 
74400 6.2661860753e+00 1.1618231869e-04 1.8503858777e+00 -3.2049623538e+00 1.8503858777e+00 3.2049623538e+00 
74500 6.2661860812e+00 1.0582490569e-04 1.8503827383e+00 -3.2049569162e+00 1.8503827383e+00 3.2049569162e+00 
74600 6.2661860872e+00 9.5451360295e-05 1.8503798788e+00 -3.2049519633e+00 1.8503798788e+00 3.2049519633e+00 
74700 6.2661860934e+00 8.5082082315e-05 1.8503772995e+00 -3.2049474960e+00 1.8503772995e+00 3.2049474960e+00 
74800 6.2661860995e+00 7.4737110997e-05 1.8503750005e+00 -3.2049435139e+00 1.8503750005e+00 3.2049435139e+00 
74900 6.2661861057e+00 6.4436092175e-05 1.8503729810e+00 -3.2049400160e+00 1.8503729810e+00 3.2049400160e+00 
75000 6.2661861119e+00 5.5955676324e-05 1.8503729810e+00 -3.2049400160e+00 1.8503729810e+00 3.2049400160e+00 
75100 6.2661861180e+00 4.7289227091e-05 1.8503729810e+00 -3.2049400160e+00 1.8503729810e+00 3.2049400160e+00 
75200 6.2661861239e+00 3.8457299943e-05 1.8503729810e+00 -3.2049400160e+00 1.8503729810e+00 3.2049400160e+00 
75300 6.2661861296e+00 2.9480079996e-05 1.8503729810e+00 -3.2049400160e+00 1.8503729810e+00 3.2049400160e+00 
75400 6.2661861350e+00 2.0377361005e-05 1.8503729810e+00 -3.2049400160e+00 1.8503729810e+00 3.2049400160e+00 
75500 6.2661861403e+00 1.1168525551e-05 1.8503729810e+00 -3.2049400160e+00 1.8503729810e+00 3.2049400160e+00 
75600 6.2661861453e+00 1.8725264648e-06 1.8503729810e+00 -3.2049400160e+00 1.8503729810e+00 3.2049400160e+00 
75700 6.2661861500e+00 -7.4921305776e-06 1.8503729810e+00 -3.2049400160e+00 1.8503729810e+00 3.2049400160e+00 
75800 6.2661861544e+00 -1.6907403221e-05 1.8503729810e+00 -3.2049400160e+00 1.8503729810e+00 3.2049400160e+00 
75900 6.2661861586e+00 -2.6355727436e-05 1.8503729810e+00 -3.2049400160e+00 1.8503729810e+00 3.2049400160e+00 
76000 6.2661861625e+00 -3.5820031309e-05 1.8503729810e+00 -3.2049400160e+00 1.8503729810e+00 3.2049400160e+00 
76100 6.2661861660e+00 -4.5283747685e-05 1.8503729810e+00 -3.2049400160e+00 1.8503729810e+00 3.2049400160e+00 
76200 6.2661861693e+00 -5.4730825614e-05 1.8503729810e+00 -3.2049400160e+00 1.8503729810e+00 3.2049400160e+00 
76300 6.2661861723e+00 -6.4145740699e-05 1.8503729810e+00 -3.2049400160e+00 1.8503729810e+00 3.2049400160e+00 
76400 6.2661861749e+00 -7.3513504237e-05 1.8503729810e+00 -3.2049400160e+00 1.8503729810e+00 3.2049400160e+00 
76500 6.2661861771e+00 -8.0814906285e-05 1.8503749674e+00 -3.2049434566e+00 1.8503749674e+00 3.2049434566e+00 
76600 6.2661861789e+00 -8.7828882519e-05 1.8503771512e+00 -3.2049472390e+00 1.8503771512e+00 3.2049472390e+00 
76700 6.2661861804e+00 -9.4546579236e-05 1.8503795244e+00 -3.2049513496e+00 1.8503795244e+00 3.2049513496e+00 
76800 6.2661861815e+00 -1.0095988302e-04 1.8503820792e+00 -3.2049557747e+00 1.8503820792e+00 3.2049557747e+00 
76900 6.2661861823e+00 -1.0706142318e-04 1.8503848073e+00 -3.2049604998e+00 1.8503848073e+00 3.2049604998e+00 
77000 6.2661861827e+00 -1.1284457282e-04 1.8503877003e+00 -3.2049655106e+00 1.8503877003e+00 3.2049655106e+00 
77100 6.2661861828e+00 -1.1830344841e-04 1.8503907495e+00 -3.2049707920e+00 1.8503907495e+00 3.2049707920e+00 
77200 6.2661861826e+00 -1.2343290793e-04 1.8503939462e+00 -3.2049763288e+00 1.8503939462e+00 3.2049763288e+00 
77300 6.2661861821e+00 -1.2822854766e-04 1.8503972815e+00 -3.2049821058e+00 1.8503972815e+00 3.2049821058e+00 
77400 6.2661861814e+00 -1.3268669758e-04 1.8504007464e+00 -3.2049881071e+00 1.8504007464e+00 3.2049881071e+00 
77500 6.2661861804e+00 -1.3680441543e-04 1.8504043318e+00 -3.2049943172e+00 1.8504043318e+00 3.2049943172e+00 
77600 6.2661861792e+00 -1.4057947952e-04 1.8504080284e+00 -3.2050007199e+00 1.8504080284e+00 3.2050007199e+00 
77700 6.2661861777e+00 -1.4401038027e-04 1.8504118270e+00 -3.2050072993e+00 1.8504118270e+00 3.2050072993e+00 
77800 6.2661861761e+00 -1.4709631045e-04 1.8504157183e+00 -3.2050140392e+00 1.8504157183e+00 3.2050140392e+00 
77900 6.2661861743e+00 -1.4983715437e-04 1.8504196930e+00 -3.2050209236e+00 1.8504196930e+00 3.2050209236e+00 
78000 6.2661861724e+00 -1.5223347581e-04 1.8504237417e+00 -3.2050279362e+00 1.8504237417e+00 3.2050279362e+00 
78100 6.2661861704e+00 -1.5428650493e-04 1.8504278552e+00 -3.2050350609e+00 1.8504278552e+00 3.2050350609e+00 
78200 6.2661861682e+00 -1.5599812408e-04 1.8504320241e+00 -3.2050422817e+00 1.8504320241e+00 3.2050422817e+00 
78300 6.2661861660e+00 -1.5737085262e-04 1.8504362393e+00 -3.2050495827e+00 1.8504362393e+00 3.2050495827e+00 
78400 6.2661861638e+00 -1.5840783077e-04 1.8504404916e+00 -3.2050569478e+00 1.8504404916e+00 3.2050569478e+00 
78500 6.2661861616e+00 -1.5911280258e-04 1.8504447719e+00 -3.2050643614e+00 1.8504447719e+00 3.2050643614e+00 
78600 6.2661861593e+00 -1.5949009794e-04 1.8504490712e+00 -3.2050718081e+00 1.8504490712e+00 3.2050718081e+00 
78700 6.2661861571e+00 -1.5954461387e-04 1.8504533807e+00 -3.2050792723e+00 1.8504533807e+00 3.2050792723e+00 
78800 6.2661861549e+00 -1.5928179501e-04 1.8504576916e+00 -3.2050867392e+00 1.8504576916e+00 3.2050867392e+00 
78900 6.2661861528e+00 -1.5870761337e-04 1.8504619955e+00 -3.2050941936e+00 1.8504619955e+00 3.2050941936e+00 
79000 6.2661861507e+00 -1.5782854741e-04 1.8504662838e+00 -3.2051016212e+00 1.8504662838e+00 3.2051016212e+00 
79100 6.2661861488e+00 -1.5665156060e-04 1.8504705484e+00 -3.2051090077e+00 1.8504705484e+00 3.2051090077e+00 
79200 6.2661861470e+00 -1.5518407924e-04 1.8504747811e+00 -3.2051163390e+00 1.8504747811e+00 3.2051163390e+00 
79300 6.2661861453e+00 -1.5343396996e-04 1.8504789742e+00 -3.2051236017e+00 1.8504789742e+00 3.2051236017e+00 
79400 6.2661861437e+00 -1.5140951659e-04 1.8504831200e+00 -3.2051307824e+00 1.8504831200e+00 3.2051307824e+00 
79500 6.2661861423e+00 -1.4911939680e-04 1.8504872111e+00 -3.2051378683e+00 1.8504872111e+00 3.2051378683e+00 
79600 6.2661861410e+00 -1.4657265822e-04 1.8504912403e+00 -3.2051448471e+00 1.8504912403e+00 3.2051448471e+00 
79700 6.2661861400e+00 -1.4377869432e-04 1.8504952006e+00 -3.2051517067e+00 1.8504952006e+00 3.2051517067e+00 
79800 6.2661861391e+00 -1.4074722012e-04 1.8504990855e+00 -3.2051584355e+00 1.8504990855e+00 3.2051584355e+00 
79900 6.2661861383e+00 -1.3748824755e-04 1.8505028885e+00 -3.2051650224e+00 1.8505028885e+00 3.2051650224e+00 
80000 6.2661861378e+00 -1.3401206080e-04 1.8505066034e+00 -3.2051714568e+00 1.8505066034e+00 3.2051714568e+00 
80100 6.2661861374e+00 -1.3032919146e-04 1.8505102243e+00 -3.2051777285e+00 1.8505102243e+00 3.2051777285e+00 
80200 6.2661861372e+00 -1.2645039367e-04 1.8505137458e+00 -3.2051838278e+00 1.8505137458e+00 3.2051838278e+00 
80300 6.2661861372e+00 -1.2238661929e-04 1.8505171624e+00 -3.2051897455e+00 1.8505171624e+00 3.2051897455e+00 
80400 6.2661861374e+00 -1.1814899305e-04 1.8505204692e+00 -3.2051954731e+00 1.8505204692e+00 3.2051954731e+00 
80500 6.2661861377e+00 -1.1374878785e-04 1.8505236615e+00 -3.2052010024e+00 1.8505236615e+00 3.2052010024e+00 
80600 6.2661861383e+00 -1.0919740017e-04 1.8505267350e+00 -3.2052063257e+00 1.8505267350e+00 3.2052063257e+00 
80700 6.2661861389e+00 -1.0450632567e-04 1.8505296854e+00 -3.2052114360e+00 1.8505296854e+00 3.2052114360e+00 
80800 6.2661861398e+00 -9.9687135066e-05 1.8505325091e+00 -3.2052163268e+00 1.8505325091e+00 3.2052163268e+00 
80900 6.2661861407e+00 -9.4751450177e-05 1.8505352026e+00 -3.2052209920e+00 1.8505352026e+00 3.2052209920e+00 
81000 6.2661861419e+00 -8.9710920397e-05 1.8505377627e+00 -3.2052254263e+00 1.8505377627e+00 3.2052254263e+00 
81100 6.2661861431e+00 -8.4577199440e-05 1.8505401866e+00 -3.2052296246e+00 1.8505401866e+00 3.2052296246e+00 
81200 6.2661861444e+00 -7.9361922528e-05 1.8505424718e+00 -3.2052335827e+00 1.8505424718e+00 3.2052335827e+00 
81300 6.2661861459e+00 -7.4076683979e-05 1.8505446161e+00 -3.2052372967e+00 1.8505446161e+00 3.2052372967e+00 
81400 6.2661861474e+00 -6.8733015290e-05 1.8505466176e+00 -3.2052407634e+00 1.8505466176e+00 3.2052407634e+00 
81500 6.2661861492e+00 -6.5215866122e-05 1.8505466176e+00 -3.2052407634e+00 1.8505466176e+00 3.2052407634e+00 
81600 6.2661861510e+00 -6.1528173727e-05 1.8505466176e+00 -3.2052407634e+00 1.8505466176e+00 3.2052407634e+00 
81700 6.2661861528e+00 -5.7681188259e-05 1.8505466176e+00 -3.2052407634e+00 1.8505466176e+00 3.2052407634e+00 
81800 6.2661861546e+00 -5.3686072943e-05 1.8505466176e+00 -3.2052407634e+00 1.8505466176e+00 3.2052407634e+00 
81900 6.2661861564e+00 -4.9553888967e-05 1.8505466176e+00 -3.2052407634e+00 1.8505466176e+00 3.2052407634e+00 
82000 6.2661861581e+00 -4.5295580997e-05 1.8505466176e+00 -3.2052407634e+00 1.8505466176e+00 3.2052407634e+00 
82100 6.2661861599e+00 -4.0921963231e-05 1.8505466176e+00 -3.2052407634e+00 1.8505466176e+00 3.2052407634e+00 
82200 6.2661861616e+00 -3.6443706086e-05 1.8505466176e+00 -3.2052407634e+00 1.8505466176e+00 3.2052407634e+00 
82300 6.2661861633e+00 -3.1871323464e-05 1.8505466176e+00 -3.2052407634e+00 1.8505466176e+00 3.2052407634e+00 
82400 6.2661861650e+00 -2.7215160637e-05 1.8505466176e+00 -3.2052407634e+00 1.8505466176e+00 3.2052407634e+00 
82500 6.2661861666e+00 -2.2485382704e-05 1.8505466176e+00 -3.2052407634e+00 1.8505466176e+00 3.2052407634e+00 
82600 6.2661861681e+00 -1.7691963713e-05 1.8505466176e+00 -3.2052407634e+00 1.8505466176e+00 3.2052407634e+00 
82700 6.2661861696e+00 -1.2844676349e-05 1.8505466176e+00 -3.2052407634e+00 1.8505466176e+00 3.2052407634e+00 
82800 6.2661861710e+00 -7.9530822416e-06 1.8505466176e+00 -3.2052407634e+00 1.8505466176e+00 3.2052407634e+00 
82900 6.2661861724e+00 -3.0265228969e-06 1.8505466176e+00 -3.2052407634e+00 1.8505466176e+00 3.2052407634e+00 
83000 6.2661861737e+00 1.9258887813e-06 1.8505466176e+00 -3.2052407634e+00 1.8505466176e+00 3.2052407634e+00 
83100 6.2661861749e+00 6.8952763578e-06 1.8505466176e+00 -3.2052407634e+00 1.8505466176e+00 3.2052407634e+00 
83200 6.2661861760e+00 1.1873007131e-05 1.8505466176e+00 -3.2052407634e+00 1.8505466176e+00 3.2052407634e+00 
83300 6.2661861770e+00 1.6850698806e-05 1.8505466176e+00 -3.2052407634e+00 1.8505466176e+00 3.2052407634e+00 
83400 6.2661861780e+00 2.1820225570e-05 1.8505466176e+00 -3.2052407634e+00 1.8505466176e+00 3.2052407634e+00 
83500 6.2661861789e+00 2.6773723599e-05 1.8505466176e+00 -3.2052407634e+00 1.8505466176e+00 3.2052407634e+00 
83600 6.2661861797e+00 3.1703595965e-05 1.8505466176e+00 -3.2052407634e+00 1.8505466176e+00 3.2052407634e+00 
83700 6.2661861805e+00 3.6602516997e-05 1.8505466176e+00 -3.2052407634e+00 1.8505466176e+00 3.2052407634e+00 
83800 6.2661861811e+00 4.1463436073e-05 1.8505466176e+00 -3.2052407634e+00 1.8505466176e+00 3.2052407634e+00 
83900 6.2661861817e+00 4.6279580846e-05 1.8505466176e+00 -3.2052407634e+00 1.8505466176e+00 3.2052407634e+00 
84000 6.2661861822e+00 5.1044459965e-05 1.8505466176e+00 -3.2052407634e+00 1.8505466176e+00 3.2052407634e+00 
84100 6.2661861827e+00 5.5751865221e-05 1.8505466176e+00 -3.2052407634e+00 1.8505466176e+00 3.2052407634e+00 
84200 6.2661861831e+00 6.0395873213e-05 1.8505466176e+00 -3.2052407634e+00 1.8505466176e+00 3.2052407634e+00 
84300 6.2661861834e+00 6.4970846480e-05 1.8505466176e+00 -3.2052407634e+00 1.8505466176e+00 3.2052407634e+00 
84400 6.2661861836e+00 6.9471434153e-05 1.8505466176e+00 -3.2052407634e+00 1.8505466176e+00 3.2052407634e+00 
84500 6.2661861838e+00 7.3892572121e-05 1.8505466176e+00 -3.2052407634e+00 1.8505466176e+00 3.2052407634e+00 
84600 6.2661861838e+00 7.6215096188e-05 1.8505446211e+00 -3.2052373053e+00 1.8505446211e+00 3.2052373053e+00 
84700 6.2661861837e+00 7.8372631344e-05 1.8505425618e+00 -3.2052337386e+00 1.8505425618e+00 3.2052337386e+00 
84800 6.2661861835e+00 8.0362966210e-05 1.8505404442e+00 -3.2052300709e+00 1.8505404442e+00 3.2052300709e+00 
84900 6.2661861833e+00 8.2184290571e-05 1.8505382729e+00 -3.2052263100e+00 1.8505382729e+00 3.2052263100e+00 
85000 6.2661861830e+00 8.3835190341e-05 1.8505360523e+00 -3.2052224639e+00 1.8505360523e+00 3.2052224639e+00 
85100 6.2661861826e+00 8.5314641894e-05 1.8505337872e+00 -3.2052185405e+00 1.8505337872e+00 3.2052185405e+00 
85200 6.2661861822e+00 8.6622005813e-05 1.8505314821e+00 -3.2052145479e+00 1.8505314821e+00 3.2052145479e+00 
85300 6.2661861818e+00 8.7757020052e-05 1.8505291416e+00 -3.2052104941e+00 1.8505291416e+00 3.2052104941e+00 
85400 6.2661861813e+00 8.8719792548e-05 1.8505267705e+00 -3.2052063872e+00 1.8505267705e+00 3.2052063872e+00 
85500 6.2661861808e+00 8.9510793313e-05 1.8505243733e+00 -3.2052022352e+00 1.8505243733e+00 3.2052022352e+00 
85600 6.2661861803e+00 9.0130845965e-05 1.8505219548e+00 -3.2051980462e+00 1.8505219548e+00 3.2051980462e+00 
85700 6.2661861797e+00 9.0581118847e-05 1.8505195195e+00 -3.2051938282e+00 1.8505195195e+00 3.2051938282e+00 
85800 6.2661861792e+00 9.0863115616e-05 1.8505170721e+00 -3.2051895891e+00 1.8505170721e+00 3.2051895891e+00 
85900 6.2661861786e+00 9.0978665419e-05 1.8505146170e+00 -3.2051853368e+00 1.8505146170e+00 3.2051853368e+00 
86000 6.2661861780e+00 9.0929912641e-05 1.8505121588e+00 -3.2051810790e+00 1.8505121588e+00 3.2051810790e+00 
86100 6.2661861775e+00 9.0719306278e-05 1.8505097019e+00 -3.2051768236e+00 1.8505097019e+00 3.2051768236e+00 
86200 6.2661861770e+00 9.0349588937e-05 1.8505072507e+00 -3.2051725780e+00 1.8505072507e+00 3.2051725780e+00 
86300 6.2661861764e+00 8.9823785474e-05 1.8505048095e+00 -3.2051683497e+00 1.8505048095e+00 3.2051683497e+00 
86400 6.2661861760e+00 8.9145191349e-05 1.8505023825e+00 -3.2051641460e+00 1.8505023825e+00 3.2051641460e+00 
86500 6.2661861755e+00 8.8317360683e-05 1.8504999738e+00 -3.2051599740e+00 1.8504999738e+00 3.2051599740e+00 
86600 6.2661861751e+00 8.7344094042e-05 1.8504975875e+00 -3.2051558408e+00 1.8504975875e+00 3.2051558408e+00 
86700 6.2661861747e+00 8.6229426017e-05 1.8504952275e+00 -3.2051517532e+00 1.8504952275e+00 3.2051517532e+00 
86800 6.2661861743e+00 8.4977612551e-05 1.8504928976e+00 -3.2051477177e+00 1.8504928976e+00 3.2051477177e+00 
86900 6.2661861740e+00 8.3593118138e-05 1.8504906015e+00 -3.2051437407e+00 1.8504906015e+00 3.2051437407e+00 
87000 6.2661861737e+00 8.2080602818e-05 1.8504883428e+00 -3.2051398286e+00 1.8504883428e+00 3.2051398286e+00 
87100 6.2661861735e+00 8.0444909087e-05 1.8504861250e+00 -3.2051359872e+00 1.8504861250e+00 3.2051359872e+00 
87200 6.2661861733e+00 7.8691048690e-05 1.8504839514e+00 -3.2051322224e+00 1.8504839514e+00 3.2051322224e+00 
87300 6.2661861732e+00 7.6824189320e-05 1.8504818252e+00 -3.2051285397e+00 1.8504818252e+00 3.2051285397e+00 
87400 6.2661861731e+00 7.4849641313e-05 1.8504797494e+00 -3.2051249443e+00 1.8504797494e+00 3.2051249443e+00 
87500 6.2661861731e+00 7.2772844270e-05 1.8504777269e+00 -3.2051214413e+00 1.8504777269e+00 3.2051214413e+00 
87600 6.2661861731e+00 7.0599353733e-05 1.8504757606e+00 -3.2051180356e+00 1.8504757606e+00 3.2051180356e+00 
87700 6.2661861733e+00 7.0259816944e-05 1.8504757606e+00 -3.2051180356e+00 1.8504757606e+00 3.2051180356e+00 
87800 6.2661861736e+00 6.9785607052e-05 1.8504757606e+00 -3.2051180356e+00 1.8504757606e+00 3.2051180356e+00 
87900 6.2661861739e+00 6.9181825690e-05 1.8504757606e+00 -3.2051180356e+00 1.8504757606e+00 3.2051180356e+00 
88000 6.2661861742e+00 6.8453626665e-05 1.8504757606e+00 -3.2051180356e+00 1.8504757606e+00 3.2051180356e+00 
88100 6.2661861745e+00 6.7606206352e-05 1.8504757606e+00 -3.2051180356e+00 1.8504757606e+00 3.2051180356e+00 
88200 6.2661861749e+00 6.6644794270e-05 1.8504757606e+00 -3.2051180356e+00 1.8504757606e+00 3.2051180356e+00 
88300 6.2661861752e+00 6.5574643854e-05 1.8504757606e+00 -3.2051180356e+00 1.8504757606e+00 3.2051180356e+00 
88400 6.2661861756e+00 6.4401023462e-05 1.8504757606e+00 -3.2051180356e+00 1.8504757606e+00 3.2051180356e+00 
88500 6.2661861760e+00 6.3129207596e-05 1.8504757606e+00 -3.2051180356e+00 1.8504757606e+00 3.2051180356e+00 
88600 6.2661861765e+00 6.1764468354e-05 1.8504757606e+00 -3.2051180356e+00 1.8504757606e+00 3.2051180356e+00 
88700 6.2661861769e+00 6.0312067126e-05 1.8504757606e+00 -3.2051180356e+00 1.8504757606e+00 3.2051180356e+00 
88800 6.2661861773e+00 5.8777246540e-05 1.8504757606e+00 -3.2051180356e+00 1.8504757606e+00 3.2051180356e+00 
88900 6.2661861778e+00 5.7165222658e-05 1.8504757606e+00 -3.2051180356e+00 1.8504757606e+00 3.2051180356e+00 
89000 6.2661861782e+00 5.5481177426e-05 1.8504757606e+00 -3.2051180356e+00 1.8504757606e+00 3.2051180356e+00 
89100 6.2661861787e+00 5.3730251403e-05 1.8504757606e+00 -3.2051180356e+00 1.8504757606e+00 3.2051180356e+00 
89200 6.2661861791e+00 5.1917536747e-05 1.8504757606e+00 -3.2051180356e+00 1.8504757606e+00 3.2051180356e+00 
89300 6.2661861796e+00 5.0048070480e-05 1.8504757606e+00 -3.2051180356e+00 1.8504757606e+00 3.2051180356e+00 
89400 6.2661861800e+00 4.8126828027e-05 1.8504757606e+00 -3.2051180356e+00 1.8504757606e+00 3.2051180356e+00 
89500 6.2661861804e+00 4.6158717037e-05 1.8504757606e+00 -3.2051180356e+00 1.8504757606e+00 3.2051180356e+00 
89600 6.2661861808e+00 4.4148571483e-05 1.8504757606e+00 -3.2051180356e+00 1.8504757606e+00 3.2051180356e+00 
89700 6.2661861812e+00 4.2101146064e-05 1.8504757606e+00 -3.2051180356e+00 1.8504757606e+00 3.2051180356e+00 
89800 6.2661861816e+00 4.0021110856e-05 1.8504757606e+00 -3.2051180356e+00 1.8504757606e+00 3.2051180356e+00 
89900 6.2661861820e+00 3.7913046283e-05 1.8504757606e+00 -3.2051180356e+00 1.8504757606e+00 3.2051180356e+00 
90000 6.2661861824e+00 3.5781438368e-05 1.8504757606e+00 -3.2051180356e+00 1.8504757606e+00 3.2051180356e+00 
90100 6.2661861827e+00 3.3630674253e-05 1.8504757606e+00 -3.2051180356e+00 1.8504757606e+00 3.2051180356e+00 
90200 6.2661861831e+00 3.1465038028e-05 1.8504757606e+00 -3.2051180356e+00 1.8504757606e+00 3.2051180356e+00 
90300 6.2661861834e+00 2.9288706832e-05 1.8504757606e+00 -3.2051180356e+00 1.8504757606e+00 3.2051180356e+00 
90400 6.2661861837e+00 2.7105747238e-05 1.8504757606e+00 -3.2051180356e+00 1.8504757606e+00 3.2051180356e+00 
90500 6.2661861840e+00 2.4920111922e-05 1.8504757606e+00 -3.2051180356e+00 1.8504757606e+00 3.2051180356e+00 
90600 6.2661861842e+00 2.2735636621e-05 1.8504757606e+00 -3.2051180356e+00 1.8504757606e+00 3.2051180356e+00 
90700 6.2661861845e+00 2.0556037339e-05 1.8504757606e+00 -3.2051180356e+00 1.8504757606e+00 3.2051180356e+00 
90800 6.2661861847e+00 1.8384907863e-05 1.8504757606e+00 -3.2051180356e+00 1.8504757606e+00 3.2051180356e+00 
90900 6.2661861849e+00 1.6225717522e-05 1.8504757606e+00 -3.2051180356e+00 1.8504757606e+00 3.2051180356e+00 
91000 6.2661861851e+00 1.4081809224e-05 1.8504757606e+00 -3.2051180356e+00 1.8504757606e+00 3.2051180356e+00 
91100 6.2661861853e+00 1.1956397752e-05 1.8504757606e+00 -3.2051180356e+00 1.8504757606e+00 3.2051180356e+00 
91200 6.2661861854e+00 9.8525683096e-06 1.8504757606e+00 -3.2051180356e+00 1.8504757606e+00 3.2051180356e+00 
91300 6.2661861856e+00 7.7732753393e-06 1.8504757606e+00 -3.2051180356e+00 1.8504757606e+00 3.2051180356e+00 
91400 6.2661861857e+00 5.7213415638e-06 1.8504757606e+00 -3.2051180356e+00 1.8504757606e+00 3.2051180356e+00 
91500 6.2661861858e+00 3.6994572926e-06 1.8504757606e+00 -3.2051180356e+00 1.8504757606e+00 3.2051180356e+00 
91600 6.2661861859e+00 1.7101799405e-06 1.8504757606e+00 -3.2051180356e+00 1.8504757606e+00 3.2051180356e+00 
91700 6.2661861860e+00 -2.4406619682e-07 1.8504757606e+00 -3.2051180356e+00 1.8504757606e+00 3.2051180356e+00 
91800 6.2661861861e+00 -2.1609899737e-06 1.8504757606e+00 -3.2051180356e+00 1.8504757606e+00 3.2051180356e+00 
91900 6.2661861861e+00 -4.0384331654e-06 1.8504757606e+00 -3.2051180356e+00 1.8504757606e+00 3.2051180356e+00 
92000 6.2661861862e+00 -5.8743700781e-06 1.8504757606e+00 -3.2051180356e+00 1.8504757606e+00 3.2051180356e+00 
92100 6.2661861862e+00 -7.6669069119e-06 1.8504757606e+00 -3.2051180356e+00 1.8504757606e+00 3.2051180356e+00 
92200 6.2661861863e+00 -9.4142809412e-06 1.8504757606e+00 -3.2051180356e+00 1.8504757606e+00 3.2051180356e+00 
92300 6.2661861863e+00 -1.1114859512e-05 1.8504757606e+00 -3.2051180356e+00 1.8504757606e+00 3.2051180356e+00 
92400 6.2661861863e+00 -1.2767138837e-05 1.8504757606e+00 -3.2051180356e+00 1.8504757606e+00 3.2051180356e+00 
92500 6.2661861863e+00 -1.4369742638e-05 1.8504757606e+00 -3.2051180356e+00 1.8504757606e+00 3.2051180356e+00 
92600 6.2661861863e+00 -1.5921420583e-05 1.8504757606e+00 -3.2051180356e+00 1.8504757606e+00 3.2051180356e+00 
92700 6.2661861863e+00 -1.7421046604e-05 1.8504757606e+00 -3.2051180356e+00 1.8504757606e+00 3.2051180356e+00 
92800 6.2661861863e+00 -1.8867617020e-05 1.8504757606e+00 -3.2051180356e+00 1.8504757606e+00 3.2051180356e+00 
92900 6.2661861863e+00 -2.0260248544e-05 1.8504757606e+00 -3.2051180356e+00 1.8504757606e+00 3.2051180356e+00 
93000 6.2661861863e+00 -2.1598176126e-05 1.8504757606e+00 -3.2051180356e+00 1.8504757606e+00 3.2051180356e+00 
93100 6.2661861863e+00 -2.2880750679e-05 1.8504757606e+00 -3.2051180356e+00 1.8504757606e+00 3.2051180356e+00 
93200 6.2661861863e+00 -2.4107436678e-05 1.8504757606e+00 -3.2051180356e+00 1.8504757606e+00 3.2051180356e+00 
93300 6.2661861863e+00 -2.5277809627e-05 1.8504757606e+00 -3.2051180356e+00 1.8504757606e+00 3.2051180356e+00 
93400 6.2661861863e+00 -2.6391553446e-05 1.8504757606e+00 -3.2051180356e+00 1.8504757606e+00 3.2051180356e+00 
93500 6.2661861862e+00 -2.7448457717e-05 1.8504757606e+00 -3.2051180356e+00 1.8504757606e+00 3.2051180356e+00 
93600 6.2661861862e+00 -2.8448414875e-05 1.8504757606e+00 -3.2051180356e+00 1.8504757606e+00 3.2051180356e+00 
93700 6.2661861862e+00 -2.9391417274e-05 1.8504757606e+00 -3.2051180356e+00 1.8504757606e+00 3.2051180356e+00 
93800 6.2661861862e+00 -3.0277554210e-05 1.8504757606e+00 -3.2051180356e+00 1.8504757606e+00 3.2051180356e+00 
93900 6.2661861862e+00 -3.1107008832e-05 1.8504757606e+00 -3.2051180356e+00 1.8504757606e+00 3.2051180356e+00 
94000 6.2661861862e+00 -3.1880055027e-05 1.8504757606e+00 -3.2051180356e+00 1.8504757606e+00 3.2051180356e+00 
94100 6.2661861862e+00 -3.2597054210e-05 1.8504757606e+00 -3.2051180356e+00 1.8504757606e+00 3.2051180356e+00 
94200 6.2661861862e+00 -3.3258452087e-05 1.8504757606e+00 -3.2051180356e+00 1.8504757606e+00 3.2051180356e+00 
94300 6.2661861862e+00 -3.3864775373e-05 1.8504757606e+00 -3.2051180356e+00 1.8504757606e+00 3.2051180356e+00 
94400 6.2661861863e+00 -3.4416628452e-05 1.8504757606e+00 -3.2051180356e+00 1.8504757606e+00 3.2051180356e+00 
94500 6.2661861863e+00 -3.4914690024e-05 1.8504757606e+00 -3.2051180356e+00 1.8504757606e+00 3.2051180356e+00 
94600 6.2661861863e+00 -3.5359709720e-05 1.8504757606e+00 -3.2051180356e+00 1.8504757606e+00 3.2051180356e+00 
94700 6.2661861863e+00 -3.5752504704e-05 1.8504757606e+00 -3.2051180356e+00 1.8504757606e+00 3.2051180356e+00 
94800 6.2661861863e+00 -3.6093956255e-05 1.8504757606e+00 -3.2051180356e+00 1.8504757606e+00 3.2051180356e+00 
94900 6.2661861864e+00 -3.6385006344e-05 1.8504757606e+00 -3.2051180356e+00 1.8504757606e+00 3.2051180356e+00 
95000 6.2661861864e+00 -3.6626654221e-05 1.8504757606e+00 -3.2051180356e+00 1.8504757606e+00 3.2051180356e+00 
95100 6.2661861865e+00 -3.6819952993e-05 1.8504757606e+00 -3.2051180356e+00 1.8504757606e+00 3.2051180356e+00 
95200 6.2661861865e+00 -3.6966006226e-05 1.8504757606e+00 -3.2051180356e+00 1.8504757606e+00 3.2051180356e+00 
95300 6.2661861865e+00 -3.7065964555e-05 1.8504757606e+00 -3.2051180356e+00 1.8504757606e+00 3.2051180356e+00 
95400 6.2661861866e+00 -3.7121022303e-05 1.8504757606e+00 -3.2051180356e+00 1.8504757606e+00 3.2051180356e+00 
95500 6.2661861867e+00 -3.7132414168e-05 1.8504757606e+00 -3.2051180356e+00 1.8504757606e+00 3.2051180356e+00 
95600 6.2661861867e+00 -3.7101411890e-05 1.8504757606e+00 -3.2051180356e+00 1.8504757606e+00 3.2051180356e+00 
95700 6.2661861868e+00 -3.7029320993e-05 1.8504757606e+00 -3.2051180356e+00 1.8504757606e+00 3.2051180356e+00 
95800 6.2661861868e+00 -3.6917477550e-05 1.8504757606e+00 -3.2051180356e+00 1.8504757606e+00 3.2051180356e+00 
95900 6.2661861869e+00 -3.6767244987e-05 1.8504757606e+00 -3.2051180356e+00 1.8504757606e+00 3.2051180356e+00 
96000 6.2661861870e+00 -3.6580010955e-05 1.8504757606e+00 -3.2051180356e+00 1.8504757606e+00 3.2051180356e+00 
96100 6.2661861870e+00 -3.6357184234e-05 1.8504757606e+00 -3.2051180356e+00 1.8504757606e+00 3.2051180356e+00 
96200 6.2661861871e+00 -3.6100191711e-05 1.8504757606e+00 -3.2051180356e+00 1.8504757606e+00 3.2051180356e+00 
96300 6.2661861872e+00 -3.5810475406e-05 1.8504757606e+00 -3.2051180356e+00 1.8504757606e+00 3.2051180356e+00 
96400 6.2661861873e+00 -3.5489489557e-05 1.8504757606e+00 -3.2051180356e+00 1.8504757606e+00 3.2051180356e+00 
96500 6.2661861873e+00 -3.5138697788e-05 1.8504757606e+00 -3.2051180356e+00 1.8504757606e+00 3.2051180356e+00 
96600 6.2661861874e+00 -3.4759570336e-05 1.8504757606e+00 -3.2051180356e+00 1.8504757606e+00 3.2051180356e+00 
96700 6.2661861875e+00 -3.4353581344e-05 1.8504757606e+00 -3.2051180356e+00 1.8504757606e+00 3.2051180356e+00 
96800 6.2661861876e+00 -3.3922206231e-05 1.8504757606e+00 -3.2051180356e+00 1.8504757606e+00 3.2051180356e+00 
96900 6.2661861876e+00 -3.3466919152e-05 1.8504757606e+00 -3.2051180356e+00 1.8504757606e+00 3.2051180356e+00 
97000 6.2661861877e+00 -3.2989190506e-05 1.8504757606e+00 -3.2051180356e+00 1.8504757606e+00 3.2051180356e+00 
97100 6.2661861878e+00 -3.2490484563e-05 1.8504757606e+00 -3.2051180356e+00 1.8504757606e+00 3.2051180356e+00 
97200 6.2661861879e+00 -3.1972257135e-05 1.8504757606e+00 -3.2051180356e+00 1.8504757606e+00 3.2051180356e+00 
97300 6.2661861879e+00 -3.1435953358e-05 1.8504757606e+00 -3.2051180356e+00 1.8504757606e+00 3.2051180356e+00 
97400 6.2661861880e+00 -3.0883005549e-05 1.8504757606e+00 -3.2051180356e+00 1.8504757606e+00 3.2051180356e+00 
97500 6.2661861881e+00 -3.0314831143e-05 1.8504757606e+00 -3.2051180356e+00 1.8504757606e+00 3.2051180356e+00 
97600 6.2661861882e+00 -2.9732830718e-05 1.8504757606e+00 -3.2051180356e+00 1.8504757606e+00 3.2051180356e+00 
97700 6.2661861882e+00 -2.9138386123e-05 1.8504757606e+00 -3.2051180356e+00 1.8504757606e+00 3.2051180356e+00 
97800 6.2661861883e+00 -2.8532858670e-05 1.8504757606e+00 -3.2051180356e+00 1.8504757606e+00 3.2051180356e+00 
97900 6.2661861884e+00 -2.7917587434e-05 1.8504757606e+00 -3.2051180356e+00 1.8504757606e+00 3.2051180356e+00 
98000 6.2661861884e+00 -2.7293887634e-05 1.8504757606e+00 -3.2051180356e+00 1.8504757606e+00 3.2051180356e+00 
98100 6.2661861885e+00 -2.6663049105e-05 1.8504757606e+00 -3.2051180356e+00 1.8504757606e+00 3.2051180356e+00 
98200 6.2661861885e+00 -2.6026334842e-05 1.8504757606e+00 -3.2051180356e+00 1.8504757606e+00 3.2051180356e+00 
98300 6.2661861886e+00 -2.5384979675e-05 1.8504757606e+00 -3.2051180356e+00 1.8504757606e+00 3.2051180356e+00 
98400 6.2661861887e+00 -2.4740188983e-05 1.8504757606e+00 -3.2051180356e+00 1.8504757606e+00 3.2051180356e+00 
98500 6.2661861887e+00 -2.4093137525e-05 1.8504757606e+00 -3.2051180356e+00 1.8504757606e+00 3.2051180356e+00 
98600 6.2661861888e+00 -2.3444968361e-05 1.8504757606e+00 -3.2051180356e+00 1.8504757606e+00 3.2051180356e+00 
98700 6.2661861888e+00 -2.2796791834e-05 1.8504757606e+00 -3.2051180356e+00 1.8504757606e+00 3.2051180356e+00 
98800 6.2661861889e+00 -2.2149684667e-05 1.8504757606e+00 -3.2051180356e+00 1.8504757606e+00 3.2051180356e+00 
98900 6.2661861889e+00 -2.1917189660e-05 1.8504757606e+00 -3.2051180356e+00 1.8504757606e+00 3.2051180356e+00 
98900 6.2661861889e+00 -2.1917189661e-05 1.8504757606e+00 -3.2051180356e+00 1.8504757606e+00 3.2051180356e+00 
